# vtk DataFile Version 3.0
vtk output
ASCII
DATASET UNSTRUCTURED_GRID
POINTS      5151 double 
  0.00000000E+00  1.00000000E+02  0.00000000E+00
  0.00000000E+00  9.80000000E+01  0.00000000E+00
  0.00000000E+00  9.60000000E+01  0.00000000E+00
  0.00000000E+00  9.40000000E+01  0.00000000E+00
  0.00000000E+00  9.20000000E+01  0.00000000E+00
  0.00000000E+00  9.00000000E+01  0.00000000E+00
  0.00000000E+00  8.80000000E+01  0.00000000E+00
  0.00000000E+00  8.60000000E+01  0.00000000E+00
  0.00000000E+00  8.40000000E+01  0.00000000E+00
  0.00000000E+00  8.20000000E+01  0.00000000E+00
  0.00000000E+00  8.00000000E+01  0.00000000E+00
  0.00000000E+00  7.80000000E+01  0.00000000E+00
  0.00000000E+00  7.60000000E+01  0.00000000E+00
  0.00000000E+00  7.40000000E+01  0.00000000E+00
  0.00000000E+00  7.20000000E+01  0.00000000E+00
  0.00000000E+00  7.00000000E+01  0.00000000E+00
  0.00000000E+00  6.80000000E+01  0.00000000E+00
  0.00000000E+00  6.60000000E+01  0.00000000E+00
  0.00000000E+00  6.40000000E+01  0.00000000E+00
  0.00000000E+00  6.20000000E+01  0.00000000E+00
  0.00000000E+00  6.00000000E+01  0.00000000E+00
  0.00000000E+00  5.80000000E+01  0.00000000E+00
  0.00000000E+00  5.60000000E+01  0.00000000E+00
  0.00000000E+00  5.40000000E+01  0.00000000E+00
  0.00000000E+00  5.20000000E+01  0.00000000E+00
  0.00000000E+00  5.00000000E+01  0.00000000E+00
  0.00000000E+00  4.80000000E+01  0.00000000E+00
  0.00000000E+00  4.60000000E+01  0.00000000E+00
  0.00000000E+00  4.40000000E+01  0.00000000E+00
  0.00000000E+00  4.20000000E+01  0.00000000E+00
  0.00000000E+00  4.00000000E+01  0.00000000E+00
  0.00000000E+00  3.80000000E+01  0.00000000E+00
  0.00000000E+00  3.60000000E+01  0.00000000E+00
  0.00000000E+00  3.40000000E+01  0.00000000E+00
  0.00000000E+00  3.20000000E+01  0.00000000E+00
  0.00000000E+00  3.00000000E+01  0.00000000E+00
  0.00000000E+00  2.80000000E+01  0.00000000E+00
  0.00000000E+00  2.60000000E+01  0.00000000E+00
  0.00000000E+00  2.40000000E+01  0.00000000E+00
  0.00000000E+00  2.20000000E+01  0.00000000E+00
  0.00000000E+00  2.00000000E+01  0.00000000E+00
  0.00000000E+00  1.80000000E+01  0.00000000E+00
  0.00000000E+00  1.60000000E+01  0.00000000E+00
  0.00000000E+00  1.40000000E+01  0.00000000E+00
  0.00000000E+00  1.20000000E+01  0.00000000E+00
  0.00000000E+00  1.00000000E+01  0.00000000E+00
  0.00000000E+00  8.00000000E+00  0.00000000E+00
  0.00000000E+00  6.00000000E+00  0.00000000E+00
  0.00000000E+00  4.00000000E+00  0.00000000E+00
  0.00000000E+00  2.00000000E+00  0.00000000E+00
  0.00000000E+00 -3.33066907E-14  0.00000000E+00
  1.00000000E+01  1.00000000E+02  0.00000000E+00
  1.00000000E+01  9.80000000E+01  0.00000000E+00
  1.00000000E+01  9.60000000E+01  0.00000000E+00
  1.00000000E+01  9.40000000E+01  0.00000000E+00
  1.00000000E+01  9.20000000E+01  0.00000000E+00
  1.00000000E+01  9.00000000E+01  0.00000000E+00
  1.00000000E+01  8.80000000E+01  0.00000000E+00
  1.00000000E+01  8.60000000E+01  0.00000000E+00
  1.00000000E+01  8.40000000E+01  0.00000000E+00
  1.00000000E+01  8.20000000E+01  0.00000000E+00
  1.00000000E+01  8.00000000E+01  0.00000000E+00
  1.00000000E+01  7.80000000E+01  0.00000000E+00
  1.00000000E+01  7.60000000E+01  0.00000000E+00
  1.00000000E+01  7.40000000E+01  0.00000000E+00
  1.00000000E+01  7.20000000E+01  0.00000000E+00
  1.00000000E+01  7.00000000E+01  0.00000000E+00
  1.00000000E+01  6.80000000E+01  0.00000000E+00
  1.00000000E+01  6.60000000E+01  0.00000000E+00
  1.00000000E+01  6.40000000E+01  0.00000000E+00
  1.00000000E+01  6.20000000E+01  0.00000000E+00
  1.00000000E+01  6.00000000E+01  0.00000000E+00
  1.00000000E+01  5.80000000E+01  0.00000000E+00
  1.00000000E+01  5.60000000E+01  0.00000000E+00
  1.00000000E+01  5.40000000E+01  0.00000000E+00
  1.00000000E+01  5.20000000E+01  0.00000000E+00
  1.00000000E+01  5.00000000E+01  0.00000000E+00
  1.00000000E+01  4.80000000E+01  0.00000000E+00
  1.00000000E+01  4.60000000E+01  0.00000000E+00
  1.00000000E+01  4.40000000E+01  0.00000000E+00
  1.00000000E+01  4.20000000E+01  0.00000000E+00
  1.00000000E+01  4.00000000E+01  0.00000000E+00
  1.00000000E+01  3.80000000E+01  0.00000000E+00
  1.00000000E+01  3.60000000E+01  0.00000000E+00
  1.00000000E+01  3.40000000E+01  0.00000000E+00
  1.00000000E+01  3.20000000E+01  0.00000000E+00
  1.00000000E+01  3.00000000E+01  0.00000000E+00
  1.00000000E+01  2.80000000E+01  0.00000000E+00
  1.00000000E+01  2.60000000E+01  0.00000000E+00
  1.00000000E+01  2.40000000E+01  0.00000000E+00
  1.00000000E+01  2.20000000E+01  0.00000000E+00
  1.00000000E+01  2.00000000E+01  0.00000000E+00
  1.00000000E+01  1.80000000E+01  0.00000000E+00
  1.00000000E+01  1.60000000E+01  0.00000000E+00
  1.00000000E+01  1.40000000E+01  0.00000000E+00
  1.00000000E+01  1.20000000E+01  0.00000000E+00
  1.00000000E+01  1.00000000E+01  0.00000000E+00
  1.00000000E+01  8.00000000E+00  0.00000000E+00
  1.00000000E+01  6.00000000E+00  0.00000000E+00
  1.00000000E+01  4.00000000E+00  0.00000000E+00
  1.00000000E+01  2.00000000E+00  0.00000000E+00
  1.00000000E+01 -3.33066907E-14  0.00000000E+00
  2.00000000E+01  1.00000000E+02  0.00000000E+00
  2.00000000E+01  9.80000000E+01  0.00000000E+00
  2.00000000E+01  9.60000000E+01  0.00000000E+00
  2.00000000E+01  9.40000000E+01  0.00000000E+00
  2.00000000E+01  9.20000000E+01  0.00000000E+00
  2.00000000E+01  9.00000000E+01  0.00000000E+00
  2.00000000E+01  8.80000000E+01  0.00000000E+00
  2.00000000E+01  8.60000000E+01  0.00000000E+00
  2.00000000E+01  8.40000000E+01  0.00000000E+00
  2.00000000E+01  8.20000000E+01  0.00000000E+00
  2.00000000E+01  8.00000000E+01  0.00000000E+00
  2.00000000E+01  7.80000000E+01  0.00000000E+00
  2.00000000E+01  7.60000000E+01  0.00000000E+00
  2.00000000E+01  7.40000000E+01  0.00000000E+00
  2.00000000E+01  7.20000000E+01  0.00000000E+00
  2.00000000E+01  7.00000000E+01  0.00000000E+00
  2.00000000E+01  6.80000000E+01  0.00000000E+00
  2.00000000E+01  6.60000000E+01  0.00000000E+00
  2.00000000E+01  6.40000000E+01  0.00000000E+00
  2.00000000E+01  6.20000000E+01  0.00000000E+00
  2.00000000E+01  6.00000000E+01  0.00000000E+00
  2.00000000E+01  5.80000000E+01  0.00000000E+00
  2.00000000E+01  5.60000000E+01  0.00000000E+00
  2.00000000E+01  5.40000000E+01  0.00000000E+00
  2.00000000E+01  5.20000000E+01  0.00000000E+00
  2.00000000E+01  5.00000000E+01  0.00000000E+00
  2.00000000E+01  4.80000000E+01  0.00000000E+00
  2.00000000E+01  4.60000000E+01  0.00000000E+00
  2.00000000E+01  4.40000000E+01  0.00000000E+00
  2.00000000E+01  4.20000000E+01  0.00000000E+00
  2.00000000E+01  4.00000000E+01  0.00000000E+00
  2.00000000E+01  3.80000000E+01  0.00000000E+00
  2.00000000E+01  3.60000000E+01  0.00000000E+00
  2.00000000E+01  3.40000000E+01  0.00000000E+00
  2.00000000E+01  3.20000000E+01  0.00000000E+00
  2.00000000E+01  3.00000000E+01  0.00000000E+00
  2.00000000E+01  2.80000000E+01  0.00000000E+00
  2.00000000E+01  2.60000000E+01  0.00000000E+00
  2.00000000E+01  2.40000000E+01  0.00000000E+00
  2.00000000E+01  2.20000000E+01  0.00000000E+00
  2.00000000E+01  2.00000000E+01  0.00000000E+00
  2.00000000E+01  1.80000000E+01  0.00000000E+00
  2.00000000E+01  1.60000000E+01  0.00000000E+00
  2.00000000E+01  1.40000000E+01  0.00000000E+00
  2.00000000E+01  1.20000000E+01  0.00000000E+00
  2.00000000E+01  1.00000000E+01  0.00000000E+00
  2.00000000E+01  8.00000000E+00  0.00000000E+00
  2.00000000E+01  6.00000000E+00  0.00000000E+00
  2.00000000E+01  4.00000000E+00  0.00000000E+00
  2.00000000E+01  2.00000000E+00  0.00000000E+00
  2.00000000E+01 -3.33066907E-14  0.00000000E+00
  3.00000000E+01  1.00000000E+02  0.00000000E+00
  3.00000000E+01  9.80000000E+01  0.00000000E+00
  3.00000000E+01  9.60000000E+01  0.00000000E+00
  3.00000000E+01  9.40000000E+01  0.00000000E+00
  3.00000000E+01  9.20000000E+01  0.00000000E+00
  3.00000000E+01  9.00000000E+01  0.00000000E+00
  3.00000000E+01  8.80000000E+01  0.00000000E+00
  3.00000000E+01  8.60000000E+01  0.00000000E+00
  3.00000000E+01  8.40000000E+01  0.00000000E+00
  3.00000000E+01  8.20000000E+01  0.00000000E+00
  3.00000000E+01  8.00000000E+01  0.00000000E+00
  3.00000000E+01  7.80000000E+01  0.00000000E+00
  3.00000000E+01  7.60000000E+01  0.00000000E+00
  3.00000000E+01  7.40000000E+01  0.00000000E+00
  3.00000000E+01  7.20000000E+01  0.00000000E+00
  3.00000000E+01  7.00000000E+01  0.00000000E+00
  3.00000000E+01  6.80000000E+01  0.00000000E+00
  3.00000000E+01  6.60000000E+01  0.00000000E+00
  3.00000000E+01  6.40000000E+01  0.00000000E+00
  3.00000000E+01  6.20000000E+01  0.00000000E+00
  3.00000000E+01  6.00000000E+01  0.00000000E+00
  3.00000000E+01  5.80000000E+01  0.00000000E+00
  3.00000000E+01  5.60000000E+01  0.00000000E+00
  3.00000000E+01  5.40000000E+01  0.00000000E+00
  3.00000000E+01  5.20000000E+01  0.00000000E+00
  3.00000000E+01  5.00000000E+01  0.00000000E+00
  3.00000000E+01  4.80000000E+01  0.00000000E+00
  3.00000000E+01  4.60000000E+01  0.00000000E+00
  3.00000000E+01  4.40000000E+01  0.00000000E+00
  3.00000000E+01  4.20000000E+01  0.00000000E+00
  3.00000000E+01  4.00000000E+01  0.00000000E+00
  3.00000000E+01  3.80000000E+01  0.00000000E+00
  3.00000000E+01  3.60000000E+01  0.00000000E+00
  3.00000000E+01  3.40000000E+01  0.00000000E+00
  3.00000000E+01  3.20000000E+01  0.00000000E+00
  3.00000000E+01  3.00000000E+01  0.00000000E+00
  3.00000000E+01  2.80000000E+01  0.00000000E+00
  3.00000000E+01  2.60000000E+01  0.00000000E+00
  3.00000000E+01  2.40000000E+01  0.00000000E+00
  3.00000000E+01  2.20000000E+01  0.00000000E+00
  3.00000000E+01  2.00000000E+01  0.00000000E+00
  3.00000000E+01  1.80000000E+01  0.00000000E+00
  3.00000000E+01  1.60000000E+01  0.00000000E+00
  3.00000000E+01  1.40000000E+01  0.00000000E+00
  3.00000000E+01  1.20000000E+01  0.00000000E+00
  3.00000000E+01  1.00000000E+01  0.00000000E+00
  3.00000000E+01  8.00000000E+00  0.00000000E+00
  3.00000000E+01  6.00000000E+00  0.00000000E+00
  3.00000000E+01  4.00000000E+00  0.00000000E+00
  3.00000000E+01  2.00000000E+00  0.00000000E+00
  3.00000000E+01 -3.33066907E-14  0.00000000E+00
  4.00000000E+01  1.00000000E+02  0.00000000E+00
  4.00000000E+01  9.80000000E+01  0.00000000E+00
  4.00000000E+01  9.60000000E+01  0.00000000E+00
  4.00000000E+01  9.40000000E+01  0.00000000E+00
  4.00000000E+01  9.20000000E+01  0.00000000E+00
  4.00000000E+01  9.00000000E+01  0.00000000E+00
  4.00000000E+01  8.80000000E+01  0.00000000E+00
  4.00000000E+01  8.60000000E+01  0.00000000E+00
  4.00000000E+01  8.40000000E+01  0.00000000E+00
  4.00000000E+01  8.20000000E+01  0.00000000E+00
  4.00000000E+01  8.00000000E+01  0.00000000E+00
  4.00000000E+01  7.80000000E+01  0.00000000E+00
  4.00000000E+01  7.60000000E+01  0.00000000E+00
  4.00000000E+01  7.40000000E+01  0.00000000E+00
  4.00000000E+01  7.20000000E+01  0.00000000E+00
  4.00000000E+01  7.00000000E+01  0.00000000E+00
  4.00000000E+01  6.80000000E+01  0.00000000E+00
  4.00000000E+01  6.60000000E+01  0.00000000E+00
  4.00000000E+01  6.40000000E+01  0.00000000E+00
  4.00000000E+01  6.20000000E+01  0.00000000E+00
  4.00000000E+01  6.00000000E+01  0.00000000E+00
  4.00000000E+01  5.80000000E+01  0.00000000E+00
  4.00000000E+01  5.60000000E+01  0.00000000E+00
  4.00000000E+01  5.40000000E+01  0.00000000E+00
  4.00000000E+01  5.20000000E+01  0.00000000E+00
  4.00000000E+01  5.00000000E+01  0.00000000E+00
  4.00000000E+01  4.80000000E+01  0.00000000E+00
  4.00000000E+01  4.60000000E+01  0.00000000E+00
  4.00000000E+01  4.40000000E+01  0.00000000E+00
  4.00000000E+01  4.20000000E+01  0.00000000E+00
  4.00000000E+01  4.00000000E+01  0.00000000E+00
  4.00000000E+01  3.80000000E+01  0.00000000E+00
  4.00000000E+01  3.60000000E+01  0.00000000E+00
  4.00000000E+01  3.40000000E+01  0.00000000E+00
  4.00000000E+01  3.20000000E+01  0.00000000E+00
  4.00000000E+01  3.00000000E+01  0.00000000E+00
  4.00000000E+01  2.80000000E+01  0.00000000E+00
  4.00000000E+01  2.60000000E+01  0.00000000E+00
  4.00000000E+01  2.40000000E+01  0.00000000E+00
  4.00000000E+01  2.20000000E+01  0.00000000E+00
  4.00000000E+01  2.00000000E+01  0.00000000E+00
  4.00000000E+01  1.80000000E+01  0.00000000E+00
  4.00000000E+01  1.60000000E+01  0.00000000E+00
  4.00000000E+01  1.40000000E+01  0.00000000E+00
  4.00000000E+01  1.20000000E+01  0.00000000E+00
  4.00000000E+01  1.00000000E+01  0.00000000E+00
  4.00000000E+01  8.00000000E+00  0.00000000E+00
  4.00000000E+01  6.00000000E+00  0.00000000E+00
  4.00000000E+01  4.00000000E+00  0.00000000E+00
  4.00000000E+01  2.00000000E+00  0.00000000E+00
  4.00000000E+01 -3.33066907E-14  0.00000000E+00
  5.00000000E+01  1.00000000E+02  0.00000000E+00
  5.00000000E+01  9.80000000E+01  0.00000000E+00
  5.00000000E+01  9.60000000E+01  0.00000000E+00
  5.00000000E+01  9.40000000E+01  0.00000000E+00
  5.00000000E+01  9.20000000E+01  0.00000000E+00
  5.00000000E+01  9.00000000E+01  0.00000000E+00
  5.00000000E+01  8.80000000E+01  0.00000000E+00
  5.00000000E+01  8.60000000E+01  0.00000000E+00
  5.00000000E+01  8.40000000E+01  0.00000000E+00
  5.00000000E+01  8.20000000E+01  0.00000000E+00
  5.00000000E+01  8.00000000E+01  0.00000000E+00
  5.00000000E+01  7.80000000E+01  0.00000000E+00
  5.00000000E+01  7.60000000E+01  0.00000000E+00
  5.00000000E+01  7.40000000E+01  0.00000000E+00
  5.00000000E+01  7.20000000E+01  0.00000000E+00
  5.00000000E+01  7.00000000E+01  0.00000000E+00
  5.00000000E+01  6.80000000E+01  0.00000000E+00
  5.00000000E+01  6.60000000E+01  0.00000000E+00
  5.00000000E+01  6.40000000E+01  0.00000000E+00
  5.00000000E+01  6.20000000E+01  0.00000000E+00
  5.00000000E+01  6.00000000E+01  0.00000000E+00
  5.00000000E+01  5.80000000E+01  0.00000000E+00
  5.00000000E+01  5.60000000E+01  0.00000000E+00
  5.00000000E+01  5.40000000E+01  0.00000000E+00
  5.00000000E+01  5.20000000E+01  0.00000000E+00
  5.00000000E+01  5.00000000E+01  0.00000000E+00
  5.00000000E+01  4.80000000E+01  0.00000000E+00
  5.00000000E+01  4.60000000E+01  0.00000000E+00
  5.00000000E+01  4.40000000E+01  0.00000000E+00
  5.00000000E+01  4.20000000E+01  0.00000000E+00
  5.00000000E+01  4.00000000E+01  0.00000000E+00
  5.00000000E+01  3.80000000E+01  0.00000000E+00
  5.00000000E+01  3.60000000E+01  0.00000000E+00
  5.00000000E+01  3.40000000E+01  0.00000000E+00
  5.00000000E+01  3.20000000E+01  0.00000000E+00
  5.00000000E+01  3.00000000E+01  0.00000000E+00
  5.00000000E+01  2.80000000E+01  0.00000000E+00
  5.00000000E+01  2.60000000E+01  0.00000000E+00
  5.00000000E+01  2.40000000E+01  0.00000000E+00
  5.00000000E+01  2.20000000E+01  0.00000000E+00
  5.00000000E+01  2.00000000E+01  0.00000000E+00
  5.00000000E+01  1.80000000E+01  0.00000000E+00
  5.00000000E+01  1.60000000E+01  0.00000000E+00
  5.00000000E+01  1.40000000E+01  0.00000000E+00
  5.00000000E+01  1.20000000E+01  0.00000000E+00
  5.00000000E+01  1.00000000E+01  0.00000000E+00
  5.00000000E+01  8.00000000E+00  0.00000000E+00
  5.00000000E+01  6.00000000E+00  0.00000000E+00
  5.00000000E+01  4.00000000E+00  0.00000000E+00
  5.00000000E+01  2.00000000E+00  0.00000000E+00
  5.00000000E+01 -3.33066907E-14  0.00000000E+00
  6.00000000E+01  1.00000000E+02  0.00000000E+00
  6.00000000E+01  9.80000000E+01  0.00000000E+00
  6.00000000E+01  9.60000000E+01  0.00000000E+00
  6.00000000E+01  9.40000000E+01  0.00000000E+00
  6.00000000E+01  9.20000000E+01  0.00000000E+00
  6.00000000E+01  9.00000000E+01  0.00000000E+00
  6.00000000E+01  8.80000000E+01  0.00000000E+00
  6.00000000E+01  8.60000000E+01  0.00000000E+00
  6.00000000E+01  8.40000000E+01  0.00000000E+00
  6.00000000E+01  8.20000000E+01  0.00000000E+00
  6.00000000E+01  8.00000000E+01  0.00000000E+00
  6.00000000E+01  7.80000000E+01  0.00000000E+00
  6.00000000E+01  7.60000000E+01  0.00000000E+00
  6.00000000E+01  7.40000000E+01  0.00000000E+00
  6.00000000E+01  7.20000000E+01  0.00000000E+00
  6.00000000E+01  7.00000000E+01  0.00000000E+00
  6.00000000E+01  6.80000000E+01  0.00000000E+00
  6.00000000E+01  6.60000000E+01  0.00000000E+00
  6.00000000E+01  6.40000000E+01  0.00000000E+00
  6.00000000E+01  6.20000000E+01  0.00000000E+00
  6.00000000E+01  6.00000000E+01  0.00000000E+00
  6.00000000E+01  5.80000000E+01  0.00000000E+00
  6.00000000E+01  5.60000000E+01  0.00000000E+00
  6.00000000E+01  5.40000000E+01  0.00000000E+00
  6.00000000E+01  5.20000000E+01  0.00000000E+00
  6.00000000E+01  5.00000000E+01  0.00000000E+00
  6.00000000E+01  4.80000000E+01  0.00000000E+00
  6.00000000E+01  4.60000000E+01  0.00000000E+00
  6.00000000E+01  4.40000000E+01  0.00000000E+00
  6.00000000E+01  4.20000000E+01  0.00000000E+00
  6.00000000E+01  4.00000000E+01  0.00000000E+00
  6.00000000E+01  3.80000000E+01  0.00000000E+00
  6.00000000E+01  3.60000000E+01  0.00000000E+00
  6.00000000E+01  3.40000000E+01  0.00000000E+00
  6.00000000E+01  3.20000000E+01  0.00000000E+00
  6.00000000E+01  3.00000000E+01  0.00000000E+00
  6.00000000E+01  2.80000000E+01  0.00000000E+00
  6.00000000E+01  2.60000000E+01  0.00000000E+00
  6.00000000E+01  2.40000000E+01  0.00000000E+00
  6.00000000E+01  2.20000000E+01  0.00000000E+00
  6.00000000E+01  2.00000000E+01  0.00000000E+00
  6.00000000E+01  1.80000000E+01  0.00000000E+00
  6.00000000E+01  1.60000000E+01  0.00000000E+00
  6.00000000E+01  1.40000000E+01  0.00000000E+00
  6.00000000E+01  1.20000000E+01  0.00000000E+00
  6.00000000E+01  1.00000000E+01  0.00000000E+00
  6.00000000E+01  8.00000000E+00  0.00000000E+00
  6.00000000E+01  6.00000000E+00  0.00000000E+00
  6.00000000E+01  4.00000000E+00  0.00000000E+00
  6.00000000E+01  2.00000000E+00  0.00000000E+00
  6.00000000E+01 -3.33066907E-14  0.00000000E+00
  7.00000000E+01  1.00000000E+02  0.00000000E+00
  7.00000000E+01  9.80000000E+01  0.00000000E+00
  7.00000000E+01  9.60000000E+01  0.00000000E+00
  7.00000000E+01  9.40000000E+01  0.00000000E+00
  7.00000000E+01  9.20000000E+01  0.00000000E+00
  7.00000000E+01  9.00000000E+01  0.00000000E+00
  7.00000000E+01  8.80000000E+01  0.00000000E+00
  7.00000000E+01  8.60000000E+01  0.00000000E+00
  7.00000000E+01  8.40000000E+01  0.00000000E+00
  7.00000000E+01  8.20000000E+01  0.00000000E+00
  7.00000000E+01  8.00000000E+01  0.00000000E+00
  7.00000000E+01  7.80000000E+01  0.00000000E+00
  7.00000000E+01  7.60000000E+01  0.00000000E+00
  7.00000000E+01  7.40000000E+01  0.00000000E+00
  7.00000000E+01  7.20000000E+01  0.00000000E+00
  7.00000000E+01  7.00000000E+01  0.00000000E+00
  7.00000000E+01  6.80000000E+01  0.00000000E+00
  7.00000000E+01  6.60000000E+01  0.00000000E+00
  7.00000000E+01  6.40000000E+01  0.00000000E+00
  7.00000000E+01  6.20000000E+01  0.00000000E+00
  7.00000000E+01  6.00000000E+01  0.00000000E+00
  7.00000000E+01  5.80000000E+01  0.00000000E+00
  7.00000000E+01  5.60000000E+01  0.00000000E+00
  7.00000000E+01  5.40000000E+01  0.00000000E+00
  7.00000000E+01  5.20000000E+01  0.00000000E+00
  7.00000000E+01  5.00000000E+01  0.00000000E+00
  7.00000000E+01  4.80000000E+01  0.00000000E+00
  7.00000000E+01  4.60000000E+01  0.00000000E+00
  7.00000000E+01  4.40000000E+01  0.00000000E+00
  7.00000000E+01  4.20000000E+01  0.00000000E+00
  7.00000000E+01  4.00000000E+01  0.00000000E+00
  7.00000000E+01  3.80000000E+01  0.00000000E+00
  7.00000000E+01  3.60000000E+01  0.00000000E+00
  7.00000000E+01  3.40000000E+01  0.00000000E+00
  7.00000000E+01  3.20000000E+01  0.00000000E+00
  7.00000000E+01  3.00000000E+01  0.00000000E+00
  7.00000000E+01  2.80000000E+01  0.00000000E+00
  7.00000000E+01  2.60000000E+01  0.00000000E+00
  7.00000000E+01  2.40000000E+01  0.00000000E+00
  7.00000000E+01  2.20000000E+01  0.00000000E+00
  7.00000000E+01  2.00000000E+01  0.00000000E+00
  7.00000000E+01  1.80000000E+01  0.00000000E+00
  7.00000000E+01  1.60000000E+01  0.00000000E+00
  7.00000000E+01  1.40000000E+01  0.00000000E+00
  7.00000000E+01  1.20000000E+01  0.00000000E+00
  7.00000000E+01  1.00000000E+01  0.00000000E+00
  7.00000000E+01  8.00000000E+00  0.00000000E+00
  7.00000000E+01  6.00000000E+00  0.00000000E+00
  7.00000000E+01  4.00000000E+00  0.00000000E+00
  7.00000000E+01  2.00000000E+00  0.00000000E+00
  7.00000000E+01 -3.33066907E-14  0.00000000E+00
  8.00000000E+01  1.00000000E+02  0.00000000E+00
  8.00000000E+01  9.80000000E+01  0.00000000E+00
  8.00000000E+01  9.60000000E+01  0.00000000E+00
  8.00000000E+01  9.40000000E+01  0.00000000E+00
  8.00000000E+01  9.20000000E+01  0.00000000E+00
  8.00000000E+01  9.00000000E+01  0.00000000E+00
  8.00000000E+01  8.80000000E+01  0.00000000E+00
  8.00000000E+01  8.60000000E+01  0.00000000E+00
  8.00000000E+01  8.40000000E+01  0.00000000E+00
  8.00000000E+01  8.20000000E+01  0.00000000E+00
  8.00000000E+01  8.00000000E+01  0.00000000E+00
  8.00000000E+01  7.80000000E+01  0.00000000E+00
  8.00000000E+01  7.60000000E+01  0.00000000E+00
  8.00000000E+01  7.40000000E+01  0.00000000E+00
  8.00000000E+01  7.20000000E+01  0.00000000E+00
  8.00000000E+01  7.00000000E+01  0.00000000E+00
  8.00000000E+01  6.80000000E+01  0.00000000E+00
  8.00000000E+01  6.60000000E+01  0.00000000E+00
  8.00000000E+01  6.40000000E+01  0.00000000E+00
  8.00000000E+01  6.20000000E+01  0.00000000E+00
  8.00000000E+01  6.00000000E+01  0.00000000E+00
  8.00000000E+01  5.80000000E+01  0.00000000E+00
  8.00000000E+01  5.60000000E+01  0.00000000E+00
  8.00000000E+01  5.40000000E+01  0.00000000E+00
  8.00000000E+01  5.20000000E+01  0.00000000E+00
  8.00000000E+01  5.00000000E+01  0.00000000E+00
  8.00000000E+01  4.80000000E+01  0.00000000E+00
  8.00000000E+01  4.60000000E+01  0.00000000E+00
  8.00000000E+01  4.40000000E+01  0.00000000E+00
  8.00000000E+01  4.20000000E+01  0.00000000E+00
  8.00000000E+01  4.00000000E+01  0.00000000E+00
  8.00000000E+01  3.80000000E+01  0.00000000E+00
  8.00000000E+01  3.60000000E+01  0.00000000E+00
  8.00000000E+01  3.40000000E+01  0.00000000E+00
  8.00000000E+01  3.20000000E+01  0.00000000E+00
  8.00000000E+01  3.00000000E+01  0.00000000E+00
  8.00000000E+01  2.80000000E+01  0.00000000E+00
  8.00000000E+01  2.60000000E+01  0.00000000E+00
  8.00000000E+01  2.40000000E+01  0.00000000E+00
  8.00000000E+01  2.20000000E+01  0.00000000E+00
  8.00000000E+01  2.00000000E+01  0.00000000E+00
  8.00000000E+01  1.80000000E+01  0.00000000E+00
  8.00000000E+01  1.60000000E+01  0.00000000E+00
  8.00000000E+01  1.40000000E+01  0.00000000E+00
  8.00000000E+01  1.20000000E+01  0.00000000E+00
  8.00000000E+01  1.00000000E+01  0.00000000E+00
  8.00000000E+01  8.00000000E+00  0.00000000E+00
  8.00000000E+01  6.00000000E+00  0.00000000E+00
  8.00000000E+01  4.00000000E+00  0.00000000E+00
  8.00000000E+01  2.00000000E+00  0.00000000E+00
  8.00000000E+01 -3.33066907E-14  0.00000000E+00
  9.00000000E+01  1.00000000E+02  0.00000000E+00
  9.00000000E+01  9.80000000E+01  0.00000000E+00
  9.00000000E+01  9.60000000E+01  0.00000000E+00
  9.00000000E+01  9.40000000E+01  0.00000000E+00
  9.00000000E+01  9.20000000E+01  0.00000000E+00
  9.00000000E+01  9.00000000E+01  0.00000000E+00
  9.00000000E+01  8.80000000E+01  0.00000000E+00
  9.00000000E+01  8.60000000E+01  0.00000000E+00
  9.00000000E+01  8.40000000E+01  0.00000000E+00
  9.00000000E+01  8.20000000E+01  0.00000000E+00
  9.00000000E+01  8.00000000E+01  0.00000000E+00
  9.00000000E+01  7.80000000E+01  0.00000000E+00
  9.00000000E+01  7.60000000E+01  0.00000000E+00
  9.00000000E+01  7.40000000E+01  0.00000000E+00
  9.00000000E+01  7.20000000E+01  0.00000000E+00
  9.00000000E+01  7.00000000E+01  0.00000000E+00
  9.00000000E+01  6.80000000E+01  0.00000000E+00
  9.00000000E+01  6.60000000E+01  0.00000000E+00
  9.00000000E+01  6.40000000E+01  0.00000000E+00
  9.00000000E+01  6.20000000E+01  0.00000000E+00
  9.00000000E+01  6.00000000E+01  0.00000000E+00
  9.00000000E+01  5.80000000E+01  0.00000000E+00
  9.00000000E+01  5.60000000E+01  0.00000000E+00
  9.00000000E+01  5.40000000E+01  0.00000000E+00
  9.00000000E+01  5.20000000E+01  0.00000000E+00
  9.00000000E+01  5.00000000E+01  0.00000000E+00
  9.00000000E+01  4.80000000E+01  0.00000000E+00
  9.00000000E+01  4.60000000E+01  0.00000000E+00
  9.00000000E+01  4.40000000E+01  0.00000000E+00
  9.00000000E+01  4.20000000E+01  0.00000000E+00
  9.00000000E+01  4.00000000E+01  0.00000000E+00
  9.00000000E+01  3.80000000E+01  0.00000000E+00
  9.00000000E+01  3.60000000E+01  0.00000000E+00
  9.00000000E+01  3.40000000E+01  0.00000000E+00
  9.00000000E+01  3.20000000E+01  0.00000000E+00
  9.00000000E+01  3.00000000E+01  0.00000000E+00
  9.00000000E+01  2.80000000E+01  0.00000000E+00
  9.00000000E+01  2.60000000E+01  0.00000000E+00
  9.00000000E+01  2.40000000E+01  0.00000000E+00
  9.00000000E+01  2.20000000E+01  0.00000000E+00
  9.00000000E+01  2.00000000E+01  0.00000000E+00
  9.00000000E+01  1.80000000E+01  0.00000000E+00
  9.00000000E+01  1.60000000E+01  0.00000000E+00
  9.00000000E+01  1.40000000E+01  0.00000000E+00
  9.00000000E+01  1.20000000E+01  0.00000000E+00
  9.00000000E+01  1.00000000E+01  0.00000000E+00
  9.00000000E+01  8.00000000E+00  0.00000000E+00
  9.00000000E+01  6.00000000E+00  0.00000000E+00
  9.00000000E+01  4.00000000E+00  0.00000000E+00
  9.00000000E+01  2.00000000E+00  0.00000000E+00
  9.00000000E+01 -3.33066907E-14  0.00000000E+00
  1.00000000E+02  1.00000000E+02  0.00000000E+00
  1.00000000E+02  9.80000000E+01  0.00000000E+00
  1.00000000E+02  9.60000000E+01  0.00000000E+00
  1.00000000E+02  9.40000000E+01  0.00000000E+00
  1.00000000E+02  9.20000000E+01  0.00000000E+00
  1.00000000E+02  9.00000000E+01  0.00000000E+00
  1.00000000E+02  8.80000000E+01  0.00000000E+00
  1.00000000E+02  8.60000000E+01  0.00000000E+00
  1.00000000E+02  8.40000000E+01  0.00000000E+00
  1.00000000E+02  8.20000000E+01  0.00000000E+00
  1.00000000E+02  8.00000000E+01  0.00000000E+00
  1.00000000E+02  7.80000000E+01  0.00000000E+00
  1.00000000E+02  7.60000000E+01  0.00000000E+00
  1.00000000E+02  7.40000000E+01  0.00000000E+00
  1.00000000E+02  7.20000000E+01  0.00000000E+00
  1.00000000E+02  7.00000000E+01  0.00000000E+00
  1.00000000E+02  6.80000000E+01  0.00000000E+00
  1.00000000E+02  6.60000000E+01  0.00000000E+00
  1.00000000E+02  6.40000000E+01  0.00000000E+00
  1.00000000E+02  6.20000000E+01  0.00000000E+00
  1.00000000E+02  6.00000000E+01  0.00000000E+00
  1.00000000E+02  5.80000000E+01  0.00000000E+00
  1.00000000E+02  5.60000000E+01  0.00000000E+00
  1.00000000E+02  5.40000000E+01  0.00000000E+00
  1.00000000E+02  5.20000000E+01  0.00000000E+00
  1.00000000E+02  5.00000000E+01  0.00000000E+00
  1.00000000E+02  4.80000000E+01  0.00000000E+00
  1.00000000E+02  4.60000000E+01  0.00000000E+00
  1.00000000E+02  4.40000000E+01  0.00000000E+00
  1.00000000E+02  4.20000000E+01  0.00000000E+00
  1.00000000E+02  4.00000000E+01  0.00000000E+00
  1.00000000E+02  3.80000000E+01  0.00000000E+00
  1.00000000E+02  3.60000000E+01  0.00000000E+00
  1.00000000E+02  3.40000000E+01  0.00000000E+00
  1.00000000E+02  3.20000000E+01  0.00000000E+00
  1.00000000E+02  3.00000000E+01  0.00000000E+00
  1.00000000E+02  2.80000000E+01  0.00000000E+00
  1.00000000E+02  2.60000000E+01  0.00000000E+00
  1.00000000E+02  2.40000000E+01  0.00000000E+00
  1.00000000E+02  2.20000000E+01  0.00000000E+00
  1.00000000E+02  2.00000000E+01  0.00000000E+00
  1.00000000E+02  1.80000000E+01  0.00000000E+00
  1.00000000E+02  1.60000000E+01  0.00000000E+00
  1.00000000E+02  1.40000000E+01  0.00000000E+00
  1.00000000E+02  1.20000000E+01  0.00000000E+00
  1.00000000E+02  1.00000000E+01  0.00000000E+00
  1.00000000E+02  8.00000000E+00  0.00000000E+00
  1.00000000E+02  6.00000000E+00  0.00000000E+00
  1.00000000E+02  4.00000000E+00  0.00000000E+00
  1.00000000E+02  2.00000000E+00  0.00000000E+00
  1.00000000E+02 -3.33066907E-14  0.00000000E+00
  1.10000000E+02  1.00000000E+02  0.00000000E+00
  1.10000000E+02  9.80000000E+01  0.00000000E+00
  1.10000000E+02  9.60000000E+01  0.00000000E+00
  1.10000000E+02  9.40000000E+01  0.00000000E+00
  1.10000000E+02  9.20000000E+01  0.00000000E+00
  1.10000000E+02  9.00000000E+01  0.00000000E+00
  1.10000000E+02  8.80000000E+01  0.00000000E+00
  1.10000000E+02  8.60000000E+01  0.00000000E+00
  1.10000000E+02  8.40000000E+01  0.00000000E+00
  1.10000000E+02  8.20000000E+01  0.00000000E+00
  1.10000000E+02  8.00000000E+01  0.00000000E+00
  1.10000000E+02  7.80000000E+01  0.00000000E+00
  1.10000000E+02  7.60000000E+01  0.00000000E+00
  1.10000000E+02  7.40000000E+01  0.00000000E+00
  1.10000000E+02  7.20000000E+01  0.00000000E+00
  1.10000000E+02  7.00000000E+01  0.00000000E+00
  1.10000000E+02  6.80000000E+01  0.00000000E+00
  1.10000000E+02  6.60000000E+01  0.00000000E+00
  1.10000000E+02  6.40000000E+01  0.00000000E+00
  1.10000000E+02  6.20000000E+01  0.00000000E+00
  1.10000000E+02  6.00000000E+01  0.00000000E+00
  1.10000000E+02  5.80000000E+01  0.00000000E+00
  1.10000000E+02  5.60000000E+01  0.00000000E+00
  1.10000000E+02  5.40000000E+01  0.00000000E+00
  1.10000000E+02  5.20000000E+01  0.00000000E+00
  1.10000000E+02  5.00000000E+01  0.00000000E+00
  1.10000000E+02  4.80000000E+01  0.00000000E+00
  1.10000000E+02  4.60000000E+01  0.00000000E+00
  1.10000000E+02  4.40000000E+01  0.00000000E+00
  1.10000000E+02  4.20000000E+01  0.00000000E+00
  1.10000000E+02  4.00000000E+01  0.00000000E+00
  1.10000000E+02  3.80000000E+01  0.00000000E+00
  1.10000000E+02  3.60000000E+01  0.00000000E+00
  1.10000000E+02  3.40000000E+01  0.00000000E+00
  1.10000000E+02  3.20000000E+01  0.00000000E+00
  1.10000000E+02  3.00000000E+01  0.00000000E+00
  1.10000000E+02  2.80000000E+01  0.00000000E+00
  1.10000000E+02  2.60000000E+01  0.00000000E+00
  1.10000000E+02  2.40000000E+01  0.00000000E+00
  1.10000000E+02  2.20000000E+01  0.00000000E+00
  1.10000000E+02  2.00000000E+01  0.00000000E+00
  1.10000000E+02  1.80000000E+01  0.00000000E+00
  1.10000000E+02  1.60000000E+01  0.00000000E+00
  1.10000000E+02  1.40000000E+01  0.00000000E+00
  1.10000000E+02  1.20000000E+01  0.00000000E+00
  1.10000000E+02  1.00000000E+01  0.00000000E+00
  1.10000000E+02  8.00000000E+00  0.00000000E+00
  1.10000000E+02  6.00000000E+00  0.00000000E+00
  1.10000000E+02  4.00000000E+00  0.00000000E+00
  1.10000000E+02  2.00000000E+00  0.00000000E+00
  1.10000000E+02 -3.33066907E-14  0.00000000E+00
  1.20000000E+02  1.00000000E+02  0.00000000E+00
  1.20000000E+02  9.80000000E+01  0.00000000E+00
  1.20000000E+02  9.60000000E+01  0.00000000E+00
  1.20000000E+02  9.40000000E+01  0.00000000E+00
  1.20000000E+02  9.20000000E+01  0.00000000E+00
  1.20000000E+02  9.00000000E+01  0.00000000E+00
  1.20000000E+02  8.80000000E+01  0.00000000E+00
  1.20000000E+02  8.60000000E+01  0.00000000E+00
  1.20000000E+02  8.40000000E+01  0.00000000E+00
  1.20000000E+02  8.20000000E+01  0.00000000E+00
  1.20000000E+02  8.00000000E+01  0.00000000E+00
  1.20000000E+02  7.80000000E+01  0.00000000E+00
  1.20000000E+02  7.60000000E+01  0.00000000E+00
  1.20000000E+02  7.40000000E+01  0.00000000E+00
  1.20000000E+02  7.20000000E+01  0.00000000E+00
  1.20000000E+02  7.00000000E+01  0.00000000E+00
  1.20000000E+02  6.80000000E+01  0.00000000E+00
  1.20000000E+02  6.60000000E+01  0.00000000E+00
  1.20000000E+02  6.40000000E+01  0.00000000E+00
  1.20000000E+02  6.20000000E+01  0.00000000E+00
  1.20000000E+02  6.00000000E+01  0.00000000E+00
  1.20000000E+02  5.80000000E+01  0.00000000E+00
  1.20000000E+02  5.60000000E+01  0.00000000E+00
  1.20000000E+02  5.40000000E+01  0.00000000E+00
  1.20000000E+02  5.20000000E+01  0.00000000E+00
  1.20000000E+02  5.00000000E+01  0.00000000E+00
  1.20000000E+02  4.80000000E+01  0.00000000E+00
  1.20000000E+02  4.60000000E+01  0.00000000E+00
  1.20000000E+02  4.40000000E+01  0.00000000E+00
  1.20000000E+02  4.20000000E+01  0.00000000E+00
  1.20000000E+02  4.00000000E+01  0.00000000E+00
  1.20000000E+02  3.80000000E+01  0.00000000E+00
  1.20000000E+02  3.60000000E+01  0.00000000E+00
  1.20000000E+02  3.40000000E+01  0.00000000E+00
  1.20000000E+02  3.20000000E+01  0.00000000E+00
  1.20000000E+02  3.00000000E+01  0.00000000E+00
  1.20000000E+02  2.80000000E+01  0.00000000E+00
  1.20000000E+02  2.60000000E+01  0.00000000E+00
  1.20000000E+02  2.40000000E+01  0.00000000E+00
  1.20000000E+02  2.20000000E+01  0.00000000E+00
  1.20000000E+02  2.00000000E+01  0.00000000E+00
  1.20000000E+02  1.80000000E+01  0.00000000E+00
  1.20000000E+02  1.60000000E+01  0.00000000E+00
  1.20000000E+02  1.40000000E+01  0.00000000E+00
  1.20000000E+02  1.20000000E+01  0.00000000E+00
  1.20000000E+02  1.00000000E+01  0.00000000E+00
  1.20000000E+02  8.00000000E+00  0.00000000E+00
  1.20000000E+02  6.00000000E+00  0.00000000E+00
  1.20000000E+02  4.00000000E+00  0.00000000E+00
  1.20000000E+02  2.00000000E+00  0.00000000E+00
  1.20000000E+02 -3.33066907E-14  0.00000000E+00
  1.30000000E+02  1.00000000E+02  0.00000000E+00
  1.30000000E+02  9.80000000E+01  0.00000000E+00
  1.30000000E+02  9.60000000E+01  0.00000000E+00
  1.30000000E+02  9.40000000E+01  0.00000000E+00
  1.30000000E+02  9.20000000E+01  0.00000000E+00
  1.30000000E+02  9.00000000E+01  0.00000000E+00
  1.30000000E+02  8.80000000E+01  0.00000000E+00
  1.30000000E+02  8.60000000E+01  0.00000000E+00
  1.30000000E+02  8.40000000E+01  0.00000000E+00
  1.30000000E+02  8.20000000E+01  0.00000000E+00
  1.30000000E+02  8.00000000E+01  0.00000000E+00
  1.30000000E+02  7.80000000E+01  0.00000000E+00
  1.30000000E+02  7.60000000E+01  0.00000000E+00
  1.30000000E+02  7.40000000E+01  0.00000000E+00
  1.30000000E+02  7.20000000E+01  0.00000000E+00
  1.30000000E+02  7.00000000E+01  0.00000000E+00
  1.30000000E+02  6.80000000E+01  0.00000000E+00
  1.30000000E+02  6.60000000E+01  0.00000000E+00
  1.30000000E+02  6.40000000E+01  0.00000000E+00
  1.30000000E+02  6.20000000E+01  0.00000000E+00
  1.30000000E+02  6.00000000E+01  0.00000000E+00
  1.30000000E+02  5.80000000E+01  0.00000000E+00
  1.30000000E+02  5.60000000E+01  0.00000000E+00
  1.30000000E+02  5.40000000E+01  0.00000000E+00
  1.30000000E+02  5.20000000E+01  0.00000000E+00
  1.30000000E+02  5.00000000E+01  0.00000000E+00
  1.30000000E+02  4.80000000E+01  0.00000000E+00
  1.30000000E+02  4.60000000E+01  0.00000000E+00
  1.30000000E+02  4.40000000E+01  0.00000000E+00
  1.30000000E+02  4.20000000E+01  0.00000000E+00
  1.30000000E+02  4.00000000E+01  0.00000000E+00
  1.30000000E+02  3.80000000E+01  0.00000000E+00
  1.30000000E+02  3.60000000E+01  0.00000000E+00
  1.30000000E+02  3.40000000E+01  0.00000000E+00
  1.30000000E+02  3.20000000E+01  0.00000000E+00
  1.30000000E+02  3.00000000E+01  0.00000000E+00
  1.30000000E+02  2.80000000E+01  0.00000000E+00
  1.30000000E+02  2.60000000E+01  0.00000000E+00
  1.30000000E+02  2.40000000E+01  0.00000000E+00
  1.30000000E+02  2.20000000E+01  0.00000000E+00
  1.30000000E+02  2.00000000E+01  0.00000000E+00
  1.30000000E+02  1.80000000E+01  0.00000000E+00
  1.30000000E+02  1.60000000E+01  0.00000000E+00
  1.30000000E+02  1.40000000E+01  0.00000000E+00
  1.30000000E+02  1.20000000E+01  0.00000000E+00
  1.30000000E+02  1.00000000E+01  0.00000000E+00
  1.30000000E+02  8.00000000E+00  0.00000000E+00
  1.30000000E+02  6.00000000E+00  0.00000000E+00
  1.30000000E+02  4.00000000E+00  0.00000000E+00
  1.30000000E+02  2.00000000E+00  0.00000000E+00
  1.30000000E+02 -3.33066907E-14  0.00000000E+00
  1.40000000E+02  1.00000000E+02  0.00000000E+00
  1.40000000E+02  9.80000000E+01  0.00000000E+00
  1.40000000E+02  9.60000000E+01  0.00000000E+00
  1.40000000E+02  9.40000000E+01  0.00000000E+00
  1.40000000E+02  9.20000000E+01  0.00000000E+00
  1.40000000E+02  9.00000000E+01  0.00000000E+00
  1.40000000E+02  8.80000000E+01  0.00000000E+00
  1.40000000E+02  8.60000000E+01  0.00000000E+00
  1.40000000E+02  8.40000000E+01  0.00000000E+00
  1.40000000E+02  8.20000000E+01  0.00000000E+00
  1.40000000E+02  8.00000000E+01  0.00000000E+00
  1.40000000E+02  7.80000000E+01  0.00000000E+00
  1.40000000E+02  7.60000000E+01  0.00000000E+00
  1.40000000E+02  7.40000000E+01  0.00000000E+00
  1.40000000E+02  7.20000000E+01  0.00000000E+00
  1.40000000E+02  7.00000000E+01  0.00000000E+00
  1.40000000E+02  6.80000000E+01  0.00000000E+00
  1.40000000E+02  6.60000000E+01  0.00000000E+00
  1.40000000E+02  6.40000000E+01  0.00000000E+00
  1.40000000E+02  6.20000000E+01  0.00000000E+00
  1.40000000E+02  6.00000000E+01  0.00000000E+00
  1.40000000E+02  5.80000000E+01  0.00000000E+00
  1.40000000E+02  5.60000000E+01  0.00000000E+00
  1.40000000E+02  5.40000000E+01  0.00000000E+00
  1.40000000E+02  5.20000000E+01  0.00000000E+00
  1.40000000E+02  5.00000000E+01  0.00000000E+00
  1.40000000E+02  4.80000000E+01  0.00000000E+00
  1.40000000E+02  4.60000000E+01  0.00000000E+00
  1.40000000E+02  4.40000000E+01  0.00000000E+00
  1.40000000E+02  4.20000000E+01  0.00000000E+00
  1.40000000E+02  4.00000000E+01  0.00000000E+00
  1.40000000E+02  3.80000000E+01  0.00000000E+00
  1.40000000E+02  3.60000000E+01  0.00000000E+00
  1.40000000E+02  3.40000000E+01  0.00000000E+00
  1.40000000E+02  3.20000000E+01  0.00000000E+00
  1.40000000E+02  3.00000000E+01  0.00000000E+00
  1.40000000E+02  2.80000000E+01  0.00000000E+00
  1.40000000E+02  2.60000000E+01  0.00000000E+00
  1.40000000E+02  2.40000000E+01  0.00000000E+00
  1.40000000E+02  2.20000000E+01  0.00000000E+00
  1.40000000E+02  2.00000000E+01  0.00000000E+00
  1.40000000E+02  1.80000000E+01  0.00000000E+00
  1.40000000E+02  1.60000000E+01  0.00000000E+00
  1.40000000E+02  1.40000000E+01  0.00000000E+00
  1.40000000E+02  1.20000000E+01  0.00000000E+00
  1.40000000E+02  1.00000000E+01  0.00000000E+00
  1.40000000E+02  8.00000000E+00  0.00000000E+00
  1.40000000E+02  6.00000000E+00  0.00000000E+00
  1.40000000E+02  4.00000000E+00  0.00000000E+00
  1.40000000E+02  2.00000000E+00  0.00000000E+00
  1.40000000E+02 -3.33066907E-14  0.00000000E+00
  1.50000000E+02  1.00000000E+02  0.00000000E+00
  1.50000000E+02  9.80000000E+01  0.00000000E+00
  1.50000000E+02  9.60000000E+01  0.00000000E+00
  1.50000000E+02  9.40000000E+01  0.00000000E+00
  1.50000000E+02  9.20000000E+01  0.00000000E+00
  1.50000000E+02  9.00000000E+01  0.00000000E+00
  1.50000000E+02  8.80000000E+01  0.00000000E+00
  1.50000000E+02  8.60000000E+01  0.00000000E+00
  1.50000000E+02  8.40000000E+01  0.00000000E+00
  1.50000000E+02  8.20000000E+01  0.00000000E+00
  1.50000000E+02  8.00000000E+01  0.00000000E+00
  1.50000000E+02  7.80000000E+01  0.00000000E+00
  1.50000000E+02  7.60000000E+01  0.00000000E+00
  1.50000000E+02  7.40000000E+01  0.00000000E+00
  1.50000000E+02  7.20000000E+01  0.00000000E+00
  1.50000000E+02  7.00000000E+01  0.00000000E+00
  1.50000000E+02  6.80000000E+01  0.00000000E+00
  1.50000000E+02  6.60000000E+01  0.00000000E+00
  1.50000000E+02  6.40000000E+01  0.00000000E+00
  1.50000000E+02  6.20000000E+01  0.00000000E+00
  1.50000000E+02  6.00000000E+01  0.00000000E+00
  1.50000000E+02  5.80000000E+01  0.00000000E+00
  1.50000000E+02  5.60000000E+01  0.00000000E+00
  1.50000000E+02  5.40000000E+01  0.00000000E+00
  1.50000000E+02  5.20000000E+01  0.00000000E+00
  1.50000000E+02  5.00000000E+01  0.00000000E+00
  1.50000000E+02  4.80000000E+01  0.00000000E+00
  1.50000000E+02  4.60000000E+01  0.00000000E+00
  1.50000000E+02  4.40000000E+01  0.00000000E+00
  1.50000000E+02  4.20000000E+01  0.00000000E+00
  1.50000000E+02  4.00000000E+01  0.00000000E+00
  1.50000000E+02  3.80000000E+01  0.00000000E+00
  1.50000000E+02  3.60000000E+01  0.00000000E+00
  1.50000000E+02  3.40000000E+01  0.00000000E+00
  1.50000000E+02  3.20000000E+01  0.00000000E+00
  1.50000000E+02  3.00000000E+01  0.00000000E+00
  1.50000000E+02  2.80000000E+01  0.00000000E+00
  1.50000000E+02  2.60000000E+01  0.00000000E+00
  1.50000000E+02  2.40000000E+01  0.00000000E+00
  1.50000000E+02  2.20000000E+01  0.00000000E+00
  1.50000000E+02  2.00000000E+01  0.00000000E+00
  1.50000000E+02  1.80000000E+01  0.00000000E+00
  1.50000000E+02  1.60000000E+01  0.00000000E+00
  1.50000000E+02  1.40000000E+01  0.00000000E+00
  1.50000000E+02  1.20000000E+01  0.00000000E+00
  1.50000000E+02  1.00000000E+01  0.00000000E+00
  1.50000000E+02  8.00000000E+00  0.00000000E+00
  1.50000000E+02  6.00000000E+00  0.00000000E+00
  1.50000000E+02  4.00000000E+00  0.00000000E+00
  1.50000000E+02  2.00000000E+00  0.00000000E+00
  1.50000000E+02 -3.33066907E-14  0.00000000E+00
  1.60000000E+02  1.00000000E+02  0.00000000E+00
  1.60000000E+02  9.80000000E+01  0.00000000E+00
  1.60000000E+02  9.60000000E+01  0.00000000E+00
  1.60000000E+02  9.40000000E+01  0.00000000E+00
  1.60000000E+02  9.20000000E+01  0.00000000E+00
  1.60000000E+02  9.00000000E+01  0.00000000E+00
  1.60000000E+02  8.80000000E+01  0.00000000E+00
  1.60000000E+02  8.60000000E+01  0.00000000E+00
  1.60000000E+02  8.40000000E+01  0.00000000E+00
  1.60000000E+02  8.20000000E+01  0.00000000E+00
  1.60000000E+02  8.00000000E+01  0.00000000E+00
  1.60000000E+02  7.80000000E+01  0.00000000E+00
  1.60000000E+02  7.60000000E+01  0.00000000E+00
  1.60000000E+02  7.40000000E+01  0.00000000E+00
  1.60000000E+02  7.20000000E+01  0.00000000E+00
  1.60000000E+02  7.00000000E+01  0.00000000E+00
  1.60000000E+02  6.80000000E+01  0.00000000E+00
  1.60000000E+02  6.60000000E+01  0.00000000E+00
  1.60000000E+02  6.40000000E+01  0.00000000E+00
  1.60000000E+02  6.20000000E+01  0.00000000E+00
  1.60000000E+02  6.00000000E+01  0.00000000E+00
  1.60000000E+02  5.80000000E+01  0.00000000E+00
  1.60000000E+02  5.60000000E+01  0.00000000E+00
  1.60000000E+02  5.40000000E+01  0.00000000E+00
  1.60000000E+02  5.20000000E+01  0.00000000E+00
  1.60000000E+02  5.00000000E+01  0.00000000E+00
  1.60000000E+02  4.80000000E+01  0.00000000E+00
  1.60000000E+02  4.60000000E+01  0.00000000E+00
  1.60000000E+02  4.40000000E+01  0.00000000E+00
  1.60000000E+02  4.20000000E+01  0.00000000E+00
  1.60000000E+02  4.00000000E+01  0.00000000E+00
  1.60000000E+02  3.80000000E+01  0.00000000E+00
  1.60000000E+02  3.60000000E+01  0.00000000E+00
  1.60000000E+02  3.40000000E+01  0.00000000E+00
  1.60000000E+02  3.20000000E+01  0.00000000E+00
  1.60000000E+02  3.00000000E+01  0.00000000E+00
  1.60000000E+02  2.80000000E+01  0.00000000E+00
  1.60000000E+02  2.60000000E+01  0.00000000E+00
  1.60000000E+02  2.40000000E+01  0.00000000E+00
  1.60000000E+02  2.20000000E+01  0.00000000E+00
  1.60000000E+02  2.00000000E+01  0.00000000E+00
  1.60000000E+02  1.80000000E+01  0.00000000E+00
  1.60000000E+02  1.60000000E+01  0.00000000E+00
  1.60000000E+02  1.40000000E+01  0.00000000E+00
  1.60000000E+02  1.20000000E+01  0.00000000E+00
  1.60000000E+02  1.00000000E+01  0.00000000E+00
  1.60000000E+02  8.00000000E+00  0.00000000E+00
  1.60000000E+02  6.00000000E+00  0.00000000E+00
  1.60000000E+02  4.00000000E+00  0.00000000E+00
  1.60000000E+02  2.00000000E+00  0.00000000E+00
  1.60000000E+02 -3.33066907E-14  0.00000000E+00
  1.70000000E+02  1.00000000E+02  0.00000000E+00
  1.70000000E+02  9.80000000E+01  0.00000000E+00
  1.70000000E+02  9.60000000E+01  0.00000000E+00
  1.70000000E+02  9.40000000E+01  0.00000000E+00
  1.70000000E+02  9.20000000E+01  0.00000000E+00
  1.70000000E+02  9.00000000E+01  0.00000000E+00
  1.70000000E+02  8.80000000E+01  0.00000000E+00
  1.70000000E+02  8.60000000E+01  0.00000000E+00
  1.70000000E+02  8.40000000E+01  0.00000000E+00
  1.70000000E+02  8.20000000E+01  0.00000000E+00
  1.70000000E+02  8.00000000E+01  0.00000000E+00
  1.70000000E+02  7.80000000E+01  0.00000000E+00
  1.70000000E+02  7.60000000E+01  0.00000000E+00
  1.70000000E+02  7.40000000E+01  0.00000000E+00
  1.70000000E+02  7.20000000E+01  0.00000000E+00
  1.70000000E+02  7.00000000E+01  0.00000000E+00
  1.70000000E+02  6.80000000E+01  0.00000000E+00
  1.70000000E+02  6.60000000E+01  0.00000000E+00
  1.70000000E+02  6.40000000E+01  0.00000000E+00
  1.70000000E+02  6.20000000E+01  0.00000000E+00
  1.70000000E+02  6.00000000E+01  0.00000000E+00
  1.70000000E+02  5.80000000E+01  0.00000000E+00
  1.70000000E+02  5.60000000E+01  0.00000000E+00
  1.70000000E+02  5.40000000E+01  0.00000000E+00
  1.70000000E+02  5.20000000E+01  0.00000000E+00
  1.70000000E+02  5.00000000E+01  0.00000000E+00
  1.70000000E+02  4.80000000E+01  0.00000000E+00
  1.70000000E+02  4.60000000E+01  0.00000000E+00
  1.70000000E+02  4.40000000E+01  0.00000000E+00
  1.70000000E+02  4.20000000E+01  0.00000000E+00
  1.70000000E+02  4.00000000E+01  0.00000000E+00
  1.70000000E+02  3.80000000E+01  0.00000000E+00
  1.70000000E+02  3.60000000E+01  0.00000000E+00
  1.70000000E+02  3.40000000E+01  0.00000000E+00
  1.70000000E+02  3.20000000E+01  0.00000000E+00
  1.70000000E+02  3.00000000E+01  0.00000000E+00
  1.70000000E+02  2.80000000E+01  0.00000000E+00
  1.70000000E+02  2.60000000E+01  0.00000000E+00
  1.70000000E+02  2.40000000E+01  0.00000000E+00
  1.70000000E+02  2.20000000E+01  0.00000000E+00
  1.70000000E+02  2.00000000E+01  0.00000000E+00
  1.70000000E+02  1.80000000E+01  0.00000000E+00
  1.70000000E+02  1.60000000E+01  0.00000000E+00
  1.70000000E+02  1.40000000E+01  0.00000000E+00
  1.70000000E+02  1.20000000E+01  0.00000000E+00
  1.70000000E+02  1.00000000E+01  0.00000000E+00
  1.70000000E+02  8.00000000E+00  0.00000000E+00
  1.70000000E+02  6.00000000E+00  0.00000000E+00
  1.70000000E+02  4.00000000E+00  0.00000000E+00
  1.70000000E+02  2.00000000E+00  0.00000000E+00
  1.70000000E+02 -3.33066907E-14  0.00000000E+00
  1.80000000E+02  1.00000000E+02  0.00000000E+00
  1.80000000E+02  9.80000000E+01  0.00000000E+00
  1.80000000E+02  9.60000000E+01  0.00000000E+00
  1.80000000E+02  9.40000000E+01  0.00000000E+00
  1.80000000E+02  9.20000000E+01  0.00000000E+00
  1.80000000E+02  9.00000000E+01  0.00000000E+00
  1.80000000E+02  8.80000000E+01  0.00000000E+00
  1.80000000E+02  8.60000000E+01  0.00000000E+00
  1.80000000E+02  8.40000000E+01  0.00000000E+00
  1.80000000E+02  8.20000000E+01  0.00000000E+00
  1.80000000E+02  8.00000000E+01  0.00000000E+00
  1.80000000E+02  7.80000000E+01  0.00000000E+00
  1.80000000E+02  7.60000000E+01  0.00000000E+00
  1.80000000E+02  7.40000000E+01  0.00000000E+00
  1.80000000E+02  7.20000000E+01  0.00000000E+00
  1.80000000E+02  7.00000000E+01  0.00000000E+00
  1.80000000E+02  6.80000000E+01  0.00000000E+00
  1.80000000E+02  6.60000000E+01  0.00000000E+00
  1.80000000E+02  6.40000000E+01  0.00000000E+00
  1.80000000E+02  6.20000000E+01  0.00000000E+00
  1.80000000E+02  6.00000000E+01  0.00000000E+00
  1.80000000E+02  5.80000000E+01  0.00000000E+00
  1.80000000E+02  5.60000000E+01  0.00000000E+00
  1.80000000E+02  5.40000000E+01  0.00000000E+00
  1.80000000E+02  5.20000000E+01  0.00000000E+00
  1.80000000E+02  5.00000000E+01  0.00000000E+00
  1.80000000E+02  4.80000000E+01  0.00000000E+00
  1.80000000E+02  4.60000000E+01  0.00000000E+00
  1.80000000E+02  4.40000000E+01  0.00000000E+00
  1.80000000E+02  4.20000000E+01  0.00000000E+00
  1.80000000E+02  4.00000000E+01  0.00000000E+00
  1.80000000E+02  3.80000000E+01  0.00000000E+00
  1.80000000E+02  3.60000000E+01  0.00000000E+00
  1.80000000E+02  3.40000000E+01  0.00000000E+00
  1.80000000E+02  3.20000000E+01  0.00000000E+00
  1.80000000E+02  3.00000000E+01  0.00000000E+00
  1.80000000E+02  2.80000000E+01  0.00000000E+00
  1.80000000E+02  2.60000000E+01  0.00000000E+00
  1.80000000E+02  2.40000000E+01  0.00000000E+00
  1.80000000E+02  2.20000000E+01  0.00000000E+00
  1.80000000E+02  2.00000000E+01  0.00000000E+00
  1.80000000E+02  1.80000000E+01  0.00000000E+00
  1.80000000E+02  1.60000000E+01  0.00000000E+00
  1.80000000E+02  1.40000000E+01  0.00000000E+00
  1.80000000E+02  1.20000000E+01  0.00000000E+00
  1.80000000E+02  1.00000000E+01  0.00000000E+00
  1.80000000E+02  8.00000000E+00  0.00000000E+00
  1.80000000E+02  6.00000000E+00  0.00000000E+00
  1.80000000E+02  4.00000000E+00  0.00000000E+00
  1.80000000E+02  2.00000000E+00  0.00000000E+00
  1.80000000E+02 -3.33066907E-14  0.00000000E+00
  1.90000000E+02  1.00000000E+02  0.00000000E+00
  1.90000000E+02  9.80000000E+01  0.00000000E+00
  1.90000000E+02  9.60000000E+01  0.00000000E+00
  1.90000000E+02  9.40000000E+01  0.00000000E+00
  1.90000000E+02  9.20000000E+01  0.00000000E+00
  1.90000000E+02  9.00000000E+01  0.00000000E+00
  1.90000000E+02  8.80000000E+01  0.00000000E+00
  1.90000000E+02  8.60000000E+01  0.00000000E+00
  1.90000000E+02  8.40000000E+01  0.00000000E+00
  1.90000000E+02  8.20000000E+01  0.00000000E+00
  1.90000000E+02  8.00000000E+01  0.00000000E+00
  1.90000000E+02  7.80000000E+01  0.00000000E+00
  1.90000000E+02  7.60000000E+01  0.00000000E+00
  1.90000000E+02  7.40000000E+01  0.00000000E+00
  1.90000000E+02  7.20000000E+01  0.00000000E+00
  1.90000000E+02  7.00000000E+01  0.00000000E+00
  1.90000000E+02  6.80000000E+01  0.00000000E+00
  1.90000000E+02  6.60000000E+01  0.00000000E+00
  1.90000000E+02  6.40000000E+01  0.00000000E+00
  1.90000000E+02  6.20000000E+01  0.00000000E+00
  1.90000000E+02  6.00000000E+01  0.00000000E+00
  1.90000000E+02  5.80000000E+01  0.00000000E+00
  1.90000000E+02  5.60000000E+01  0.00000000E+00
  1.90000000E+02  5.40000000E+01  0.00000000E+00
  1.90000000E+02  5.20000000E+01  0.00000000E+00
  1.90000000E+02  5.00000000E+01  0.00000000E+00
  1.90000000E+02  4.80000000E+01  0.00000000E+00
  1.90000000E+02  4.60000000E+01  0.00000000E+00
  1.90000000E+02  4.40000000E+01  0.00000000E+00
  1.90000000E+02  4.20000000E+01  0.00000000E+00
  1.90000000E+02  4.00000000E+01  0.00000000E+00
  1.90000000E+02  3.80000000E+01  0.00000000E+00
  1.90000000E+02  3.60000000E+01  0.00000000E+00
  1.90000000E+02  3.40000000E+01  0.00000000E+00
  1.90000000E+02  3.20000000E+01  0.00000000E+00
  1.90000000E+02  3.00000000E+01  0.00000000E+00
  1.90000000E+02  2.80000000E+01  0.00000000E+00
  1.90000000E+02  2.60000000E+01  0.00000000E+00
  1.90000000E+02  2.40000000E+01  0.00000000E+00
  1.90000000E+02  2.20000000E+01  0.00000000E+00
  1.90000000E+02  2.00000000E+01  0.00000000E+00
  1.90000000E+02  1.80000000E+01  0.00000000E+00
  1.90000000E+02  1.60000000E+01  0.00000000E+00
  1.90000000E+02  1.40000000E+01  0.00000000E+00
  1.90000000E+02  1.20000000E+01  0.00000000E+00
  1.90000000E+02  1.00000000E+01  0.00000000E+00
  1.90000000E+02  8.00000000E+00  0.00000000E+00
  1.90000000E+02  6.00000000E+00  0.00000000E+00
  1.90000000E+02  4.00000000E+00  0.00000000E+00
  1.90000000E+02  2.00000000E+00  0.00000000E+00
  1.90000000E+02 -3.33066907E-14  0.00000000E+00
  2.00000000E+02  1.00000000E+02  0.00000000E+00
  2.00000000E+02  9.80000000E+01  0.00000000E+00
  2.00000000E+02  9.60000000E+01  0.00000000E+00
  2.00000000E+02  9.40000000E+01  0.00000000E+00
  2.00000000E+02  9.20000000E+01  0.00000000E+00
  2.00000000E+02  9.00000000E+01  0.00000000E+00
  2.00000000E+02  8.80000000E+01  0.00000000E+00
  2.00000000E+02  8.60000000E+01  0.00000000E+00
  2.00000000E+02  8.40000000E+01  0.00000000E+00
  2.00000000E+02  8.20000000E+01  0.00000000E+00
  2.00000000E+02  8.00000000E+01  0.00000000E+00
  2.00000000E+02  7.80000000E+01  0.00000000E+00
  2.00000000E+02  7.60000000E+01  0.00000000E+00
  2.00000000E+02  7.40000000E+01  0.00000000E+00
  2.00000000E+02  7.20000000E+01  0.00000000E+00
  2.00000000E+02  7.00000000E+01  0.00000000E+00
  2.00000000E+02  6.80000000E+01  0.00000000E+00
  2.00000000E+02  6.60000000E+01  0.00000000E+00
  2.00000000E+02  6.40000000E+01  0.00000000E+00
  2.00000000E+02  6.20000000E+01  0.00000000E+00
  2.00000000E+02  6.00000000E+01  0.00000000E+00
  2.00000000E+02  5.80000000E+01  0.00000000E+00
  2.00000000E+02  5.60000000E+01  0.00000000E+00
  2.00000000E+02  5.40000000E+01  0.00000000E+00
  2.00000000E+02  5.20000000E+01  0.00000000E+00
  2.00000000E+02  5.00000000E+01  0.00000000E+00
  2.00000000E+02  4.80000000E+01  0.00000000E+00
  2.00000000E+02  4.60000000E+01  0.00000000E+00
  2.00000000E+02  4.40000000E+01  0.00000000E+00
  2.00000000E+02  4.20000000E+01  0.00000000E+00
  2.00000000E+02  4.00000000E+01  0.00000000E+00
  2.00000000E+02  3.80000000E+01  0.00000000E+00
  2.00000000E+02  3.60000000E+01  0.00000000E+00
  2.00000000E+02  3.40000000E+01  0.00000000E+00
  2.00000000E+02  3.20000000E+01  0.00000000E+00
  2.00000000E+02  3.00000000E+01  0.00000000E+00
  2.00000000E+02  2.80000000E+01  0.00000000E+00
  2.00000000E+02  2.60000000E+01  0.00000000E+00
  2.00000000E+02  2.40000000E+01  0.00000000E+00
  2.00000000E+02  2.20000000E+01  0.00000000E+00
  2.00000000E+02  2.00000000E+01  0.00000000E+00
  2.00000000E+02  1.80000000E+01  0.00000000E+00
  2.00000000E+02  1.60000000E+01  0.00000000E+00
  2.00000000E+02  1.40000000E+01  0.00000000E+00
  2.00000000E+02  1.20000000E+01  0.00000000E+00
  2.00000000E+02  1.00000000E+01  0.00000000E+00
  2.00000000E+02  8.00000000E+00  0.00000000E+00
  2.00000000E+02  6.00000000E+00  0.00000000E+00
  2.00000000E+02  4.00000000E+00  0.00000000E+00
  2.00000000E+02  2.00000000E+00  0.00000000E+00
  2.00000000E+02 -3.33066907E-14  0.00000000E+00
  2.10000000E+02  1.00000000E+02  0.00000000E+00
  2.10000000E+02  9.80000000E+01  0.00000000E+00
  2.10000000E+02  9.60000000E+01  0.00000000E+00
  2.10000000E+02  9.40000000E+01  0.00000000E+00
  2.10000000E+02  9.20000000E+01  0.00000000E+00
  2.10000000E+02  9.00000000E+01  0.00000000E+00
  2.10000000E+02  8.80000000E+01  0.00000000E+00
  2.10000000E+02  8.60000000E+01  0.00000000E+00
  2.10000000E+02  8.40000000E+01  0.00000000E+00
  2.10000000E+02  8.20000000E+01  0.00000000E+00
  2.10000000E+02  8.00000000E+01  0.00000000E+00
  2.10000000E+02  7.80000000E+01  0.00000000E+00
  2.10000000E+02  7.60000000E+01  0.00000000E+00
  2.10000000E+02  7.40000000E+01  0.00000000E+00
  2.10000000E+02  7.20000000E+01  0.00000000E+00
  2.10000000E+02  7.00000000E+01  0.00000000E+00
  2.10000000E+02  6.80000000E+01  0.00000000E+00
  2.10000000E+02  6.60000000E+01  0.00000000E+00
  2.10000000E+02  6.40000000E+01  0.00000000E+00
  2.10000000E+02  6.20000000E+01  0.00000000E+00
  2.10000000E+02  6.00000000E+01  0.00000000E+00
  2.10000000E+02  5.80000000E+01  0.00000000E+00
  2.10000000E+02  5.60000000E+01  0.00000000E+00
  2.10000000E+02  5.40000000E+01  0.00000000E+00
  2.10000000E+02  5.20000000E+01  0.00000000E+00
  2.10000000E+02  5.00000000E+01  0.00000000E+00
  2.10000000E+02  4.80000000E+01  0.00000000E+00
  2.10000000E+02  4.60000000E+01  0.00000000E+00
  2.10000000E+02  4.40000000E+01  0.00000000E+00
  2.10000000E+02  4.20000000E+01  0.00000000E+00
  2.10000000E+02  4.00000000E+01  0.00000000E+00
  2.10000000E+02  3.80000000E+01  0.00000000E+00
  2.10000000E+02  3.60000000E+01  0.00000000E+00
  2.10000000E+02  3.40000000E+01  0.00000000E+00
  2.10000000E+02  3.20000000E+01  0.00000000E+00
  2.10000000E+02  3.00000000E+01  0.00000000E+00
  2.10000000E+02  2.80000000E+01  0.00000000E+00
  2.10000000E+02  2.60000000E+01  0.00000000E+00
  2.10000000E+02  2.40000000E+01  0.00000000E+00
  2.10000000E+02  2.20000000E+01  0.00000000E+00
  2.10000000E+02  2.00000000E+01  0.00000000E+00
  2.10000000E+02  1.80000000E+01  0.00000000E+00
  2.10000000E+02  1.60000000E+01  0.00000000E+00
  2.10000000E+02  1.40000000E+01  0.00000000E+00
  2.10000000E+02  1.20000000E+01  0.00000000E+00
  2.10000000E+02  1.00000000E+01  0.00000000E+00
  2.10000000E+02  8.00000000E+00  0.00000000E+00
  2.10000000E+02  6.00000000E+00  0.00000000E+00
  2.10000000E+02  4.00000000E+00  0.00000000E+00
  2.10000000E+02  2.00000000E+00  0.00000000E+00
  2.10000000E+02 -3.33066907E-14  0.00000000E+00
  2.20000000E+02  1.00000000E+02  0.00000000E+00
  2.20000000E+02  9.80000000E+01  0.00000000E+00
  2.20000000E+02  9.60000000E+01  0.00000000E+00
  2.20000000E+02  9.40000000E+01  0.00000000E+00
  2.20000000E+02  9.20000000E+01  0.00000000E+00
  2.20000000E+02  9.00000000E+01  0.00000000E+00
  2.20000000E+02  8.80000000E+01  0.00000000E+00
  2.20000000E+02  8.60000000E+01  0.00000000E+00
  2.20000000E+02  8.40000000E+01  0.00000000E+00
  2.20000000E+02  8.20000000E+01  0.00000000E+00
  2.20000000E+02  8.00000000E+01  0.00000000E+00
  2.20000000E+02  7.80000000E+01  0.00000000E+00
  2.20000000E+02  7.60000000E+01  0.00000000E+00
  2.20000000E+02  7.40000000E+01  0.00000000E+00
  2.20000000E+02  7.20000000E+01  0.00000000E+00
  2.20000000E+02  7.00000000E+01  0.00000000E+00
  2.20000000E+02  6.80000000E+01  0.00000000E+00
  2.20000000E+02  6.60000000E+01  0.00000000E+00
  2.20000000E+02  6.40000000E+01  0.00000000E+00
  2.20000000E+02  6.20000000E+01  0.00000000E+00
  2.20000000E+02  6.00000000E+01  0.00000000E+00
  2.20000000E+02  5.80000000E+01  0.00000000E+00
  2.20000000E+02  5.60000000E+01  0.00000000E+00
  2.20000000E+02  5.40000000E+01  0.00000000E+00
  2.20000000E+02  5.20000000E+01  0.00000000E+00
  2.20000000E+02  5.00000000E+01  0.00000000E+00
  2.20000000E+02  4.80000000E+01  0.00000000E+00
  2.20000000E+02  4.60000000E+01  0.00000000E+00
  2.20000000E+02  4.40000000E+01  0.00000000E+00
  2.20000000E+02  4.20000000E+01  0.00000000E+00
  2.20000000E+02  4.00000000E+01  0.00000000E+00
  2.20000000E+02  3.80000000E+01  0.00000000E+00
  2.20000000E+02  3.60000000E+01  0.00000000E+00
  2.20000000E+02  3.40000000E+01  0.00000000E+00
  2.20000000E+02  3.20000000E+01  0.00000000E+00
  2.20000000E+02  3.00000000E+01  0.00000000E+00
  2.20000000E+02  2.80000000E+01  0.00000000E+00
  2.20000000E+02  2.60000000E+01  0.00000000E+00
  2.20000000E+02  2.40000000E+01  0.00000000E+00
  2.20000000E+02  2.20000000E+01  0.00000000E+00
  2.20000000E+02  2.00000000E+01  0.00000000E+00
  2.20000000E+02  1.80000000E+01  0.00000000E+00
  2.20000000E+02  1.60000000E+01  0.00000000E+00
  2.20000000E+02  1.40000000E+01  0.00000000E+00
  2.20000000E+02  1.20000000E+01  0.00000000E+00
  2.20000000E+02  1.00000000E+01  0.00000000E+00
  2.20000000E+02  8.00000000E+00  0.00000000E+00
  2.20000000E+02  6.00000000E+00  0.00000000E+00
  2.20000000E+02  4.00000000E+00  0.00000000E+00
  2.20000000E+02  2.00000000E+00  0.00000000E+00
  2.20000000E+02 -3.33066907E-14  0.00000000E+00
  2.30000000E+02  1.00000000E+02  0.00000000E+00
  2.30000000E+02  9.80000000E+01  0.00000000E+00
  2.30000000E+02  9.60000000E+01  0.00000000E+00
  2.30000000E+02  9.40000000E+01  0.00000000E+00
  2.30000000E+02  9.20000000E+01  0.00000000E+00
  2.30000000E+02  9.00000000E+01  0.00000000E+00
  2.30000000E+02  8.80000000E+01  0.00000000E+00
  2.30000000E+02  8.60000000E+01  0.00000000E+00
  2.30000000E+02  8.40000000E+01  0.00000000E+00
  2.30000000E+02  8.20000000E+01  0.00000000E+00
  2.30000000E+02  8.00000000E+01  0.00000000E+00
  2.30000000E+02  7.80000000E+01  0.00000000E+00
  2.30000000E+02  7.60000000E+01  0.00000000E+00
  2.30000000E+02  7.40000000E+01  0.00000000E+00
  2.30000000E+02  7.20000000E+01  0.00000000E+00
  2.30000000E+02  7.00000000E+01  0.00000000E+00
  2.30000000E+02  6.80000000E+01  0.00000000E+00
  2.30000000E+02  6.60000000E+01  0.00000000E+00
  2.30000000E+02  6.40000000E+01  0.00000000E+00
  2.30000000E+02  6.20000000E+01  0.00000000E+00
  2.30000000E+02  6.00000000E+01  0.00000000E+00
  2.30000000E+02  5.80000000E+01  0.00000000E+00
  2.30000000E+02  5.60000000E+01  0.00000000E+00
  2.30000000E+02  5.40000000E+01  0.00000000E+00
  2.30000000E+02  5.20000000E+01  0.00000000E+00
  2.30000000E+02  5.00000000E+01  0.00000000E+00
  2.30000000E+02  4.80000000E+01  0.00000000E+00
  2.30000000E+02  4.60000000E+01  0.00000000E+00
  2.30000000E+02  4.40000000E+01  0.00000000E+00
  2.30000000E+02  4.20000000E+01  0.00000000E+00
  2.30000000E+02  4.00000000E+01  0.00000000E+00
  2.30000000E+02  3.80000000E+01  0.00000000E+00
  2.30000000E+02  3.60000000E+01  0.00000000E+00
  2.30000000E+02  3.40000000E+01  0.00000000E+00
  2.30000000E+02  3.20000000E+01  0.00000000E+00
  2.30000000E+02  3.00000000E+01  0.00000000E+00
  2.30000000E+02  2.80000000E+01  0.00000000E+00
  2.30000000E+02  2.60000000E+01  0.00000000E+00
  2.30000000E+02  2.40000000E+01  0.00000000E+00
  2.30000000E+02  2.20000000E+01  0.00000000E+00
  2.30000000E+02  2.00000000E+01  0.00000000E+00
  2.30000000E+02  1.80000000E+01  0.00000000E+00
  2.30000000E+02  1.60000000E+01  0.00000000E+00
  2.30000000E+02  1.40000000E+01  0.00000000E+00
  2.30000000E+02  1.20000000E+01  0.00000000E+00
  2.30000000E+02  1.00000000E+01  0.00000000E+00
  2.30000000E+02  8.00000000E+00  0.00000000E+00
  2.30000000E+02  6.00000000E+00  0.00000000E+00
  2.30000000E+02  4.00000000E+00  0.00000000E+00
  2.30000000E+02  2.00000000E+00  0.00000000E+00
  2.30000000E+02 -3.33066907E-14  0.00000000E+00
  2.40000000E+02  1.00000000E+02  0.00000000E+00
  2.40000000E+02  9.80000000E+01  0.00000000E+00
  2.40000000E+02  9.60000000E+01  0.00000000E+00
  2.40000000E+02  9.40000000E+01  0.00000000E+00
  2.40000000E+02  9.20000000E+01  0.00000000E+00
  2.40000000E+02  9.00000000E+01  0.00000000E+00
  2.40000000E+02  8.80000000E+01  0.00000000E+00
  2.40000000E+02  8.60000000E+01  0.00000000E+00
  2.40000000E+02  8.40000000E+01  0.00000000E+00
  2.40000000E+02  8.20000000E+01  0.00000000E+00
  2.40000000E+02  8.00000000E+01  0.00000000E+00
  2.40000000E+02  7.80000000E+01  0.00000000E+00
  2.40000000E+02  7.60000000E+01  0.00000000E+00
  2.40000000E+02  7.40000000E+01  0.00000000E+00
  2.40000000E+02  7.20000000E+01  0.00000000E+00
  2.40000000E+02  7.00000000E+01  0.00000000E+00
  2.40000000E+02  6.80000000E+01  0.00000000E+00
  2.40000000E+02  6.60000000E+01  0.00000000E+00
  2.40000000E+02  6.40000000E+01  0.00000000E+00
  2.40000000E+02  6.20000000E+01  0.00000000E+00
  2.40000000E+02  6.00000000E+01  0.00000000E+00
  2.40000000E+02  5.80000000E+01  0.00000000E+00
  2.40000000E+02  5.60000000E+01  0.00000000E+00
  2.40000000E+02  5.40000000E+01  0.00000000E+00
  2.40000000E+02  5.20000000E+01  0.00000000E+00
  2.40000000E+02  5.00000000E+01  0.00000000E+00
  2.40000000E+02  4.80000000E+01  0.00000000E+00
  2.40000000E+02  4.60000000E+01  0.00000000E+00
  2.40000000E+02  4.40000000E+01  0.00000000E+00
  2.40000000E+02  4.20000000E+01  0.00000000E+00
  2.40000000E+02  4.00000000E+01  0.00000000E+00
  2.40000000E+02  3.80000000E+01  0.00000000E+00
  2.40000000E+02  3.60000000E+01  0.00000000E+00
  2.40000000E+02  3.40000000E+01  0.00000000E+00
  2.40000000E+02  3.20000000E+01  0.00000000E+00
  2.40000000E+02  3.00000000E+01  0.00000000E+00
  2.40000000E+02  2.80000000E+01  0.00000000E+00
  2.40000000E+02  2.60000000E+01  0.00000000E+00
  2.40000000E+02  2.40000000E+01  0.00000000E+00
  2.40000000E+02  2.20000000E+01  0.00000000E+00
  2.40000000E+02  2.00000000E+01  0.00000000E+00
  2.40000000E+02  1.80000000E+01  0.00000000E+00
  2.40000000E+02  1.60000000E+01  0.00000000E+00
  2.40000000E+02  1.40000000E+01  0.00000000E+00
  2.40000000E+02  1.20000000E+01  0.00000000E+00
  2.40000000E+02  1.00000000E+01  0.00000000E+00
  2.40000000E+02  8.00000000E+00  0.00000000E+00
  2.40000000E+02  6.00000000E+00  0.00000000E+00
  2.40000000E+02  4.00000000E+00  0.00000000E+00
  2.40000000E+02  2.00000000E+00  0.00000000E+00
  2.40000000E+02 -3.33066907E-14  0.00000000E+00
  2.50000000E+02  1.00000000E+02  0.00000000E+00
  2.50000000E+02  9.80000000E+01  0.00000000E+00
  2.50000000E+02  9.60000000E+01  0.00000000E+00
  2.50000000E+02  9.40000000E+01  0.00000000E+00
  2.50000000E+02  9.20000000E+01  0.00000000E+00
  2.50000000E+02  9.00000000E+01  0.00000000E+00
  2.50000000E+02  8.80000000E+01  0.00000000E+00
  2.50000000E+02  8.60000000E+01  0.00000000E+00
  2.50000000E+02  8.40000000E+01  0.00000000E+00
  2.50000000E+02  8.20000000E+01  0.00000000E+00
  2.50000000E+02  8.00000000E+01  0.00000000E+00
  2.50000000E+02  7.80000000E+01  0.00000000E+00
  2.50000000E+02  7.60000000E+01  0.00000000E+00
  2.50000000E+02  7.40000000E+01  0.00000000E+00
  2.50000000E+02  7.20000000E+01  0.00000000E+00
  2.50000000E+02  7.00000000E+01  0.00000000E+00
  2.50000000E+02  6.80000000E+01  0.00000000E+00
  2.50000000E+02  6.60000000E+01  0.00000000E+00
  2.50000000E+02  6.40000000E+01  0.00000000E+00
  2.50000000E+02  6.20000000E+01  0.00000000E+00
  2.50000000E+02  6.00000000E+01  0.00000000E+00
  2.50000000E+02  5.80000000E+01  0.00000000E+00
  2.50000000E+02  5.60000000E+01  0.00000000E+00
  2.50000000E+02  5.40000000E+01  0.00000000E+00
  2.50000000E+02  5.20000000E+01  0.00000000E+00
  2.50000000E+02  5.00000000E+01  0.00000000E+00
  2.50000000E+02  4.80000000E+01  0.00000000E+00
  2.50000000E+02  4.60000000E+01  0.00000000E+00
  2.50000000E+02  4.40000000E+01  0.00000000E+00
  2.50000000E+02  4.20000000E+01  0.00000000E+00
  2.50000000E+02  4.00000000E+01  0.00000000E+00
  2.50000000E+02  3.80000000E+01  0.00000000E+00
  2.50000000E+02  3.60000000E+01  0.00000000E+00
  2.50000000E+02  3.40000000E+01  0.00000000E+00
  2.50000000E+02  3.20000000E+01  0.00000000E+00
  2.50000000E+02  3.00000000E+01  0.00000000E+00
  2.50000000E+02  2.80000000E+01  0.00000000E+00
  2.50000000E+02  2.60000000E+01  0.00000000E+00
  2.50000000E+02  2.40000000E+01  0.00000000E+00
  2.50000000E+02  2.20000000E+01  0.00000000E+00
  2.50000000E+02  2.00000000E+01  0.00000000E+00
  2.50000000E+02  1.80000000E+01  0.00000000E+00
  2.50000000E+02  1.60000000E+01  0.00000000E+00
  2.50000000E+02  1.40000000E+01  0.00000000E+00
  2.50000000E+02  1.20000000E+01  0.00000000E+00
  2.50000000E+02  1.00000000E+01  0.00000000E+00
  2.50000000E+02  8.00000000E+00  0.00000000E+00
  2.50000000E+02  6.00000000E+00  0.00000000E+00
  2.50000000E+02  4.00000000E+00  0.00000000E+00
  2.50000000E+02  2.00000000E+00  0.00000000E+00
  2.50000000E+02 -3.33066907E-14  0.00000000E+00
  2.60000000E+02  1.00000000E+02  0.00000000E+00
  2.60000000E+02  9.80000000E+01  0.00000000E+00
  2.60000000E+02  9.60000000E+01  0.00000000E+00
  2.60000000E+02  9.40000000E+01  0.00000000E+00
  2.60000000E+02  9.20000000E+01  0.00000000E+00
  2.60000000E+02  9.00000000E+01  0.00000000E+00
  2.60000000E+02  8.80000000E+01  0.00000000E+00
  2.60000000E+02  8.60000000E+01  0.00000000E+00
  2.60000000E+02  8.40000000E+01  0.00000000E+00
  2.60000000E+02  8.20000000E+01  0.00000000E+00
  2.60000000E+02  8.00000000E+01  0.00000000E+00
  2.60000000E+02  7.80000000E+01  0.00000000E+00
  2.60000000E+02  7.60000000E+01  0.00000000E+00
  2.60000000E+02  7.40000000E+01  0.00000000E+00
  2.60000000E+02  7.20000000E+01  0.00000000E+00
  2.60000000E+02  7.00000000E+01  0.00000000E+00
  2.60000000E+02  6.80000000E+01  0.00000000E+00
  2.60000000E+02  6.60000000E+01  0.00000000E+00
  2.60000000E+02  6.40000000E+01  0.00000000E+00
  2.60000000E+02  6.20000000E+01  0.00000000E+00
  2.60000000E+02  6.00000000E+01  0.00000000E+00
  2.60000000E+02  5.80000000E+01  0.00000000E+00
  2.60000000E+02  5.60000000E+01  0.00000000E+00
  2.60000000E+02  5.40000000E+01  0.00000000E+00
  2.60000000E+02  5.20000000E+01  0.00000000E+00
  2.60000000E+02  5.00000000E+01  0.00000000E+00
  2.60000000E+02  4.80000000E+01  0.00000000E+00
  2.60000000E+02  4.60000000E+01  0.00000000E+00
  2.60000000E+02  4.40000000E+01  0.00000000E+00
  2.60000000E+02  4.20000000E+01  0.00000000E+00
  2.60000000E+02  4.00000000E+01  0.00000000E+00
  2.60000000E+02  3.80000000E+01  0.00000000E+00
  2.60000000E+02  3.60000000E+01  0.00000000E+00
  2.60000000E+02  3.40000000E+01  0.00000000E+00
  2.60000000E+02  3.20000000E+01  0.00000000E+00
  2.60000000E+02  3.00000000E+01  0.00000000E+00
  2.60000000E+02  2.80000000E+01  0.00000000E+00
  2.60000000E+02  2.60000000E+01  0.00000000E+00
  2.60000000E+02  2.40000000E+01  0.00000000E+00
  2.60000000E+02  2.20000000E+01  0.00000000E+00
  2.60000000E+02  2.00000000E+01  0.00000000E+00
  2.60000000E+02  1.80000000E+01  0.00000000E+00
  2.60000000E+02  1.60000000E+01  0.00000000E+00
  2.60000000E+02  1.40000000E+01  0.00000000E+00
  2.60000000E+02  1.20000000E+01  0.00000000E+00
  2.60000000E+02  1.00000000E+01  0.00000000E+00
  2.60000000E+02  8.00000000E+00  0.00000000E+00
  2.60000000E+02  6.00000000E+00  0.00000000E+00
  2.60000000E+02  4.00000000E+00  0.00000000E+00
  2.60000000E+02  2.00000000E+00  0.00000000E+00
  2.60000000E+02 -3.33066907E-14  0.00000000E+00
  2.70000000E+02  1.00000000E+02  0.00000000E+00
  2.70000000E+02  9.80000000E+01  0.00000000E+00
  2.70000000E+02  9.60000000E+01  0.00000000E+00
  2.70000000E+02  9.40000000E+01  0.00000000E+00
  2.70000000E+02  9.20000000E+01  0.00000000E+00
  2.70000000E+02  9.00000000E+01  0.00000000E+00
  2.70000000E+02  8.80000000E+01  0.00000000E+00
  2.70000000E+02  8.60000000E+01  0.00000000E+00
  2.70000000E+02  8.40000000E+01  0.00000000E+00
  2.70000000E+02  8.20000000E+01  0.00000000E+00
  2.70000000E+02  8.00000000E+01  0.00000000E+00
  2.70000000E+02  7.80000000E+01  0.00000000E+00
  2.70000000E+02  7.60000000E+01  0.00000000E+00
  2.70000000E+02  7.40000000E+01  0.00000000E+00
  2.70000000E+02  7.20000000E+01  0.00000000E+00
  2.70000000E+02  7.00000000E+01  0.00000000E+00
  2.70000000E+02  6.80000000E+01  0.00000000E+00
  2.70000000E+02  6.60000000E+01  0.00000000E+00
  2.70000000E+02  6.40000000E+01  0.00000000E+00
  2.70000000E+02  6.20000000E+01  0.00000000E+00
  2.70000000E+02  6.00000000E+01  0.00000000E+00
  2.70000000E+02  5.80000000E+01  0.00000000E+00
  2.70000000E+02  5.60000000E+01  0.00000000E+00
  2.70000000E+02  5.40000000E+01  0.00000000E+00
  2.70000000E+02  5.20000000E+01  0.00000000E+00
  2.70000000E+02  5.00000000E+01  0.00000000E+00
  2.70000000E+02  4.80000000E+01  0.00000000E+00
  2.70000000E+02  4.60000000E+01  0.00000000E+00
  2.70000000E+02  4.40000000E+01  0.00000000E+00
  2.70000000E+02  4.20000000E+01  0.00000000E+00
  2.70000000E+02  4.00000000E+01  0.00000000E+00
  2.70000000E+02  3.80000000E+01  0.00000000E+00
  2.70000000E+02  3.60000000E+01  0.00000000E+00
  2.70000000E+02  3.40000000E+01  0.00000000E+00
  2.70000000E+02  3.20000000E+01  0.00000000E+00
  2.70000000E+02  3.00000000E+01  0.00000000E+00
  2.70000000E+02  2.80000000E+01  0.00000000E+00
  2.70000000E+02  2.60000000E+01  0.00000000E+00
  2.70000000E+02  2.40000000E+01  0.00000000E+00
  2.70000000E+02  2.20000000E+01  0.00000000E+00
  2.70000000E+02  2.00000000E+01  0.00000000E+00
  2.70000000E+02  1.80000000E+01  0.00000000E+00
  2.70000000E+02  1.60000000E+01  0.00000000E+00
  2.70000000E+02  1.40000000E+01  0.00000000E+00
  2.70000000E+02  1.20000000E+01  0.00000000E+00
  2.70000000E+02  1.00000000E+01  0.00000000E+00
  2.70000000E+02  8.00000000E+00  0.00000000E+00
  2.70000000E+02  6.00000000E+00  0.00000000E+00
  2.70000000E+02  4.00000000E+00  0.00000000E+00
  2.70000000E+02  2.00000000E+00  0.00000000E+00
  2.70000000E+02 -3.33066907E-14  0.00000000E+00
  2.80000000E+02  1.00000000E+02  0.00000000E+00
  2.80000000E+02  9.80000000E+01  0.00000000E+00
  2.80000000E+02  9.60000000E+01  0.00000000E+00
  2.80000000E+02  9.40000000E+01  0.00000000E+00
  2.80000000E+02  9.20000000E+01  0.00000000E+00
  2.80000000E+02  9.00000000E+01  0.00000000E+00
  2.80000000E+02  8.80000000E+01  0.00000000E+00
  2.80000000E+02  8.60000000E+01  0.00000000E+00
  2.80000000E+02  8.40000000E+01  0.00000000E+00
  2.80000000E+02  8.20000000E+01  0.00000000E+00
  2.80000000E+02  8.00000000E+01  0.00000000E+00
  2.80000000E+02  7.80000000E+01  0.00000000E+00
  2.80000000E+02  7.60000000E+01  0.00000000E+00
  2.80000000E+02  7.40000000E+01  0.00000000E+00
  2.80000000E+02  7.20000000E+01  0.00000000E+00
  2.80000000E+02  7.00000000E+01  0.00000000E+00
  2.80000000E+02  6.80000000E+01  0.00000000E+00
  2.80000000E+02  6.60000000E+01  0.00000000E+00
  2.80000000E+02  6.40000000E+01  0.00000000E+00
  2.80000000E+02  6.20000000E+01  0.00000000E+00
  2.80000000E+02  6.00000000E+01  0.00000000E+00
  2.80000000E+02  5.80000000E+01  0.00000000E+00
  2.80000000E+02  5.60000000E+01  0.00000000E+00
  2.80000000E+02  5.40000000E+01  0.00000000E+00
  2.80000000E+02  5.20000000E+01  0.00000000E+00
  2.80000000E+02  5.00000000E+01  0.00000000E+00
  2.80000000E+02  4.80000000E+01  0.00000000E+00
  2.80000000E+02  4.60000000E+01  0.00000000E+00
  2.80000000E+02  4.40000000E+01  0.00000000E+00
  2.80000000E+02  4.20000000E+01  0.00000000E+00
  2.80000000E+02  4.00000000E+01  0.00000000E+00
  2.80000000E+02  3.80000000E+01  0.00000000E+00
  2.80000000E+02  3.60000000E+01  0.00000000E+00
  2.80000000E+02  3.40000000E+01  0.00000000E+00
  2.80000000E+02  3.20000000E+01  0.00000000E+00
  2.80000000E+02  3.00000000E+01  0.00000000E+00
  2.80000000E+02  2.80000000E+01  0.00000000E+00
  2.80000000E+02  2.60000000E+01  0.00000000E+00
  2.80000000E+02  2.40000000E+01  0.00000000E+00
  2.80000000E+02  2.20000000E+01  0.00000000E+00
  2.80000000E+02  2.00000000E+01  0.00000000E+00
  2.80000000E+02  1.80000000E+01  0.00000000E+00
  2.80000000E+02  1.60000000E+01  0.00000000E+00
  2.80000000E+02  1.40000000E+01  0.00000000E+00
  2.80000000E+02  1.20000000E+01  0.00000000E+00
  2.80000000E+02  1.00000000E+01  0.00000000E+00
  2.80000000E+02  8.00000000E+00  0.00000000E+00
  2.80000000E+02  6.00000000E+00  0.00000000E+00
  2.80000000E+02  4.00000000E+00  0.00000000E+00
  2.80000000E+02  2.00000000E+00  0.00000000E+00
  2.80000000E+02 -3.33066907E-14  0.00000000E+00
  2.90000000E+02  1.00000000E+02  0.00000000E+00
  2.90000000E+02  9.80000000E+01  0.00000000E+00
  2.90000000E+02  9.60000000E+01  0.00000000E+00
  2.90000000E+02  9.40000000E+01  0.00000000E+00
  2.90000000E+02  9.20000000E+01  0.00000000E+00
  2.90000000E+02  9.00000000E+01  0.00000000E+00
  2.90000000E+02  8.80000000E+01  0.00000000E+00
  2.90000000E+02  8.60000000E+01  0.00000000E+00
  2.90000000E+02  8.40000000E+01  0.00000000E+00
  2.90000000E+02  8.20000000E+01  0.00000000E+00
  2.90000000E+02  8.00000000E+01  0.00000000E+00
  2.90000000E+02  7.80000000E+01  0.00000000E+00
  2.90000000E+02  7.60000000E+01  0.00000000E+00
  2.90000000E+02  7.40000000E+01  0.00000000E+00
  2.90000000E+02  7.20000000E+01  0.00000000E+00
  2.90000000E+02  7.00000000E+01  0.00000000E+00
  2.90000000E+02  6.80000000E+01  0.00000000E+00
  2.90000000E+02  6.60000000E+01  0.00000000E+00
  2.90000000E+02  6.40000000E+01  0.00000000E+00
  2.90000000E+02  6.20000000E+01  0.00000000E+00
  2.90000000E+02  6.00000000E+01  0.00000000E+00
  2.90000000E+02  5.80000000E+01  0.00000000E+00
  2.90000000E+02  5.60000000E+01  0.00000000E+00
  2.90000000E+02  5.40000000E+01  0.00000000E+00
  2.90000000E+02  5.20000000E+01  0.00000000E+00
  2.90000000E+02  5.00000000E+01  0.00000000E+00
  2.90000000E+02  4.80000000E+01  0.00000000E+00
  2.90000000E+02  4.60000000E+01  0.00000000E+00
  2.90000000E+02  4.40000000E+01  0.00000000E+00
  2.90000000E+02  4.20000000E+01  0.00000000E+00
  2.90000000E+02  4.00000000E+01  0.00000000E+00
  2.90000000E+02  3.80000000E+01  0.00000000E+00
  2.90000000E+02  3.60000000E+01  0.00000000E+00
  2.90000000E+02  3.40000000E+01  0.00000000E+00
  2.90000000E+02  3.20000000E+01  0.00000000E+00
  2.90000000E+02  3.00000000E+01  0.00000000E+00
  2.90000000E+02  2.80000000E+01  0.00000000E+00
  2.90000000E+02  2.60000000E+01  0.00000000E+00
  2.90000000E+02  2.40000000E+01  0.00000000E+00
  2.90000000E+02  2.20000000E+01  0.00000000E+00
  2.90000000E+02  2.00000000E+01  0.00000000E+00
  2.90000000E+02  1.80000000E+01  0.00000000E+00
  2.90000000E+02  1.60000000E+01  0.00000000E+00
  2.90000000E+02  1.40000000E+01  0.00000000E+00
  2.90000000E+02  1.20000000E+01  0.00000000E+00
  2.90000000E+02  1.00000000E+01  0.00000000E+00
  2.90000000E+02  8.00000000E+00  0.00000000E+00
  2.90000000E+02  6.00000000E+00  0.00000000E+00
  2.90000000E+02  4.00000000E+00  0.00000000E+00
  2.90000000E+02  2.00000000E+00  0.00000000E+00
  2.90000000E+02 -3.33066907E-14  0.00000000E+00
  3.00000000E+02  1.00000000E+02  0.00000000E+00
  3.00000000E+02  9.80000000E+01  0.00000000E+00
  3.00000000E+02  9.60000000E+01  0.00000000E+00
  3.00000000E+02  9.40000000E+01  0.00000000E+00
  3.00000000E+02  9.20000000E+01  0.00000000E+00
  3.00000000E+02  9.00000000E+01  0.00000000E+00
  3.00000000E+02  8.80000000E+01  0.00000000E+00
  3.00000000E+02  8.60000000E+01  0.00000000E+00
  3.00000000E+02  8.40000000E+01  0.00000000E+00
  3.00000000E+02  8.20000000E+01  0.00000000E+00
  3.00000000E+02  8.00000000E+01  0.00000000E+00
  3.00000000E+02  7.80000000E+01  0.00000000E+00
  3.00000000E+02  7.60000000E+01  0.00000000E+00
  3.00000000E+02  7.40000000E+01  0.00000000E+00
  3.00000000E+02  7.20000000E+01  0.00000000E+00
  3.00000000E+02  7.00000000E+01  0.00000000E+00
  3.00000000E+02  6.80000000E+01  0.00000000E+00
  3.00000000E+02  6.60000000E+01  0.00000000E+00
  3.00000000E+02  6.40000000E+01  0.00000000E+00
  3.00000000E+02  6.20000000E+01  0.00000000E+00
  3.00000000E+02  6.00000000E+01  0.00000000E+00
  3.00000000E+02  5.80000000E+01  0.00000000E+00
  3.00000000E+02  5.60000000E+01  0.00000000E+00
  3.00000000E+02  5.40000000E+01  0.00000000E+00
  3.00000000E+02  5.20000000E+01  0.00000000E+00
  3.00000000E+02  5.00000000E+01  0.00000000E+00
  3.00000000E+02  4.80000000E+01  0.00000000E+00
  3.00000000E+02  4.60000000E+01  0.00000000E+00
  3.00000000E+02  4.40000000E+01  0.00000000E+00
  3.00000000E+02  4.20000000E+01  0.00000000E+00
  3.00000000E+02  4.00000000E+01  0.00000000E+00
  3.00000000E+02  3.80000000E+01  0.00000000E+00
  3.00000000E+02  3.60000000E+01  0.00000000E+00
  3.00000000E+02  3.40000000E+01  0.00000000E+00
  3.00000000E+02  3.20000000E+01  0.00000000E+00
  3.00000000E+02  3.00000000E+01  0.00000000E+00
  3.00000000E+02  2.80000000E+01  0.00000000E+00
  3.00000000E+02  2.60000000E+01  0.00000000E+00
  3.00000000E+02  2.40000000E+01  0.00000000E+00
  3.00000000E+02  2.20000000E+01  0.00000000E+00
  3.00000000E+02  2.00000000E+01  0.00000000E+00
  3.00000000E+02  1.80000000E+01  0.00000000E+00
  3.00000000E+02  1.60000000E+01  0.00000000E+00
  3.00000000E+02  1.40000000E+01  0.00000000E+00
  3.00000000E+02  1.20000000E+01  0.00000000E+00
  3.00000000E+02  1.00000000E+01  0.00000000E+00
  3.00000000E+02  8.00000000E+00  0.00000000E+00
  3.00000000E+02  6.00000000E+00  0.00000000E+00
  3.00000000E+02  4.00000000E+00  0.00000000E+00
  3.00000000E+02  2.00000000E+00  0.00000000E+00
  3.00000000E+02 -3.33066907E-14  0.00000000E+00
  3.10000000E+02  1.00000000E+02  0.00000000E+00
  3.10000000E+02  9.80000000E+01  0.00000000E+00
  3.10000000E+02  9.60000000E+01  0.00000000E+00
  3.10000000E+02  9.40000000E+01  0.00000000E+00
  3.10000000E+02  9.20000000E+01  0.00000000E+00
  3.10000000E+02  9.00000000E+01  0.00000000E+00
  3.10000000E+02  8.80000000E+01  0.00000000E+00
  3.10000000E+02  8.60000000E+01  0.00000000E+00
  3.10000000E+02  8.40000000E+01  0.00000000E+00
  3.10000000E+02  8.20000000E+01  0.00000000E+00
  3.10000000E+02  8.00000000E+01  0.00000000E+00
  3.10000000E+02  7.80000000E+01  0.00000000E+00
  3.10000000E+02  7.60000000E+01  0.00000000E+00
  3.10000000E+02  7.40000000E+01  0.00000000E+00
  3.10000000E+02  7.20000000E+01  0.00000000E+00
  3.10000000E+02  7.00000000E+01  0.00000000E+00
  3.10000000E+02  6.80000000E+01  0.00000000E+00
  3.10000000E+02  6.60000000E+01  0.00000000E+00
  3.10000000E+02  6.40000000E+01  0.00000000E+00
  3.10000000E+02  6.20000000E+01  0.00000000E+00
  3.10000000E+02  6.00000000E+01  0.00000000E+00
  3.10000000E+02  5.80000000E+01  0.00000000E+00
  3.10000000E+02  5.60000000E+01  0.00000000E+00
  3.10000000E+02  5.40000000E+01  0.00000000E+00
  3.10000000E+02  5.20000000E+01  0.00000000E+00
  3.10000000E+02  5.00000000E+01  0.00000000E+00
  3.10000000E+02  4.80000000E+01  0.00000000E+00
  3.10000000E+02  4.60000000E+01  0.00000000E+00
  3.10000000E+02  4.40000000E+01  0.00000000E+00
  3.10000000E+02  4.20000000E+01  0.00000000E+00
  3.10000000E+02  4.00000000E+01  0.00000000E+00
  3.10000000E+02  3.80000000E+01  0.00000000E+00
  3.10000000E+02  3.60000000E+01  0.00000000E+00
  3.10000000E+02  3.40000000E+01  0.00000000E+00
  3.10000000E+02  3.20000000E+01  0.00000000E+00
  3.10000000E+02  3.00000000E+01  0.00000000E+00
  3.10000000E+02  2.80000000E+01  0.00000000E+00
  3.10000000E+02  2.60000000E+01  0.00000000E+00
  3.10000000E+02  2.40000000E+01  0.00000000E+00
  3.10000000E+02  2.20000000E+01  0.00000000E+00
  3.10000000E+02  2.00000000E+01  0.00000000E+00
  3.10000000E+02  1.80000000E+01  0.00000000E+00
  3.10000000E+02  1.60000000E+01  0.00000000E+00
  3.10000000E+02  1.40000000E+01  0.00000000E+00
  3.10000000E+02  1.20000000E+01  0.00000000E+00
  3.10000000E+02  1.00000000E+01  0.00000000E+00
  3.10000000E+02  8.00000000E+00  0.00000000E+00
  3.10000000E+02  6.00000000E+00  0.00000000E+00
  3.10000000E+02  4.00000000E+00  0.00000000E+00
  3.10000000E+02  2.00000000E+00  0.00000000E+00
  3.10000000E+02 -3.33066907E-14  0.00000000E+00
  3.20000000E+02  1.00000000E+02  0.00000000E+00
  3.20000000E+02  9.80000000E+01  0.00000000E+00
  3.20000000E+02  9.60000000E+01  0.00000000E+00
  3.20000000E+02  9.40000000E+01  0.00000000E+00
  3.20000000E+02  9.20000000E+01  0.00000000E+00
  3.20000000E+02  9.00000000E+01  0.00000000E+00
  3.20000000E+02  8.80000000E+01  0.00000000E+00
  3.20000000E+02  8.60000000E+01  0.00000000E+00
  3.20000000E+02  8.40000000E+01  0.00000000E+00
  3.20000000E+02  8.20000000E+01  0.00000000E+00
  3.20000000E+02  8.00000000E+01  0.00000000E+00
  3.20000000E+02  7.80000000E+01  0.00000000E+00
  3.20000000E+02  7.60000000E+01  0.00000000E+00
  3.20000000E+02  7.40000000E+01  0.00000000E+00
  3.20000000E+02  7.20000000E+01  0.00000000E+00
  3.20000000E+02  7.00000000E+01  0.00000000E+00
  3.20000000E+02  6.80000000E+01  0.00000000E+00
  3.20000000E+02  6.60000000E+01  0.00000000E+00
  3.20000000E+02  6.40000000E+01  0.00000000E+00
  3.20000000E+02  6.20000000E+01  0.00000000E+00
  3.20000000E+02  6.00000000E+01  0.00000000E+00
  3.20000000E+02  5.80000000E+01  0.00000000E+00
  3.20000000E+02  5.60000000E+01  0.00000000E+00
  3.20000000E+02  5.40000000E+01  0.00000000E+00
  3.20000000E+02  5.20000000E+01  0.00000000E+00
  3.20000000E+02  5.00000000E+01  0.00000000E+00
  3.20000000E+02  4.80000000E+01  0.00000000E+00
  3.20000000E+02  4.60000000E+01  0.00000000E+00
  3.20000000E+02  4.40000000E+01  0.00000000E+00
  3.20000000E+02  4.20000000E+01  0.00000000E+00
  3.20000000E+02  4.00000000E+01  0.00000000E+00
  3.20000000E+02  3.80000000E+01  0.00000000E+00
  3.20000000E+02  3.60000000E+01  0.00000000E+00
  3.20000000E+02  3.40000000E+01  0.00000000E+00
  3.20000000E+02  3.20000000E+01  0.00000000E+00
  3.20000000E+02  3.00000000E+01  0.00000000E+00
  3.20000000E+02  2.80000000E+01  0.00000000E+00
  3.20000000E+02  2.60000000E+01  0.00000000E+00
  3.20000000E+02  2.40000000E+01  0.00000000E+00
  3.20000000E+02  2.20000000E+01  0.00000000E+00
  3.20000000E+02  2.00000000E+01  0.00000000E+00
  3.20000000E+02  1.80000000E+01  0.00000000E+00
  3.20000000E+02  1.60000000E+01  0.00000000E+00
  3.20000000E+02  1.40000000E+01  0.00000000E+00
  3.20000000E+02  1.20000000E+01  0.00000000E+00
  3.20000000E+02  1.00000000E+01  0.00000000E+00
  3.20000000E+02  8.00000000E+00  0.00000000E+00
  3.20000000E+02  6.00000000E+00  0.00000000E+00
  3.20000000E+02  4.00000000E+00  0.00000000E+00
  3.20000000E+02  2.00000000E+00  0.00000000E+00
  3.20000000E+02 -3.33066907E-14  0.00000000E+00
  3.30000000E+02  1.00000000E+02  0.00000000E+00
  3.30000000E+02  9.80000000E+01  0.00000000E+00
  3.30000000E+02  9.60000000E+01  0.00000000E+00
  3.30000000E+02  9.40000000E+01  0.00000000E+00
  3.30000000E+02  9.20000000E+01  0.00000000E+00
  3.30000000E+02  9.00000000E+01  0.00000000E+00
  3.30000000E+02  8.80000000E+01  0.00000000E+00
  3.30000000E+02  8.60000000E+01  0.00000000E+00
  3.30000000E+02  8.40000000E+01  0.00000000E+00
  3.30000000E+02  8.20000000E+01  0.00000000E+00
  3.30000000E+02  8.00000000E+01  0.00000000E+00
  3.30000000E+02  7.80000000E+01  0.00000000E+00
  3.30000000E+02  7.60000000E+01  0.00000000E+00
  3.30000000E+02  7.40000000E+01  0.00000000E+00
  3.30000000E+02  7.20000000E+01  0.00000000E+00
  3.30000000E+02  7.00000000E+01  0.00000000E+00
  3.30000000E+02  6.80000000E+01  0.00000000E+00
  3.30000000E+02  6.60000000E+01  0.00000000E+00
  3.30000000E+02  6.40000000E+01  0.00000000E+00
  3.30000000E+02  6.20000000E+01  0.00000000E+00
  3.30000000E+02  6.00000000E+01  0.00000000E+00
  3.30000000E+02  5.80000000E+01  0.00000000E+00
  3.30000000E+02  5.60000000E+01  0.00000000E+00
  3.30000000E+02  5.40000000E+01  0.00000000E+00
  3.30000000E+02  5.20000000E+01  0.00000000E+00
  3.30000000E+02  5.00000000E+01  0.00000000E+00
  3.30000000E+02  4.80000000E+01  0.00000000E+00
  3.30000000E+02  4.60000000E+01  0.00000000E+00
  3.30000000E+02  4.40000000E+01  0.00000000E+00
  3.30000000E+02  4.20000000E+01  0.00000000E+00
  3.30000000E+02  4.00000000E+01  0.00000000E+00
  3.30000000E+02  3.80000000E+01  0.00000000E+00
  3.30000000E+02  3.60000000E+01  0.00000000E+00
  3.30000000E+02  3.40000000E+01  0.00000000E+00
  3.30000000E+02  3.20000000E+01  0.00000000E+00
  3.30000000E+02  3.00000000E+01  0.00000000E+00
  3.30000000E+02  2.80000000E+01  0.00000000E+00
  3.30000000E+02  2.60000000E+01  0.00000000E+00
  3.30000000E+02  2.40000000E+01  0.00000000E+00
  3.30000000E+02  2.20000000E+01  0.00000000E+00
  3.30000000E+02  2.00000000E+01  0.00000000E+00
  3.30000000E+02  1.80000000E+01  0.00000000E+00
  3.30000000E+02  1.60000000E+01  0.00000000E+00
  3.30000000E+02  1.40000000E+01  0.00000000E+00
  3.30000000E+02  1.20000000E+01  0.00000000E+00
  3.30000000E+02  1.00000000E+01  0.00000000E+00
  3.30000000E+02  8.00000000E+00  0.00000000E+00
  3.30000000E+02  6.00000000E+00  0.00000000E+00
  3.30000000E+02  4.00000000E+00  0.00000000E+00
  3.30000000E+02  2.00000000E+00  0.00000000E+00
  3.30000000E+02 -3.33066907E-14  0.00000000E+00
  3.40000000E+02  1.00000000E+02  0.00000000E+00
  3.40000000E+02  9.80000000E+01  0.00000000E+00
  3.40000000E+02  9.60000000E+01  0.00000000E+00
  3.40000000E+02  9.40000000E+01  0.00000000E+00
  3.40000000E+02  9.20000000E+01  0.00000000E+00
  3.40000000E+02  9.00000000E+01  0.00000000E+00
  3.40000000E+02  8.80000000E+01  0.00000000E+00
  3.40000000E+02  8.60000000E+01  0.00000000E+00
  3.40000000E+02  8.40000000E+01  0.00000000E+00
  3.40000000E+02  8.20000000E+01  0.00000000E+00
  3.40000000E+02  8.00000000E+01  0.00000000E+00
  3.40000000E+02  7.80000000E+01  0.00000000E+00
  3.40000000E+02  7.60000000E+01  0.00000000E+00
  3.40000000E+02  7.40000000E+01  0.00000000E+00
  3.40000000E+02  7.20000000E+01  0.00000000E+00
  3.40000000E+02  7.00000000E+01  0.00000000E+00
  3.40000000E+02  6.80000000E+01  0.00000000E+00
  3.40000000E+02  6.60000000E+01  0.00000000E+00
  3.40000000E+02  6.40000000E+01  0.00000000E+00
  3.40000000E+02  6.20000000E+01  0.00000000E+00
  3.40000000E+02  6.00000000E+01  0.00000000E+00
  3.40000000E+02  5.80000000E+01  0.00000000E+00
  3.40000000E+02  5.60000000E+01  0.00000000E+00
  3.40000000E+02  5.40000000E+01  0.00000000E+00
  3.40000000E+02  5.20000000E+01  0.00000000E+00
  3.40000000E+02  5.00000000E+01  0.00000000E+00
  3.40000000E+02  4.80000000E+01  0.00000000E+00
  3.40000000E+02  4.60000000E+01  0.00000000E+00
  3.40000000E+02  4.40000000E+01  0.00000000E+00
  3.40000000E+02  4.20000000E+01  0.00000000E+00
  3.40000000E+02  4.00000000E+01  0.00000000E+00
  3.40000000E+02  3.80000000E+01  0.00000000E+00
  3.40000000E+02  3.60000000E+01  0.00000000E+00
  3.40000000E+02  3.40000000E+01  0.00000000E+00
  3.40000000E+02  3.20000000E+01  0.00000000E+00
  3.40000000E+02  3.00000000E+01  0.00000000E+00
  3.40000000E+02  2.80000000E+01  0.00000000E+00
  3.40000000E+02  2.60000000E+01  0.00000000E+00
  3.40000000E+02  2.40000000E+01  0.00000000E+00
  3.40000000E+02  2.20000000E+01  0.00000000E+00
  3.40000000E+02  2.00000000E+01  0.00000000E+00
  3.40000000E+02  1.80000000E+01  0.00000000E+00
  3.40000000E+02  1.60000000E+01  0.00000000E+00
  3.40000000E+02  1.40000000E+01  0.00000000E+00
  3.40000000E+02  1.20000000E+01  0.00000000E+00
  3.40000000E+02  1.00000000E+01  0.00000000E+00
  3.40000000E+02  8.00000000E+00  0.00000000E+00
  3.40000000E+02  6.00000000E+00  0.00000000E+00
  3.40000000E+02  4.00000000E+00  0.00000000E+00
  3.40000000E+02  2.00000000E+00  0.00000000E+00
  3.40000000E+02 -3.33066907E-14  0.00000000E+00
  3.50000000E+02  1.00000000E+02  0.00000000E+00
  3.50000000E+02  9.80000000E+01  0.00000000E+00
  3.50000000E+02  9.60000000E+01  0.00000000E+00
  3.50000000E+02  9.40000000E+01  0.00000000E+00
  3.50000000E+02  9.20000000E+01  0.00000000E+00
  3.50000000E+02  9.00000000E+01  0.00000000E+00
  3.50000000E+02  8.80000000E+01  0.00000000E+00
  3.50000000E+02  8.60000000E+01  0.00000000E+00
  3.50000000E+02  8.40000000E+01  0.00000000E+00
  3.50000000E+02  8.20000000E+01  0.00000000E+00
  3.50000000E+02  8.00000000E+01  0.00000000E+00
  3.50000000E+02  7.80000000E+01  0.00000000E+00
  3.50000000E+02  7.60000000E+01  0.00000000E+00
  3.50000000E+02  7.40000000E+01  0.00000000E+00
  3.50000000E+02  7.20000000E+01  0.00000000E+00
  3.50000000E+02  7.00000000E+01  0.00000000E+00
  3.50000000E+02  6.80000000E+01  0.00000000E+00
  3.50000000E+02  6.60000000E+01  0.00000000E+00
  3.50000000E+02  6.40000000E+01  0.00000000E+00
  3.50000000E+02  6.20000000E+01  0.00000000E+00
  3.50000000E+02  6.00000000E+01  0.00000000E+00
  3.50000000E+02  5.80000000E+01  0.00000000E+00
  3.50000000E+02  5.60000000E+01  0.00000000E+00
  3.50000000E+02  5.40000000E+01  0.00000000E+00
  3.50000000E+02  5.20000000E+01  0.00000000E+00
  3.50000000E+02  5.00000000E+01  0.00000000E+00
  3.50000000E+02  4.80000000E+01  0.00000000E+00
  3.50000000E+02  4.60000000E+01  0.00000000E+00
  3.50000000E+02  4.40000000E+01  0.00000000E+00
  3.50000000E+02  4.20000000E+01  0.00000000E+00
  3.50000000E+02  4.00000000E+01  0.00000000E+00
  3.50000000E+02  3.80000000E+01  0.00000000E+00
  3.50000000E+02  3.60000000E+01  0.00000000E+00
  3.50000000E+02  3.40000000E+01  0.00000000E+00
  3.50000000E+02  3.20000000E+01  0.00000000E+00
  3.50000000E+02  3.00000000E+01  0.00000000E+00
  3.50000000E+02  2.80000000E+01  0.00000000E+00
  3.50000000E+02  2.60000000E+01  0.00000000E+00
  3.50000000E+02  2.40000000E+01  0.00000000E+00
  3.50000000E+02  2.20000000E+01  0.00000000E+00
  3.50000000E+02  2.00000000E+01  0.00000000E+00
  3.50000000E+02  1.80000000E+01  0.00000000E+00
  3.50000000E+02  1.60000000E+01  0.00000000E+00
  3.50000000E+02  1.40000000E+01  0.00000000E+00
  3.50000000E+02  1.20000000E+01  0.00000000E+00
  3.50000000E+02  1.00000000E+01  0.00000000E+00
  3.50000000E+02  8.00000000E+00  0.00000000E+00
  3.50000000E+02  6.00000000E+00  0.00000000E+00
  3.50000000E+02  4.00000000E+00  0.00000000E+00
  3.50000000E+02  2.00000000E+00  0.00000000E+00
  3.50000000E+02 -3.33066907E-14  0.00000000E+00
  3.60000000E+02  1.00000000E+02  0.00000000E+00
  3.60000000E+02  9.80000000E+01  0.00000000E+00
  3.60000000E+02  9.60000000E+01  0.00000000E+00
  3.60000000E+02  9.40000000E+01  0.00000000E+00
  3.60000000E+02  9.20000000E+01  0.00000000E+00
  3.60000000E+02  9.00000000E+01  0.00000000E+00
  3.60000000E+02  8.80000000E+01  0.00000000E+00
  3.60000000E+02  8.60000000E+01  0.00000000E+00
  3.60000000E+02  8.40000000E+01  0.00000000E+00
  3.60000000E+02  8.20000000E+01  0.00000000E+00
  3.60000000E+02  8.00000000E+01  0.00000000E+00
  3.60000000E+02  7.80000000E+01  0.00000000E+00
  3.60000000E+02  7.60000000E+01  0.00000000E+00
  3.60000000E+02  7.40000000E+01  0.00000000E+00
  3.60000000E+02  7.20000000E+01  0.00000000E+00
  3.60000000E+02  7.00000000E+01  0.00000000E+00
  3.60000000E+02  6.80000000E+01  0.00000000E+00
  3.60000000E+02  6.60000000E+01  0.00000000E+00
  3.60000000E+02  6.40000000E+01  0.00000000E+00
  3.60000000E+02  6.20000000E+01  0.00000000E+00
  3.60000000E+02  6.00000000E+01  0.00000000E+00
  3.60000000E+02  5.80000000E+01  0.00000000E+00
  3.60000000E+02  5.60000000E+01  0.00000000E+00
  3.60000000E+02  5.40000000E+01  0.00000000E+00
  3.60000000E+02  5.20000000E+01  0.00000000E+00
  3.60000000E+02  5.00000000E+01  0.00000000E+00
  3.60000000E+02  4.80000000E+01  0.00000000E+00
  3.60000000E+02  4.60000000E+01  0.00000000E+00
  3.60000000E+02  4.40000000E+01  0.00000000E+00
  3.60000000E+02  4.20000000E+01  0.00000000E+00
  3.60000000E+02  4.00000000E+01  0.00000000E+00
  3.60000000E+02  3.80000000E+01  0.00000000E+00
  3.60000000E+02  3.60000000E+01  0.00000000E+00
  3.60000000E+02  3.40000000E+01  0.00000000E+00
  3.60000000E+02  3.20000000E+01  0.00000000E+00
  3.60000000E+02  3.00000000E+01  0.00000000E+00
  3.60000000E+02  2.80000000E+01  0.00000000E+00
  3.60000000E+02  2.60000000E+01  0.00000000E+00
  3.60000000E+02  2.40000000E+01  0.00000000E+00
  3.60000000E+02  2.20000000E+01  0.00000000E+00
  3.60000000E+02  2.00000000E+01  0.00000000E+00
  3.60000000E+02  1.80000000E+01  0.00000000E+00
  3.60000000E+02  1.60000000E+01  0.00000000E+00
  3.60000000E+02  1.40000000E+01  0.00000000E+00
  3.60000000E+02  1.20000000E+01  0.00000000E+00
  3.60000000E+02  1.00000000E+01  0.00000000E+00
  3.60000000E+02  8.00000000E+00  0.00000000E+00
  3.60000000E+02  6.00000000E+00  0.00000000E+00
  3.60000000E+02  4.00000000E+00  0.00000000E+00
  3.60000000E+02  2.00000000E+00  0.00000000E+00
  3.60000000E+02 -3.33066907E-14  0.00000000E+00
  3.70000000E+02  1.00000000E+02  0.00000000E+00
  3.70000000E+02  9.80000000E+01  0.00000000E+00
  3.70000000E+02  9.60000000E+01  0.00000000E+00
  3.70000000E+02  9.40000000E+01  0.00000000E+00
  3.70000000E+02  9.20000000E+01  0.00000000E+00
  3.70000000E+02  9.00000000E+01  0.00000000E+00
  3.70000000E+02  8.80000000E+01  0.00000000E+00
  3.70000000E+02  8.60000000E+01  0.00000000E+00
  3.70000000E+02  8.40000000E+01  0.00000000E+00
  3.70000000E+02  8.20000000E+01  0.00000000E+00
  3.70000000E+02  8.00000000E+01  0.00000000E+00
  3.70000000E+02  7.80000000E+01  0.00000000E+00
  3.70000000E+02  7.60000000E+01  0.00000000E+00
  3.70000000E+02  7.40000000E+01  0.00000000E+00
  3.70000000E+02  7.20000000E+01  0.00000000E+00
  3.70000000E+02  7.00000000E+01  0.00000000E+00
  3.70000000E+02  6.80000000E+01  0.00000000E+00
  3.70000000E+02  6.60000000E+01  0.00000000E+00
  3.70000000E+02  6.40000000E+01  0.00000000E+00
  3.70000000E+02  6.20000000E+01  0.00000000E+00
  3.70000000E+02  6.00000000E+01  0.00000000E+00
  3.70000000E+02  5.80000000E+01  0.00000000E+00
  3.70000000E+02  5.60000000E+01  0.00000000E+00
  3.70000000E+02  5.40000000E+01  0.00000000E+00
  3.70000000E+02  5.20000000E+01  0.00000000E+00
  3.70000000E+02  5.00000000E+01  0.00000000E+00
  3.70000000E+02  4.80000000E+01  0.00000000E+00
  3.70000000E+02  4.60000000E+01  0.00000000E+00
  3.70000000E+02  4.40000000E+01  0.00000000E+00
  3.70000000E+02  4.20000000E+01  0.00000000E+00
  3.70000000E+02  4.00000000E+01  0.00000000E+00
  3.70000000E+02  3.80000000E+01  0.00000000E+00
  3.70000000E+02  3.60000000E+01  0.00000000E+00
  3.70000000E+02  3.40000000E+01  0.00000000E+00
  3.70000000E+02  3.20000000E+01  0.00000000E+00
  3.70000000E+02  3.00000000E+01  0.00000000E+00
  3.70000000E+02  2.80000000E+01  0.00000000E+00
  3.70000000E+02  2.60000000E+01  0.00000000E+00
  3.70000000E+02  2.40000000E+01  0.00000000E+00
  3.70000000E+02  2.20000000E+01  0.00000000E+00
  3.70000000E+02  2.00000000E+01  0.00000000E+00
  3.70000000E+02  1.80000000E+01  0.00000000E+00
  3.70000000E+02  1.60000000E+01  0.00000000E+00
  3.70000000E+02  1.40000000E+01  0.00000000E+00
  3.70000000E+02  1.20000000E+01  0.00000000E+00
  3.70000000E+02  1.00000000E+01  0.00000000E+00
  3.70000000E+02  8.00000000E+00  0.00000000E+00
  3.70000000E+02  6.00000000E+00  0.00000000E+00
  3.70000000E+02  4.00000000E+00  0.00000000E+00
  3.70000000E+02  2.00000000E+00  0.00000000E+00
  3.70000000E+02 -3.33066907E-14  0.00000000E+00
  3.80000000E+02  1.00000000E+02  0.00000000E+00
  3.80000000E+02  9.80000000E+01  0.00000000E+00
  3.80000000E+02  9.60000000E+01  0.00000000E+00
  3.80000000E+02  9.40000000E+01  0.00000000E+00
  3.80000000E+02  9.20000000E+01  0.00000000E+00
  3.80000000E+02  9.00000000E+01  0.00000000E+00
  3.80000000E+02  8.80000000E+01  0.00000000E+00
  3.80000000E+02  8.60000000E+01  0.00000000E+00
  3.80000000E+02  8.40000000E+01  0.00000000E+00
  3.80000000E+02  8.20000000E+01  0.00000000E+00
  3.80000000E+02  8.00000000E+01  0.00000000E+00
  3.80000000E+02  7.80000000E+01  0.00000000E+00
  3.80000000E+02  7.60000000E+01  0.00000000E+00
  3.80000000E+02  7.40000000E+01  0.00000000E+00
  3.80000000E+02  7.20000000E+01  0.00000000E+00
  3.80000000E+02  7.00000000E+01  0.00000000E+00
  3.80000000E+02  6.80000000E+01  0.00000000E+00
  3.80000000E+02  6.60000000E+01  0.00000000E+00
  3.80000000E+02  6.40000000E+01  0.00000000E+00
  3.80000000E+02  6.20000000E+01  0.00000000E+00
  3.80000000E+02  6.00000000E+01  0.00000000E+00
  3.80000000E+02  5.80000000E+01  0.00000000E+00
  3.80000000E+02  5.60000000E+01  0.00000000E+00
  3.80000000E+02  5.40000000E+01  0.00000000E+00
  3.80000000E+02  5.20000000E+01  0.00000000E+00
  3.80000000E+02  5.00000000E+01  0.00000000E+00
  3.80000000E+02  4.80000000E+01  0.00000000E+00
  3.80000000E+02  4.60000000E+01  0.00000000E+00
  3.80000000E+02  4.40000000E+01  0.00000000E+00
  3.80000000E+02  4.20000000E+01  0.00000000E+00
  3.80000000E+02  4.00000000E+01  0.00000000E+00
  3.80000000E+02  3.80000000E+01  0.00000000E+00
  3.80000000E+02  3.60000000E+01  0.00000000E+00
  3.80000000E+02  3.40000000E+01  0.00000000E+00
  3.80000000E+02  3.20000000E+01  0.00000000E+00
  3.80000000E+02  3.00000000E+01  0.00000000E+00
  3.80000000E+02  2.80000000E+01  0.00000000E+00
  3.80000000E+02  2.60000000E+01  0.00000000E+00
  3.80000000E+02  2.40000000E+01  0.00000000E+00
  3.80000000E+02  2.20000000E+01  0.00000000E+00
  3.80000000E+02  2.00000000E+01  0.00000000E+00
  3.80000000E+02  1.80000000E+01  0.00000000E+00
  3.80000000E+02  1.60000000E+01  0.00000000E+00
  3.80000000E+02  1.40000000E+01  0.00000000E+00
  3.80000000E+02  1.20000000E+01  0.00000000E+00
  3.80000000E+02  1.00000000E+01  0.00000000E+00
  3.80000000E+02  8.00000000E+00  0.00000000E+00
  3.80000000E+02  6.00000000E+00  0.00000000E+00
  3.80000000E+02  4.00000000E+00  0.00000000E+00
  3.80000000E+02  2.00000000E+00  0.00000000E+00
  3.80000000E+02 -3.33066907E-14  0.00000000E+00
  3.90000000E+02  1.00000000E+02  0.00000000E+00
  3.90000000E+02  9.80000000E+01  0.00000000E+00
  3.90000000E+02  9.60000000E+01  0.00000000E+00
  3.90000000E+02  9.40000000E+01  0.00000000E+00
  3.90000000E+02  9.20000000E+01  0.00000000E+00
  3.90000000E+02  9.00000000E+01  0.00000000E+00
  3.90000000E+02  8.80000000E+01  0.00000000E+00
  3.90000000E+02  8.60000000E+01  0.00000000E+00
  3.90000000E+02  8.40000000E+01  0.00000000E+00
  3.90000000E+02  8.20000000E+01  0.00000000E+00
  3.90000000E+02  8.00000000E+01  0.00000000E+00
  3.90000000E+02  7.80000000E+01  0.00000000E+00
  3.90000000E+02  7.60000000E+01  0.00000000E+00
  3.90000000E+02  7.40000000E+01  0.00000000E+00
  3.90000000E+02  7.20000000E+01  0.00000000E+00
  3.90000000E+02  7.00000000E+01  0.00000000E+00
  3.90000000E+02  6.80000000E+01  0.00000000E+00
  3.90000000E+02  6.60000000E+01  0.00000000E+00
  3.90000000E+02  6.40000000E+01  0.00000000E+00
  3.90000000E+02  6.20000000E+01  0.00000000E+00
  3.90000000E+02  6.00000000E+01  0.00000000E+00
  3.90000000E+02  5.80000000E+01  0.00000000E+00
  3.90000000E+02  5.60000000E+01  0.00000000E+00
  3.90000000E+02  5.40000000E+01  0.00000000E+00
  3.90000000E+02  5.20000000E+01  0.00000000E+00
  3.90000000E+02  5.00000000E+01  0.00000000E+00
  3.90000000E+02  4.80000000E+01  0.00000000E+00
  3.90000000E+02  4.60000000E+01  0.00000000E+00
  3.90000000E+02  4.40000000E+01  0.00000000E+00
  3.90000000E+02  4.20000000E+01  0.00000000E+00
  3.90000000E+02  4.00000000E+01  0.00000000E+00
  3.90000000E+02  3.80000000E+01  0.00000000E+00
  3.90000000E+02  3.60000000E+01  0.00000000E+00
  3.90000000E+02  3.40000000E+01  0.00000000E+00
  3.90000000E+02  3.20000000E+01  0.00000000E+00
  3.90000000E+02  3.00000000E+01  0.00000000E+00
  3.90000000E+02  2.80000000E+01  0.00000000E+00
  3.90000000E+02  2.60000000E+01  0.00000000E+00
  3.90000000E+02  2.40000000E+01  0.00000000E+00
  3.90000000E+02  2.20000000E+01  0.00000000E+00
  3.90000000E+02  2.00000000E+01  0.00000000E+00
  3.90000000E+02  1.80000000E+01  0.00000000E+00
  3.90000000E+02  1.60000000E+01  0.00000000E+00
  3.90000000E+02  1.40000000E+01  0.00000000E+00
  3.90000000E+02  1.20000000E+01  0.00000000E+00
  3.90000000E+02  1.00000000E+01  0.00000000E+00
  3.90000000E+02  8.00000000E+00  0.00000000E+00
  3.90000000E+02  6.00000000E+00  0.00000000E+00
  3.90000000E+02  4.00000000E+00  0.00000000E+00
  3.90000000E+02  2.00000000E+00  0.00000000E+00
  3.90000000E+02 -3.33066907E-14  0.00000000E+00
  4.00000000E+02  1.00000000E+02  0.00000000E+00
  4.00000000E+02  9.80000000E+01  0.00000000E+00
  4.00000000E+02  9.60000000E+01  0.00000000E+00
  4.00000000E+02  9.40000000E+01  0.00000000E+00
  4.00000000E+02  9.20000000E+01  0.00000000E+00
  4.00000000E+02  9.00000000E+01  0.00000000E+00
  4.00000000E+02  8.80000000E+01  0.00000000E+00
  4.00000000E+02  8.60000000E+01  0.00000000E+00
  4.00000000E+02  8.40000000E+01  0.00000000E+00
  4.00000000E+02  8.20000000E+01  0.00000000E+00
  4.00000000E+02  8.00000000E+01  0.00000000E+00
  4.00000000E+02  7.80000000E+01  0.00000000E+00
  4.00000000E+02  7.60000000E+01  0.00000000E+00
  4.00000000E+02  7.40000000E+01  0.00000000E+00
  4.00000000E+02  7.20000000E+01  0.00000000E+00
  4.00000000E+02  7.00000000E+01  0.00000000E+00
  4.00000000E+02  6.80000000E+01  0.00000000E+00
  4.00000000E+02  6.60000000E+01  0.00000000E+00
  4.00000000E+02  6.40000000E+01  0.00000000E+00
  4.00000000E+02  6.20000000E+01  0.00000000E+00
  4.00000000E+02  6.00000000E+01  0.00000000E+00
  4.00000000E+02  5.80000000E+01  0.00000000E+00
  4.00000000E+02  5.60000000E+01  0.00000000E+00
  4.00000000E+02  5.40000000E+01  0.00000000E+00
  4.00000000E+02  5.20000000E+01  0.00000000E+00
  4.00000000E+02  5.00000000E+01  0.00000000E+00
  4.00000000E+02  4.80000000E+01  0.00000000E+00
  4.00000000E+02  4.60000000E+01  0.00000000E+00
  4.00000000E+02  4.40000000E+01  0.00000000E+00
  4.00000000E+02  4.20000000E+01  0.00000000E+00
  4.00000000E+02  4.00000000E+01  0.00000000E+00
  4.00000000E+02  3.80000000E+01  0.00000000E+00
  4.00000000E+02  3.60000000E+01  0.00000000E+00
  4.00000000E+02  3.40000000E+01  0.00000000E+00
  4.00000000E+02  3.20000000E+01  0.00000000E+00
  4.00000000E+02  3.00000000E+01  0.00000000E+00
  4.00000000E+02  2.80000000E+01  0.00000000E+00
  4.00000000E+02  2.60000000E+01  0.00000000E+00
  4.00000000E+02  2.40000000E+01  0.00000000E+00
  4.00000000E+02  2.20000000E+01  0.00000000E+00
  4.00000000E+02  2.00000000E+01  0.00000000E+00
  4.00000000E+02  1.80000000E+01  0.00000000E+00
  4.00000000E+02  1.60000000E+01  0.00000000E+00
  4.00000000E+02  1.40000000E+01  0.00000000E+00
  4.00000000E+02  1.20000000E+01  0.00000000E+00
  4.00000000E+02  1.00000000E+01  0.00000000E+00
  4.00000000E+02  8.00000000E+00  0.00000000E+00
  4.00000000E+02  6.00000000E+00  0.00000000E+00
  4.00000000E+02  4.00000000E+00  0.00000000E+00
  4.00000000E+02  2.00000000E+00  0.00000000E+00
  4.00000000E+02 -3.33066907E-14  0.00000000E+00
  4.10000000E+02  1.00000000E+02  0.00000000E+00
  4.10000000E+02  9.80000000E+01  0.00000000E+00
  4.10000000E+02  9.60000000E+01  0.00000000E+00
  4.10000000E+02  9.40000000E+01  0.00000000E+00
  4.10000000E+02  9.20000000E+01  0.00000000E+00
  4.10000000E+02  9.00000000E+01  0.00000000E+00
  4.10000000E+02  8.80000000E+01  0.00000000E+00
  4.10000000E+02  8.60000000E+01  0.00000000E+00
  4.10000000E+02  8.40000000E+01  0.00000000E+00
  4.10000000E+02  8.20000000E+01  0.00000000E+00
  4.10000000E+02  8.00000000E+01  0.00000000E+00
  4.10000000E+02  7.80000000E+01  0.00000000E+00
  4.10000000E+02  7.60000000E+01  0.00000000E+00
  4.10000000E+02  7.40000000E+01  0.00000000E+00
  4.10000000E+02  7.20000000E+01  0.00000000E+00
  4.10000000E+02  7.00000000E+01  0.00000000E+00
  4.10000000E+02  6.80000000E+01  0.00000000E+00
  4.10000000E+02  6.60000000E+01  0.00000000E+00
  4.10000000E+02  6.40000000E+01  0.00000000E+00
  4.10000000E+02  6.20000000E+01  0.00000000E+00
  4.10000000E+02  6.00000000E+01  0.00000000E+00
  4.10000000E+02  5.80000000E+01  0.00000000E+00
  4.10000000E+02  5.60000000E+01  0.00000000E+00
  4.10000000E+02  5.40000000E+01  0.00000000E+00
  4.10000000E+02  5.20000000E+01  0.00000000E+00
  4.10000000E+02  5.00000000E+01  0.00000000E+00
  4.10000000E+02  4.80000000E+01  0.00000000E+00
  4.10000000E+02  4.60000000E+01  0.00000000E+00
  4.10000000E+02  4.40000000E+01  0.00000000E+00
  4.10000000E+02  4.20000000E+01  0.00000000E+00
  4.10000000E+02  4.00000000E+01  0.00000000E+00
  4.10000000E+02  3.80000000E+01  0.00000000E+00
  4.10000000E+02  3.60000000E+01  0.00000000E+00
  4.10000000E+02  3.40000000E+01  0.00000000E+00
  4.10000000E+02  3.20000000E+01  0.00000000E+00
  4.10000000E+02  3.00000000E+01  0.00000000E+00
  4.10000000E+02  2.80000000E+01  0.00000000E+00
  4.10000000E+02  2.60000000E+01  0.00000000E+00
  4.10000000E+02  2.40000000E+01  0.00000000E+00
  4.10000000E+02  2.20000000E+01  0.00000000E+00
  4.10000000E+02  2.00000000E+01  0.00000000E+00
  4.10000000E+02  1.80000000E+01  0.00000000E+00
  4.10000000E+02  1.60000000E+01  0.00000000E+00
  4.10000000E+02  1.40000000E+01  0.00000000E+00
  4.10000000E+02  1.20000000E+01  0.00000000E+00
  4.10000000E+02  1.00000000E+01  0.00000000E+00
  4.10000000E+02  8.00000000E+00  0.00000000E+00
  4.10000000E+02  6.00000000E+00  0.00000000E+00
  4.10000000E+02  4.00000000E+00  0.00000000E+00
  4.10000000E+02  2.00000000E+00  0.00000000E+00
  4.10000000E+02 -3.33066907E-14  0.00000000E+00
  4.20000000E+02  1.00000000E+02  0.00000000E+00
  4.20000000E+02  9.80000000E+01  0.00000000E+00
  4.20000000E+02  9.60000000E+01  0.00000000E+00
  4.20000000E+02  9.40000000E+01  0.00000000E+00
  4.20000000E+02  9.20000000E+01  0.00000000E+00
  4.20000000E+02  9.00000000E+01  0.00000000E+00
  4.20000000E+02  8.80000000E+01  0.00000000E+00
  4.20000000E+02  8.60000000E+01  0.00000000E+00
  4.20000000E+02  8.40000000E+01  0.00000000E+00
  4.20000000E+02  8.20000000E+01  0.00000000E+00
  4.20000000E+02  8.00000000E+01  0.00000000E+00
  4.20000000E+02  7.80000000E+01  0.00000000E+00
  4.20000000E+02  7.60000000E+01  0.00000000E+00
  4.20000000E+02  7.40000000E+01  0.00000000E+00
  4.20000000E+02  7.20000000E+01  0.00000000E+00
  4.20000000E+02  7.00000000E+01  0.00000000E+00
  4.20000000E+02  6.80000000E+01  0.00000000E+00
  4.20000000E+02  6.60000000E+01  0.00000000E+00
  4.20000000E+02  6.40000000E+01  0.00000000E+00
  4.20000000E+02  6.20000000E+01  0.00000000E+00
  4.20000000E+02  6.00000000E+01  0.00000000E+00
  4.20000000E+02  5.80000000E+01  0.00000000E+00
  4.20000000E+02  5.60000000E+01  0.00000000E+00
  4.20000000E+02  5.40000000E+01  0.00000000E+00
  4.20000000E+02  5.20000000E+01  0.00000000E+00
  4.20000000E+02  5.00000000E+01  0.00000000E+00
  4.20000000E+02  4.80000000E+01  0.00000000E+00
  4.20000000E+02  4.60000000E+01  0.00000000E+00
  4.20000000E+02  4.40000000E+01  0.00000000E+00
  4.20000000E+02  4.20000000E+01  0.00000000E+00
  4.20000000E+02  4.00000000E+01  0.00000000E+00
  4.20000000E+02  3.80000000E+01  0.00000000E+00
  4.20000000E+02  3.60000000E+01  0.00000000E+00
  4.20000000E+02  3.40000000E+01  0.00000000E+00
  4.20000000E+02  3.20000000E+01  0.00000000E+00
  4.20000000E+02  3.00000000E+01  0.00000000E+00
  4.20000000E+02  2.80000000E+01  0.00000000E+00
  4.20000000E+02  2.60000000E+01  0.00000000E+00
  4.20000000E+02  2.40000000E+01  0.00000000E+00
  4.20000000E+02  2.20000000E+01  0.00000000E+00
  4.20000000E+02  2.00000000E+01  0.00000000E+00
  4.20000000E+02  1.80000000E+01  0.00000000E+00
  4.20000000E+02  1.60000000E+01  0.00000000E+00
  4.20000000E+02  1.40000000E+01  0.00000000E+00
  4.20000000E+02  1.20000000E+01  0.00000000E+00
  4.20000000E+02  1.00000000E+01  0.00000000E+00
  4.20000000E+02  8.00000000E+00  0.00000000E+00
  4.20000000E+02  6.00000000E+00  0.00000000E+00
  4.20000000E+02  4.00000000E+00  0.00000000E+00
  4.20000000E+02  2.00000000E+00  0.00000000E+00
  4.20000000E+02 -3.33066907E-14  0.00000000E+00
  4.30000000E+02  1.00000000E+02  0.00000000E+00
  4.30000000E+02  9.80000000E+01  0.00000000E+00
  4.30000000E+02  9.60000000E+01  0.00000000E+00
  4.30000000E+02  9.40000000E+01  0.00000000E+00
  4.30000000E+02  9.20000000E+01  0.00000000E+00
  4.30000000E+02  9.00000000E+01  0.00000000E+00
  4.30000000E+02  8.80000000E+01  0.00000000E+00
  4.30000000E+02  8.60000000E+01  0.00000000E+00
  4.30000000E+02  8.40000000E+01  0.00000000E+00
  4.30000000E+02  8.20000000E+01  0.00000000E+00
  4.30000000E+02  8.00000000E+01  0.00000000E+00
  4.30000000E+02  7.80000000E+01  0.00000000E+00
  4.30000000E+02  7.60000000E+01  0.00000000E+00
  4.30000000E+02  7.40000000E+01  0.00000000E+00
  4.30000000E+02  7.20000000E+01  0.00000000E+00
  4.30000000E+02  7.00000000E+01  0.00000000E+00
  4.30000000E+02  6.80000000E+01  0.00000000E+00
  4.30000000E+02  6.60000000E+01  0.00000000E+00
  4.30000000E+02  6.40000000E+01  0.00000000E+00
  4.30000000E+02  6.20000000E+01  0.00000000E+00
  4.30000000E+02  6.00000000E+01  0.00000000E+00
  4.30000000E+02  5.80000000E+01  0.00000000E+00
  4.30000000E+02  5.60000000E+01  0.00000000E+00
  4.30000000E+02  5.40000000E+01  0.00000000E+00
  4.30000000E+02  5.20000000E+01  0.00000000E+00
  4.30000000E+02  5.00000000E+01  0.00000000E+00
  4.30000000E+02  4.80000000E+01  0.00000000E+00
  4.30000000E+02  4.60000000E+01  0.00000000E+00
  4.30000000E+02  4.40000000E+01  0.00000000E+00
  4.30000000E+02  4.20000000E+01  0.00000000E+00
  4.30000000E+02  4.00000000E+01  0.00000000E+00
  4.30000000E+02  3.80000000E+01  0.00000000E+00
  4.30000000E+02  3.60000000E+01  0.00000000E+00
  4.30000000E+02  3.40000000E+01  0.00000000E+00
  4.30000000E+02  3.20000000E+01  0.00000000E+00
  4.30000000E+02  3.00000000E+01  0.00000000E+00
  4.30000000E+02  2.80000000E+01  0.00000000E+00
  4.30000000E+02  2.60000000E+01  0.00000000E+00
  4.30000000E+02  2.40000000E+01  0.00000000E+00
  4.30000000E+02  2.20000000E+01  0.00000000E+00
  4.30000000E+02  2.00000000E+01  0.00000000E+00
  4.30000000E+02  1.80000000E+01  0.00000000E+00
  4.30000000E+02  1.60000000E+01  0.00000000E+00
  4.30000000E+02  1.40000000E+01  0.00000000E+00
  4.30000000E+02  1.20000000E+01  0.00000000E+00
  4.30000000E+02  1.00000000E+01  0.00000000E+00
  4.30000000E+02  8.00000000E+00  0.00000000E+00
  4.30000000E+02  6.00000000E+00  0.00000000E+00
  4.30000000E+02  4.00000000E+00  0.00000000E+00
  4.30000000E+02  2.00000000E+00  0.00000000E+00
  4.30000000E+02 -3.33066907E-14  0.00000000E+00
  4.40000000E+02  1.00000000E+02  0.00000000E+00
  4.40000000E+02  9.80000000E+01  0.00000000E+00
  4.40000000E+02  9.60000000E+01  0.00000000E+00
  4.40000000E+02  9.40000000E+01  0.00000000E+00
  4.40000000E+02  9.20000000E+01  0.00000000E+00
  4.40000000E+02  9.00000000E+01  0.00000000E+00
  4.40000000E+02  8.80000000E+01  0.00000000E+00
  4.40000000E+02  8.60000000E+01  0.00000000E+00
  4.40000000E+02  8.40000000E+01  0.00000000E+00
  4.40000000E+02  8.20000000E+01  0.00000000E+00
  4.40000000E+02  8.00000000E+01  0.00000000E+00
  4.40000000E+02  7.80000000E+01  0.00000000E+00
  4.40000000E+02  7.60000000E+01  0.00000000E+00
  4.40000000E+02  7.40000000E+01  0.00000000E+00
  4.40000000E+02  7.20000000E+01  0.00000000E+00
  4.40000000E+02  7.00000000E+01  0.00000000E+00
  4.40000000E+02  6.80000000E+01  0.00000000E+00
  4.40000000E+02  6.60000000E+01  0.00000000E+00
  4.40000000E+02  6.40000000E+01  0.00000000E+00
  4.40000000E+02  6.20000000E+01  0.00000000E+00
  4.40000000E+02  6.00000000E+01  0.00000000E+00
  4.40000000E+02  5.80000000E+01  0.00000000E+00
  4.40000000E+02  5.60000000E+01  0.00000000E+00
  4.40000000E+02  5.40000000E+01  0.00000000E+00
  4.40000000E+02  5.20000000E+01  0.00000000E+00
  4.40000000E+02  5.00000000E+01  0.00000000E+00
  4.40000000E+02  4.80000000E+01  0.00000000E+00
  4.40000000E+02  4.60000000E+01  0.00000000E+00
  4.40000000E+02  4.40000000E+01  0.00000000E+00
  4.40000000E+02  4.20000000E+01  0.00000000E+00
  4.40000000E+02  4.00000000E+01  0.00000000E+00
  4.40000000E+02  3.80000000E+01  0.00000000E+00
  4.40000000E+02  3.60000000E+01  0.00000000E+00
  4.40000000E+02  3.40000000E+01  0.00000000E+00
  4.40000000E+02  3.20000000E+01  0.00000000E+00
  4.40000000E+02  3.00000000E+01  0.00000000E+00
  4.40000000E+02  2.80000000E+01  0.00000000E+00
  4.40000000E+02  2.60000000E+01  0.00000000E+00
  4.40000000E+02  2.40000000E+01  0.00000000E+00
  4.40000000E+02  2.20000000E+01  0.00000000E+00
  4.40000000E+02  2.00000000E+01  0.00000000E+00
  4.40000000E+02  1.80000000E+01  0.00000000E+00
  4.40000000E+02  1.60000000E+01  0.00000000E+00
  4.40000000E+02  1.40000000E+01  0.00000000E+00
  4.40000000E+02  1.20000000E+01  0.00000000E+00
  4.40000000E+02  1.00000000E+01  0.00000000E+00
  4.40000000E+02  8.00000000E+00  0.00000000E+00
  4.40000000E+02  6.00000000E+00  0.00000000E+00
  4.40000000E+02  4.00000000E+00  0.00000000E+00
  4.40000000E+02  2.00000000E+00  0.00000000E+00
  4.40000000E+02 -3.33066907E-14  0.00000000E+00
  4.50000000E+02  1.00000000E+02  0.00000000E+00
  4.50000000E+02  9.80000000E+01  0.00000000E+00
  4.50000000E+02  9.60000000E+01  0.00000000E+00
  4.50000000E+02  9.40000000E+01  0.00000000E+00
  4.50000000E+02  9.20000000E+01  0.00000000E+00
  4.50000000E+02  9.00000000E+01  0.00000000E+00
  4.50000000E+02  8.80000000E+01  0.00000000E+00
  4.50000000E+02  8.60000000E+01  0.00000000E+00
  4.50000000E+02  8.40000000E+01  0.00000000E+00
  4.50000000E+02  8.20000000E+01  0.00000000E+00
  4.50000000E+02  8.00000000E+01  0.00000000E+00
  4.50000000E+02  7.80000000E+01  0.00000000E+00
  4.50000000E+02  7.60000000E+01  0.00000000E+00
  4.50000000E+02  7.40000000E+01  0.00000000E+00
  4.50000000E+02  7.20000000E+01  0.00000000E+00
  4.50000000E+02  7.00000000E+01  0.00000000E+00
  4.50000000E+02  6.80000000E+01  0.00000000E+00
  4.50000000E+02  6.60000000E+01  0.00000000E+00
  4.50000000E+02  6.40000000E+01  0.00000000E+00
  4.50000000E+02  6.20000000E+01  0.00000000E+00
  4.50000000E+02  6.00000000E+01  0.00000000E+00
  4.50000000E+02  5.80000000E+01  0.00000000E+00
  4.50000000E+02  5.60000000E+01  0.00000000E+00
  4.50000000E+02  5.40000000E+01  0.00000000E+00
  4.50000000E+02  5.20000000E+01  0.00000000E+00
  4.50000000E+02  5.00000000E+01  0.00000000E+00
  4.50000000E+02  4.80000000E+01  0.00000000E+00
  4.50000000E+02  4.60000000E+01  0.00000000E+00
  4.50000000E+02  4.40000000E+01  0.00000000E+00
  4.50000000E+02  4.20000000E+01  0.00000000E+00
  4.50000000E+02  4.00000000E+01  0.00000000E+00
  4.50000000E+02  3.80000000E+01  0.00000000E+00
  4.50000000E+02  3.60000000E+01  0.00000000E+00
  4.50000000E+02  3.40000000E+01  0.00000000E+00
  4.50000000E+02  3.20000000E+01  0.00000000E+00
  4.50000000E+02  3.00000000E+01  0.00000000E+00
  4.50000000E+02  2.80000000E+01  0.00000000E+00
  4.50000000E+02  2.60000000E+01  0.00000000E+00
  4.50000000E+02  2.40000000E+01  0.00000000E+00
  4.50000000E+02  2.20000000E+01  0.00000000E+00
  4.50000000E+02  2.00000000E+01  0.00000000E+00
  4.50000000E+02  1.80000000E+01  0.00000000E+00
  4.50000000E+02  1.60000000E+01  0.00000000E+00
  4.50000000E+02  1.40000000E+01  0.00000000E+00
  4.50000000E+02  1.20000000E+01  0.00000000E+00
  4.50000000E+02  1.00000000E+01  0.00000000E+00
  4.50000000E+02  8.00000000E+00  0.00000000E+00
  4.50000000E+02  6.00000000E+00  0.00000000E+00
  4.50000000E+02  4.00000000E+00  0.00000000E+00
  4.50000000E+02  2.00000000E+00  0.00000000E+00
  4.50000000E+02 -3.33066907E-14  0.00000000E+00
  4.60000000E+02  1.00000000E+02  0.00000000E+00
  4.60000000E+02  9.80000000E+01  0.00000000E+00
  4.60000000E+02  9.60000000E+01  0.00000000E+00
  4.60000000E+02  9.40000000E+01  0.00000000E+00
  4.60000000E+02  9.20000000E+01  0.00000000E+00
  4.60000000E+02  9.00000000E+01  0.00000000E+00
  4.60000000E+02  8.80000000E+01  0.00000000E+00
  4.60000000E+02  8.60000000E+01  0.00000000E+00
  4.60000000E+02  8.40000000E+01  0.00000000E+00
  4.60000000E+02  8.20000000E+01  0.00000000E+00
  4.60000000E+02  8.00000000E+01  0.00000000E+00
  4.60000000E+02  7.80000000E+01  0.00000000E+00
  4.60000000E+02  7.60000000E+01  0.00000000E+00
  4.60000000E+02  7.40000000E+01  0.00000000E+00
  4.60000000E+02  7.20000000E+01  0.00000000E+00
  4.60000000E+02  7.00000000E+01  0.00000000E+00
  4.60000000E+02  6.80000000E+01  0.00000000E+00
  4.60000000E+02  6.60000000E+01  0.00000000E+00
  4.60000000E+02  6.40000000E+01  0.00000000E+00
  4.60000000E+02  6.20000000E+01  0.00000000E+00
  4.60000000E+02  6.00000000E+01  0.00000000E+00
  4.60000000E+02  5.80000000E+01  0.00000000E+00
  4.60000000E+02  5.60000000E+01  0.00000000E+00
  4.60000000E+02  5.40000000E+01  0.00000000E+00
  4.60000000E+02  5.20000000E+01  0.00000000E+00
  4.60000000E+02  5.00000000E+01  0.00000000E+00
  4.60000000E+02  4.80000000E+01  0.00000000E+00
  4.60000000E+02  4.60000000E+01  0.00000000E+00
  4.60000000E+02  4.40000000E+01  0.00000000E+00
  4.60000000E+02  4.20000000E+01  0.00000000E+00
  4.60000000E+02  4.00000000E+01  0.00000000E+00
  4.60000000E+02  3.80000000E+01  0.00000000E+00
  4.60000000E+02  3.60000000E+01  0.00000000E+00
  4.60000000E+02  3.40000000E+01  0.00000000E+00
  4.60000000E+02  3.20000000E+01  0.00000000E+00
  4.60000000E+02  3.00000000E+01  0.00000000E+00
  4.60000000E+02  2.80000000E+01  0.00000000E+00
  4.60000000E+02  2.60000000E+01  0.00000000E+00
  4.60000000E+02  2.40000000E+01  0.00000000E+00
  4.60000000E+02  2.20000000E+01  0.00000000E+00
  4.60000000E+02  2.00000000E+01  0.00000000E+00
  4.60000000E+02  1.80000000E+01  0.00000000E+00
  4.60000000E+02  1.60000000E+01  0.00000000E+00
  4.60000000E+02  1.40000000E+01  0.00000000E+00
  4.60000000E+02  1.20000000E+01  0.00000000E+00
  4.60000000E+02  1.00000000E+01  0.00000000E+00
  4.60000000E+02  8.00000000E+00  0.00000000E+00
  4.60000000E+02  6.00000000E+00  0.00000000E+00
  4.60000000E+02  4.00000000E+00  0.00000000E+00
  4.60000000E+02  2.00000000E+00  0.00000000E+00
  4.60000000E+02 -3.33066907E-14  0.00000000E+00
  4.70000000E+02  1.00000000E+02  0.00000000E+00
  4.70000000E+02  9.80000000E+01  0.00000000E+00
  4.70000000E+02  9.60000000E+01  0.00000000E+00
  4.70000000E+02  9.40000000E+01  0.00000000E+00
  4.70000000E+02  9.20000000E+01  0.00000000E+00
  4.70000000E+02  9.00000000E+01  0.00000000E+00
  4.70000000E+02  8.80000000E+01  0.00000000E+00
  4.70000000E+02  8.60000000E+01  0.00000000E+00
  4.70000000E+02  8.40000000E+01  0.00000000E+00
  4.70000000E+02  8.20000000E+01  0.00000000E+00
  4.70000000E+02  8.00000000E+01  0.00000000E+00
  4.70000000E+02  7.80000000E+01  0.00000000E+00
  4.70000000E+02  7.60000000E+01  0.00000000E+00
  4.70000000E+02  7.40000000E+01  0.00000000E+00
  4.70000000E+02  7.20000000E+01  0.00000000E+00
  4.70000000E+02  7.00000000E+01  0.00000000E+00
  4.70000000E+02  6.80000000E+01  0.00000000E+00
  4.70000000E+02  6.60000000E+01  0.00000000E+00
  4.70000000E+02  6.40000000E+01  0.00000000E+00
  4.70000000E+02  6.20000000E+01  0.00000000E+00
  4.70000000E+02  6.00000000E+01  0.00000000E+00
  4.70000000E+02  5.80000000E+01  0.00000000E+00
  4.70000000E+02  5.60000000E+01  0.00000000E+00
  4.70000000E+02  5.40000000E+01  0.00000000E+00
  4.70000000E+02  5.20000000E+01  0.00000000E+00
  4.70000000E+02  5.00000000E+01  0.00000000E+00
  4.70000000E+02  4.80000000E+01  0.00000000E+00
  4.70000000E+02  4.60000000E+01  0.00000000E+00
  4.70000000E+02  4.40000000E+01  0.00000000E+00
  4.70000000E+02  4.20000000E+01  0.00000000E+00
  4.70000000E+02  4.00000000E+01  0.00000000E+00
  4.70000000E+02  3.80000000E+01  0.00000000E+00
  4.70000000E+02  3.60000000E+01  0.00000000E+00
  4.70000000E+02  3.40000000E+01  0.00000000E+00
  4.70000000E+02  3.20000000E+01  0.00000000E+00
  4.70000000E+02  3.00000000E+01  0.00000000E+00
  4.70000000E+02  2.80000000E+01  0.00000000E+00
  4.70000000E+02  2.60000000E+01  0.00000000E+00
  4.70000000E+02  2.40000000E+01  0.00000000E+00
  4.70000000E+02  2.20000000E+01  0.00000000E+00
  4.70000000E+02  2.00000000E+01  0.00000000E+00
  4.70000000E+02  1.80000000E+01  0.00000000E+00
  4.70000000E+02  1.60000000E+01  0.00000000E+00
  4.70000000E+02  1.40000000E+01  0.00000000E+00
  4.70000000E+02  1.20000000E+01  0.00000000E+00
  4.70000000E+02  1.00000000E+01  0.00000000E+00
  4.70000000E+02  8.00000000E+00  0.00000000E+00
  4.70000000E+02  6.00000000E+00  0.00000000E+00
  4.70000000E+02  4.00000000E+00  0.00000000E+00
  4.70000000E+02  2.00000000E+00  0.00000000E+00
  4.70000000E+02 -3.33066907E-14  0.00000000E+00
  4.80000000E+02  1.00000000E+02  0.00000000E+00
  4.80000000E+02  9.80000000E+01  0.00000000E+00
  4.80000000E+02  9.60000000E+01  0.00000000E+00
  4.80000000E+02  9.40000000E+01  0.00000000E+00
  4.80000000E+02  9.20000000E+01  0.00000000E+00
  4.80000000E+02  9.00000000E+01  0.00000000E+00
  4.80000000E+02  8.80000000E+01  0.00000000E+00
  4.80000000E+02  8.60000000E+01  0.00000000E+00
  4.80000000E+02  8.40000000E+01  0.00000000E+00
  4.80000000E+02  8.20000000E+01  0.00000000E+00
  4.80000000E+02  8.00000000E+01  0.00000000E+00
  4.80000000E+02  7.80000000E+01  0.00000000E+00
  4.80000000E+02  7.60000000E+01  0.00000000E+00
  4.80000000E+02  7.40000000E+01  0.00000000E+00
  4.80000000E+02  7.20000000E+01  0.00000000E+00
  4.80000000E+02  7.00000000E+01  0.00000000E+00
  4.80000000E+02  6.80000000E+01  0.00000000E+00
  4.80000000E+02  6.60000000E+01  0.00000000E+00
  4.80000000E+02  6.40000000E+01  0.00000000E+00
  4.80000000E+02  6.20000000E+01  0.00000000E+00
  4.80000000E+02  6.00000000E+01  0.00000000E+00
  4.80000000E+02  5.80000000E+01  0.00000000E+00
  4.80000000E+02  5.60000000E+01  0.00000000E+00
  4.80000000E+02  5.40000000E+01  0.00000000E+00
  4.80000000E+02  5.20000000E+01  0.00000000E+00
  4.80000000E+02  5.00000000E+01  0.00000000E+00
  4.80000000E+02  4.80000000E+01  0.00000000E+00
  4.80000000E+02  4.60000000E+01  0.00000000E+00
  4.80000000E+02  4.40000000E+01  0.00000000E+00
  4.80000000E+02  4.20000000E+01  0.00000000E+00
  4.80000000E+02  4.00000000E+01  0.00000000E+00
  4.80000000E+02  3.80000000E+01  0.00000000E+00
  4.80000000E+02  3.60000000E+01  0.00000000E+00
  4.80000000E+02  3.40000000E+01  0.00000000E+00
  4.80000000E+02  3.20000000E+01  0.00000000E+00
  4.80000000E+02  3.00000000E+01  0.00000000E+00
  4.80000000E+02  2.80000000E+01  0.00000000E+00
  4.80000000E+02  2.60000000E+01  0.00000000E+00
  4.80000000E+02  2.40000000E+01  0.00000000E+00
  4.80000000E+02  2.20000000E+01  0.00000000E+00
  4.80000000E+02  2.00000000E+01  0.00000000E+00
  4.80000000E+02  1.80000000E+01  0.00000000E+00
  4.80000000E+02  1.60000000E+01  0.00000000E+00
  4.80000000E+02  1.40000000E+01  0.00000000E+00
  4.80000000E+02  1.20000000E+01  0.00000000E+00
  4.80000000E+02  1.00000000E+01  0.00000000E+00
  4.80000000E+02  8.00000000E+00  0.00000000E+00
  4.80000000E+02  6.00000000E+00  0.00000000E+00
  4.80000000E+02  4.00000000E+00  0.00000000E+00
  4.80000000E+02  2.00000000E+00  0.00000000E+00
  4.80000000E+02 -3.33066907E-14  0.00000000E+00
  4.90000000E+02  1.00000000E+02  0.00000000E+00
  4.90000000E+02  9.80000000E+01  0.00000000E+00
  4.90000000E+02  9.60000000E+01  0.00000000E+00
  4.90000000E+02  9.40000000E+01  0.00000000E+00
  4.90000000E+02  9.20000000E+01  0.00000000E+00
  4.90000000E+02  9.00000000E+01  0.00000000E+00
  4.90000000E+02  8.80000000E+01  0.00000000E+00
  4.90000000E+02  8.60000000E+01  0.00000000E+00
  4.90000000E+02  8.40000000E+01  0.00000000E+00
  4.90000000E+02  8.20000000E+01  0.00000000E+00
  4.90000000E+02  8.00000000E+01  0.00000000E+00
  4.90000000E+02  7.80000000E+01  0.00000000E+00
  4.90000000E+02  7.60000000E+01  0.00000000E+00
  4.90000000E+02  7.40000000E+01  0.00000000E+00
  4.90000000E+02  7.20000000E+01  0.00000000E+00
  4.90000000E+02  7.00000000E+01  0.00000000E+00
  4.90000000E+02  6.80000000E+01  0.00000000E+00
  4.90000000E+02  6.60000000E+01  0.00000000E+00
  4.90000000E+02  6.40000000E+01  0.00000000E+00
  4.90000000E+02  6.20000000E+01  0.00000000E+00
  4.90000000E+02  6.00000000E+01  0.00000000E+00
  4.90000000E+02  5.80000000E+01  0.00000000E+00
  4.90000000E+02  5.60000000E+01  0.00000000E+00
  4.90000000E+02  5.40000000E+01  0.00000000E+00
  4.90000000E+02  5.20000000E+01  0.00000000E+00
  4.90000000E+02  5.00000000E+01  0.00000000E+00
  4.90000000E+02  4.80000000E+01  0.00000000E+00
  4.90000000E+02  4.60000000E+01  0.00000000E+00
  4.90000000E+02  4.40000000E+01  0.00000000E+00
  4.90000000E+02  4.20000000E+01  0.00000000E+00
  4.90000000E+02  4.00000000E+01  0.00000000E+00
  4.90000000E+02  3.80000000E+01  0.00000000E+00
  4.90000000E+02  3.60000000E+01  0.00000000E+00
  4.90000000E+02  3.40000000E+01  0.00000000E+00
  4.90000000E+02  3.20000000E+01  0.00000000E+00
  4.90000000E+02  3.00000000E+01  0.00000000E+00
  4.90000000E+02  2.80000000E+01  0.00000000E+00
  4.90000000E+02  2.60000000E+01  0.00000000E+00
  4.90000000E+02  2.40000000E+01  0.00000000E+00
  4.90000000E+02  2.20000000E+01  0.00000000E+00
  4.90000000E+02  2.00000000E+01  0.00000000E+00
  4.90000000E+02  1.80000000E+01  0.00000000E+00
  4.90000000E+02  1.60000000E+01  0.00000000E+00
  4.90000000E+02  1.40000000E+01  0.00000000E+00
  4.90000000E+02  1.20000000E+01  0.00000000E+00
  4.90000000E+02  1.00000000E+01  0.00000000E+00
  4.90000000E+02  8.00000000E+00  0.00000000E+00
  4.90000000E+02  6.00000000E+00  0.00000000E+00
  4.90000000E+02  4.00000000E+00  0.00000000E+00
  4.90000000E+02  2.00000000E+00  0.00000000E+00
  4.90000000E+02 -3.33066907E-14  0.00000000E+00
  5.00000000E+02  1.00000000E+02  0.00000000E+00
  5.00000000E+02  9.80000000E+01  0.00000000E+00
  5.00000000E+02  9.60000000E+01  0.00000000E+00
  5.00000000E+02  9.40000000E+01  0.00000000E+00
  5.00000000E+02  9.20000000E+01  0.00000000E+00
  5.00000000E+02  9.00000000E+01  0.00000000E+00
  5.00000000E+02  8.80000000E+01  0.00000000E+00
  5.00000000E+02  8.60000000E+01  0.00000000E+00
  5.00000000E+02  8.40000000E+01  0.00000000E+00
  5.00000000E+02  8.20000000E+01  0.00000000E+00
  5.00000000E+02  8.00000000E+01  0.00000000E+00
  5.00000000E+02  7.80000000E+01  0.00000000E+00
  5.00000000E+02  7.60000000E+01  0.00000000E+00
  5.00000000E+02  7.40000000E+01  0.00000000E+00
  5.00000000E+02  7.20000000E+01  0.00000000E+00
  5.00000000E+02  7.00000000E+01  0.00000000E+00
  5.00000000E+02  6.80000000E+01  0.00000000E+00
  5.00000000E+02  6.60000000E+01  0.00000000E+00
  5.00000000E+02  6.40000000E+01  0.00000000E+00
  5.00000000E+02  6.20000000E+01  0.00000000E+00
  5.00000000E+02  6.00000000E+01  0.00000000E+00
  5.00000000E+02  5.80000000E+01  0.00000000E+00
  5.00000000E+02  5.60000000E+01  0.00000000E+00
  5.00000000E+02  5.40000000E+01  0.00000000E+00
  5.00000000E+02  5.20000000E+01  0.00000000E+00
  5.00000000E+02  5.00000000E+01  0.00000000E+00
  5.00000000E+02  4.80000000E+01  0.00000000E+00
  5.00000000E+02  4.60000000E+01  0.00000000E+00
  5.00000000E+02  4.40000000E+01  0.00000000E+00
  5.00000000E+02  4.20000000E+01  0.00000000E+00
  5.00000000E+02  4.00000000E+01  0.00000000E+00
  5.00000000E+02  3.80000000E+01  0.00000000E+00
  5.00000000E+02  3.60000000E+01  0.00000000E+00
  5.00000000E+02  3.40000000E+01  0.00000000E+00
  5.00000000E+02  3.20000000E+01  0.00000000E+00
  5.00000000E+02  3.00000000E+01  0.00000000E+00
  5.00000000E+02  2.80000000E+01  0.00000000E+00
  5.00000000E+02  2.60000000E+01  0.00000000E+00
  5.00000000E+02  2.40000000E+01  0.00000000E+00
  5.00000000E+02  2.20000000E+01  0.00000000E+00
  5.00000000E+02  2.00000000E+01  0.00000000E+00
  5.00000000E+02  1.80000000E+01  0.00000000E+00
  5.00000000E+02  1.60000000E+01  0.00000000E+00
  5.00000000E+02  1.40000000E+01  0.00000000E+00
  5.00000000E+02  1.20000000E+01  0.00000000E+00
  5.00000000E+02  1.00000000E+01  0.00000000E+00
  5.00000000E+02  8.00000000E+00  0.00000000E+00
  5.00000000E+02  6.00000000E+00  0.00000000E+00
  5.00000000E+02  4.00000000E+00  0.00000000E+00
  5.00000000E+02  2.00000000E+00  0.00000000E+00
  5.00000000E+02 -3.33066907E-14  0.00000000E+00
  5.10000000E+02  1.00000000E+02  0.00000000E+00
  5.10000000E+02  9.80000000E+01  0.00000000E+00
  5.10000000E+02  9.60000000E+01  0.00000000E+00
  5.10000000E+02  9.40000000E+01  0.00000000E+00
  5.10000000E+02  9.20000000E+01  0.00000000E+00
  5.10000000E+02  9.00000000E+01  0.00000000E+00
  5.10000000E+02  8.80000000E+01  0.00000000E+00
  5.10000000E+02  8.60000000E+01  0.00000000E+00
  5.10000000E+02  8.40000000E+01  0.00000000E+00
  5.10000000E+02  8.20000000E+01  0.00000000E+00
  5.10000000E+02  8.00000000E+01  0.00000000E+00
  5.10000000E+02  7.80000000E+01  0.00000000E+00
  5.10000000E+02  7.60000000E+01  0.00000000E+00
  5.10000000E+02  7.40000000E+01  0.00000000E+00
  5.10000000E+02  7.20000000E+01  0.00000000E+00
  5.10000000E+02  7.00000000E+01  0.00000000E+00
  5.10000000E+02  6.80000000E+01  0.00000000E+00
  5.10000000E+02  6.60000000E+01  0.00000000E+00
  5.10000000E+02  6.40000000E+01  0.00000000E+00
  5.10000000E+02  6.20000000E+01  0.00000000E+00
  5.10000000E+02  6.00000000E+01  0.00000000E+00
  5.10000000E+02  5.80000000E+01  0.00000000E+00
  5.10000000E+02  5.60000000E+01  0.00000000E+00
  5.10000000E+02  5.40000000E+01  0.00000000E+00
  5.10000000E+02  5.20000000E+01  0.00000000E+00
  5.10000000E+02  5.00000000E+01  0.00000000E+00
  5.10000000E+02  4.80000000E+01  0.00000000E+00
  5.10000000E+02  4.60000000E+01  0.00000000E+00
  5.10000000E+02  4.40000000E+01  0.00000000E+00
  5.10000000E+02  4.20000000E+01  0.00000000E+00
  5.10000000E+02  4.00000000E+01  0.00000000E+00
  5.10000000E+02  3.80000000E+01  0.00000000E+00
  5.10000000E+02  3.60000000E+01  0.00000000E+00
  5.10000000E+02  3.40000000E+01  0.00000000E+00
  5.10000000E+02  3.20000000E+01  0.00000000E+00
  5.10000000E+02  3.00000000E+01  0.00000000E+00
  5.10000000E+02  2.80000000E+01  0.00000000E+00
  5.10000000E+02  2.60000000E+01  0.00000000E+00
  5.10000000E+02  2.40000000E+01  0.00000000E+00
  5.10000000E+02  2.20000000E+01  0.00000000E+00
  5.10000000E+02  2.00000000E+01  0.00000000E+00
  5.10000000E+02  1.80000000E+01  0.00000000E+00
  5.10000000E+02  1.60000000E+01  0.00000000E+00
  5.10000000E+02  1.40000000E+01  0.00000000E+00
  5.10000000E+02  1.20000000E+01  0.00000000E+00
  5.10000000E+02  1.00000000E+01  0.00000000E+00
  5.10000000E+02  8.00000000E+00  0.00000000E+00
  5.10000000E+02  6.00000000E+00  0.00000000E+00
  5.10000000E+02  4.00000000E+00  0.00000000E+00
  5.10000000E+02  2.00000000E+00  0.00000000E+00
  5.10000000E+02 -3.33066907E-14  0.00000000E+00
  5.20000000E+02  1.00000000E+02  0.00000000E+00
  5.20000000E+02  9.80000000E+01  0.00000000E+00
  5.20000000E+02  9.60000000E+01  0.00000000E+00
  5.20000000E+02  9.40000000E+01  0.00000000E+00
  5.20000000E+02  9.20000000E+01  0.00000000E+00
  5.20000000E+02  9.00000000E+01  0.00000000E+00
  5.20000000E+02  8.80000000E+01  0.00000000E+00
  5.20000000E+02  8.60000000E+01  0.00000000E+00
  5.20000000E+02  8.40000000E+01  0.00000000E+00
  5.20000000E+02  8.20000000E+01  0.00000000E+00
  5.20000000E+02  8.00000000E+01  0.00000000E+00
  5.20000000E+02  7.80000000E+01  0.00000000E+00
  5.20000000E+02  7.60000000E+01  0.00000000E+00
  5.20000000E+02  7.40000000E+01  0.00000000E+00
  5.20000000E+02  7.20000000E+01  0.00000000E+00
  5.20000000E+02  7.00000000E+01  0.00000000E+00
  5.20000000E+02  6.80000000E+01  0.00000000E+00
  5.20000000E+02  6.60000000E+01  0.00000000E+00
  5.20000000E+02  6.40000000E+01  0.00000000E+00
  5.20000000E+02  6.20000000E+01  0.00000000E+00
  5.20000000E+02  6.00000000E+01  0.00000000E+00
  5.20000000E+02  5.80000000E+01  0.00000000E+00
  5.20000000E+02  5.60000000E+01  0.00000000E+00
  5.20000000E+02  5.40000000E+01  0.00000000E+00
  5.20000000E+02  5.20000000E+01  0.00000000E+00
  5.20000000E+02  5.00000000E+01  0.00000000E+00
  5.20000000E+02  4.80000000E+01  0.00000000E+00
  5.20000000E+02  4.60000000E+01  0.00000000E+00
  5.20000000E+02  4.40000000E+01  0.00000000E+00
  5.20000000E+02  4.20000000E+01  0.00000000E+00
  5.20000000E+02  4.00000000E+01  0.00000000E+00
  5.20000000E+02  3.80000000E+01  0.00000000E+00
  5.20000000E+02  3.60000000E+01  0.00000000E+00
  5.20000000E+02  3.40000000E+01  0.00000000E+00
  5.20000000E+02  3.20000000E+01  0.00000000E+00
  5.20000000E+02  3.00000000E+01  0.00000000E+00
  5.20000000E+02  2.80000000E+01  0.00000000E+00
  5.20000000E+02  2.60000000E+01  0.00000000E+00
  5.20000000E+02  2.40000000E+01  0.00000000E+00
  5.20000000E+02  2.20000000E+01  0.00000000E+00
  5.20000000E+02  2.00000000E+01  0.00000000E+00
  5.20000000E+02  1.80000000E+01  0.00000000E+00
  5.20000000E+02  1.60000000E+01  0.00000000E+00
  5.20000000E+02  1.40000000E+01  0.00000000E+00
  5.20000000E+02  1.20000000E+01  0.00000000E+00
  5.20000000E+02  1.00000000E+01  0.00000000E+00
  5.20000000E+02  8.00000000E+00  0.00000000E+00
  5.20000000E+02  6.00000000E+00  0.00000000E+00
  5.20000000E+02  4.00000000E+00  0.00000000E+00
  5.20000000E+02  2.00000000E+00  0.00000000E+00
  5.20000000E+02 -3.33066907E-14  0.00000000E+00
  5.30000000E+02  1.00000000E+02  0.00000000E+00
  5.30000000E+02  9.80000000E+01  0.00000000E+00
  5.30000000E+02  9.60000000E+01  0.00000000E+00
  5.30000000E+02  9.40000000E+01  0.00000000E+00
  5.30000000E+02  9.20000000E+01  0.00000000E+00
  5.30000000E+02  9.00000000E+01  0.00000000E+00
  5.30000000E+02  8.80000000E+01  0.00000000E+00
  5.30000000E+02  8.60000000E+01  0.00000000E+00
  5.30000000E+02  8.40000000E+01  0.00000000E+00
  5.30000000E+02  8.20000000E+01  0.00000000E+00
  5.30000000E+02  8.00000000E+01  0.00000000E+00
  5.30000000E+02  7.80000000E+01  0.00000000E+00
  5.30000000E+02  7.60000000E+01  0.00000000E+00
  5.30000000E+02  7.40000000E+01  0.00000000E+00
  5.30000000E+02  7.20000000E+01  0.00000000E+00
  5.30000000E+02  7.00000000E+01  0.00000000E+00
  5.30000000E+02  6.80000000E+01  0.00000000E+00
  5.30000000E+02  6.60000000E+01  0.00000000E+00
  5.30000000E+02  6.40000000E+01  0.00000000E+00
  5.30000000E+02  6.20000000E+01  0.00000000E+00
  5.30000000E+02  6.00000000E+01  0.00000000E+00
  5.30000000E+02  5.80000000E+01  0.00000000E+00
  5.30000000E+02  5.60000000E+01  0.00000000E+00
  5.30000000E+02  5.40000000E+01  0.00000000E+00
  5.30000000E+02  5.20000000E+01  0.00000000E+00
  5.30000000E+02  5.00000000E+01  0.00000000E+00
  5.30000000E+02  4.80000000E+01  0.00000000E+00
  5.30000000E+02  4.60000000E+01  0.00000000E+00
  5.30000000E+02  4.40000000E+01  0.00000000E+00
  5.30000000E+02  4.20000000E+01  0.00000000E+00
  5.30000000E+02  4.00000000E+01  0.00000000E+00
  5.30000000E+02  3.80000000E+01  0.00000000E+00
  5.30000000E+02  3.60000000E+01  0.00000000E+00
  5.30000000E+02  3.40000000E+01  0.00000000E+00
  5.30000000E+02  3.20000000E+01  0.00000000E+00
  5.30000000E+02  3.00000000E+01  0.00000000E+00
  5.30000000E+02  2.80000000E+01  0.00000000E+00
  5.30000000E+02  2.60000000E+01  0.00000000E+00
  5.30000000E+02  2.40000000E+01  0.00000000E+00
  5.30000000E+02  2.20000000E+01  0.00000000E+00
  5.30000000E+02  2.00000000E+01  0.00000000E+00
  5.30000000E+02  1.80000000E+01  0.00000000E+00
  5.30000000E+02  1.60000000E+01  0.00000000E+00
  5.30000000E+02  1.40000000E+01  0.00000000E+00
  5.30000000E+02  1.20000000E+01  0.00000000E+00
  5.30000000E+02  1.00000000E+01  0.00000000E+00
  5.30000000E+02  8.00000000E+00  0.00000000E+00
  5.30000000E+02  6.00000000E+00  0.00000000E+00
  5.30000000E+02  4.00000000E+00  0.00000000E+00
  5.30000000E+02  2.00000000E+00  0.00000000E+00
  5.30000000E+02 -3.33066907E-14  0.00000000E+00
  5.40000000E+02  1.00000000E+02  0.00000000E+00
  5.40000000E+02  9.80000000E+01  0.00000000E+00
  5.40000000E+02  9.60000000E+01  0.00000000E+00
  5.40000000E+02  9.40000000E+01  0.00000000E+00
  5.40000000E+02  9.20000000E+01  0.00000000E+00
  5.40000000E+02  9.00000000E+01  0.00000000E+00
  5.40000000E+02  8.80000000E+01  0.00000000E+00
  5.40000000E+02  8.60000000E+01  0.00000000E+00
  5.40000000E+02  8.40000000E+01  0.00000000E+00
  5.40000000E+02  8.20000000E+01  0.00000000E+00
  5.40000000E+02  8.00000000E+01  0.00000000E+00
  5.40000000E+02  7.80000000E+01  0.00000000E+00
  5.40000000E+02  7.60000000E+01  0.00000000E+00
  5.40000000E+02  7.40000000E+01  0.00000000E+00
  5.40000000E+02  7.20000000E+01  0.00000000E+00
  5.40000000E+02  7.00000000E+01  0.00000000E+00
  5.40000000E+02  6.80000000E+01  0.00000000E+00
  5.40000000E+02  6.60000000E+01  0.00000000E+00
  5.40000000E+02  6.40000000E+01  0.00000000E+00
  5.40000000E+02  6.20000000E+01  0.00000000E+00
  5.40000000E+02  6.00000000E+01  0.00000000E+00
  5.40000000E+02  5.80000000E+01  0.00000000E+00
  5.40000000E+02  5.60000000E+01  0.00000000E+00
  5.40000000E+02  5.40000000E+01  0.00000000E+00
  5.40000000E+02  5.20000000E+01  0.00000000E+00
  5.40000000E+02  5.00000000E+01  0.00000000E+00
  5.40000000E+02  4.80000000E+01  0.00000000E+00
  5.40000000E+02  4.60000000E+01  0.00000000E+00
  5.40000000E+02  4.40000000E+01  0.00000000E+00
  5.40000000E+02  4.20000000E+01  0.00000000E+00
  5.40000000E+02  4.00000000E+01  0.00000000E+00
  5.40000000E+02  3.80000000E+01  0.00000000E+00
  5.40000000E+02  3.60000000E+01  0.00000000E+00
  5.40000000E+02  3.40000000E+01  0.00000000E+00
  5.40000000E+02  3.20000000E+01  0.00000000E+00
  5.40000000E+02  3.00000000E+01  0.00000000E+00
  5.40000000E+02  2.80000000E+01  0.00000000E+00
  5.40000000E+02  2.60000000E+01  0.00000000E+00
  5.40000000E+02  2.40000000E+01  0.00000000E+00
  5.40000000E+02  2.20000000E+01  0.00000000E+00
  5.40000000E+02  2.00000000E+01  0.00000000E+00
  5.40000000E+02  1.80000000E+01  0.00000000E+00
  5.40000000E+02  1.60000000E+01  0.00000000E+00
  5.40000000E+02  1.40000000E+01  0.00000000E+00
  5.40000000E+02  1.20000000E+01  0.00000000E+00
  5.40000000E+02  1.00000000E+01  0.00000000E+00
  5.40000000E+02  8.00000000E+00  0.00000000E+00
  5.40000000E+02  6.00000000E+00  0.00000000E+00
  5.40000000E+02  4.00000000E+00  0.00000000E+00
  5.40000000E+02  2.00000000E+00  0.00000000E+00
  5.40000000E+02 -3.33066907E-14  0.00000000E+00
  5.50000000E+02  1.00000000E+02  0.00000000E+00
  5.50000000E+02  9.80000000E+01  0.00000000E+00
  5.50000000E+02  9.60000000E+01  0.00000000E+00
  5.50000000E+02  9.40000000E+01  0.00000000E+00
  5.50000000E+02  9.20000000E+01  0.00000000E+00
  5.50000000E+02  9.00000000E+01  0.00000000E+00
  5.50000000E+02  8.80000000E+01  0.00000000E+00
  5.50000000E+02  8.60000000E+01  0.00000000E+00
  5.50000000E+02  8.40000000E+01  0.00000000E+00
  5.50000000E+02  8.20000000E+01  0.00000000E+00
  5.50000000E+02  8.00000000E+01  0.00000000E+00
  5.50000000E+02  7.80000000E+01  0.00000000E+00
  5.50000000E+02  7.60000000E+01  0.00000000E+00
  5.50000000E+02  7.40000000E+01  0.00000000E+00
  5.50000000E+02  7.20000000E+01  0.00000000E+00
  5.50000000E+02  7.00000000E+01  0.00000000E+00
  5.50000000E+02  6.80000000E+01  0.00000000E+00
  5.50000000E+02  6.60000000E+01  0.00000000E+00
  5.50000000E+02  6.40000000E+01  0.00000000E+00
  5.50000000E+02  6.20000000E+01  0.00000000E+00
  5.50000000E+02  6.00000000E+01  0.00000000E+00
  5.50000000E+02  5.80000000E+01  0.00000000E+00
  5.50000000E+02  5.60000000E+01  0.00000000E+00
  5.50000000E+02  5.40000000E+01  0.00000000E+00
  5.50000000E+02  5.20000000E+01  0.00000000E+00
  5.50000000E+02  5.00000000E+01  0.00000000E+00
  5.50000000E+02  4.80000000E+01  0.00000000E+00
  5.50000000E+02  4.60000000E+01  0.00000000E+00
  5.50000000E+02  4.40000000E+01  0.00000000E+00
  5.50000000E+02  4.20000000E+01  0.00000000E+00
  5.50000000E+02  4.00000000E+01  0.00000000E+00
  5.50000000E+02  3.80000000E+01  0.00000000E+00
  5.50000000E+02  3.60000000E+01  0.00000000E+00
  5.50000000E+02  3.40000000E+01  0.00000000E+00
  5.50000000E+02  3.20000000E+01  0.00000000E+00
  5.50000000E+02  3.00000000E+01  0.00000000E+00
  5.50000000E+02  2.80000000E+01  0.00000000E+00
  5.50000000E+02  2.60000000E+01  0.00000000E+00
  5.50000000E+02  2.40000000E+01  0.00000000E+00
  5.50000000E+02  2.20000000E+01  0.00000000E+00
  5.50000000E+02  2.00000000E+01  0.00000000E+00
  5.50000000E+02  1.80000000E+01  0.00000000E+00
  5.50000000E+02  1.60000000E+01  0.00000000E+00
  5.50000000E+02  1.40000000E+01  0.00000000E+00
  5.50000000E+02  1.20000000E+01  0.00000000E+00
  5.50000000E+02  1.00000000E+01  0.00000000E+00
  5.50000000E+02  8.00000000E+00  0.00000000E+00
  5.50000000E+02  6.00000000E+00  0.00000000E+00
  5.50000000E+02  4.00000000E+00  0.00000000E+00
  5.50000000E+02  2.00000000E+00  0.00000000E+00
  5.50000000E+02 -3.33066907E-14  0.00000000E+00
  5.60000000E+02  1.00000000E+02  0.00000000E+00
  5.60000000E+02  9.80000000E+01  0.00000000E+00
  5.60000000E+02  9.60000000E+01  0.00000000E+00
  5.60000000E+02  9.40000000E+01  0.00000000E+00
  5.60000000E+02  9.20000000E+01  0.00000000E+00
  5.60000000E+02  9.00000000E+01  0.00000000E+00
  5.60000000E+02  8.80000000E+01  0.00000000E+00
  5.60000000E+02  8.60000000E+01  0.00000000E+00
  5.60000000E+02  8.40000000E+01  0.00000000E+00
  5.60000000E+02  8.20000000E+01  0.00000000E+00
  5.60000000E+02  8.00000000E+01  0.00000000E+00
  5.60000000E+02  7.80000000E+01  0.00000000E+00
  5.60000000E+02  7.60000000E+01  0.00000000E+00
  5.60000000E+02  7.40000000E+01  0.00000000E+00
  5.60000000E+02  7.20000000E+01  0.00000000E+00
  5.60000000E+02  7.00000000E+01  0.00000000E+00
  5.60000000E+02  6.80000000E+01  0.00000000E+00
  5.60000000E+02  6.60000000E+01  0.00000000E+00
  5.60000000E+02  6.40000000E+01  0.00000000E+00
  5.60000000E+02  6.20000000E+01  0.00000000E+00
  5.60000000E+02  6.00000000E+01  0.00000000E+00
  5.60000000E+02  5.80000000E+01  0.00000000E+00
  5.60000000E+02  5.60000000E+01  0.00000000E+00
  5.60000000E+02  5.40000000E+01  0.00000000E+00
  5.60000000E+02  5.20000000E+01  0.00000000E+00
  5.60000000E+02  5.00000000E+01  0.00000000E+00
  5.60000000E+02  4.80000000E+01  0.00000000E+00
  5.60000000E+02  4.60000000E+01  0.00000000E+00
  5.60000000E+02  4.40000000E+01  0.00000000E+00
  5.60000000E+02  4.20000000E+01  0.00000000E+00
  5.60000000E+02  4.00000000E+01  0.00000000E+00
  5.60000000E+02  3.80000000E+01  0.00000000E+00
  5.60000000E+02  3.60000000E+01  0.00000000E+00
  5.60000000E+02  3.40000000E+01  0.00000000E+00
  5.60000000E+02  3.20000000E+01  0.00000000E+00
  5.60000000E+02  3.00000000E+01  0.00000000E+00
  5.60000000E+02  2.80000000E+01  0.00000000E+00
  5.60000000E+02  2.60000000E+01  0.00000000E+00
  5.60000000E+02  2.40000000E+01  0.00000000E+00
  5.60000000E+02  2.20000000E+01  0.00000000E+00
  5.60000000E+02  2.00000000E+01  0.00000000E+00
  5.60000000E+02  1.80000000E+01  0.00000000E+00
  5.60000000E+02  1.60000000E+01  0.00000000E+00
  5.60000000E+02  1.40000000E+01  0.00000000E+00
  5.60000000E+02  1.20000000E+01  0.00000000E+00
  5.60000000E+02  1.00000000E+01  0.00000000E+00
  5.60000000E+02  8.00000000E+00  0.00000000E+00
  5.60000000E+02  6.00000000E+00  0.00000000E+00
  5.60000000E+02  4.00000000E+00  0.00000000E+00
  5.60000000E+02  2.00000000E+00  0.00000000E+00
  5.60000000E+02 -3.33066907E-14  0.00000000E+00
  5.70000000E+02  1.00000000E+02  0.00000000E+00
  5.70000000E+02  9.80000000E+01  0.00000000E+00
  5.70000000E+02  9.60000000E+01  0.00000000E+00
  5.70000000E+02  9.40000000E+01  0.00000000E+00
  5.70000000E+02  9.20000000E+01  0.00000000E+00
  5.70000000E+02  9.00000000E+01  0.00000000E+00
  5.70000000E+02  8.80000000E+01  0.00000000E+00
  5.70000000E+02  8.60000000E+01  0.00000000E+00
  5.70000000E+02  8.40000000E+01  0.00000000E+00
  5.70000000E+02  8.20000000E+01  0.00000000E+00
  5.70000000E+02  8.00000000E+01  0.00000000E+00
  5.70000000E+02  7.80000000E+01  0.00000000E+00
  5.70000000E+02  7.60000000E+01  0.00000000E+00
  5.70000000E+02  7.40000000E+01  0.00000000E+00
  5.70000000E+02  7.20000000E+01  0.00000000E+00
  5.70000000E+02  7.00000000E+01  0.00000000E+00
  5.70000000E+02  6.80000000E+01  0.00000000E+00
  5.70000000E+02  6.60000000E+01  0.00000000E+00
  5.70000000E+02  6.40000000E+01  0.00000000E+00
  5.70000000E+02  6.20000000E+01  0.00000000E+00
  5.70000000E+02  6.00000000E+01  0.00000000E+00
  5.70000000E+02  5.80000000E+01  0.00000000E+00
  5.70000000E+02  5.60000000E+01  0.00000000E+00
  5.70000000E+02  5.40000000E+01  0.00000000E+00
  5.70000000E+02  5.20000000E+01  0.00000000E+00
  5.70000000E+02  5.00000000E+01  0.00000000E+00
  5.70000000E+02  4.80000000E+01  0.00000000E+00
  5.70000000E+02  4.60000000E+01  0.00000000E+00
  5.70000000E+02  4.40000000E+01  0.00000000E+00
  5.70000000E+02  4.20000000E+01  0.00000000E+00
  5.70000000E+02  4.00000000E+01  0.00000000E+00
  5.70000000E+02  3.80000000E+01  0.00000000E+00
  5.70000000E+02  3.60000000E+01  0.00000000E+00
  5.70000000E+02  3.40000000E+01  0.00000000E+00
  5.70000000E+02  3.20000000E+01  0.00000000E+00
  5.70000000E+02  3.00000000E+01  0.00000000E+00
  5.70000000E+02  2.80000000E+01  0.00000000E+00
  5.70000000E+02  2.60000000E+01  0.00000000E+00
  5.70000000E+02  2.40000000E+01  0.00000000E+00
  5.70000000E+02  2.20000000E+01  0.00000000E+00
  5.70000000E+02  2.00000000E+01  0.00000000E+00
  5.70000000E+02  1.80000000E+01  0.00000000E+00
  5.70000000E+02  1.60000000E+01  0.00000000E+00
  5.70000000E+02  1.40000000E+01  0.00000000E+00
  5.70000000E+02  1.20000000E+01  0.00000000E+00
  5.70000000E+02  1.00000000E+01  0.00000000E+00
  5.70000000E+02  8.00000000E+00  0.00000000E+00
  5.70000000E+02  6.00000000E+00  0.00000000E+00
  5.70000000E+02  4.00000000E+00  0.00000000E+00
  5.70000000E+02  2.00000000E+00  0.00000000E+00
  5.70000000E+02 -3.33066907E-14  0.00000000E+00
  5.80000000E+02  1.00000000E+02  0.00000000E+00
  5.80000000E+02  9.80000000E+01  0.00000000E+00
  5.80000000E+02  9.60000000E+01  0.00000000E+00
  5.80000000E+02  9.40000000E+01  0.00000000E+00
  5.80000000E+02  9.20000000E+01  0.00000000E+00
  5.80000000E+02  9.00000000E+01  0.00000000E+00
  5.80000000E+02  8.80000000E+01  0.00000000E+00
  5.80000000E+02  8.60000000E+01  0.00000000E+00
  5.80000000E+02  8.40000000E+01  0.00000000E+00
  5.80000000E+02  8.20000000E+01  0.00000000E+00
  5.80000000E+02  8.00000000E+01  0.00000000E+00
  5.80000000E+02  7.80000000E+01  0.00000000E+00
  5.80000000E+02  7.60000000E+01  0.00000000E+00
  5.80000000E+02  7.40000000E+01  0.00000000E+00
  5.80000000E+02  7.20000000E+01  0.00000000E+00
  5.80000000E+02  7.00000000E+01  0.00000000E+00
  5.80000000E+02  6.80000000E+01  0.00000000E+00
  5.80000000E+02  6.60000000E+01  0.00000000E+00
  5.80000000E+02  6.40000000E+01  0.00000000E+00
  5.80000000E+02  6.20000000E+01  0.00000000E+00
  5.80000000E+02  6.00000000E+01  0.00000000E+00
  5.80000000E+02  5.80000000E+01  0.00000000E+00
  5.80000000E+02  5.60000000E+01  0.00000000E+00
  5.80000000E+02  5.40000000E+01  0.00000000E+00
  5.80000000E+02  5.20000000E+01  0.00000000E+00
  5.80000000E+02  5.00000000E+01  0.00000000E+00
  5.80000000E+02  4.80000000E+01  0.00000000E+00
  5.80000000E+02  4.60000000E+01  0.00000000E+00
  5.80000000E+02  4.40000000E+01  0.00000000E+00
  5.80000000E+02  4.20000000E+01  0.00000000E+00
  5.80000000E+02  4.00000000E+01  0.00000000E+00
  5.80000000E+02  3.80000000E+01  0.00000000E+00
  5.80000000E+02  3.60000000E+01  0.00000000E+00
  5.80000000E+02  3.40000000E+01  0.00000000E+00
  5.80000000E+02  3.20000000E+01  0.00000000E+00
  5.80000000E+02  3.00000000E+01  0.00000000E+00
  5.80000000E+02  2.80000000E+01  0.00000000E+00
  5.80000000E+02  2.60000000E+01  0.00000000E+00
  5.80000000E+02  2.40000000E+01  0.00000000E+00
  5.80000000E+02  2.20000000E+01  0.00000000E+00
  5.80000000E+02  2.00000000E+01  0.00000000E+00
  5.80000000E+02  1.80000000E+01  0.00000000E+00
  5.80000000E+02  1.60000000E+01  0.00000000E+00
  5.80000000E+02  1.40000000E+01  0.00000000E+00
  5.80000000E+02  1.20000000E+01  0.00000000E+00
  5.80000000E+02  1.00000000E+01  0.00000000E+00
  5.80000000E+02  8.00000000E+00  0.00000000E+00
  5.80000000E+02  6.00000000E+00  0.00000000E+00
  5.80000000E+02  4.00000000E+00  0.00000000E+00
  5.80000000E+02  2.00000000E+00  0.00000000E+00
  5.80000000E+02 -3.33066907E-14  0.00000000E+00
  5.90000000E+02  1.00000000E+02  0.00000000E+00
  5.90000000E+02  9.80000000E+01  0.00000000E+00
  5.90000000E+02  9.60000000E+01  0.00000000E+00
  5.90000000E+02  9.40000000E+01  0.00000000E+00
  5.90000000E+02  9.20000000E+01  0.00000000E+00
  5.90000000E+02  9.00000000E+01  0.00000000E+00
  5.90000000E+02  8.80000000E+01  0.00000000E+00
  5.90000000E+02  8.60000000E+01  0.00000000E+00
  5.90000000E+02  8.40000000E+01  0.00000000E+00
  5.90000000E+02  8.20000000E+01  0.00000000E+00
  5.90000000E+02  8.00000000E+01  0.00000000E+00
  5.90000000E+02  7.80000000E+01  0.00000000E+00
  5.90000000E+02  7.60000000E+01  0.00000000E+00
  5.90000000E+02  7.40000000E+01  0.00000000E+00
  5.90000000E+02  7.20000000E+01  0.00000000E+00
  5.90000000E+02  7.00000000E+01  0.00000000E+00
  5.90000000E+02  6.80000000E+01  0.00000000E+00
  5.90000000E+02  6.60000000E+01  0.00000000E+00
  5.90000000E+02  6.40000000E+01  0.00000000E+00
  5.90000000E+02  6.20000000E+01  0.00000000E+00
  5.90000000E+02  6.00000000E+01  0.00000000E+00
  5.90000000E+02  5.80000000E+01  0.00000000E+00
  5.90000000E+02  5.60000000E+01  0.00000000E+00
  5.90000000E+02  5.40000000E+01  0.00000000E+00
  5.90000000E+02  5.20000000E+01  0.00000000E+00
  5.90000000E+02  5.00000000E+01  0.00000000E+00
  5.90000000E+02  4.80000000E+01  0.00000000E+00
  5.90000000E+02  4.60000000E+01  0.00000000E+00
  5.90000000E+02  4.40000000E+01  0.00000000E+00
  5.90000000E+02  4.20000000E+01  0.00000000E+00
  5.90000000E+02  4.00000000E+01  0.00000000E+00
  5.90000000E+02  3.80000000E+01  0.00000000E+00
  5.90000000E+02  3.60000000E+01  0.00000000E+00
  5.90000000E+02  3.40000000E+01  0.00000000E+00
  5.90000000E+02  3.20000000E+01  0.00000000E+00
  5.90000000E+02  3.00000000E+01  0.00000000E+00
  5.90000000E+02  2.80000000E+01  0.00000000E+00
  5.90000000E+02  2.60000000E+01  0.00000000E+00
  5.90000000E+02  2.40000000E+01  0.00000000E+00
  5.90000000E+02  2.20000000E+01  0.00000000E+00
  5.90000000E+02  2.00000000E+01  0.00000000E+00
  5.90000000E+02  1.80000000E+01  0.00000000E+00
  5.90000000E+02  1.60000000E+01  0.00000000E+00
  5.90000000E+02  1.40000000E+01  0.00000000E+00
  5.90000000E+02  1.20000000E+01  0.00000000E+00
  5.90000000E+02  1.00000000E+01  0.00000000E+00
  5.90000000E+02  8.00000000E+00  0.00000000E+00
  5.90000000E+02  6.00000000E+00  0.00000000E+00
  5.90000000E+02  4.00000000E+00  0.00000000E+00
  5.90000000E+02  2.00000000E+00  0.00000000E+00
  5.90000000E+02 -3.33066907E-14  0.00000000E+00
  6.00000000E+02  1.00000000E+02  0.00000000E+00
  6.00000000E+02  9.80000000E+01  0.00000000E+00
  6.00000000E+02  9.60000000E+01  0.00000000E+00
  6.00000000E+02  9.40000000E+01  0.00000000E+00
  6.00000000E+02  9.20000000E+01  0.00000000E+00
  6.00000000E+02  9.00000000E+01  0.00000000E+00
  6.00000000E+02  8.80000000E+01  0.00000000E+00
  6.00000000E+02  8.60000000E+01  0.00000000E+00
  6.00000000E+02  8.40000000E+01  0.00000000E+00
  6.00000000E+02  8.20000000E+01  0.00000000E+00
  6.00000000E+02  8.00000000E+01  0.00000000E+00
  6.00000000E+02  7.80000000E+01  0.00000000E+00
  6.00000000E+02  7.60000000E+01  0.00000000E+00
  6.00000000E+02  7.40000000E+01  0.00000000E+00
  6.00000000E+02  7.20000000E+01  0.00000000E+00
  6.00000000E+02  7.00000000E+01  0.00000000E+00
  6.00000000E+02  6.80000000E+01  0.00000000E+00
  6.00000000E+02  6.60000000E+01  0.00000000E+00
  6.00000000E+02  6.40000000E+01  0.00000000E+00
  6.00000000E+02  6.20000000E+01  0.00000000E+00
  6.00000000E+02  6.00000000E+01  0.00000000E+00
  6.00000000E+02  5.80000000E+01  0.00000000E+00
  6.00000000E+02  5.60000000E+01  0.00000000E+00
  6.00000000E+02  5.40000000E+01  0.00000000E+00
  6.00000000E+02  5.20000000E+01  0.00000000E+00
  6.00000000E+02  5.00000000E+01  0.00000000E+00
  6.00000000E+02  4.80000000E+01  0.00000000E+00
  6.00000000E+02  4.60000000E+01  0.00000000E+00
  6.00000000E+02  4.40000000E+01  0.00000000E+00
  6.00000000E+02  4.20000000E+01  0.00000000E+00
  6.00000000E+02  4.00000000E+01  0.00000000E+00
  6.00000000E+02  3.80000000E+01  0.00000000E+00
  6.00000000E+02  3.60000000E+01  0.00000000E+00
  6.00000000E+02  3.40000000E+01  0.00000000E+00
  6.00000000E+02  3.20000000E+01  0.00000000E+00
  6.00000000E+02  3.00000000E+01  0.00000000E+00
  6.00000000E+02  2.80000000E+01  0.00000000E+00
  6.00000000E+02  2.60000000E+01  0.00000000E+00
  6.00000000E+02  2.40000000E+01  0.00000000E+00
  6.00000000E+02  2.20000000E+01  0.00000000E+00
  6.00000000E+02  2.00000000E+01  0.00000000E+00
  6.00000000E+02  1.80000000E+01  0.00000000E+00
  6.00000000E+02  1.60000000E+01  0.00000000E+00
  6.00000000E+02  1.40000000E+01  0.00000000E+00
  6.00000000E+02  1.20000000E+01  0.00000000E+00
  6.00000000E+02  1.00000000E+01  0.00000000E+00
  6.00000000E+02  8.00000000E+00  0.00000000E+00
  6.00000000E+02  6.00000000E+00  0.00000000E+00
  6.00000000E+02  4.00000000E+00  0.00000000E+00
  6.00000000E+02  2.00000000E+00  0.00000000E+00
  6.00000000E+02 -3.33066907E-14  0.00000000E+00
  6.10000000E+02  1.00000000E+02  0.00000000E+00
  6.10000000E+02  9.80000000E+01  0.00000000E+00
  6.10000000E+02  9.60000000E+01  0.00000000E+00
  6.10000000E+02  9.40000000E+01  0.00000000E+00
  6.10000000E+02  9.20000000E+01  0.00000000E+00
  6.10000000E+02  9.00000000E+01  0.00000000E+00
  6.10000000E+02  8.80000000E+01  0.00000000E+00
  6.10000000E+02  8.60000000E+01  0.00000000E+00
  6.10000000E+02  8.40000000E+01  0.00000000E+00
  6.10000000E+02  8.20000000E+01  0.00000000E+00
  6.10000000E+02  8.00000000E+01  0.00000000E+00
  6.10000000E+02  7.80000000E+01  0.00000000E+00
  6.10000000E+02  7.60000000E+01  0.00000000E+00
  6.10000000E+02  7.40000000E+01  0.00000000E+00
  6.10000000E+02  7.20000000E+01  0.00000000E+00
  6.10000000E+02  7.00000000E+01  0.00000000E+00
  6.10000000E+02  6.80000000E+01  0.00000000E+00
  6.10000000E+02  6.60000000E+01  0.00000000E+00
  6.10000000E+02  6.40000000E+01  0.00000000E+00
  6.10000000E+02  6.20000000E+01  0.00000000E+00
  6.10000000E+02  6.00000000E+01  0.00000000E+00
  6.10000000E+02  5.80000000E+01  0.00000000E+00
  6.10000000E+02  5.60000000E+01  0.00000000E+00
  6.10000000E+02  5.40000000E+01  0.00000000E+00
  6.10000000E+02  5.20000000E+01  0.00000000E+00
  6.10000000E+02  5.00000000E+01  0.00000000E+00
  6.10000000E+02  4.80000000E+01  0.00000000E+00
  6.10000000E+02  4.60000000E+01  0.00000000E+00
  6.10000000E+02  4.40000000E+01  0.00000000E+00
  6.10000000E+02  4.20000000E+01  0.00000000E+00
  6.10000000E+02  4.00000000E+01  0.00000000E+00
  6.10000000E+02  3.80000000E+01  0.00000000E+00
  6.10000000E+02  3.60000000E+01  0.00000000E+00
  6.10000000E+02  3.40000000E+01  0.00000000E+00
  6.10000000E+02  3.20000000E+01  0.00000000E+00
  6.10000000E+02  3.00000000E+01  0.00000000E+00
  6.10000000E+02  2.80000000E+01  0.00000000E+00
  6.10000000E+02  2.60000000E+01  0.00000000E+00
  6.10000000E+02  2.40000000E+01  0.00000000E+00
  6.10000000E+02  2.20000000E+01  0.00000000E+00
  6.10000000E+02  2.00000000E+01  0.00000000E+00
  6.10000000E+02  1.80000000E+01  0.00000000E+00
  6.10000000E+02  1.60000000E+01  0.00000000E+00
  6.10000000E+02  1.40000000E+01  0.00000000E+00
  6.10000000E+02  1.20000000E+01  0.00000000E+00
  6.10000000E+02  1.00000000E+01  0.00000000E+00
  6.10000000E+02  8.00000000E+00  0.00000000E+00
  6.10000000E+02  6.00000000E+00  0.00000000E+00
  6.10000000E+02  4.00000000E+00  0.00000000E+00
  6.10000000E+02  2.00000000E+00  0.00000000E+00
  6.10000000E+02 -3.33066907E-14  0.00000000E+00
  6.20000000E+02  1.00000000E+02  0.00000000E+00
  6.20000000E+02  9.80000000E+01  0.00000000E+00
  6.20000000E+02  9.60000000E+01  0.00000000E+00
  6.20000000E+02  9.40000000E+01  0.00000000E+00
  6.20000000E+02  9.20000000E+01  0.00000000E+00
  6.20000000E+02  9.00000000E+01  0.00000000E+00
  6.20000000E+02  8.80000000E+01  0.00000000E+00
  6.20000000E+02  8.60000000E+01  0.00000000E+00
  6.20000000E+02  8.40000000E+01  0.00000000E+00
  6.20000000E+02  8.20000000E+01  0.00000000E+00
  6.20000000E+02  8.00000000E+01  0.00000000E+00
  6.20000000E+02  7.80000000E+01  0.00000000E+00
  6.20000000E+02  7.60000000E+01  0.00000000E+00
  6.20000000E+02  7.40000000E+01  0.00000000E+00
  6.20000000E+02  7.20000000E+01  0.00000000E+00
  6.20000000E+02  7.00000000E+01  0.00000000E+00
  6.20000000E+02  6.80000000E+01  0.00000000E+00
  6.20000000E+02  6.60000000E+01  0.00000000E+00
  6.20000000E+02  6.40000000E+01  0.00000000E+00
  6.20000000E+02  6.20000000E+01  0.00000000E+00
  6.20000000E+02  6.00000000E+01  0.00000000E+00
  6.20000000E+02  5.80000000E+01  0.00000000E+00
  6.20000000E+02  5.60000000E+01  0.00000000E+00
  6.20000000E+02  5.40000000E+01  0.00000000E+00
  6.20000000E+02  5.20000000E+01  0.00000000E+00
  6.20000000E+02  5.00000000E+01  0.00000000E+00
  6.20000000E+02  4.80000000E+01  0.00000000E+00
  6.20000000E+02  4.60000000E+01  0.00000000E+00
  6.20000000E+02  4.40000000E+01  0.00000000E+00
  6.20000000E+02  4.20000000E+01  0.00000000E+00
  6.20000000E+02  4.00000000E+01  0.00000000E+00
  6.20000000E+02  3.80000000E+01  0.00000000E+00
  6.20000000E+02  3.60000000E+01  0.00000000E+00
  6.20000000E+02  3.40000000E+01  0.00000000E+00
  6.20000000E+02  3.20000000E+01  0.00000000E+00
  6.20000000E+02  3.00000000E+01  0.00000000E+00
  6.20000000E+02  2.80000000E+01  0.00000000E+00
  6.20000000E+02  2.60000000E+01  0.00000000E+00
  6.20000000E+02  2.40000000E+01  0.00000000E+00
  6.20000000E+02  2.20000000E+01  0.00000000E+00
  6.20000000E+02  2.00000000E+01  0.00000000E+00
  6.20000000E+02  1.80000000E+01  0.00000000E+00
  6.20000000E+02  1.60000000E+01  0.00000000E+00
  6.20000000E+02  1.40000000E+01  0.00000000E+00
  6.20000000E+02  1.20000000E+01  0.00000000E+00
  6.20000000E+02  1.00000000E+01  0.00000000E+00
  6.20000000E+02  8.00000000E+00  0.00000000E+00
  6.20000000E+02  6.00000000E+00  0.00000000E+00
  6.20000000E+02  4.00000000E+00  0.00000000E+00
  6.20000000E+02  2.00000000E+00  0.00000000E+00
  6.20000000E+02 -3.33066907E-14  0.00000000E+00
  6.30000000E+02  1.00000000E+02  0.00000000E+00
  6.30000000E+02  9.80000000E+01  0.00000000E+00
  6.30000000E+02  9.60000000E+01  0.00000000E+00
  6.30000000E+02  9.40000000E+01  0.00000000E+00
  6.30000000E+02  9.20000000E+01  0.00000000E+00
  6.30000000E+02  9.00000000E+01  0.00000000E+00
  6.30000000E+02  8.80000000E+01  0.00000000E+00
  6.30000000E+02  8.60000000E+01  0.00000000E+00
  6.30000000E+02  8.40000000E+01  0.00000000E+00
  6.30000000E+02  8.20000000E+01  0.00000000E+00
  6.30000000E+02  8.00000000E+01  0.00000000E+00
  6.30000000E+02  7.80000000E+01  0.00000000E+00
  6.30000000E+02  7.60000000E+01  0.00000000E+00
  6.30000000E+02  7.40000000E+01  0.00000000E+00
  6.30000000E+02  7.20000000E+01  0.00000000E+00
  6.30000000E+02  7.00000000E+01  0.00000000E+00
  6.30000000E+02  6.80000000E+01  0.00000000E+00
  6.30000000E+02  6.60000000E+01  0.00000000E+00
  6.30000000E+02  6.40000000E+01  0.00000000E+00
  6.30000000E+02  6.20000000E+01  0.00000000E+00
  6.30000000E+02  6.00000000E+01  0.00000000E+00
  6.30000000E+02  5.80000000E+01  0.00000000E+00
  6.30000000E+02  5.60000000E+01  0.00000000E+00
  6.30000000E+02  5.40000000E+01  0.00000000E+00
  6.30000000E+02  5.20000000E+01  0.00000000E+00
  6.30000000E+02  5.00000000E+01  0.00000000E+00
  6.30000000E+02  4.80000000E+01  0.00000000E+00
  6.30000000E+02  4.60000000E+01  0.00000000E+00
  6.30000000E+02  4.40000000E+01  0.00000000E+00
  6.30000000E+02  4.20000000E+01  0.00000000E+00
  6.30000000E+02  4.00000000E+01  0.00000000E+00
  6.30000000E+02  3.80000000E+01  0.00000000E+00
  6.30000000E+02  3.60000000E+01  0.00000000E+00
  6.30000000E+02  3.40000000E+01  0.00000000E+00
  6.30000000E+02  3.20000000E+01  0.00000000E+00
  6.30000000E+02  3.00000000E+01  0.00000000E+00
  6.30000000E+02  2.80000000E+01  0.00000000E+00
  6.30000000E+02  2.60000000E+01  0.00000000E+00
  6.30000000E+02  2.40000000E+01  0.00000000E+00
  6.30000000E+02  2.20000000E+01  0.00000000E+00
  6.30000000E+02  2.00000000E+01  0.00000000E+00
  6.30000000E+02  1.80000000E+01  0.00000000E+00
  6.30000000E+02  1.60000000E+01  0.00000000E+00
  6.30000000E+02  1.40000000E+01  0.00000000E+00
  6.30000000E+02  1.20000000E+01  0.00000000E+00
  6.30000000E+02  1.00000000E+01  0.00000000E+00
  6.30000000E+02  8.00000000E+00  0.00000000E+00
  6.30000000E+02  6.00000000E+00  0.00000000E+00
  6.30000000E+02  4.00000000E+00  0.00000000E+00
  6.30000000E+02  2.00000000E+00  0.00000000E+00
  6.30000000E+02 -3.33066907E-14  0.00000000E+00
  6.40000000E+02  1.00000000E+02  0.00000000E+00
  6.40000000E+02  9.80000000E+01  0.00000000E+00
  6.40000000E+02  9.60000000E+01  0.00000000E+00
  6.40000000E+02  9.40000000E+01  0.00000000E+00
  6.40000000E+02  9.20000000E+01  0.00000000E+00
  6.40000000E+02  9.00000000E+01  0.00000000E+00
  6.40000000E+02  8.80000000E+01  0.00000000E+00
  6.40000000E+02  8.60000000E+01  0.00000000E+00
  6.40000000E+02  8.40000000E+01  0.00000000E+00
  6.40000000E+02  8.20000000E+01  0.00000000E+00
  6.40000000E+02  8.00000000E+01  0.00000000E+00
  6.40000000E+02  7.80000000E+01  0.00000000E+00
  6.40000000E+02  7.60000000E+01  0.00000000E+00
  6.40000000E+02  7.40000000E+01  0.00000000E+00
  6.40000000E+02  7.20000000E+01  0.00000000E+00
  6.40000000E+02  7.00000000E+01  0.00000000E+00
  6.40000000E+02  6.80000000E+01  0.00000000E+00
  6.40000000E+02  6.60000000E+01  0.00000000E+00
  6.40000000E+02  6.40000000E+01  0.00000000E+00
  6.40000000E+02  6.20000000E+01  0.00000000E+00
  6.40000000E+02  6.00000000E+01  0.00000000E+00
  6.40000000E+02  5.80000000E+01  0.00000000E+00
  6.40000000E+02  5.60000000E+01  0.00000000E+00
  6.40000000E+02  5.40000000E+01  0.00000000E+00
  6.40000000E+02  5.20000000E+01  0.00000000E+00
  6.40000000E+02  5.00000000E+01  0.00000000E+00
  6.40000000E+02  4.80000000E+01  0.00000000E+00
  6.40000000E+02  4.60000000E+01  0.00000000E+00
  6.40000000E+02  4.40000000E+01  0.00000000E+00
  6.40000000E+02  4.20000000E+01  0.00000000E+00
  6.40000000E+02  4.00000000E+01  0.00000000E+00
  6.40000000E+02  3.80000000E+01  0.00000000E+00
  6.40000000E+02  3.60000000E+01  0.00000000E+00
  6.40000000E+02  3.40000000E+01  0.00000000E+00
  6.40000000E+02  3.20000000E+01  0.00000000E+00
  6.40000000E+02  3.00000000E+01  0.00000000E+00
  6.40000000E+02  2.80000000E+01  0.00000000E+00
  6.40000000E+02  2.60000000E+01  0.00000000E+00
  6.40000000E+02  2.40000000E+01  0.00000000E+00
  6.40000000E+02  2.20000000E+01  0.00000000E+00
  6.40000000E+02  2.00000000E+01  0.00000000E+00
  6.40000000E+02  1.80000000E+01  0.00000000E+00
  6.40000000E+02  1.60000000E+01  0.00000000E+00
  6.40000000E+02  1.40000000E+01  0.00000000E+00
  6.40000000E+02  1.20000000E+01  0.00000000E+00
  6.40000000E+02  1.00000000E+01  0.00000000E+00
  6.40000000E+02  8.00000000E+00  0.00000000E+00
  6.40000000E+02  6.00000000E+00  0.00000000E+00
  6.40000000E+02  4.00000000E+00  0.00000000E+00
  6.40000000E+02  2.00000000E+00  0.00000000E+00
  6.40000000E+02 -3.33066907E-14  0.00000000E+00
  6.50000000E+02  1.00000000E+02  0.00000000E+00
  6.50000000E+02  9.80000000E+01  0.00000000E+00
  6.50000000E+02  9.60000000E+01  0.00000000E+00
  6.50000000E+02  9.40000000E+01  0.00000000E+00
  6.50000000E+02  9.20000000E+01  0.00000000E+00
  6.50000000E+02  9.00000000E+01  0.00000000E+00
  6.50000000E+02  8.80000000E+01  0.00000000E+00
  6.50000000E+02  8.60000000E+01  0.00000000E+00
  6.50000000E+02  8.40000000E+01  0.00000000E+00
  6.50000000E+02  8.20000000E+01  0.00000000E+00
  6.50000000E+02  8.00000000E+01  0.00000000E+00
  6.50000000E+02  7.80000000E+01  0.00000000E+00
  6.50000000E+02  7.60000000E+01  0.00000000E+00
  6.50000000E+02  7.40000000E+01  0.00000000E+00
  6.50000000E+02  7.20000000E+01  0.00000000E+00
  6.50000000E+02  7.00000000E+01  0.00000000E+00
  6.50000000E+02  6.80000000E+01  0.00000000E+00
  6.50000000E+02  6.60000000E+01  0.00000000E+00
  6.50000000E+02  6.40000000E+01  0.00000000E+00
  6.50000000E+02  6.20000000E+01  0.00000000E+00
  6.50000000E+02  6.00000000E+01  0.00000000E+00
  6.50000000E+02  5.80000000E+01  0.00000000E+00
  6.50000000E+02  5.60000000E+01  0.00000000E+00
  6.50000000E+02  5.40000000E+01  0.00000000E+00
  6.50000000E+02  5.20000000E+01  0.00000000E+00
  6.50000000E+02  5.00000000E+01  0.00000000E+00
  6.50000000E+02  4.80000000E+01  0.00000000E+00
  6.50000000E+02  4.60000000E+01  0.00000000E+00
  6.50000000E+02  4.40000000E+01  0.00000000E+00
  6.50000000E+02  4.20000000E+01  0.00000000E+00
  6.50000000E+02  4.00000000E+01  0.00000000E+00
  6.50000000E+02  3.80000000E+01  0.00000000E+00
  6.50000000E+02  3.60000000E+01  0.00000000E+00
  6.50000000E+02  3.40000000E+01  0.00000000E+00
  6.50000000E+02  3.20000000E+01  0.00000000E+00
  6.50000000E+02  3.00000000E+01  0.00000000E+00
  6.50000000E+02  2.80000000E+01  0.00000000E+00
  6.50000000E+02  2.60000000E+01  0.00000000E+00
  6.50000000E+02  2.40000000E+01  0.00000000E+00
  6.50000000E+02  2.20000000E+01  0.00000000E+00
  6.50000000E+02  2.00000000E+01  0.00000000E+00
  6.50000000E+02  1.80000000E+01  0.00000000E+00
  6.50000000E+02  1.60000000E+01  0.00000000E+00
  6.50000000E+02  1.40000000E+01  0.00000000E+00
  6.50000000E+02  1.20000000E+01  0.00000000E+00
  6.50000000E+02  1.00000000E+01  0.00000000E+00
  6.50000000E+02  8.00000000E+00  0.00000000E+00
  6.50000000E+02  6.00000000E+00  0.00000000E+00
  6.50000000E+02  4.00000000E+00  0.00000000E+00
  6.50000000E+02  2.00000000E+00  0.00000000E+00
  6.50000000E+02 -3.33066907E-14  0.00000000E+00
  6.60000000E+02  1.00000000E+02  0.00000000E+00
  6.60000000E+02  9.80000000E+01  0.00000000E+00
  6.60000000E+02  9.60000000E+01  0.00000000E+00
  6.60000000E+02  9.40000000E+01  0.00000000E+00
  6.60000000E+02  9.20000000E+01  0.00000000E+00
  6.60000000E+02  9.00000000E+01  0.00000000E+00
  6.60000000E+02  8.80000000E+01  0.00000000E+00
  6.60000000E+02  8.60000000E+01  0.00000000E+00
  6.60000000E+02  8.40000000E+01  0.00000000E+00
  6.60000000E+02  8.20000000E+01  0.00000000E+00
  6.60000000E+02  8.00000000E+01  0.00000000E+00
  6.60000000E+02  7.80000000E+01  0.00000000E+00
  6.60000000E+02  7.60000000E+01  0.00000000E+00
  6.60000000E+02  7.40000000E+01  0.00000000E+00
  6.60000000E+02  7.20000000E+01  0.00000000E+00
  6.60000000E+02  7.00000000E+01  0.00000000E+00
  6.60000000E+02  6.80000000E+01  0.00000000E+00
  6.60000000E+02  6.60000000E+01  0.00000000E+00
  6.60000000E+02  6.40000000E+01  0.00000000E+00
  6.60000000E+02  6.20000000E+01  0.00000000E+00
  6.60000000E+02  6.00000000E+01  0.00000000E+00
  6.60000000E+02  5.80000000E+01  0.00000000E+00
  6.60000000E+02  5.60000000E+01  0.00000000E+00
  6.60000000E+02  5.40000000E+01  0.00000000E+00
  6.60000000E+02  5.20000000E+01  0.00000000E+00
  6.60000000E+02  5.00000000E+01  0.00000000E+00
  6.60000000E+02  4.80000000E+01  0.00000000E+00
  6.60000000E+02  4.60000000E+01  0.00000000E+00
  6.60000000E+02  4.40000000E+01  0.00000000E+00
  6.60000000E+02  4.20000000E+01  0.00000000E+00
  6.60000000E+02  4.00000000E+01  0.00000000E+00
  6.60000000E+02  3.80000000E+01  0.00000000E+00
  6.60000000E+02  3.60000000E+01  0.00000000E+00
  6.60000000E+02  3.40000000E+01  0.00000000E+00
  6.60000000E+02  3.20000000E+01  0.00000000E+00
  6.60000000E+02  3.00000000E+01  0.00000000E+00
  6.60000000E+02  2.80000000E+01  0.00000000E+00
  6.60000000E+02  2.60000000E+01  0.00000000E+00
  6.60000000E+02  2.40000000E+01  0.00000000E+00
  6.60000000E+02  2.20000000E+01  0.00000000E+00
  6.60000000E+02  2.00000000E+01  0.00000000E+00
  6.60000000E+02  1.80000000E+01  0.00000000E+00
  6.60000000E+02  1.60000000E+01  0.00000000E+00
  6.60000000E+02  1.40000000E+01  0.00000000E+00
  6.60000000E+02  1.20000000E+01  0.00000000E+00
  6.60000000E+02  1.00000000E+01  0.00000000E+00
  6.60000000E+02  8.00000000E+00  0.00000000E+00
  6.60000000E+02  6.00000000E+00  0.00000000E+00
  6.60000000E+02  4.00000000E+00  0.00000000E+00
  6.60000000E+02  2.00000000E+00  0.00000000E+00
  6.60000000E+02 -3.33066907E-14  0.00000000E+00
  6.70000000E+02  1.00000000E+02  0.00000000E+00
  6.70000000E+02  9.80000000E+01  0.00000000E+00
  6.70000000E+02  9.60000000E+01  0.00000000E+00
  6.70000000E+02  9.40000000E+01  0.00000000E+00
  6.70000000E+02  9.20000000E+01  0.00000000E+00
  6.70000000E+02  9.00000000E+01  0.00000000E+00
  6.70000000E+02  8.80000000E+01  0.00000000E+00
  6.70000000E+02  8.60000000E+01  0.00000000E+00
  6.70000000E+02  8.40000000E+01  0.00000000E+00
  6.70000000E+02  8.20000000E+01  0.00000000E+00
  6.70000000E+02  8.00000000E+01  0.00000000E+00
  6.70000000E+02  7.80000000E+01  0.00000000E+00
  6.70000000E+02  7.60000000E+01  0.00000000E+00
  6.70000000E+02  7.40000000E+01  0.00000000E+00
  6.70000000E+02  7.20000000E+01  0.00000000E+00
  6.70000000E+02  7.00000000E+01  0.00000000E+00
  6.70000000E+02  6.80000000E+01  0.00000000E+00
  6.70000000E+02  6.60000000E+01  0.00000000E+00
  6.70000000E+02  6.40000000E+01  0.00000000E+00
  6.70000000E+02  6.20000000E+01  0.00000000E+00
  6.70000000E+02  6.00000000E+01  0.00000000E+00
  6.70000000E+02  5.80000000E+01  0.00000000E+00
  6.70000000E+02  5.60000000E+01  0.00000000E+00
  6.70000000E+02  5.40000000E+01  0.00000000E+00
  6.70000000E+02  5.20000000E+01  0.00000000E+00
  6.70000000E+02  5.00000000E+01  0.00000000E+00
  6.70000000E+02  4.80000000E+01  0.00000000E+00
  6.70000000E+02  4.60000000E+01  0.00000000E+00
  6.70000000E+02  4.40000000E+01  0.00000000E+00
  6.70000000E+02  4.20000000E+01  0.00000000E+00
  6.70000000E+02  4.00000000E+01  0.00000000E+00
  6.70000000E+02  3.80000000E+01  0.00000000E+00
  6.70000000E+02  3.60000000E+01  0.00000000E+00
  6.70000000E+02  3.40000000E+01  0.00000000E+00
  6.70000000E+02  3.20000000E+01  0.00000000E+00
  6.70000000E+02  3.00000000E+01  0.00000000E+00
  6.70000000E+02  2.80000000E+01  0.00000000E+00
  6.70000000E+02  2.60000000E+01  0.00000000E+00
  6.70000000E+02  2.40000000E+01  0.00000000E+00
  6.70000000E+02  2.20000000E+01  0.00000000E+00
  6.70000000E+02  2.00000000E+01  0.00000000E+00
  6.70000000E+02  1.80000000E+01  0.00000000E+00
  6.70000000E+02  1.60000000E+01  0.00000000E+00
  6.70000000E+02  1.40000000E+01  0.00000000E+00
  6.70000000E+02  1.20000000E+01  0.00000000E+00
  6.70000000E+02  1.00000000E+01  0.00000000E+00
  6.70000000E+02  8.00000000E+00  0.00000000E+00
  6.70000000E+02  6.00000000E+00  0.00000000E+00
  6.70000000E+02  4.00000000E+00  0.00000000E+00
  6.70000000E+02  2.00000000E+00  0.00000000E+00
  6.70000000E+02 -3.33066907E-14  0.00000000E+00
  6.80000000E+02  1.00000000E+02  0.00000000E+00
  6.80000000E+02  9.80000000E+01  0.00000000E+00
  6.80000000E+02  9.60000000E+01  0.00000000E+00
  6.80000000E+02  9.40000000E+01  0.00000000E+00
  6.80000000E+02  9.20000000E+01  0.00000000E+00
  6.80000000E+02  9.00000000E+01  0.00000000E+00
  6.80000000E+02  8.80000000E+01  0.00000000E+00
  6.80000000E+02  8.60000000E+01  0.00000000E+00
  6.80000000E+02  8.40000000E+01  0.00000000E+00
  6.80000000E+02  8.20000000E+01  0.00000000E+00
  6.80000000E+02  8.00000000E+01  0.00000000E+00
  6.80000000E+02  7.80000000E+01  0.00000000E+00
  6.80000000E+02  7.60000000E+01  0.00000000E+00
  6.80000000E+02  7.40000000E+01  0.00000000E+00
  6.80000000E+02  7.20000000E+01  0.00000000E+00
  6.80000000E+02  7.00000000E+01  0.00000000E+00
  6.80000000E+02  6.80000000E+01  0.00000000E+00
  6.80000000E+02  6.60000000E+01  0.00000000E+00
  6.80000000E+02  6.40000000E+01  0.00000000E+00
  6.80000000E+02  6.20000000E+01  0.00000000E+00
  6.80000000E+02  6.00000000E+01  0.00000000E+00
  6.80000000E+02  5.80000000E+01  0.00000000E+00
  6.80000000E+02  5.60000000E+01  0.00000000E+00
  6.80000000E+02  5.40000000E+01  0.00000000E+00
  6.80000000E+02  5.20000000E+01  0.00000000E+00
  6.80000000E+02  5.00000000E+01  0.00000000E+00
  6.80000000E+02  4.80000000E+01  0.00000000E+00
  6.80000000E+02  4.60000000E+01  0.00000000E+00
  6.80000000E+02  4.40000000E+01  0.00000000E+00
  6.80000000E+02  4.20000000E+01  0.00000000E+00
  6.80000000E+02  4.00000000E+01  0.00000000E+00
  6.80000000E+02  3.80000000E+01  0.00000000E+00
  6.80000000E+02  3.60000000E+01  0.00000000E+00
  6.80000000E+02  3.40000000E+01  0.00000000E+00
  6.80000000E+02  3.20000000E+01  0.00000000E+00
  6.80000000E+02  3.00000000E+01  0.00000000E+00
  6.80000000E+02  2.80000000E+01  0.00000000E+00
  6.80000000E+02  2.60000000E+01  0.00000000E+00
  6.80000000E+02  2.40000000E+01  0.00000000E+00
  6.80000000E+02  2.20000000E+01  0.00000000E+00
  6.80000000E+02  2.00000000E+01  0.00000000E+00
  6.80000000E+02  1.80000000E+01  0.00000000E+00
  6.80000000E+02  1.60000000E+01  0.00000000E+00
  6.80000000E+02  1.40000000E+01  0.00000000E+00
  6.80000000E+02  1.20000000E+01  0.00000000E+00
  6.80000000E+02  1.00000000E+01  0.00000000E+00
  6.80000000E+02  8.00000000E+00  0.00000000E+00
  6.80000000E+02  6.00000000E+00  0.00000000E+00
  6.80000000E+02  4.00000000E+00  0.00000000E+00
  6.80000000E+02  2.00000000E+00  0.00000000E+00
  6.80000000E+02 -3.33066907E-14  0.00000000E+00
  6.90000000E+02  1.00000000E+02  0.00000000E+00
  6.90000000E+02  9.80000000E+01  0.00000000E+00
  6.90000000E+02  9.60000000E+01  0.00000000E+00
  6.90000000E+02  9.40000000E+01  0.00000000E+00
  6.90000000E+02  9.20000000E+01  0.00000000E+00
  6.90000000E+02  9.00000000E+01  0.00000000E+00
  6.90000000E+02  8.80000000E+01  0.00000000E+00
  6.90000000E+02  8.60000000E+01  0.00000000E+00
  6.90000000E+02  8.40000000E+01  0.00000000E+00
  6.90000000E+02  8.20000000E+01  0.00000000E+00
  6.90000000E+02  8.00000000E+01  0.00000000E+00
  6.90000000E+02  7.80000000E+01  0.00000000E+00
  6.90000000E+02  7.60000000E+01  0.00000000E+00
  6.90000000E+02  7.40000000E+01  0.00000000E+00
  6.90000000E+02  7.20000000E+01  0.00000000E+00
  6.90000000E+02  7.00000000E+01  0.00000000E+00
  6.90000000E+02  6.80000000E+01  0.00000000E+00
  6.90000000E+02  6.60000000E+01  0.00000000E+00
  6.90000000E+02  6.40000000E+01  0.00000000E+00
  6.90000000E+02  6.20000000E+01  0.00000000E+00
  6.90000000E+02  6.00000000E+01  0.00000000E+00
  6.90000000E+02  5.80000000E+01  0.00000000E+00
  6.90000000E+02  5.60000000E+01  0.00000000E+00
  6.90000000E+02  5.40000000E+01  0.00000000E+00
  6.90000000E+02  5.20000000E+01  0.00000000E+00
  6.90000000E+02  5.00000000E+01  0.00000000E+00
  6.90000000E+02  4.80000000E+01  0.00000000E+00
  6.90000000E+02  4.60000000E+01  0.00000000E+00
  6.90000000E+02  4.40000000E+01  0.00000000E+00
  6.90000000E+02  4.20000000E+01  0.00000000E+00
  6.90000000E+02  4.00000000E+01  0.00000000E+00
  6.90000000E+02  3.80000000E+01  0.00000000E+00
  6.90000000E+02  3.60000000E+01  0.00000000E+00
  6.90000000E+02  3.40000000E+01  0.00000000E+00
  6.90000000E+02  3.20000000E+01  0.00000000E+00
  6.90000000E+02  3.00000000E+01  0.00000000E+00
  6.90000000E+02  2.80000000E+01  0.00000000E+00
  6.90000000E+02  2.60000000E+01  0.00000000E+00
  6.90000000E+02  2.40000000E+01  0.00000000E+00
  6.90000000E+02  2.20000000E+01  0.00000000E+00
  6.90000000E+02  2.00000000E+01  0.00000000E+00
  6.90000000E+02  1.80000000E+01  0.00000000E+00
  6.90000000E+02  1.60000000E+01  0.00000000E+00
  6.90000000E+02  1.40000000E+01  0.00000000E+00
  6.90000000E+02  1.20000000E+01  0.00000000E+00
  6.90000000E+02  1.00000000E+01  0.00000000E+00
  6.90000000E+02  8.00000000E+00  0.00000000E+00
  6.90000000E+02  6.00000000E+00  0.00000000E+00
  6.90000000E+02  4.00000000E+00  0.00000000E+00
  6.90000000E+02  2.00000000E+00  0.00000000E+00
  6.90000000E+02 -3.33066907E-14  0.00000000E+00
  7.00000000E+02  1.00000000E+02  0.00000000E+00
  7.00000000E+02  9.80000000E+01  0.00000000E+00
  7.00000000E+02  9.60000000E+01  0.00000000E+00
  7.00000000E+02  9.40000000E+01  0.00000000E+00
  7.00000000E+02  9.20000000E+01  0.00000000E+00
  7.00000000E+02  9.00000000E+01  0.00000000E+00
  7.00000000E+02  8.80000000E+01  0.00000000E+00
  7.00000000E+02  8.60000000E+01  0.00000000E+00
  7.00000000E+02  8.40000000E+01  0.00000000E+00
  7.00000000E+02  8.20000000E+01  0.00000000E+00
  7.00000000E+02  8.00000000E+01  0.00000000E+00
  7.00000000E+02  7.80000000E+01  0.00000000E+00
  7.00000000E+02  7.60000000E+01  0.00000000E+00
  7.00000000E+02  7.40000000E+01  0.00000000E+00
  7.00000000E+02  7.20000000E+01  0.00000000E+00
  7.00000000E+02  7.00000000E+01  0.00000000E+00
  7.00000000E+02  6.80000000E+01  0.00000000E+00
  7.00000000E+02  6.60000000E+01  0.00000000E+00
  7.00000000E+02  6.40000000E+01  0.00000000E+00
  7.00000000E+02  6.20000000E+01  0.00000000E+00
  7.00000000E+02  6.00000000E+01  0.00000000E+00
  7.00000000E+02  5.80000000E+01  0.00000000E+00
  7.00000000E+02  5.60000000E+01  0.00000000E+00
  7.00000000E+02  5.40000000E+01  0.00000000E+00
  7.00000000E+02  5.20000000E+01  0.00000000E+00
  7.00000000E+02  5.00000000E+01  0.00000000E+00
  7.00000000E+02  4.80000000E+01  0.00000000E+00
  7.00000000E+02  4.60000000E+01  0.00000000E+00
  7.00000000E+02  4.40000000E+01  0.00000000E+00
  7.00000000E+02  4.20000000E+01  0.00000000E+00
  7.00000000E+02  4.00000000E+01  0.00000000E+00
  7.00000000E+02  3.80000000E+01  0.00000000E+00
  7.00000000E+02  3.60000000E+01  0.00000000E+00
  7.00000000E+02  3.40000000E+01  0.00000000E+00
  7.00000000E+02  3.20000000E+01  0.00000000E+00
  7.00000000E+02  3.00000000E+01  0.00000000E+00
  7.00000000E+02  2.80000000E+01  0.00000000E+00
  7.00000000E+02  2.60000000E+01  0.00000000E+00
  7.00000000E+02  2.40000000E+01  0.00000000E+00
  7.00000000E+02  2.20000000E+01  0.00000000E+00
  7.00000000E+02  2.00000000E+01  0.00000000E+00
  7.00000000E+02  1.80000000E+01  0.00000000E+00
  7.00000000E+02  1.60000000E+01  0.00000000E+00
  7.00000000E+02  1.40000000E+01  0.00000000E+00
  7.00000000E+02  1.20000000E+01  0.00000000E+00
  7.00000000E+02  1.00000000E+01  0.00000000E+00
  7.00000000E+02  8.00000000E+00  0.00000000E+00
  7.00000000E+02  6.00000000E+00  0.00000000E+00
  7.00000000E+02  4.00000000E+00  0.00000000E+00
  7.00000000E+02  2.00000000E+00  0.00000000E+00
  7.00000000E+02 -3.33066907E-14  0.00000000E+00
  7.10000000E+02  1.00000000E+02  0.00000000E+00
  7.10000000E+02  9.80000000E+01  0.00000000E+00
  7.10000000E+02  9.60000000E+01  0.00000000E+00
  7.10000000E+02  9.40000000E+01  0.00000000E+00
  7.10000000E+02  9.20000000E+01  0.00000000E+00
  7.10000000E+02  9.00000000E+01  0.00000000E+00
  7.10000000E+02  8.80000000E+01  0.00000000E+00
  7.10000000E+02  8.60000000E+01  0.00000000E+00
  7.10000000E+02  8.40000000E+01  0.00000000E+00
  7.10000000E+02  8.20000000E+01  0.00000000E+00
  7.10000000E+02  8.00000000E+01  0.00000000E+00
  7.10000000E+02  7.80000000E+01  0.00000000E+00
  7.10000000E+02  7.60000000E+01  0.00000000E+00
  7.10000000E+02  7.40000000E+01  0.00000000E+00
  7.10000000E+02  7.20000000E+01  0.00000000E+00
  7.10000000E+02  7.00000000E+01  0.00000000E+00
  7.10000000E+02  6.80000000E+01  0.00000000E+00
  7.10000000E+02  6.60000000E+01  0.00000000E+00
  7.10000000E+02  6.40000000E+01  0.00000000E+00
  7.10000000E+02  6.20000000E+01  0.00000000E+00
  7.10000000E+02  6.00000000E+01  0.00000000E+00
  7.10000000E+02  5.80000000E+01  0.00000000E+00
  7.10000000E+02  5.60000000E+01  0.00000000E+00
  7.10000000E+02  5.40000000E+01  0.00000000E+00
  7.10000000E+02  5.20000000E+01  0.00000000E+00
  7.10000000E+02  5.00000000E+01  0.00000000E+00
  7.10000000E+02  4.80000000E+01  0.00000000E+00
  7.10000000E+02  4.60000000E+01  0.00000000E+00
  7.10000000E+02  4.40000000E+01  0.00000000E+00
  7.10000000E+02  4.20000000E+01  0.00000000E+00
  7.10000000E+02  4.00000000E+01  0.00000000E+00
  7.10000000E+02  3.80000000E+01  0.00000000E+00
  7.10000000E+02  3.60000000E+01  0.00000000E+00
  7.10000000E+02  3.40000000E+01  0.00000000E+00
  7.10000000E+02  3.20000000E+01  0.00000000E+00
  7.10000000E+02  3.00000000E+01  0.00000000E+00
  7.10000000E+02  2.80000000E+01  0.00000000E+00
  7.10000000E+02  2.60000000E+01  0.00000000E+00
  7.10000000E+02  2.40000000E+01  0.00000000E+00
  7.10000000E+02  2.20000000E+01  0.00000000E+00
  7.10000000E+02  2.00000000E+01  0.00000000E+00
  7.10000000E+02  1.80000000E+01  0.00000000E+00
  7.10000000E+02  1.60000000E+01  0.00000000E+00
  7.10000000E+02  1.40000000E+01  0.00000000E+00
  7.10000000E+02  1.20000000E+01  0.00000000E+00
  7.10000000E+02  1.00000000E+01  0.00000000E+00
  7.10000000E+02  8.00000000E+00  0.00000000E+00
  7.10000000E+02  6.00000000E+00  0.00000000E+00
  7.10000000E+02  4.00000000E+00  0.00000000E+00
  7.10000000E+02  2.00000000E+00  0.00000000E+00
  7.10000000E+02 -3.33066907E-14  0.00000000E+00
  7.20000000E+02  1.00000000E+02  0.00000000E+00
  7.20000000E+02  9.80000000E+01  0.00000000E+00
  7.20000000E+02  9.60000000E+01  0.00000000E+00
  7.20000000E+02  9.40000000E+01  0.00000000E+00
  7.20000000E+02  9.20000000E+01  0.00000000E+00
  7.20000000E+02  9.00000000E+01  0.00000000E+00
  7.20000000E+02  8.80000000E+01  0.00000000E+00
  7.20000000E+02  8.60000000E+01  0.00000000E+00
  7.20000000E+02  8.40000000E+01  0.00000000E+00
  7.20000000E+02  8.20000000E+01  0.00000000E+00
  7.20000000E+02  8.00000000E+01  0.00000000E+00
  7.20000000E+02  7.80000000E+01  0.00000000E+00
  7.20000000E+02  7.60000000E+01  0.00000000E+00
  7.20000000E+02  7.40000000E+01  0.00000000E+00
  7.20000000E+02  7.20000000E+01  0.00000000E+00
  7.20000000E+02  7.00000000E+01  0.00000000E+00
  7.20000000E+02  6.80000000E+01  0.00000000E+00
  7.20000000E+02  6.60000000E+01  0.00000000E+00
  7.20000000E+02  6.40000000E+01  0.00000000E+00
  7.20000000E+02  6.20000000E+01  0.00000000E+00
  7.20000000E+02  6.00000000E+01  0.00000000E+00
  7.20000000E+02  5.80000000E+01  0.00000000E+00
  7.20000000E+02  5.60000000E+01  0.00000000E+00
  7.20000000E+02  5.40000000E+01  0.00000000E+00
  7.20000000E+02  5.20000000E+01  0.00000000E+00
  7.20000000E+02  5.00000000E+01  0.00000000E+00
  7.20000000E+02  4.80000000E+01  0.00000000E+00
  7.20000000E+02  4.60000000E+01  0.00000000E+00
  7.20000000E+02  4.40000000E+01  0.00000000E+00
  7.20000000E+02  4.20000000E+01  0.00000000E+00
  7.20000000E+02  4.00000000E+01  0.00000000E+00
  7.20000000E+02  3.80000000E+01  0.00000000E+00
  7.20000000E+02  3.60000000E+01  0.00000000E+00
  7.20000000E+02  3.40000000E+01  0.00000000E+00
  7.20000000E+02  3.20000000E+01  0.00000000E+00
  7.20000000E+02  3.00000000E+01  0.00000000E+00
  7.20000000E+02  2.80000000E+01  0.00000000E+00
  7.20000000E+02  2.60000000E+01  0.00000000E+00
  7.20000000E+02  2.40000000E+01  0.00000000E+00
  7.20000000E+02  2.20000000E+01  0.00000000E+00
  7.20000000E+02  2.00000000E+01  0.00000000E+00
  7.20000000E+02  1.80000000E+01  0.00000000E+00
  7.20000000E+02  1.60000000E+01  0.00000000E+00
  7.20000000E+02  1.40000000E+01  0.00000000E+00
  7.20000000E+02  1.20000000E+01  0.00000000E+00
  7.20000000E+02  1.00000000E+01  0.00000000E+00
  7.20000000E+02  8.00000000E+00  0.00000000E+00
  7.20000000E+02  6.00000000E+00  0.00000000E+00
  7.20000000E+02  4.00000000E+00  0.00000000E+00
  7.20000000E+02  2.00000000E+00  0.00000000E+00
  7.20000000E+02 -3.33066907E-14  0.00000000E+00
  7.30000000E+02  1.00000000E+02  0.00000000E+00
  7.30000000E+02  9.80000000E+01  0.00000000E+00
  7.30000000E+02  9.60000000E+01  0.00000000E+00
  7.30000000E+02  9.40000000E+01  0.00000000E+00
  7.30000000E+02  9.20000000E+01  0.00000000E+00
  7.30000000E+02  9.00000000E+01  0.00000000E+00
  7.30000000E+02  8.80000000E+01  0.00000000E+00
  7.30000000E+02  8.60000000E+01  0.00000000E+00
  7.30000000E+02  8.40000000E+01  0.00000000E+00
  7.30000000E+02  8.20000000E+01  0.00000000E+00
  7.30000000E+02  8.00000000E+01  0.00000000E+00
  7.30000000E+02  7.80000000E+01  0.00000000E+00
  7.30000000E+02  7.60000000E+01  0.00000000E+00
  7.30000000E+02  7.40000000E+01  0.00000000E+00
  7.30000000E+02  7.20000000E+01  0.00000000E+00
  7.30000000E+02  7.00000000E+01  0.00000000E+00
  7.30000000E+02  6.80000000E+01  0.00000000E+00
  7.30000000E+02  6.60000000E+01  0.00000000E+00
  7.30000000E+02  6.40000000E+01  0.00000000E+00
  7.30000000E+02  6.20000000E+01  0.00000000E+00
  7.30000000E+02  6.00000000E+01  0.00000000E+00
  7.30000000E+02  5.80000000E+01  0.00000000E+00
  7.30000000E+02  5.60000000E+01  0.00000000E+00
  7.30000000E+02  5.40000000E+01  0.00000000E+00
  7.30000000E+02  5.20000000E+01  0.00000000E+00
  7.30000000E+02  5.00000000E+01  0.00000000E+00
  7.30000000E+02  4.80000000E+01  0.00000000E+00
  7.30000000E+02  4.60000000E+01  0.00000000E+00
  7.30000000E+02  4.40000000E+01  0.00000000E+00
  7.30000000E+02  4.20000000E+01  0.00000000E+00
  7.30000000E+02  4.00000000E+01  0.00000000E+00
  7.30000000E+02  3.80000000E+01  0.00000000E+00
  7.30000000E+02  3.60000000E+01  0.00000000E+00
  7.30000000E+02  3.40000000E+01  0.00000000E+00
  7.30000000E+02  3.20000000E+01  0.00000000E+00
  7.30000000E+02  3.00000000E+01  0.00000000E+00
  7.30000000E+02  2.80000000E+01  0.00000000E+00
  7.30000000E+02  2.60000000E+01  0.00000000E+00
  7.30000000E+02  2.40000000E+01  0.00000000E+00
  7.30000000E+02  2.20000000E+01  0.00000000E+00
  7.30000000E+02  2.00000000E+01  0.00000000E+00
  7.30000000E+02  1.80000000E+01  0.00000000E+00
  7.30000000E+02  1.60000000E+01  0.00000000E+00
  7.30000000E+02  1.40000000E+01  0.00000000E+00
  7.30000000E+02  1.20000000E+01  0.00000000E+00
  7.30000000E+02  1.00000000E+01  0.00000000E+00
  7.30000000E+02  8.00000000E+00  0.00000000E+00
  7.30000000E+02  6.00000000E+00  0.00000000E+00
  7.30000000E+02  4.00000000E+00  0.00000000E+00
  7.30000000E+02  2.00000000E+00  0.00000000E+00
  7.30000000E+02 -3.33066907E-14  0.00000000E+00
  7.40000000E+02  1.00000000E+02  0.00000000E+00
  7.40000000E+02  9.80000000E+01  0.00000000E+00
  7.40000000E+02  9.60000000E+01  0.00000000E+00
  7.40000000E+02  9.40000000E+01  0.00000000E+00
  7.40000000E+02  9.20000000E+01  0.00000000E+00
  7.40000000E+02  9.00000000E+01  0.00000000E+00
  7.40000000E+02  8.80000000E+01  0.00000000E+00
  7.40000000E+02  8.60000000E+01  0.00000000E+00
  7.40000000E+02  8.40000000E+01  0.00000000E+00
  7.40000000E+02  8.20000000E+01  0.00000000E+00
  7.40000000E+02  8.00000000E+01  0.00000000E+00
  7.40000000E+02  7.80000000E+01  0.00000000E+00
  7.40000000E+02  7.60000000E+01  0.00000000E+00
  7.40000000E+02  7.40000000E+01  0.00000000E+00
  7.40000000E+02  7.20000000E+01  0.00000000E+00
  7.40000000E+02  7.00000000E+01  0.00000000E+00
  7.40000000E+02  6.80000000E+01  0.00000000E+00
  7.40000000E+02  6.60000000E+01  0.00000000E+00
  7.40000000E+02  6.40000000E+01  0.00000000E+00
  7.40000000E+02  6.20000000E+01  0.00000000E+00
  7.40000000E+02  6.00000000E+01  0.00000000E+00
  7.40000000E+02  5.80000000E+01  0.00000000E+00
  7.40000000E+02  5.60000000E+01  0.00000000E+00
  7.40000000E+02  5.40000000E+01  0.00000000E+00
  7.40000000E+02  5.20000000E+01  0.00000000E+00
  7.40000000E+02  5.00000000E+01  0.00000000E+00
  7.40000000E+02  4.80000000E+01  0.00000000E+00
  7.40000000E+02  4.60000000E+01  0.00000000E+00
  7.40000000E+02  4.40000000E+01  0.00000000E+00
  7.40000000E+02  4.20000000E+01  0.00000000E+00
  7.40000000E+02  4.00000000E+01  0.00000000E+00
  7.40000000E+02  3.80000000E+01  0.00000000E+00
  7.40000000E+02  3.60000000E+01  0.00000000E+00
  7.40000000E+02  3.40000000E+01  0.00000000E+00
  7.40000000E+02  3.20000000E+01  0.00000000E+00
  7.40000000E+02  3.00000000E+01  0.00000000E+00
  7.40000000E+02  2.80000000E+01  0.00000000E+00
  7.40000000E+02  2.60000000E+01  0.00000000E+00
  7.40000000E+02  2.40000000E+01  0.00000000E+00
  7.40000000E+02  2.20000000E+01  0.00000000E+00
  7.40000000E+02  2.00000000E+01  0.00000000E+00
  7.40000000E+02  1.80000000E+01  0.00000000E+00
  7.40000000E+02  1.60000000E+01  0.00000000E+00
  7.40000000E+02  1.40000000E+01  0.00000000E+00
  7.40000000E+02  1.20000000E+01  0.00000000E+00
  7.40000000E+02  1.00000000E+01  0.00000000E+00
  7.40000000E+02  8.00000000E+00  0.00000000E+00
  7.40000000E+02  6.00000000E+00  0.00000000E+00
  7.40000000E+02  4.00000000E+00  0.00000000E+00
  7.40000000E+02  2.00000000E+00  0.00000000E+00
  7.40000000E+02 -3.33066907E-14  0.00000000E+00
  7.50000000E+02  1.00000000E+02  0.00000000E+00
  7.50000000E+02  9.80000000E+01  0.00000000E+00
  7.50000000E+02  9.60000000E+01  0.00000000E+00
  7.50000000E+02  9.40000000E+01  0.00000000E+00
  7.50000000E+02  9.20000000E+01  0.00000000E+00
  7.50000000E+02  9.00000000E+01  0.00000000E+00
  7.50000000E+02  8.80000000E+01  0.00000000E+00
  7.50000000E+02  8.60000000E+01  0.00000000E+00
  7.50000000E+02  8.40000000E+01  0.00000000E+00
  7.50000000E+02  8.20000000E+01  0.00000000E+00
  7.50000000E+02  8.00000000E+01  0.00000000E+00
  7.50000000E+02  7.80000000E+01  0.00000000E+00
  7.50000000E+02  7.60000000E+01  0.00000000E+00
  7.50000000E+02  7.40000000E+01  0.00000000E+00
  7.50000000E+02  7.20000000E+01  0.00000000E+00
  7.50000000E+02  7.00000000E+01  0.00000000E+00
  7.50000000E+02  6.80000000E+01  0.00000000E+00
  7.50000000E+02  6.60000000E+01  0.00000000E+00
  7.50000000E+02  6.40000000E+01  0.00000000E+00
  7.50000000E+02  6.20000000E+01  0.00000000E+00
  7.50000000E+02  6.00000000E+01  0.00000000E+00
  7.50000000E+02  5.80000000E+01  0.00000000E+00
  7.50000000E+02  5.60000000E+01  0.00000000E+00
  7.50000000E+02  5.40000000E+01  0.00000000E+00
  7.50000000E+02  5.20000000E+01  0.00000000E+00
  7.50000000E+02  5.00000000E+01  0.00000000E+00
  7.50000000E+02  4.80000000E+01  0.00000000E+00
  7.50000000E+02  4.60000000E+01  0.00000000E+00
  7.50000000E+02  4.40000000E+01  0.00000000E+00
  7.50000000E+02  4.20000000E+01  0.00000000E+00
  7.50000000E+02  4.00000000E+01  0.00000000E+00
  7.50000000E+02  3.80000000E+01  0.00000000E+00
  7.50000000E+02  3.60000000E+01  0.00000000E+00
  7.50000000E+02  3.40000000E+01  0.00000000E+00
  7.50000000E+02  3.20000000E+01  0.00000000E+00
  7.50000000E+02  3.00000000E+01  0.00000000E+00
  7.50000000E+02  2.80000000E+01  0.00000000E+00
  7.50000000E+02  2.60000000E+01  0.00000000E+00
  7.50000000E+02  2.40000000E+01  0.00000000E+00
  7.50000000E+02  2.20000000E+01  0.00000000E+00
  7.50000000E+02  2.00000000E+01  0.00000000E+00
  7.50000000E+02  1.80000000E+01  0.00000000E+00
  7.50000000E+02  1.60000000E+01  0.00000000E+00
  7.50000000E+02  1.40000000E+01  0.00000000E+00
  7.50000000E+02  1.20000000E+01  0.00000000E+00
  7.50000000E+02  1.00000000E+01  0.00000000E+00
  7.50000000E+02  8.00000000E+00  0.00000000E+00
  7.50000000E+02  6.00000000E+00  0.00000000E+00
  7.50000000E+02  4.00000000E+00  0.00000000E+00
  7.50000000E+02  2.00000000E+00  0.00000000E+00
  7.50000000E+02 -3.33066907E-14  0.00000000E+00
  7.60000000E+02  1.00000000E+02  0.00000000E+00
  7.60000000E+02  9.80000000E+01  0.00000000E+00
  7.60000000E+02  9.60000000E+01  0.00000000E+00
  7.60000000E+02  9.40000000E+01  0.00000000E+00
  7.60000000E+02  9.20000000E+01  0.00000000E+00
  7.60000000E+02  9.00000000E+01  0.00000000E+00
  7.60000000E+02  8.80000000E+01  0.00000000E+00
  7.60000000E+02  8.60000000E+01  0.00000000E+00
  7.60000000E+02  8.40000000E+01  0.00000000E+00
  7.60000000E+02  8.20000000E+01  0.00000000E+00
  7.60000000E+02  8.00000000E+01  0.00000000E+00
  7.60000000E+02  7.80000000E+01  0.00000000E+00
  7.60000000E+02  7.60000000E+01  0.00000000E+00
  7.60000000E+02  7.40000000E+01  0.00000000E+00
  7.60000000E+02  7.20000000E+01  0.00000000E+00
  7.60000000E+02  7.00000000E+01  0.00000000E+00
  7.60000000E+02  6.80000000E+01  0.00000000E+00
  7.60000000E+02  6.60000000E+01  0.00000000E+00
  7.60000000E+02  6.40000000E+01  0.00000000E+00
  7.60000000E+02  6.20000000E+01  0.00000000E+00
  7.60000000E+02  6.00000000E+01  0.00000000E+00
  7.60000000E+02  5.80000000E+01  0.00000000E+00
  7.60000000E+02  5.60000000E+01  0.00000000E+00
  7.60000000E+02  5.40000000E+01  0.00000000E+00
  7.60000000E+02  5.20000000E+01  0.00000000E+00
  7.60000000E+02  5.00000000E+01  0.00000000E+00
  7.60000000E+02  4.80000000E+01  0.00000000E+00
  7.60000000E+02  4.60000000E+01  0.00000000E+00
  7.60000000E+02  4.40000000E+01  0.00000000E+00
  7.60000000E+02  4.20000000E+01  0.00000000E+00
  7.60000000E+02  4.00000000E+01  0.00000000E+00
  7.60000000E+02  3.80000000E+01  0.00000000E+00
  7.60000000E+02  3.60000000E+01  0.00000000E+00
  7.60000000E+02  3.40000000E+01  0.00000000E+00
  7.60000000E+02  3.20000000E+01  0.00000000E+00
  7.60000000E+02  3.00000000E+01  0.00000000E+00
  7.60000000E+02  2.80000000E+01  0.00000000E+00
  7.60000000E+02  2.60000000E+01  0.00000000E+00
  7.60000000E+02  2.40000000E+01  0.00000000E+00
  7.60000000E+02  2.20000000E+01  0.00000000E+00
  7.60000000E+02  2.00000000E+01  0.00000000E+00
  7.60000000E+02  1.80000000E+01  0.00000000E+00
  7.60000000E+02  1.60000000E+01  0.00000000E+00
  7.60000000E+02  1.40000000E+01  0.00000000E+00
  7.60000000E+02  1.20000000E+01  0.00000000E+00
  7.60000000E+02  1.00000000E+01  0.00000000E+00
  7.60000000E+02  8.00000000E+00  0.00000000E+00
  7.60000000E+02  6.00000000E+00  0.00000000E+00
  7.60000000E+02  4.00000000E+00  0.00000000E+00
  7.60000000E+02  2.00000000E+00  0.00000000E+00
  7.60000000E+02 -3.33066907E-14  0.00000000E+00
  7.70000000E+02  1.00000000E+02  0.00000000E+00
  7.70000000E+02  9.80000000E+01  0.00000000E+00
  7.70000000E+02  9.60000000E+01  0.00000000E+00
  7.70000000E+02  9.40000000E+01  0.00000000E+00
  7.70000000E+02  9.20000000E+01  0.00000000E+00
  7.70000000E+02  9.00000000E+01  0.00000000E+00
  7.70000000E+02  8.80000000E+01  0.00000000E+00
  7.70000000E+02  8.60000000E+01  0.00000000E+00
  7.70000000E+02  8.40000000E+01  0.00000000E+00
  7.70000000E+02  8.20000000E+01  0.00000000E+00
  7.70000000E+02  8.00000000E+01  0.00000000E+00
  7.70000000E+02  7.80000000E+01  0.00000000E+00
  7.70000000E+02  7.60000000E+01  0.00000000E+00
  7.70000000E+02  7.40000000E+01  0.00000000E+00
  7.70000000E+02  7.20000000E+01  0.00000000E+00
  7.70000000E+02  7.00000000E+01  0.00000000E+00
  7.70000000E+02  6.80000000E+01  0.00000000E+00
  7.70000000E+02  6.60000000E+01  0.00000000E+00
  7.70000000E+02  6.40000000E+01  0.00000000E+00
  7.70000000E+02  6.20000000E+01  0.00000000E+00
  7.70000000E+02  6.00000000E+01  0.00000000E+00
  7.70000000E+02  5.80000000E+01  0.00000000E+00
  7.70000000E+02  5.60000000E+01  0.00000000E+00
  7.70000000E+02  5.40000000E+01  0.00000000E+00
  7.70000000E+02  5.20000000E+01  0.00000000E+00
  7.70000000E+02  5.00000000E+01  0.00000000E+00
  7.70000000E+02  4.80000000E+01  0.00000000E+00
  7.70000000E+02  4.60000000E+01  0.00000000E+00
  7.70000000E+02  4.40000000E+01  0.00000000E+00
  7.70000000E+02  4.20000000E+01  0.00000000E+00
  7.70000000E+02  4.00000000E+01  0.00000000E+00
  7.70000000E+02  3.80000000E+01  0.00000000E+00
  7.70000000E+02  3.60000000E+01  0.00000000E+00
  7.70000000E+02  3.40000000E+01  0.00000000E+00
  7.70000000E+02  3.20000000E+01  0.00000000E+00
  7.70000000E+02  3.00000000E+01  0.00000000E+00
  7.70000000E+02  2.80000000E+01  0.00000000E+00
  7.70000000E+02  2.60000000E+01  0.00000000E+00
  7.70000000E+02  2.40000000E+01  0.00000000E+00
  7.70000000E+02  2.20000000E+01  0.00000000E+00
  7.70000000E+02  2.00000000E+01  0.00000000E+00
  7.70000000E+02  1.80000000E+01  0.00000000E+00
  7.70000000E+02  1.60000000E+01  0.00000000E+00
  7.70000000E+02  1.40000000E+01  0.00000000E+00
  7.70000000E+02  1.20000000E+01  0.00000000E+00
  7.70000000E+02  1.00000000E+01  0.00000000E+00
  7.70000000E+02  8.00000000E+00  0.00000000E+00
  7.70000000E+02  6.00000000E+00  0.00000000E+00
  7.70000000E+02  4.00000000E+00  0.00000000E+00
  7.70000000E+02  2.00000000E+00  0.00000000E+00
  7.70000000E+02 -3.33066907E-14  0.00000000E+00
  7.80000000E+02  1.00000000E+02  0.00000000E+00
  7.80000000E+02  9.80000000E+01  0.00000000E+00
  7.80000000E+02  9.60000000E+01  0.00000000E+00
  7.80000000E+02  9.40000000E+01  0.00000000E+00
  7.80000000E+02  9.20000000E+01  0.00000000E+00
  7.80000000E+02  9.00000000E+01  0.00000000E+00
  7.80000000E+02  8.80000000E+01  0.00000000E+00
  7.80000000E+02  8.60000000E+01  0.00000000E+00
  7.80000000E+02  8.40000000E+01  0.00000000E+00
  7.80000000E+02  8.20000000E+01  0.00000000E+00
  7.80000000E+02  8.00000000E+01  0.00000000E+00
  7.80000000E+02  7.80000000E+01  0.00000000E+00
  7.80000000E+02  7.60000000E+01  0.00000000E+00
  7.80000000E+02  7.40000000E+01  0.00000000E+00
  7.80000000E+02  7.20000000E+01  0.00000000E+00
  7.80000000E+02  7.00000000E+01  0.00000000E+00
  7.80000000E+02  6.80000000E+01  0.00000000E+00
  7.80000000E+02  6.60000000E+01  0.00000000E+00
  7.80000000E+02  6.40000000E+01  0.00000000E+00
  7.80000000E+02  6.20000000E+01  0.00000000E+00
  7.80000000E+02  6.00000000E+01  0.00000000E+00
  7.80000000E+02  5.80000000E+01  0.00000000E+00
  7.80000000E+02  5.60000000E+01  0.00000000E+00
  7.80000000E+02  5.40000000E+01  0.00000000E+00
  7.80000000E+02  5.20000000E+01  0.00000000E+00
  7.80000000E+02  5.00000000E+01  0.00000000E+00
  7.80000000E+02  4.80000000E+01  0.00000000E+00
  7.80000000E+02  4.60000000E+01  0.00000000E+00
  7.80000000E+02  4.40000000E+01  0.00000000E+00
  7.80000000E+02  4.20000000E+01  0.00000000E+00
  7.80000000E+02  4.00000000E+01  0.00000000E+00
  7.80000000E+02  3.80000000E+01  0.00000000E+00
  7.80000000E+02  3.60000000E+01  0.00000000E+00
  7.80000000E+02  3.40000000E+01  0.00000000E+00
  7.80000000E+02  3.20000000E+01  0.00000000E+00
  7.80000000E+02  3.00000000E+01  0.00000000E+00
  7.80000000E+02  2.80000000E+01  0.00000000E+00
  7.80000000E+02  2.60000000E+01  0.00000000E+00
  7.80000000E+02  2.40000000E+01  0.00000000E+00
  7.80000000E+02  2.20000000E+01  0.00000000E+00
  7.80000000E+02  2.00000000E+01  0.00000000E+00
  7.80000000E+02  1.80000000E+01  0.00000000E+00
  7.80000000E+02  1.60000000E+01  0.00000000E+00
  7.80000000E+02  1.40000000E+01  0.00000000E+00
  7.80000000E+02  1.20000000E+01  0.00000000E+00
  7.80000000E+02  1.00000000E+01  0.00000000E+00
  7.80000000E+02  8.00000000E+00  0.00000000E+00
  7.80000000E+02  6.00000000E+00  0.00000000E+00
  7.80000000E+02  4.00000000E+00  0.00000000E+00
  7.80000000E+02  2.00000000E+00  0.00000000E+00
  7.80000000E+02 -3.33066907E-14  0.00000000E+00
  7.90000000E+02  1.00000000E+02  0.00000000E+00
  7.90000000E+02  9.80000000E+01  0.00000000E+00
  7.90000000E+02  9.60000000E+01  0.00000000E+00
  7.90000000E+02  9.40000000E+01  0.00000000E+00
  7.90000000E+02  9.20000000E+01  0.00000000E+00
  7.90000000E+02  9.00000000E+01  0.00000000E+00
  7.90000000E+02  8.80000000E+01  0.00000000E+00
  7.90000000E+02  8.60000000E+01  0.00000000E+00
  7.90000000E+02  8.40000000E+01  0.00000000E+00
  7.90000000E+02  8.20000000E+01  0.00000000E+00
  7.90000000E+02  8.00000000E+01  0.00000000E+00
  7.90000000E+02  7.80000000E+01  0.00000000E+00
  7.90000000E+02  7.60000000E+01  0.00000000E+00
  7.90000000E+02  7.40000000E+01  0.00000000E+00
  7.90000000E+02  7.20000000E+01  0.00000000E+00
  7.90000000E+02  7.00000000E+01  0.00000000E+00
  7.90000000E+02  6.80000000E+01  0.00000000E+00
  7.90000000E+02  6.60000000E+01  0.00000000E+00
  7.90000000E+02  6.40000000E+01  0.00000000E+00
  7.90000000E+02  6.20000000E+01  0.00000000E+00
  7.90000000E+02  6.00000000E+01  0.00000000E+00
  7.90000000E+02  5.80000000E+01  0.00000000E+00
  7.90000000E+02  5.60000000E+01  0.00000000E+00
  7.90000000E+02  5.40000000E+01  0.00000000E+00
  7.90000000E+02  5.20000000E+01  0.00000000E+00
  7.90000000E+02  5.00000000E+01  0.00000000E+00
  7.90000000E+02  4.80000000E+01  0.00000000E+00
  7.90000000E+02  4.60000000E+01  0.00000000E+00
  7.90000000E+02  4.40000000E+01  0.00000000E+00
  7.90000000E+02  4.20000000E+01  0.00000000E+00
  7.90000000E+02  4.00000000E+01  0.00000000E+00
  7.90000000E+02  3.80000000E+01  0.00000000E+00
  7.90000000E+02  3.60000000E+01  0.00000000E+00
  7.90000000E+02  3.40000000E+01  0.00000000E+00
  7.90000000E+02  3.20000000E+01  0.00000000E+00
  7.90000000E+02  3.00000000E+01  0.00000000E+00
  7.90000000E+02  2.80000000E+01  0.00000000E+00
  7.90000000E+02  2.60000000E+01  0.00000000E+00
  7.90000000E+02  2.40000000E+01  0.00000000E+00
  7.90000000E+02  2.20000000E+01  0.00000000E+00
  7.90000000E+02  2.00000000E+01  0.00000000E+00
  7.90000000E+02  1.80000000E+01  0.00000000E+00
  7.90000000E+02  1.60000000E+01  0.00000000E+00
  7.90000000E+02  1.40000000E+01  0.00000000E+00
  7.90000000E+02  1.20000000E+01  0.00000000E+00
  7.90000000E+02  1.00000000E+01  0.00000000E+00
  7.90000000E+02  8.00000000E+00  0.00000000E+00
  7.90000000E+02  6.00000000E+00  0.00000000E+00
  7.90000000E+02  4.00000000E+00  0.00000000E+00
  7.90000000E+02  2.00000000E+00  0.00000000E+00
  7.90000000E+02 -3.33066907E-14  0.00000000E+00
  8.00000000E+02  1.00000000E+02  0.00000000E+00
  8.00000000E+02  9.80000000E+01  0.00000000E+00
  8.00000000E+02  9.60000000E+01  0.00000000E+00
  8.00000000E+02  9.40000000E+01  0.00000000E+00
  8.00000000E+02  9.20000000E+01  0.00000000E+00
  8.00000000E+02  9.00000000E+01  0.00000000E+00
  8.00000000E+02  8.80000000E+01  0.00000000E+00
  8.00000000E+02  8.60000000E+01  0.00000000E+00
  8.00000000E+02  8.40000000E+01  0.00000000E+00
  8.00000000E+02  8.20000000E+01  0.00000000E+00
  8.00000000E+02  8.00000000E+01  0.00000000E+00
  8.00000000E+02  7.80000000E+01  0.00000000E+00
  8.00000000E+02  7.60000000E+01  0.00000000E+00
  8.00000000E+02  7.40000000E+01  0.00000000E+00
  8.00000000E+02  7.20000000E+01  0.00000000E+00
  8.00000000E+02  7.00000000E+01  0.00000000E+00
  8.00000000E+02  6.80000000E+01  0.00000000E+00
  8.00000000E+02  6.60000000E+01  0.00000000E+00
  8.00000000E+02  6.40000000E+01  0.00000000E+00
  8.00000000E+02  6.20000000E+01  0.00000000E+00
  8.00000000E+02  6.00000000E+01  0.00000000E+00
  8.00000000E+02  5.80000000E+01  0.00000000E+00
  8.00000000E+02  5.60000000E+01  0.00000000E+00
  8.00000000E+02  5.40000000E+01  0.00000000E+00
  8.00000000E+02  5.20000000E+01  0.00000000E+00
  8.00000000E+02  5.00000000E+01  0.00000000E+00
  8.00000000E+02  4.80000000E+01  0.00000000E+00
  8.00000000E+02  4.60000000E+01  0.00000000E+00
  8.00000000E+02  4.40000000E+01  0.00000000E+00
  8.00000000E+02  4.20000000E+01  0.00000000E+00
  8.00000000E+02  4.00000000E+01  0.00000000E+00
  8.00000000E+02  3.80000000E+01  0.00000000E+00
  8.00000000E+02  3.60000000E+01  0.00000000E+00
  8.00000000E+02  3.40000000E+01  0.00000000E+00
  8.00000000E+02  3.20000000E+01  0.00000000E+00
  8.00000000E+02  3.00000000E+01  0.00000000E+00
  8.00000000E+02  2.80000000E+01  0.00000000E+00
  8.00000000E+02  2.60000000E+01  0.00000000E+00
  8.00000000E+02  2.40000000E+01  0.00000000E+00
  8.00000000E+02  2.20000000E+01  0.00000000E+00
  8.00000000E+02  2.00000000E+01  0.00000000E+00
  8.00000000E+02  1.80000000E+01  0.00000000E+00
  8.00000000E+02  1.60000000E+01  0.00000000E+00
  8.00000000E+02  1.40000000E+01  0.00000000E+00
  8.00000000E+02  1.20000000E+01  0.00000000E+00
  8.00000000E+02  1.00000000E+01  0.00000000E+00
  8.00000000E+02  8.00000000E+00  0.00000000E+00
  8.00000000E+02  6.00000000E+00  0.00000000E+00
  8.00000000E+02  4.00000000E+00  0.00000000E+00
  8.00000000E+02  2.00000000E+00  0.00000000E+00
  8.00000000E+02 -3.33066907E-14  0.00000000E+00
  8.10000000E+02  1.00000000E+02  0.00000000E+00
  8.10000000E+02  9.80000000E+01  0.00000000E+00
  8.10000000E+02  9.60000000E+01  0.00000000E+00
  8.10000000E+02  9.40000000E+01  0.00000000E+00
  8.10000000E+02  9.20000000E+01  0.00000000E+00
  8.10000000E+02  9.00000000E+01  0.00000000E+00
  8.10000000E+02  8.80000000E+01  0.00000000E+00
  8.10000000E+02  8.60000000E+01  0.00000000E+00
  8.10000000E+02  8.40000000E+01  0.00000000E+00
  8.10000000E+02  8.20000000E+01  0.00000000E+00
  8.10000000E+02  8.00000000E+01  0.00000000E+00
  8.10000000E+02  7.80000000E+01  0.00000000E+00
  8.10000000E+02  7.60000000E+01  0.00000000E+00
  8.10000000E+02  7.40000000E+01  0.00000000E+00
  8.10000000E+02  7.20000000E+01  0.00000000E+00
  8.10000000E+02  7.00000000E+01  0.00000000E+00
  8.10000000E+02  6.80000000E+01  0.00000000E+00
  8.10000000E+02  6.60000000E+01  0.00000000E+00
  8.10000000E+02  6.40000000E+01  0.00000000E+00
  8.10000000E+02  6.20000000E+01  0.00000000E+00
  8.10000000E+02  6.00000000E+01  0.00000000E+00
  8.10000000E+02  5.80000000E+01  0.00000000E+00
  8.10000000E+02  5.60000000E+01  0.00000000E+00
  8.10000000E+02  5.40000000E+01  0.00000000E+00
  8.10000000E+02  5.20000000E+01  0.00000000E+00
  8.10000000E+02  5.00000000E+01  0.00000000E+00
  8.10000000E+02  4.80000000E+01  0.00000000E+00
  8.10000000E+02  4.60000000E+01  0.00000000E+00
  8.10000000E+02  4.40000000E+01  0.00000000E+00
  8.10000000E+02  4.20000000E+01  0.00000000E+00
  8.10000000E+02  4.00000000E+01  0.00000000E+00
  8.10000000E+02  3.80000000E+01  0.00000000E+00
  8.10000000E+02  3.60000000E+01  0.00000000E+00
  8.10000000E+02  3.40000000E+01  0.00000000E+00
  8.10000000E+02  3.20000000E+01  0.00000000E+00
  8.10000000E+02  3.00000000E+01  0.00000000E+00
  8.10000000E+02  2.80000000E+01  0.00000000E+00
  8.10000000E+02  2.60000000E+01  0.00000000E+00
  8.10000000E+02  2.40000000E+01  0.00000000E+00
  8.10000000E+02  2.20000000E+01  0.00000000E+00
  8.10000000E+02  2.00000000E+01  0.00000000E+00
  8.10000000E+02  1.80000000E+01  0.00000000E+00
  8.10000000E+02  1.60000000E+01  0.00000000E+00
  8.10000000E+02  1.40000000E+01  0.00000000E+00
  8.10000000E+02  1.20000000E+01  0.00000000E+00
  8.10000000E+02  1.00000000E+01  0.00000000E+00
  8.10000000E+02  8.00000000E+00  0.00000000E+00
  8.10000000E+02  6.00000000E+00  0.00000000E+00
  8.10000000E+02  4.00000000E+00  0.00000000E+00
  8.10000000E+02  2.00000000E+00  0.00000000E+00
  8.10000000E+02 -3.33066907E-14  0.00000000E+00
  8.20000000E+02  1.00000000E+02  0.00000000E+00
  8.20000000E+02  9.80000000E+01  0.00000000E+00
  8.20000000E+02  9.60000000E+01  0.00000000E+00
  8.20000000E+02  9.40000000E+01  0.00000000E+00
  8.20000000E+02  9.20000000E+01  0.00000000E+00
  8.20000000E+02  9.00000000E+01  0.00000000E+00
  8.20000000E+02  8.80000000E+01  0.00000000E+00
  8.20000000E+02  8.60000000E+01  0.00000000E+00
  8.20000000E+02  8.40000000E+01  0.00000000E+00
  8.20000000E+02  8.20000000E+01  0.00000000E+00
  8.20000000E+02  8.00000000E+01  0.00000000E+00
  8.20000000E+02  7.80000000E+01  0.00000000E+00
  8.20000000E+02  7.60000000E+01  0.00000000E+00
  8.20000000E+02  7.40000000E+01  0.00000000E+00
  8.20000000E+02  7.20000000E+01  0.00000000E+00
  8.20000000E+02  7.00000000E+01  0.00000000E+00
  8.20000000E+02  6.80000000E+01  0.00000000E+00
  8.20000000E+02  6.60000000E+01  0.00000000E+00
  8.20000000E+02  6.40000000E+01  0.00000000E+00
  8.20000000E+02  6.20000000E+01  0.00000000E+00
  8.20000000E+02  6.00000000E+01  0.00000000E+00
  8.20000000E+02  5.80000000E+01  0.00000000E+00
  8.20000000E+02  5.60000000E+01  0.00000000E+00
  8.20000000E+02  5.40000000E+01  0.00000000E+00
  8.20000000E+02  5.20000000E+01  0.00000000E+00
  8.20000000E+02  5.00000000E+01  0.00000000E+00
  8.20000000E+02  4.80000000E+01  0.00000000E+00
  8.20000000E+02  4.60000000E+01  0.00000000E+00
  8.20000000E+02  4.40000000E+01  0.00000000E+00
  8.20000000E+02  4.20000000E+01  0.00000000E+00
  8.20000000E+02  4.00000000E+01  0.00000000E+00
  8.20000000E+02  3.80000000E+01  0.00000000E+00
  8.20000000E+02  3.60000000E+01  0.00000000E+00
  8.20000000E+02  3.40000000E+01  0.00000000E+00
  8.20000000E+02  3.20000000E+01  0.00000000E+00
  8.20000000E+02  3.00000000E+01  0.00000000E+00
  8.20000000E+02  2.80000000E+01  0.00000000E+00
  8.20000000E+02  2.60000000E+01  0.00000000E+00
  8.20000000E+02  2.40000000E+01  0.00000000E+00
  8.20000000E+02  2.20000000E+01  0.00000000E+00
  8.20000000E+02  2.00000000E+01  0.00000000E+00
  8.20000000E+02  1.80000000E+01  0.00000000E+00
  8.20000000E+02  1.60000000E+01  0.00000000E+00
  8.20000000E+02  1.40000000E+01  0.00000000E+00
  8.20000000E+02  1.20000000E+01  0.00000000E+00
  8.20000000E+02  1.00000000E+01  0.00000000E+00
  8.20000000E+02  8.00000000E+00  0.00000000E+00
  8.20000000E+02  6.00000000E+00  0.00000000E+00
  8.20000000E+02  4.00000000E+00  0.00000000E+00
  8.20000000E+02  2.00000000E+00  0.00000000E+00
  8.20000000E+02 -3.33066907E-14  0.00000000E+00
  8.30000000E+02  1.00000000E+02  0.00000000E+00
  8.30000000E+02  9.80000000E+01  0.00000000E+00
  8.30000000E+02  9.60000000E+01  0.00000000E+00
  8.30000000E+02  9.40000000E+01  0.00000000E+00
  8.30000000E+02  9.20000000E+01  0.00000000E+00
  8.30000000E+02  9.00000000E+01  0.00000000E+00
  8.30000000E+02  8.80000000E+01  0.00000000E+00
  8.30000000E+02  8.60000000E+01  0.00000000E+00
  8.30000000E+02  8.40000000E+01  0.00000000E+00
  8.30000000E+02  8.20000000E+01  0.00000000E+00
  8.30000000E+02  8.00000000E+01  0.00000000E+00
  8.30000000E+02  7.80000000E+01  0.00000000E+00
  8.30000000E+02  7.60000000E+01  0.00000000E+00
  8.30000000E+02  7.40000000E+01  0.00000000E+00
  8.30000000E+02  7.20000000E+01  0.00000000E+00
  8.30000000E+02  7.00000000E+01  0.00000000E+00
  8.30000000E+02  6.80000000E+01  0.00000000E+00
  8.30000000E+02  6.60000000E+01  0.00000000E+00
  8.30000000E+02  6.40000000E+01  0.00000000E+00
  8.30000000E+02  6.20000000E+01  0.00000000E+00
  8.30000000E+02  6.00000000E+01  0.00000000E+00
  8.30000000E+02  5.80000000E+01  0.00000000E+00
  8.30000000E+02  5.60000000E+01  0.00000000E+00
  8.30000000E+02  5.40000000E+01  0.00000000E+00
  8.30000000E+02  5.20000000E+01  0.00000000E+00
  8.30000000E+02  5.00000000E+01  0.00000000E+00
  8.30000000E+02  4.80000000E+01  0.00000000E+00
  8.30000000E+02  4.60000000E+01  0.00000000E+00
  8.30000000E+02  4.40000000E+01  0.00000000E+00
  8.30000000E+02  4.20000000E+01  0.00000000E+00
  8.30000000E+02  4.00000000E+01  0.00000000E+00
  8.30000000E+02  3.80000000E+01  0.00000000E+00
  8.30000000E+02  3.60000000E+01  0.00000000E+00
  8.30000000E+02  3.40000000E+01  0.00000000E+00
  8.30000000E+02  3.20000000E+01  0.00000000E+00
  8.30000000E+02  3.00000000E+01  0.00000000E+00
  8.30000000E+02  2.80000000E+01  0.00000000E+00
  8.30000000E+02  2.60000000E+01  0.00000000E+00
  8.30000000E+02  2.40000000E+01  0.00000000E+00
  8.30000000E+02  2.20000000E+01  0.00000000E+00
  8.30000000E+02  2.00000000E+01  0.00000000E+00
  8.30000000E+02  1.80000000E+01  0.00000000E+00
  8.30000000E+02  1.60000000E+01  0.00000000E+00
  8.30000000E+02  1.40000000E+01  0.00000000E+00
  8.30000000E+02  1.20000000E+01  0.00000000E+00
  8.30000000E+02  1.00000000E+01  0.00000000E+00
  8.30000000E+02  8.00000000E+00  0.00000000E+00
  8.30000000E+02  6.00000000E+00  0.00000000E+00
  8.30000000E+02  4.00000000E+00  0.00000000E+00
  8.30000000E+02  2.00000000E+00  0.00000000E+00
  8.30000000E+02 -3.33066907E-14  0.00000000E+00
  8.40000000E+02  1.00000000E+02  0.00000000E+00
  8.40000000E+02  9.80000000E+01  0.00000000E+00
  8.40000000E+02  9.60000000E+01  0.00000000E+00
  8.40000000E+02  9.40000000E+01  0.00000000E+00
  8.40000000E+02  9.20000000E+01  0.00000000E+00
  8.40000000E+02  9.00000000E+01  0.00000000E+00
  8.40000000E+02  8.80000000E+01  0.00000000E+00
  8.40000000E+02  8.60000000E+01  0.00000000E+00
  8.40000000E+02  8.40000000E+01  0.00000000E+00
  8.40000000E+02  8.20000000E+01  0.00000000E+00
  8.40000000E+02  8.00000000E+01  0.00000000E+00
  8.40000000E+02  7.80000000E+01  0.00000000E+00
  8.40000000E+02  7.60000000E+01  0.00000000E+00
  8.40000000E+02  7.40000000E+01  0.00000000E+00
  8.40000000E+02  7.20000000E+01  0.00000000E+00
  8.40000000E+02  7.00000000E+01  0.00000000E+00
  8.40000000E+02  6.80000000E+01  0.00000000E+00
  8.40000000E+02  6.60000000E+01  0.00000000E+00
  8.40000000E+02  6.40000000E+01  0.00000000E+00
  8.40000000E+02  6.20000000E+01  0.00000000E+00
  8.40000000E+02  6.00000000E+01  0.00000000E+00
  8.40000000E+02  5.80000000E+01  0.00000000E+00
  8.40000000E+02  5.60000000E+01  0.00000000E+00
  8.40000000E+02  5.40000000E+01  0.00000000E+00
  8.40000000E+02  5.20000000E+01  0.00000000E+00
  8.40000000E+02  5.00000000E+01  0.00000000E+00
  8.40000000E+02  4.80000000E+01  0.00000000E+00
  8.40000000E+02  4.60000000E+01  0.00000000E+00
  8.40000000E+02  4.40000000E+01  0.00000000E+00
  8.40000000E+02  4.20000000E+01  0.00000000E+00
  8.40000000E+02  4.00000000E+01  0.00000000E+00
  8.40000000E+02  3.80000000E+01  0.00000000E+00
  8.40000000E+02  3.60000000E+01  0.00000000E+00
  8.40000000E+02  3.40000000E+01  0.00000000E+00
  8.40000000E+02  3.20000000E+01  0.00000000E+00
  8.40000000E+02  3.00000000E+01  0.00000000E+00
  8.40000000E+02  2.80000000E+01  0.00000000E+00
  8.40000000E+02  2.60000000E+01  0.00000000E+00
  8.40000000E+02  2.40000000E+01  0.00000000E+00
  8.40000000E+02  2.20000000E+01  0.00000000E+00
  8.40000000E+02  2.00000000E+01  0.00000000E+00
  8.40000000E+02  1.80000000E+01  0.00000000E+00
  8.40000000E+02  1.60000000E+01  0.00000000E+00
  8.40000000E+02  1.40000000E+01  0.00000000E+00
  8.40000000E+02  1.20000000E+01  0.00000000E+00
  8.40000000E+02  1.00000000E+01  0.00000000E+00
  8.40000000E+02  8.00000000E+00  0.00000000E+00
  8.40000000E+02  6.00000000E+00  0.00000000E+00
  8.40000000E+02  4.00000000E+00  0.00000000E+00
  8.40000000E+02  2.00000000E+00  0.00000000E+00
  8.40000000E+02 -3.33066907E-14  0.00000000E+00
  8.50000000E+02  1.00000000E+02  0.00000000E+00
  8.50000000E+02  9.80000000E+01  0.00000000E+00
  8.50000000E+02  9.60000000E+01  0.00000000E+00
  8.50000000E+02  9.40000000E+01  0.00000000E+00
  8.50000000E+02  9.20000000E+01  0.00000000E+00
  8.50000000E+02  9.00000000E+01  0.00000000E+00
  8.50000000E+02  8.80000000E+01  0.00000000E+00
  8.50000000E+02  8.60000000E+01  0.00000000E+00
  8.50000000E+02  8.40000000E+01  0.00000000E+00
  8.50000000E+02  8.20000000E+01  0.00000000E+00
  8.50000000E+02  8.00000000E+01  0.00000000E+00
  8.50000000E+02  7.80000000E+01  0.00000000E+00
  8.50000000E+02  7.60000000E+01  0.00000000E+00
  8.50000000E+02  7.40000000E+01  0.00000000E+00
  8.50000000E+02  7.20000000E+01  0.00000000E+00
  8.50000000E+02  7.00000000E+01  0.00000000E+00
  8.50000000E+02  6.80000000E+01  0.00000000E+00
  8.50000000E+02  6.60000000E+01  0.00000000E+00
  8.50000000E+02  6.40000000E+01  0.00000000E+00
  8.50000000E+02  6.20000000E+01  0.00000000E+00
  8.50000000E+02  6.00000000E+01  0.00000000E+00
  8.50000000E+02  5.80000000E+01  0.00000000E+00
  8.50000000E+02  5.60000000E+01  0.00000000E+00
  8.50000000E+02  5.40000000E+01  0.00000000E+00
  8.50000000E+02  5.20000000E+01  0.00000000E+00
  8.50000000E+02  5.00000000E+01  0.00000000E+00
  8.50000000E+02  4.80000000E+01  0.00000000E+00
  8.50000000E+02  4.60000000E+01  0.00000000E+00
  8.50000000E+02  4.40000000E+01  0.00000000E+00
  8.50000000E+02  4.20000000E+01  0.00000000E+00
  8.50000000E+02  4.00000000E+01  0.00000000E+00
  8.50000000E+02  3.80000000E+01  0.00000000E+00
  8.50000000E+02  3.60000000E+01  0.00000000E+00
  8.50000000E+02  3.40000000E+01  0.00000000E+00
  8.50000000E+02  3.20000000E+01  0.00000000E+00
  8.50000000E+02  3.00000000E+01  0.00000000E+00
  8.50000000E+02  2.80000000E+01  0.00000000E+00
  8.50000000E+02  2.60000000E+01  0.00000000E+00
  8.50000000E+02  2.40000000E+01  0.00000000E+00
  8.50000000E+02  2.20000000E+01  0.00000000E+00
  8.50000000E+02  2.00000000E+01  0.00000000E+00
  8.50000000E+02  1.80000000E+01  0.00000000E+00
  8.50000000E+02  1.60000000E+01  0.00000000E+00
  8.50000000E+02  1.40000000E+01  0.00000000E+00
  8.50000000E+02  1.20000000E+01  0.00000000E+00
  8.50000000E+02  1.00000000E+01  0.00000000E+00
  8.50000000E+02  8.00000000E+00  0.00000000E+00
  8.50000000E+02  6.00000000E+00  0.00000000E+00
  8.50000000E+02  4.00000000E+00  0.00000000E+00
  8.50000000E+02  2.00000000E+00  0.00000000E+00
  8.50000000E+02 -3.33066907E-14  0.00000000E+00
  8.60000000E+02  1.00000000E+02  0.00000000E+00
  8.60000000E+02  9.80000000E+01  0.00000000E+00
  8.60000000E+02  9.60000000E+01  0.00000000E+00
  8.60000000E+02  9.40000000E+01  0.00000000E+00
  8.60000000E+02  9.20000000E+01  0.00000000E+00
  8.60000000E+02  9.00000000E+01  0.00000000E+00
  8.60000000E+02  8.80000000E+01  0.00000000E+00
  8.60000000E+02  8.60000000E+01  0.00000000E+00
  8.60000000E+02  8.40000000E+01  0.00000000E+00
  8.60000000E+02  8.20000000E+01  0.00000000E+00
  8.60000000E+02  8.00000000E+01  0.00000000E+00
  8.60000000E+02  7.80000000E+01  0.00000000E+00
  8.60000000E+02  7.60000000E+01  0.00000000E+00
  8.60000000E+02  7.40000000E+01  0.00000000E+00
  8.60000000E+02  7.20000000E+01  0.00000000E+00
  8.60000000E+02  7.00000000E+01  0.00000000E+00
  8.60000000E+02  6.80000000E+01  0.00000000E+00
  8.60000000E+02  6.60000000E+01  0.00000000E+00
  8.60000000E+02  6.40000000E+01  0.00000000E+00
  8.60000000E+02  6.20000000E+01  0.00000000E+00
  8.60000000E+02  6.00000000E+01  0.00000000E+00
  8.60000000E+02  5.80000000E+01  0.00000000E+00
  8.60000000E+02  5.60000000E+01  0.00000000E+00
  8.60000000E+02  5.40000000E+01  0.00000000E+00
  8.60000000E+02  5.20000000E+01  0.00000000E+00
  8.60000000E+02  5.00000000E+01  0.00000000E+00
  8.60000000E+02  4.80000000E+01  0.00000000E+00
  8.60000000E+02  4.60000000E+01  0.00000000E+00
  8.60000000E+02  4.40000000E+01  0.00000000E+00
  8.60000000E+02  4.20000000E+01  0.00000000E+00
  8.60000000E+02  4.00000000E+01  0.00000000E+00
  8.60000000E+02  3.80000000E+01  0.00000000E+00
  8.60000000E+02  3.60000000E+01  0.00000000E+00
  8.60000000E+02  3.40000000E+01  0.00000000E+00
  8.60000000E+02  3.20000000E+01  0.00000000E+00
  8.60000000E+02  3.00000000E+01  0.00000000E+00
  8.60000000E+02  2.80000000E+01  0.00000000E+00
  8.60000000E+02  2.60000000E+01  0.00000000E+00
  8.60000000E+02  2.40000000E+01  0.00000000E+00
  8.60000000E+02  2.20000000E+01  0.00000000E+00
  8.60000000E+02  2.00000000E+01  0.00000000E+00
  8.60000000E+02  1.80000000E+01  0.00000000E+00
  8.60000000E+02  1.60000000E+01  0.00000000E+00
  8.60000000E+02  1.40000000E+01  0.00000000E+00
  8.60000000E+02  1.20000000E+01  0.00000000E+00
  8.60000000E+02  1.00000000E+01  0.00000000E+00
  8.60000000E+02  8.00000000E+00  0.00000000E+00
  8.60000000E+02  6.00000000E+00  0.00000000E+00
  8.60000000E+02  4.00000000E+00  0.00000000E+00
  8.60000000E+02  2.00000000E+00  0.00000000E+00
  8.60000000E+02 -3.33066907E-14  0.00000000E+00
  8.70000000E+02  1.00000000E+02  0.00000000E+00
  8.70000000E+02  9.80000000E+01  0.00000000E+00
  8.70000000E+02  9.60000000E+01  0.00000000E+00
  8.70000000E+02  9.40000000E+01  0.00000000E+00
  8.70000000E+02  9.20000000E+01  0.00000000E+00
  8.70000000E+02  9.00000000E+01  0.00000000E+00
  8.70000000E+02  8.80000000E+01  0.00000000E+00
  8.70000000E+02  8.60000000E+01  0.00000000E+00
  8.70000000E+02  8.40000000E+01  0.00000000E+00
  8.70000000E+02  8.20000000E+01  0.00000000E+00
  8.70000000E+02  8.00000000E+01  0.00000000E+00
  8.70000000E+02  7.80000000E+01  0.00000000E+00
  8.70000000E+02  7.60000000E+01  0.00000000E+00
  8.70000000E+02  7.40000000E+01  0.00000000E+00
  8.70000000E+02  7.20000000E+01  0.00000000E+00
  8.70000000E+02  7.00000000E+01  0.00000000E+00
  8.70000000E+02  6.80000000E+01  0.00000000E+00
  8.70000000E+02  6.60000000E+01  0.00000000E+00
  8.70000000E+02  6.40000000E+01  0.00000000E+00
  8.70000000E+02  6.20000000E+01  0.00000000E+00
  8.70000000E+02  6.00000000E+01  0.00000000E+00
  8.70000000E+02  5.80000000E+01  0.00000000E+00
  8.70000000E+02  5.60000000E+01  0.00000000E+00
  8.70000000E+02  5.40000000E+01  0.00000000E+00
  8.70000000E+02  5.20000000E+01  0.00000000E+00
  8.70000000E+02  5.00000000E+01  0.00000000E+00
  8.70000000E+02  4.80000000E+01  0.00000000E+00
  8.70000000E+02  4.60000000E+01  0.00000000E+00
  8.70000000E+02  4.40000000E+01  0.00000000E+00
  8.70000000E+02  4.20000000E+01  0.00000000E+00
  8.70000000E+02  4.00000000E+01  0.00000000E+00
  8.70000000E+02  3.80000000E+01  0.00000000E+00
  8.70000000E+02  3.60000000E+01  0.00000000E+00
  8.70000000E+02  3.40000000E+01  0.00000000E+00
  8.70000000E+02  3.20000000E+01  0.00000000E+00
  8.70000000E+02  3.00000000E+01  0.00000000E+00
  8.70000000E+02  2.80000000E+01  0.00000000E+00
  8.70000000E+02  2.60000000E+01  0.00000000E+00
  8.70000000E+02  2.40000000E+01  0.00000000E+00
  8.70000000E+02  2.20000000E+01  0.00000000E+00
  8.70000000E+02  2.00000000E+01  0.00000000E+00
  8.70000000E+02  1.80000000E+01  0.00000000E+00
  8.70000000E+02  1.60000000E+01  0.00000000E+00
  8.70000000E+02  1.40000000E+01  0.00000000E+00
  8.70000000E+02  1.20000000E+01  0.00000000E+00
  8.70000000E+02  1.00000000E+01  0.00000000E+00
  8.70000000E+02  8.00000000E+00  0.00000000E+00
  8.70000000E+02  6.00000000E+00  0.00000000E+00
  8.70000000E+02  4.00000000E+00  0.00000000E+00
  8.70000000E+02  2.00000000E+00  0.00000000E+00
  8.70000000E+02 -3.33066907E-14  0.00000000E+00
  8.80000000E+02  1.00000000E+02  0.00000000E+00
  8.80000000E+02  9.80000000E+01  0.00000000E+00
  8.80000000E+02  9.60000000E+01  0.00000000E+00
  8.80000000E+02  9.40000000E+01  0.00000000E+00
  8.80000000E+02  9.20000000E+01  0.00000000E+00
  8.80000000E+02  9.00000000E+01  0.00000000E+00
  8.80000000E+02  8.80000000E+01  0.00000000E+00
  8.80000000E+02  8.60000000E+01  0.00000000E+00
  8.80000000E+02  8.40000000E+01  0.00000000E+00
  8.80000000E+02  8.20000000E+01  0.00000000E+00
  8.80000000E+02  8.00000000E+01  0.00000000E+00
  8.80000000E+02  7.80000000E+01  0.00000000E+00
  8.80000000E+02  7.60000000E+01  0.00000000E+00
  8.80000000E+02  7.40000000E+01  0.00000000E+00
  8.80000000E+02  7.20000000E+01  0.00000000E+00
  8.80000000E+02  7.00000000E+01  0.00000000E+00
  8.80000000E+02  6.80000000E+01  0.00000000E+00
  8.80000000E+02  6.60000000E+01  0.00000000E+00
  8.80000000E+02  6.40000000E+01  0.00000000E+00
  8.80000000E+02  6.20000000E+01  0.00000000E+00
  8.80000000E+02  6.00000000E+01  0.00000000E+00
  8.80000000E+02  5.80000000E+01  0.00000000E+00
  8.80000000E+02  5.60000000E+01  0.00000000E+00
  8.80000000E+02  5.40000000E+01  0.00000000E+00
  8.80000000E+02  5.20000000E+01  0.00000000E+00
  8.80000000E+02  5.00000000E+01  0.00000000E+00
  8.80000000E+02  4.80000000E+01  0.00000000E+00
  8.80000000E+02  4.60000000E+01  0.00000000E+00
  8.80000000E+02  4.40000000E+01  0.00000000E+00
  8.80000000E+02  4.20000000E+01  0.00000000E+00
  8.80000000E+02  4.00000000E+01  0.00000000E+00
  8.80000000E+02  3.80000000E+01  0.00000000E+00
  8.80000000E+02  3.60000000E+01  0.00000000E+00
  8.80000000E+02  3.40000000E+01  0.00000000E+00
  8.80000000E+02  3.20000000E+01  0.00000000E+00
  8.80000000E+02  3.00000000E+01  0.00000000E+00
  8.80000000E+02  2.80000000E+01  0.00000000E+00
  8.80000000E+02  2.60000000E+01  0.00000000E+00
  8.80000000E+02  2.40000000E+01  0.00000000E+00
  8.80000000E+02  2.20000000E+01  0.00000000E+00
  8.80000000E+02  2.00000000E+01  0.00000000E+00
  8.80000000E+02  1.80000000E+01  0.00000000E+00
  8.80000000E+02  1.60000000E+01  0.00000000E+00
  8.80000000E+02  1.40000000E+01  0.00000000E+00
  8.80000000E+02  1.20000000E+01  0.00000000E+00
  8.80000000E+02  1.00000000E+01  0.00000000E+00
  8.80000000E+02  8.00000000E+00  0.00000000E+00
  8.80000000E+02  6.00000000E+00  0.00000000E+00
  8.80000000E+02  4.00000000E+00  0.00000000E+00
  8.80000000E+02  2.00000000E+00  0.00000000E+00
  8.80000000E+02 -3.33066907E-14  0.00000000E+00
  8.90000000E+02  1.00000000E+02  0.00000000E+00
  8.90000000E+02  9.80000000E+01  0.00000000E+00
  8.90000000E+02  9.60000000E+01  0.00000000E+00
  8.90000000E+02  9.40000000E+01  0.00000000E+00
  8.90000000E+02  9.20000000E+01  0.00000000E+00
  8.90000000E+02  9.00000000E+01  0.00000000E+00
  8.90000000E+02  8.80000000E+01  0.00000000E+00
  8.90000000E+02  8.60000000E+01  0.00000000E+00
  8.90000000E+02  8.40000000E+01  0.00000000E+00
  8.90000000E+02  8.20000000E+01  0.00000000E+00
  8.90000000E+02  8.00000000E+01  0.00000000E+00
  8.90000000E+02  7.80000000E+01  0.00000000E+00
  8.90000000E+02  7.60000000E+01  0.00000000E+00
  8.90000000E+02  7.40000000E+01  0.00000000E+00
  8.90000000E+02  7.20000000E+01  0.00000000E+00
  8.90000000E+02  7.00000000E+01  0.00000000E+00
  8.90000000E+02  6.80000000E+01  0.00000000E+00
  8.90000000E+02  6.60000000E+01  0.00000000E+00
  8.90000000E+02  6.40000000E+01  0.00000000E+00
  8.90000000E+02  6.20000000E+01  0.00000000E+00
  8.90000000E+02  6.00000000E+01  0.00000000E+00
  8.90000000E+02  5.80000000E+01  0.00000000E+00
  8.90000000E+02  5.60000000E+01  0.00000000E+00
  8.90000000E+02  5.40000000E+01  0.00000000E+00
  8.90000000E+02  5.20000000E+01  0.00000000E+00
  8.90000000E+02  5.00000000E+01  0.00000000E+00
  8.90000000E+02  4.80000000E+01  0.00000000E+00
  8.90000000E+02  4.60000000E+01  0.00000000E+00
  8.90000000E+02  4.40000000E+01  0.00000000E+00
  8.90000000E+02  4.20000000E+01  0.00000000E+00
  8.90000000E+02  4.00000000E+01  0.00000000E+00
  8.90000000E+02  3.80000000E+01  0.00000000E+00
  8.90000000E+02  3.60000000E+01  0.00000000E+00
  8.90000000E+02  3.40000000E+01  0.00000000E+00
  8.90000000E+02  3.20000000E+01  0.00000000E+00
  8.90000000E+02  3.00000000E+01  0.00000000E+00
  8.90000000E+02  2.80000000E+01  0.00000000E+00
  8.90000000E+02  2.60000000E+01  0.00000000E+00
  8.90000000E+02  2.40000000E+01  0.00000000E+00
  8.90000000E+02  2.20000000E+01  0.00000000E+00
  8.90000000E+02  2.00000000E+01  0.00000000E+00
  8.90000000E+02  1.80000000E+01  0.00000000E+00
  8.90000000E+02  1.60000000E+01  0.00000000E+00
  8.90000000E+02  1.40000000E+01  0.00000000E+00
  8.90000000E+02  1.20000000E+01  0.00000000E+00
  8.90000000E+02  1.00000000E+01  0.00000000E+00
  8.90000000E+02  8.00000000E+00  0.00000000E+00
  8.90000000E+02  6.00000000E+00  0.00000000E+00
  8.90000000E+02  4.00000000E+00  0.00000000E+00
  8.90000000E+02  2.00000000E+00  0.00000000E+00
  8.90000000E+02 -3.33066907E-14  0.00000000E+00
  9.00000000E+02  1.00000000E+02  0.00000000E+00
  9.00000000E+02  9.80000000E+01  0.00000000E+00
  9.00000000E+02  9.60000000E+01  0.00000000E+00
  9.00000000E+02  9.40000000E+01  0.00000000E+00
  9.00000000E+02  9.20000000E+01  0.00000000E+00
  9.00000000E+02  9.00000000E+01  0.00000000E+00
  9.00000000E+02  8.80000000E+01  0.00000000E+00
  9.00000000E+02  8.60000000E+01  0.00000000E+00
  9.00000000E+02  8.40000000E+01  0.00000000E+00
  9.00000000E+02  8.20000000E+01  0.00000000E+00
  9.00000000E+02  8.00000000E+01  0.00000000E+00
  9.00000000E+02  7.80000000E+01  0.00000000E+00
  9.00000000E+02  7.60000000E+01  0.00000000E+00
  9.00000000E+02  7.40000000E+01  0.00000000E+00
  9.00000000E+02  7.20000000E+01  0.00000000E+00
  9.00000000E+02  7.00000000E+01  0.00000000E+00
  9.00000000E+02  6.80000000E+01  0.00000000E+00
  9.00000000E+02  6.60000000E+01  0.00000000E+00
  9.00000000E+02  6.40000000E+01  0.00000000E+00
  9.00000000E+02  6.20000000E+01  0.00000000E+00
  9.00000000E+02  6.00000000E+01  0.00000000E+00
  9.00000000E+02  5.80000000E+01  0.00000000E+00
  9.00000000E+02  5.60000000E+01  0.00000000E+00
  9.00000000E+02  5.40000000E+01  0.00000000E+00
  9.00000000E+02  5.20000000E+01  0.00000000E+00
  9.00000000E+02  5.00000000E+01  0.00000000E+00
  9.00000000E+02  4.80000000E+01  0.00000000E+00
  9.00000000E+02  4.60000000E+01  0.00000000E+00
  9.00000000E+02  4.40000000E+01  0.00000000E+00
  9.00000000E+02  4.20000000E+01  0.00000000E+00
  9.00000000E+02  4.00000000E+01  0.00000000E+00
  9.00000000E+02  3.80000000E+01  0.00000000E+00
  9.00000000E+02  3.60000000E+01  0.00000000E+00
  9.00000000E+02  3.40000000E+01  0.00000000E+00
  9.00000000E+02  3.20000000E+01  0.00000000E+00
  9.00000000E+02  3.00000000E+01  0.00000000E+00
  9.00000000E+02  2.80000000E+01  0.00000000E+00
  9.00000000E+02  2.60000000E+01  0.00000000E+00
  9.00000000E+02  2.40000000E+01  0.00000000E+00
  9.00000000E+02  2.20000000E+01  0.00000000E+00
  9.00000000E+02  2.00000000E+01  0.00000000E+00
  9.00000000E+02  1.80000000E+01  0.00000000E+00
  9.00000000E+02  1.60000000E+01  0.00000000E+00
  9.00000000E+02  1.40000000E+01  0.00000000E+00
  9.00000000E+02  1.20000000E+01  0.00000000E+00
  9.00000000E+02  1.00000000E+01  0.00000000E+00
  9.00000000E+02  8.00000000E+00  0.00000000E+00
  9.00000000E+02  6.00000000E+00  0.00000000E+00
  9.00000000E+02  4.00000000E+00  0.00000000E+00
  9.00000000E+02  2.00000000E+00  0.00000000E+00
  9.00000000E+02 -3.33066907E-14  0.00000000E+00
  9.10000000E+02  1.00000000E+02  0.00000000E+00
  9.10000000E+02  9.80000000E+01  0.00000000E+00
  9.10000000E+02  9.60000000E+01  0.00000000E+00
  9.10000000E+02  9.40000000E+01  0.00000000E+00
  9.10000000E+02  9.20000000E+01  0.00000000E+00
  9.10000000E+02  9.00000000E+01  0.00000000E+00
  9.10000000E+02  8.80000000E+01  0.00000000E+00
  9.10000000E+02  8.60000000E+01  0.00000000E+00
  9.10000000E+02  8.40000000E+01  0.00000000E+00
  9.10000000E+02  8.20000000E+01  0.00000000E+00
  9.10000000E+02  8.00000000E+01  0.00000000E+00
  9.10000000E+02  7.80000000E+01  0.00000000E+00
  9.10000000E+02  7.60000000E+01  0.00000000E+00
  9.10000000E+02  7.40000000E+01  0.00000000E+00
  9.10000000E+02  7.20000000E+01  0.00000000E+00
  9.10000000E+02  7.00000000E+01  0.00000000E+00
  9.10000000E+02  6.80000000E+01  0.00000000E+00
  9.10000000E+02  6.60000000E+01  0.00000000E+00
  9.10000000E+02  6.40000000E+01  0.00000000E+00
  9.10000000E+02  6.20000000E+01  0.00000000E+00
  9.10000000E+02  6.00000000E+01  0.00000000E+00
  9.10000000E+02  5.80000000E+01  0.00000000E+00
  9.10000000E+02  5.60000000E+01  0.00000000E+00
  9.10000000E+02  5.40000000E+01  0.00000000E+00
  9.10000000E+02  5.20000000E+01  0.00000000E+00
  9.10000000E+02  5.00000000E+01  0.00000000E+00
  9.10000000E+02  4.80000000E+01  0.00000000E+00
  9.10000000E+02  4.60000000E+01  0.00000000E+00
  9.10000000E+02  4.40000000E+01  0.00000000E+00
  9.10000000E+02  4.20000000E+01  0.00000000E+00
  9.10000000E+02  4.00000000E+01  0.00000000E+00
  9.10000000E+02  3.80000000E+01  0.00000000E+00
  9.10000000E+02  3.60000000E+01  0.00000000E+00
  9.10000000E+02  3.40000000E+01  0.00000000E+00
  9.10000000E+02  3.20000000E+01  0.00000000E+00
  9.10000000E+02  3.00000000E+01  0.00000000E+00
  9.10000000E+02  2.80000000E+01  0.00000000E+00
  9.10000000E+02  2.60000000E+01  0.00000000E+00
  9.10000000E+02  2.40000000E+01  0.00000000E+00
  9.10000000E+02  2.20000000E+01  0.00000000E+00
  9.10000000E+02  2.00000000E+01  0.00000000E+00
  9.10000000E+02  1.80000000E+01  0.00000000E+00
  9.10000000E+02  1.60000000E+01  0.00000000E+00
  9.10000000E+02  1.40000000E+01  0.00000000E+00
  9.10000000E+02  1.20000000E+01  0.00000000E+00
  9.10000000E+02  1.00000000E+01  0.00000000E+00
  9.10000000E+02  8.00000000E+00  0.00000000E+00
  9.10000000E+02  6.00000000E+00  0.00000000E+00
  9.10000000E+02  4.00000000E+00  0.00000000E+00
  9.10000000E+02  2.00000000E+00  0.00000000E+00
  9.10000000E+02 -3.33066907E-14  0.00000000E+00
  9.20000000E+02  1.00000000E+02  0.00000000E+00
  9.20000000E+02  9.80000000E+01  0.00000000E+00
  9.20000000E+02  9.60000000E+01  0.00000000E+00
  9.20000000E+02  9.40000000E+01  0.00000000E+00
  9.20000000E+02  9.20000000E+01  0.00000000E+00
  9.20000000E+02  9.00000000E+01  0.00000000E+00
  9.20000000E+02  8.80000000E+01  0.00000000E+00
  9.20000000E+02  8.60000000E+01  0.00000000E+00
  9.20000000E+02  8.40000000E+01  0.00000000E+00
  9.20000000E+02  8.20000000E+01  0.00000000E+00
  9.20000000E+02  8.00000000E+01  0.00000000E+00
  9.20000000E+02  7.80000000E+01  0.00000000E+00
  9.20000000E+02  7.60000000E+01  0.00000000E+00
  9.20000000E+02  7.40000000E+01  0.00000000E+00
  9.20000000E+02  7.20000000E+01  0.00000000E+00
  9.20000000E+02  7.00000000E+01  0.00000000E+00
  9.20000000E+02  6.80000000E+01  0.00000000E+00
  9.20000000E+02  6.60000000E+01  0.00000000E+00
  9.20000000E+02  6.40000000E+01  0.00000000E+00
  9.20000000E+02  6.20000000E+01  0.00000000E+00
  9.20000000E+02  6.00000000E+01  0.00000000E+00
  9.20000000E+02  5.80000000E+01  0.00000000E+00
  9.20000000E+02  5.60000000E+01  0.00000000E+00
  9.20000000E+02  5.40000000E+01  0.00000000E+00
  9.20000000E+02  5.20000000E+01  0.00000000E+00
  9.20000000E+02  5.00000000E+01  0.00000000E+00
  9.20000000E+02  4.80000000E+01  0.00000000E+00
  9.20000000E+02  4.60000000E+01  0.00000000E+00
  9.20000000E+02  4.40000000E+01  0.00000000E+00
  9.20000000E+02  4.20000000E+01  0.00000000E+00
  9.20000000E+02  4.00000000E+01  0.00000000E+00
  9.20000000E+02  3.80000000E+01  0.00000000E+00
  9.20000000E+02  3.60000000E+01  0.00000000E+00
  9.20000000E+02  3.40000000E+01  0.00000000E+00
  9.20000000E+02  3.20000000E+01  0.00000000E+00
  9.20000000E+02  3.00000000E+01  0.00000000E+00
  9.20000000E+02  2.80000000E+01  0.00000000E+00
  9.20000000E+02  2.60000000E+01  0.00000000E+00
  9.20000000E+02  2.40000000E+01  0.00000000E+00
  9.20000000E+02  2.20000000E+01  0.00000000E+00
  9.20000000E+02  2.00000000E+01  0.00000000E+00
  9.20000000E+02  1.80000000E+01  0.00000000E+00
  9.20000000E+02  1.60000000E+01  0.00000000E+00
  9.20000000E+02  1.40000000E+01  0.00000000E+00
  9.20000000E+02  1.20000000E+01  0.00000000E+00
  9.20000000E+02  1.00000000E+01  0.00000000E+00
  9.20000000E+02  8.00000000E+00  0.00000000E+00
  9.20000000E+02  6.00000000E+00  0.00000000E+00
  9.20000000E+02  4.00000000E+00  0.00000000E+00
  9.20000000E+02  2.00000000E+00  0.00000000E+00
  9.20000000E+02 -3.33066907E-14  0.00000000E+00
  9.30000000E+02  1.00000000E+02  0.00000000E+00
  9.30000000E+02  9.80000000E+01  0.00000000E+00
  9.30000000E+02  9.60000000E+01  0.00000000E+00
  9.30000000E+02  9.40000000E+01  0.00000000E+00
  9.30000000E+02  9.20000000E+01  0.00000000E+00
  9.30000000E+02  9.00000000E+01  0.00000000E+00
  9.30000000E+02  8.80000000E+01  0.00000000E+00
  9.30000000E+02  8.60000000E+01  0.00000000E+00
  9.30000000E+02  8.40000000E+01  0.00000000E+00
  9.30000000E+02  8.20000000E+01  0.00000000E+00
  9.30000000E+02  8.00000000E+01  0.00000000E+00
  9.30000000E+02  7.80000000E+01  0.00000000E+00
  9.30000000E+02  7.60000000E+01  0.00000000E+00
  9.30000000E+02  7.40000000E+01  0.00000000E+00
  9.30000000E+02  7.20000000E+01  0.00000000E+00
  9.30000000E+02  7.00000000E+01  0.00000000E+00
  9.30000000E+02  6.80000000E+01  0.00000000E+00
  9.30000000E+02  6.60000000E+01  0.00000000E+00
  9.30000000E+02  6.40000000E+01  0.00000000E+00
  9.30000000E+02  6.20000000E+01  0.00000000E+00
  9.30000000E+02  6.00000000E+01  0.00000000E+00
  9.30000000E+02  5.80000000E+01  0.00000000E+00
  9.30000000E+02  5.60000000E+01  0.00000000E+00
  9.30000000E+02  5.40000000E+01  0.00000000E+00
  9.30000000E+02  5.20000000E+01  0.00000000E+00
  9.30000000E+02  5.00000000E+01  0.00000000E+00
  9.30000000E+02  4.80000000E+01  0.00000000E+00
  9.30000000E+02  4.60000000E+01  0.00000000E+00
  9.30000000E+02  4.40000000E+01  0.00000000E+00
  9.30000000E+02  4.20000000E+01  0.00000000E+00
  9.30000000E+02  4.00000000E+01  0.00000000E+00
  9.30000000E+02  3.80000000E+01  0.00000000E+00
  9.30000000E+02  3.60000000E+01  0.00000000E+00
  9.30000000E+02  3.40000000E+01  0.00000000E+00
  9.30000000E+02  3.20000000E+01  0.00000000E+00
  9.30000000E+02  3.00000000E+01  0.00000000E+00
  9.30000000E+02  2.80000000E+01  0.00000000E+00
  9.30000000E+02  2.60000000E+01  0.00000000E+00
  9.30000000E+02  2.40000000E+01  0.00000000E+00
  9.30000000E+02  2.20000000E+01  0.00000000E+00
  9.30000000E+02  2.00000000E+01  0.00000000E+00
  9.30000000E+02  1.80000000E+01  0.00000000E+00
  9.30000000E+02  1.60000000E+01  0.00000000E+00
  9.30000000E+02  1.40000000E+01  0.00000000E+00
  9.30000000E+02  1.20000000E+01  0.00000000E+00
  9.30000000E+02  1.00000000E+01  0.00000000E+00
  9.30000000E+02  8.00000000E+00  0.00000000E+00
  9.30000000E+02  6.00000000E+00  0.00000000E+00
  9.30000000E+02  4.00000000E+00  0.00000000E+00
  9.30000000E+02  2.00000000E+00  0.00000000E+00
  9.30000000E+02 -3.33066907E-14  0.00000000E+00
  9.40000000E+02  1.00000000E+02  0.00000000E+00
  9.40000000E+02  9.80000000E+01  0.00000000E+00
  9.40000000E+02  9.60000000E+01  0.00000000E+00
  9.40000000E+02  9.40000000E+01  0.00000000E+00
  9.40000000E+02  9.20000000E+01  0.00000000E+00
  9.40000000E+02  9.00000000E+01  0.00000000E+00
  9.40000000E+02  8.80000000E+01  0.00000000E+00
  9.40000000E+02  8.60000000E+01  0.00000000E+00
  9.40000000E+02  8.40000000E+01  0.00000000E+00
  9.40000000E+02  8.20000000E+01  0.00000000E+00
  9.40000000E+02  8.00000000E+01  0.00000000E+00
  9.40000000E+02  7.80000000E+01  0.00000000E+00
  9.40000000E+02  7.60000000E+01  0.00000000E+00
  9.40000000E+02  7.40000000E+01  0.00000000E+00
  9.40000000E+02  7.20000000E+01  0.00000000E+00
  9.40000000E+02  7.00000000E+01  0.00000000E+00
  9.40000000E+02  6.80000000E+01  0.00000000E+00
  9.40000000E+02  6.60000000E+01  0.00000000E+00
  9.40000000E+02  6.40000000E+01  0.00000000E+00
  9.40000000E+02  6.20000000E+01  0.00000000E+00
  9.40000000E+02  6.00000000E+01  0.00000000E+00
  9.40000000E+02  5.80000000E+01  0.00000000E+00
  9.40000000E+02  5.60000000E+01  0.00000000E+00
  9.40000000E+02  5.40000000E+01  0.00000000E+00
  9.40000000E+02  5.20000000E+01  0.00000000E+00
  9.40000000E+02  5.00000000E+01  0.00000000E+00
  9.40000000E+02  4.80000000E+01  0.00000000E+00
  9.40000000E+02  4.60000000E+01  0.00000000E+00
  9.40000000E+02  4.40000000E+01  0.00000000E+00
  9.40000000E+02  4.20000000E+01  0.00000000E+00
  9.40000000E+02  4.00000000E+01  0.00000000E+00
  9.40000000E+02  3.80000000E+01  0.00000000E+00
  9.40000000E+02  3.60000000E+01  0.00000000E+00
  9.40000000E+02  3.40000000E+01  0.00000000E+00
  9.40000000E+02  3.20000000E+01  0.00000000E+00
  9.40000000E+02  3.00000000E+01  0.00000000E+00
  9.40000000E+02  2.80000000E+01  0.00000000E+00
  9.40000000E+02  2.60000000E+01  0.00000000E+00
  9.40000000E+02  2.40000000E+01  0.00000000E+00
  9.40000000E+02  2.20000000E+01  0.00000000E+00
  9.40000000E+02  2.00000000E+01  0.00000000E+00
  9.40000000E+02  1.80000000E+01  0.00000000E+00
  9.40000000E+02  1.60000000E+01  0.00000000E+00
  9.40000000E+02  1.40000000E+01  0.00000000E+00
  9.40000000E+02  1.20000000E+01  0.00000000E+00
  9.40000000E+02  1.00000000E+01  0.00000000E+00
  9.40000000E+02  8.00000000E+00  0.00000000E+00
  9.40000000E+02  6.00000000E+00  0.00000000E+00
  9.40000000E+02  4.00000000E+00  0.00000000E+00
  9.40000000E+02  2.00000000E+00  0.00000000E+00
  9.40000000E+02 -3.33066907E-14  0.00000000E+00
  9.50000000E+02  1.00000000E+02  0.00000000E+00
  9.50000000E+02  9.80000000E+01  0.00000000E+00
  9.50000000E+02  9.60000000E+01  0.00000000E+00
  9.50000000E+02  9.40000000E+01  0.00000000E+00
  9.50000000E+02  9.20000000E+01  0.00000000E+00
  9.50000000E+02  9.00000000E+01  0.00000000E+00
  9.50000000E+02  8.80000000E+01  0.00000000E+00
  9.50000000E+02  8.60000000E+01  0.00000000E+00
  9.50000000E+02  8.40000000E+01  0.00000000E+00
  9.50000000E+02  8.20000000E+01  0.00000000E+00
  9.50000000E+02  8.00000000E+01  0.00000000E+00
  9.50000000E+02  7.80000000E+01  0.00000000E+00
  9.50000000E+02  7.60000000E+01  0.00000000E+00
  9.50000000E+02  7.40000000E+01  0.00000000E+00
  9.50000000E+02  7.20000000E+01  0.00000000E+00
  9.50000000E+02  7.00000000E+01  0.00000000E+00
  9.50000000E+02  6.80000000E+01  0.00000000E+00
  9.50000000E+02  6.60000000E+01  0.00000000E+00
  9.50000000E+02  6.40000000E+01  0.00000000E+00
  9.50000000E+02  6.20000000E+01  0.00000000E+00
  9.50000000E+02  6.00000000E+01  0.00000000E+00
  9.50000000E+02  5.80000000E+01  0.00000000E+00
  9.50000000E+02  5.60000000E+01  0.00000000E+00
  9.50000000E+02  5.40000000E+01  0.00000000E+00
  9.50000000E+02  5.20000000E+01  0.00000000E+00
  9.50000000E+02  5.00000000E+01  0.00000000E+00
  9.50000000E+02  4.80000000E+01  0.00000000E+00
  9.50000000E+02  4.60000000E+01  0.00000000E+00
  9.50000000E+02  4.40000000E+01  0.00000000E+00
  9.50000000E+02  4.20000000E+01  0.00000000E+00
  9.50000000E+02  4.00000000E+01  0.00000000E+00
  9.50000000E+02  3.80000000E+01  0.00000000E+00
  9.50000000E+02  3.60000000E+01  0.00000000E+00
  9.50000000E+02  3.40000000E+01  0.00000000E+00
  9.50000000E+02  3.20000000E+01  0.00000000E+00
  9.50000000E+02  3.00000000E+01  0.00000000E+00
  9.50000000E+02  2.80000000E+01  0.00000000E+00
  9.50000000E+02  2.60000000E+01  0.00000000E+00
  9.50000000E+02  2.40000000E+01  0.00000000E+00
  9.50000000E+02  2.20000000E+01  0.00000000E+00
  9.50000000E+02  2.00000000E+01  0.00000000E+00
  9.50000000E+02  1.80000000E+01  0.00000000E+00
  9.50000000E+02  1.60000000E+01  0.00000000E+00
  9.50000000E+02  1.40000000E+01  0.00000000E+00
  9.50000000E+02  1.20000000E+01  0.00000000E+00
  9.50000000E+02  1.00000000E+01  0.00000000E+00
  9.50000000E+02  8.00000000E+00  0.00000000E+00
  9.50000000E+02  6.00000000E+00  0.00000000E+00
  9.50000000E+02  4.00000000E+00  0.00000000E+00
  9.50000000E+02  2.00000000E+00  0.00000000E+00
  9.50000000E+02 -3.33066907E-14  0.00000000E+00
  9.60000000E+02  1.00000000E+02  0.00000000E+00
  9.60000000E+02  9.80000000E+01  0.00000000E+00
  9.60000000E+02  9.60000000E+01  0.00000000E+00
  9.60000000E+02  9.40000000E+01  0.00000000E+00
  9.60000000E+02  9.20000000E+01  0.00000000E+00
  9.60000000E+02  9.00000000E+01  0.00000000E+00
  9.60000000E+02  8.80000000E+01  0.00000000E+00
  9.60000000E+02  8.60000000E+01  0.00000000E+00
  9.60000000E+02  8.40000000E+01  0.00000000E+00
  9.60000000E+02  8.20000000E+01  0.00000000E+00
  9.60000000E+02  8.00000000E+01  0.00000000E+00
  9.60000000E+02  7.80000000E+01  0.00000000E+00
  9.60000000E+02  7.60000000E+01  0.00000000E+00
  9.60000000E+02  7.40000000E+01  0.00000000E+00
  9.60000000E+02  7.20000000E+01  0.00000000E+00
  9.60000000E+02  7.00000000E+01  0.00000000E+00
  9.60000000E+02  6.80000000E+01  0.00000000E+00
  9.60000000E+02  6.60000000E+01  0.00000000E+00
  9.60000000E+02  6.40000000E+01  0.00000000E+00
  9.60000000E+02  6.20000000E+01  0.00000000E+00
  9.60000000E+02  6.00000000E+01  0.00000000E+00
  9.60000000E+02  5.80000000E+01  0.00000000E+00
  9.60000000E+02  5.60000000E+01  0.00000000E+00
  9.60000000E+02  5.40000000E+01  0.00000000E+00
  9.60000000E+02  5.20000000E+01  0.00000000E+00
  9.60000000E+02  5.00000000E+01  0.00000000E+00
  9.60000000E+02  4.80000000E+01  0.00000000E+00
  9.60000000E+02  4.60000000E+01  0.00000000E+00
  9.60000000E+02  4.40000000E+01  0.00000000E+00
  9.60000000E+02  4.20000000E+01  0.00000000E+00
  9.60000000E+02  4.00000000E+01  0.00000000E+00
  9.60000000E+02  3.80000000E+01  0.00000000E+00
  9.60000000E+02  3.60000000E+01  0.00000000E+00
  9.60000000E+02  3.40000000E+01  0.00000000E+00
  9.60000000E+02  3.20000000E+01  0.00000000E+00
  9.60000000E+02  3.00000000E+01  0.00000000E+00
  9.60000000E+02  2.80000000E+01  0.00000000E+00
  9.60000000E+02  2.60000000E+01  0.00000000E+00
  9.60000000E+02  2.40000000E+01  0.00000000E+00
  9.60000000E+02  2.20000000E+01  0.00000000E+00
  9.60000000E+02  2.00000000E+01  0.00000000E+00
  9.60000000E+02  1.80000000E+01  0.00000000E+00
  9.60000000E+02  1.60000000E+01  0.00000000E+00
  9.60000000E+02  1.40000000E+01  0.00000000E+00
  9.60000000E+02  1.20000000E+01  0.00000000E+00
  9.60000000E+02  1.00000000E+01  0.00000000E+00
  9.60000000E+02  8.00000000E+00  0.00000000E+00
  9.60000000E+02  6.00000000E+00  0.00000000E+00
  9.60000000E+02  4.00000000E+00  0.00000000E+00
  9.60000000E+02  2.00000000E+00  0.00000000E+00
  9.60000000E+02 -3.33066907E-14  0.00000000E+00
  9.70000000E+02  1.00000000E+02  0.00000000E+00
  9.70000000E+02  9.80000000E+01  0.00000000E+00
  9.70000000E+02  9.60000000E+01  0.00000000E+00
  9.70000000E+02  9.40000000E+01  0.00000000E+00
  9.70000000E+02  9.20000000E+01  0.00000000E+00
  9.70000000E+02  9.00000000E+01  0.00000000E+00
  9.70000000E+02  8.80000000E+01  0.00000000E+00
  9.70000000E+02  8.60000000E+01  0.00000000E+00
  9.70000000E+02  8.40000000E+01  0.00000000E+00
  9.70000000E+02  8.20000000E+01  0.00000000E+00
  9.70000000E+02  8.00000000E+01  0.00000000E+00
  9.70000000E+02  7.80000000E+01  0.00000000E+00
  9.70000000E+02  7.60000000E+01  0.00000000E+00
  9.70000000E+02  7.40000000E+01  0.00000000E+00
  9.70000000E+02  7.20000000E+01  0.00000000E+00
  9.70000000E+02  7.00000000E+01  0.00000000E+00
  9.70000000E+02  6.80000000E+01  0.00000000E+00
  9.70000000E+02  6.60000000E+01  0.00000000E+00
  9.70000000E+02  6.40000000E+01  0.00000000E+00
  9.70000000E+02  6.20000000E+01  0.00000000E+00
  9.70000000E+02  6.00000000E+01  0.00000000E+00
  9.70000000E+02  5.80000000E+01  0.00000000E+00
  9.70000000E+02  5.60000000E+01  0.00000000E+00
  9.70000000E+02  5.40000000E+01  0.00000000E+00
  9.70000000E+02  5.20000000E+01  0.00000000E+00
  9.70000000E+02  5.00000000E+01  0.00000000E+00
  9.70000000E+02  4.80000000E+01  0.00000000E+00
  9.70000000E+02  4.60000000E+01  0.00000000E+00
  9.70000000E+02  4.40000000E+01  0.00000000E+00
  9.70000000E+02  4.20000000E+01  0.00000000E+00
  9.70000000E+02  4.00000000E+01  0.00000000E+00
  9.70000000E+02  3.80000000E+01  0.00000000E+00
  9.70000000E+02  3.60000000E+01  0.00000000E+00
  9.70000000E+02  3.40000000E+01  0.00000000E+00
  9.70000000E+02  3.20000000E+01  0.00000000E+00
  9.70000000E+02  3.00000000E+01  0.00000000E+00
  9.70000000E+02  2.80000000E+01  0.00000000E+00
  9.70000000E+02  2.60000000E+01  0.00000000E+00
  9.70000000E+02  2.40000000E+01  0.00000000E+00
  9.70000000E+02  2.20000000E+01  0.00000000E+00
  9.70000000E+02  2.00000000E+01  0.00000000E+00
  9.70000000E+02  1.80000000E+01  0.00000000E+00
  9.70000000E+02  1.60000000E+01  0.00000000E+00
  9.70000000E+02  1.40000000E+01  0.00000000E+00
  9.70000000E+02  1.20000000E+01  0.00000000E+00
  9.70000000E+02  1.00000000E+01  0.00000000E+00
  9.70000000E+02  8.00000000E+00  0.00000000E+00
  9.70000000E+02  6.00000000E+00  0.00000000E+00
  9.70000000E+02  4.00000000E+00  0.00000000E+00
  9.70000000E+02  2.00000000E+00  0.00000000E+00
  9.70000000E+02 -3.33066907E-14  0.00000000E+00
  9.80000000E+02  1.00000000E+02  0.00000000E+00
  9.80000000E+02  9.80000000E+01  0.00000000E+00
  9.80000000E+02  9.60000000E+01  0.00000000E+00
  9.80000000E+02  9.40000000E+01  0.00000000E+00
  9.80000000E+02  9.20000000E+01  0.00000000E+00
  9.80000000E+02  9.00000000E+01  0.00000000E+00
  9.80000000E+02  8.80000000E+01  0.00000000E+00
  9.80000000E+02  8.60000000E+01  0.00000000E+00
  9.80000000E+02  8.40000000E+01  0.00000000E+00
  9.80000000E+02  8.20000000E+01  0.00000000E+00
  9.80000000E+02  8.00000000E+01  0.00000000E+00
  9.80000000E+02  7.80000000E+01  0.00000000E+00
  9.80000000E+02  7.60000000E+01  0.00000000E+00
  9.80000000E+02  7.40000000E+01  0.00000000E+00
  9.80000000E+02  7.20000000E+01  0.00000000E+00
  9.80000000E+02  7.00000000E+01  0.00000000E+00
  9.80000000E+02  6.80000000E+01  0.00000000E+00
  9.80000000E+02  6.60000000E+01  0.00000000E+00
  9.80000000E+02  6.40000000E+01  0.00000000E+00
  9.80000000E+02  6.20000000E+01  0.00000000E+00
  9.80000000E+02  6.00000000E+01  0.00000000E+00
  9.80000000E+02  5.80000000E+01  0.00000000E+00
  9.80000000E+02  5.60000000E+01  0.00000000E+00
  9.80000000E+02  5.40000000E+01  0.00000000E+00
  9.80000000E+02  5.20000000E+01  0.00000000E+00
  9.80000000E+02  5.00000000E+01  0.00000000E+00
  9.80000000E+02  4.80000000E+01  0.00000000E+00
  9.80000000E+02  4.60000000E+01  0.00000000E+00
  9.80000000E+02  4.40000000E+01  0.00000000E+00
  9.80000000E+02  4.20000000E+01  0.00000000E+00
  9.80000000E+02  4.00000000E+01  0.00000000E+00
  9.80000000E+02  3.80000000E+01  0.00000000E+00
  9.80000000E+02  3.60000000E+01  0.00000000E+00
  9.80000000E+02  3.40000000E+01  0.00000000E+00
  9.80000000E+02  3.20000000E+01  0.00000000E+00
  9.80000000E+02  3.00000000E+01  0.00000000E+00
  9.80000000E+02  2.80000000E+01  0.00000000E+00
  9.80000000E+02  2.60000000E+01  0.00000000E+00
  9.80000000E+02  2.40000000E+01  0.00000000E+00
  9.80000000E+02  2.20000000E+01  0.00000000E+00
  9.80000000E+02  2.00000000E+01  0.00000000E+00
  9.80000000E+02  1.80000000E+01  0.00000000E+00
  9.80000000E+02  1.60000000E+01  0.00000000E+00
  9.80000000E+02  1.40000000E+01  0.00000000E+00
  9.80000000E+02  1.20000000E+01  0.00000000E+00
  9.80000000E+02  1.00000000E+01  0.00000000E+00
  9.80000000E+02  8.00000000E+00  0.00000000E+00
  9.80000000E+02  6.00000000E+00  0.00000000E+00
  9.80000000E+02  4.00000000E+00  0.00000000E+00
  9.80000000E+02  2.00000000E+00  0.00000000E+00
  9.80000000E+02 -3.33066907E-14  0.00000000E+00
  9.90000000E+02  1.00000000E+02  0.00000000E+00
  9.90000000E+02  9.80000000E+01  0.00000000E+00
  9.90000000E+02  9.60000000E+01  0.00000000E+00
  9.90000000E+02  9.40000000E+01  0.00000000E+00
  9.90000000E+02  9.20000000E+01  0.00000000E+00
  9.90000000E+02  9.00000000E+01  0.00000000E+00
  9.90000000E+02  8.80000000E+01  0.00000000E+00
  9.90000000E+02  8.60000000E+01  0.00000000E+00
  9.90000000E+02  8.40000000E+01  0.00000000E+00
  9.90000000E+02  8.20000000E+01  0.00000000E+00
  9.90000000E+02  8.00000000E+01  0.00000000E+00
  9.90000000E+02  7.80000000E+01  0.00000000E+00
  9.90000000E+02  7.60000000E+01  0.00000000E+00
  9.90000000E+02  7.40000000E+01  0.00000000E+00
  9.90000000E+02  7.20000000E+01  0.00000000E+00
  9.90000000E+02  7.00000000E+01  0.00000000E+00
  9.90000000E+02  6.80000000E+01  0.00000000E+00
  9.90000000E+02  6.60000000E+01  0.00000000E+00
  9.90000000E+02  6.40000000E+01  0.00000000E+00
  9.90000000E+02  6.20000000E+01  0.00000000E+00
  9.90000000E+02  6.00000000E+01  0.00000000E+00
  9.90000000E+02  5.80000000E+01  0.00000000E+00
  9.90000000E+02  5.60000000E+01  0.00000000E+00
  9.90000000E+02  5.40000000E+01  0.00000000E+00
  9.90000000E+02  5.20000000E+01  0.00000000E+00
  9.90000000E+02  5.00000000E+01  0.00000000E+00
  9.90000000E+02  4.80000000E+01  0.00000000E+00
  9.90000000E+02  4.60000000E+01  0.00000000E+00
  9.90000000E+02  4.40000000E+01  0.00000000E+00
  9.90000000E+02  4.20000000E+01  0.00000000E+00
  9.90000000E+02  4.00000000E+01  0.00000000E+00
  9.90000000E+02  3.80000000E+01  0.00000000E+00
  9.90000000E+02  3.60000000E+01  0.00000000E+00
  9.90000000E+02  3.40000000E+01  0.00000000E+00
  9.90000000E+02  3.20000000E+01  0.00000000E+00
  9.90000000E+02  3.00000000E+01  0.00000000E+00
  9.90000000E+02  2.80000000E+01  0.00000000E+00
  9.90000000E+02  2.60000000E+01  0.00000000E+00
  9.90000000E+02  2.40000000E+01  0.00000000E+00
  9.90000000E+02  2.20000000E+01  0.00000000E+00
  9.90000000E+02  2.00000000E+01  0.00000000E+00
  9.90000000E+02  1.80000000E+01  0.00000000E+00
  9.90000000E+02  1.60000000E+01  0.00000000E+00
  9.90000000E+02  1.40000000E+01  0.00000000E+00
  9.90000000E+02  1.20000000E+01  0.00000000E+00
  9.90000000E+02  1.00000000E+01  0.00000000E+00
  9.90000000E+02  8.00000000E+00  0.00000000E+00
  9.90000000E+02  6.00000000E+00  0.00000000E+00
  9.90000000E+02  4.00000000E+00  0.00000000E+00
  9.90000000E+02  2.00000000E+00  0.00000000E+00
  9.90000000E+02 -3.33066907E-14  0.00000000E+00
  1.00000000E+03  1.00000000E+02  0.00000000E+00
  1.00000000E+03  9.80000000E+01  0.00000000E+00
  1.00000000E+03  9.60000000E+01  0.00000000E+00
  1.00000000E+03  9.40000000E+01  0.00000000E+00
  1.00000000E+03  9.20000000E+01  0.00000000E+00
  1.00000000E+03  9.00000000E+01  0.00000000E+00
  1.00000000E+03  8.80000000E+01  0.00000000E+00
  1.00000000E+03  8.60000000E+01  0.00000000E+00
  1.00000000E+03  8.40000000E+01  0.00000000E+00
  1.00000000E+03  8.20000000E+01  0.00000000E+00
  1.00000000E+03  8.00000000E+01  0.00000000E+00
  1.00000000E+03  7.80000000E+01  0.00000000E+00
  1.00000000E+03  7.60000000E+01  0.00000000E+00
  1.00000000E+03  7.40000000E+01  0.00000000E+00
  1.00000000E+03  7.20000000E+01  0.00000000E+00
  1.00000000E+03  7.00000000E+01  0.00000000E+00
  1.00000000E+03  6.80000000E+01  0.00000000E+00
  1.00000000E+03  6.60000000E+01  0.00000000E+00
  1.00000000E+03  6.40000000E+01  0.00000000E+00
  1.00000000E+03  6.20000000E+01  0.00000000E+00
  1.00000000E+03  6.00000000E+01  0.00000000E+00
  1.00000000E+03  5.80000000E+01  0.00000000E+00
  1.00000000E+03  5.60000000E+01  0.00000000E+00
  1.00000000E+03  5.40000000E+01  0.00000000E+00
  1.00000000E+03  5.20000000E+01  0.00000000E+00
  1.00000000E+03  5.00000000E+01  0.00000000E+00
  1.00000000E+03  4.80000000E+01  0.00000000E+00
  1.00000000E+03  4.60000000E+01  0.00000000E+00
  1.00000000E+03  4.40000000E+01  0.00000000E+00
  1.00000000E+03  4.20000000E+01  0.00000000E+00
  1.00000000E+03  4.00000000E+01  0.00000000E+00
  1.00000000E+03  3.80000000E+01  0.00000000E+00
  1.00000000E+03  3.60000000E+01  0.00000000E+00
  1.00000000E+03  3.40000000E+01  0.00000000E+00
  1.00000000E+03  3.20000000E+01  0.00000000E+00
  1.00000000E+03  3.00000000E+01  0.00000000E+00
  1.00000000E+03  2.80000000E+01  0.00000000E+00
  1.00000000E+03  2.60000000E+01  0.00000000E+00
  1.00000000E+03  2.40000000E+01  0.00000000E+00
  1.00000000E+03  2.20000000E+01  0.00000000E+00
  1.00000000E+03  2.00000000E+01  0.00000000E+00
  1.00000000E+03  1.80000000E+01  0.00000000E+00
  1.00000000E+03  1.60000000E+01  0.00000000E+00
  1.00000000E+03  1.40000000E+01  0.00000000E+00
  1.00000000E+03  1.20000000E+01  0.00000000E+00
  1.00000000E+03  1.00000000E+01  0.00000000E+00
  1.00000000E+03  8.00000000E+00  0.00000000E+00
  1.00000000E+03  6.00000000E+00  0.00000000E+00
  1.00000000E+03  4.00000000E+00  0.00000000E+00
  1.00000000E+03  2.00000000E+00  0.00000000E+00
  1.00000000E+03 -3.33066907E-14  0.00000000E+00
CELLS      5000     25000
         4           0           1          52          51
         4           1           2          53          52
         4           2           3          54          53
         4           3           4          55          54
         4           4           5          56          55
         4           5           6          57          56
         4           6           7          58          57
         4           7           8          59          58
         4           8           9          60          59
         4           9          10          61          60
         4          10          11          62          61
         4          11          12          63          62
         4          12          13          64          63
         4          13          14          65          64
         4          14          15          66          65
         4          15          16          67          66
         4          16          17          68          67
         4          17          18          69          68
         4          18          19          70          69
         4          19          20          71          70
         4          20          21          72          71
         4          21          22          73          72
         4          22          23          74          73
         4          23          24          75          74
         4          24          25          76          75
         4          25          26          77          76
         4          26          27          78          77
         4          27          28          79          78
         4          28          29          80          79
         4          29          30          81          80
         4          30          31          82          81
         4          31          32          83          82
         4          32          33          84          83
         4          33          34          85          84
         4          34          35          86          85
         4          35          36          87          86
         4          36          37          88          87
         4          37          38          89          88
         4          38          39          90          89
         4          39          40          91          90
         4          40          41          92          91
         4          41          42          93          92
         4          42          43          94          93
         4          43          44          95          94
         4          44          45          96          95
         4          45          46          97          96
         4          46          47          98          97
         4          47          48          99          98
         4          48          49         100          99
         4          49          50         101         100
         4          51          52         103         102
         4          52          53         104         103
         4          53          54         105         104
         4          54          55         106         105
         4          55          56         107         106
         4          56          57         108         107
         4          57          58         109         108
         4          58          59         110         109
         4          59          60         111         110
         4          60          61         112         111
         4          61          62         113         112
         4          62          63         114         113
         4          63          64         115         114
         4          64          65         116         115
         4          65          66         117         116
         4          66          67         118         117
         4          67          68         119         118
         4          68          69         120         119
         4          69          70         121         120
         4          70          71         122         121
         4          71          72         123         122
         4          72          73         124         123
         4          73          74         125         124
         4          74          75         126         125
         4          75          76         127         126
         4          76          77         128         127
         4          77          78         129         128
         4          78          79         130         129
         4          79          80         131         130
         4          80          81         132         131
         4          81          82         133         132
         4          82          83         134         133
         4          83          84         135         134
         4          84          85         136         135
         4          85          86         137         136
         4          86          87         138         137
         4          87          88         139         138
         4          88          89         140         139
         4          89          90         141         140
         4          90          91         142         141
         4          91          92         143         142
         4          92          93         144         143
         4          93          94         145         144
         4          94          95         146         145
         4          95          96         147         146
         4          96          97         148         147
         4          97          98         149         148
         4          98          99         150         149
         4          99         100         151         150
         4         100         101         152         151
         4         102         103         154         153
         4         103         104         155         154
         4         104         105         156         155
         4         105         106         157         156
         4         106         107         158         157
         4         107         108         159         158
         4         108         109         160         159
         4         109         110         161         160
         4         110         111         162         161
         4         111         112         163         162
         4         112         113         164         163
         4         113         114         165         164
         4         114         115         166         165
         4         115         116         167         166
         4         116         117         168         167
         4         117         118         169         168
         4         118         119         170         169
         4         119         120         171         170
         4         120         121         172         171
         4         121         122         173         172
         4         122         123         174         173
         4         123         124         175         174
         4         124         125         176         175
         4         125         126         177         176
         4         126         127         178         177
         4         127         128         179         178
         4         128         129         180         179
         4         129         130         181         180
         4         130         131         182         181
         4         131         132         183         182
         4         132         133         184         183
         4         133         134         185         184
         4         134         135         186         185
         4         135         136         187         186
         4         136         137         188         187
         4         137         138         189         188
         4         138         139         190         189
         4         139         140         191         190
         4         140         141         192         191
         4         141         142         193         192
         4         142         143         194         193
         4         143         144         195         194
         4         144         145         196         195
         4         145         146         197         196
         4         146         147         198         197
         4         147         148         199         198
         4         148         149         200         199
         4         149         150         201         200
         4         150         151         202         201
         4         151         152         203         202
         4         153         154         205         204
         4         154         155         206         205
         4         155         156         207         206
         4         156         157         208         207
         4         157         158         209         208
         4         158         159         210         209
         4         159         160         211         210
         4         160         161         212         211
         4         161         162         213         212
         4         162         163         214         213
         4         163         164         215         214
         4         164         165         216         215
         4         165         166         217         216
         4         166         167         218         217
         4         167         168         219         218
         4         168         169         220         219
         4         169         170         221         220
         4         170         171         222         221
         4         171         172         223         222
         4         172         173         224         223
         4         173         174         225         224
         4         174         175         226         225
         4         175         176         227         226
         4         176         177         228         227
         4         177         178         229         228
         4         178         179         230         229
         4         179         180         231         230
         4         180         181         232         231
         4         181         182         233         232
         4         182         183         234         233
         4         183         184         235         234
         4         184         185         236         235
         4         185         186         237         236
         4         186         187         238         237
         4         187         188         239         238
         4         188         189         240         239
         4         189         190         241         240
         4         190         191         242         241
         4         191         192         243         242
         4         192         193         244         243
         4         193         194         245         244
         4         194         195         246         245
         4         195         196         247         246
         4         196         197         248         247
         4         197         198         249         248
         4         198         199         250         249
         4         199         200         251         250
         4         200         201         252         251
         4         201         202         253         252
         4         202         203         254         253
         4         204         205         256         255
         4         205         206         257         256
         4         206         207         258         257
         4         207         208         259         258
         4         208         209         260         259
         4         209         210         261         260
         4         210         211         262         261
         4         211         212         263         262
         4         212         213         264         263
         4         213         214         265         264
         4         214         215         266         265
         4         215         216         267         266
         4         216         217         268         267
         4         217         218         269         268
         4         218         219         270         269
         4         219         220         271         270
         4         220         221         272         271
         4         221         222         273         272
         4         222         223         274         273
         4         223         224         275         274
         4         224         225         276         275
         4         225         226         277         276
         4         226         227         278         277
         4         227         228         279         278
         4         228         229         280         279
         4         229         230         281         280
         4         230         231         282         281
         4         231         232         283         282
         4         232         233         284         283
         4         233         234         285         284
         4         234         235         286         285
         4         235         236         287         286
         4         236         237         288         287
         4         237         238         289         288
         4         238         239         290         289
         4         239         240         291         290
         4         240         241         292         291
         4         241         242         293         292
         4         242         243         294         293
         4         243         244         295         294
         4         244         245         296         295
         4         245         246         297         296
         4         246         247         298         297
         4         247         248         299         298
         4         248         249         300         299
         4         249         250         301         300
         4         250         251         302         301
         4         251         252         303         302
         4         252         253         304         303
         4         253         254         305         304
         4         255         256         307         306
         4         256         257         308         307
         4         257         258         309         308
         4         258         259         310         309
         4         259         260         311         310
         4         260         261         312         311
         4         261         262         313         312
         4         262         263         314         313
         4         263         264         315         314
         4         264         265         316         315
         4         265         266         317         316
         4         266         267         318         317
         4         267         268         319         318
         4         268         269         320         319
         4         269         270         321         320
         4         270         271         322         321
         4         271         272         323         322
         4         272         273         324         323
         4         273         274         325         324
         4         274         275         326         325
         4         275         276         327         326
         4         276         277         328         327
         4         277         278         329         328
         4         278         279         330         329
         4         279         280         331         330
         4         280         281         332         331
         4         281         282         333         332
         4         282         283         334         333
         4         283         284         335         334
         4         284         285         336         335
         4         285         286         337         336
         4         286         287         338         337
         4         287         288         339         338
         4         288         289         340         339
         4         289         290         341         340
         4         290         291         342         341
         4         291         292         343         342
         4         292         293         344         343
         4         293         294         345         344
         4         294         295         346         345
         4         295         296         347         346
         4         296         297         348         347
         4         297         298         349         348
         4         298         299         350         349
         4         299         300         351         350
         4         300         301         352         351
         4         301         302         353         352
         4         302         303         354         353
         4         303         304         355         354
         4         304         305         356         355
         4         306         307         358         357
         4         307         308         359         358
         4         308         309         360         359
         4         309         310         361         360
         4         310         311         362         361
         4         311         312         363         362
         4         312         313         364         363
         4         313         314         365         364
         4         314         315         366         365
         4         315         316         367         366
         4         316         317         368         367
         4         317         318         369         368
         4         318         319         370         369
         4         319         320         371         370
         4         320         321         372         371
         4         321         322         373         372
         4         322         323         374         373
         4         323         324         375         374
         4         324         325         376         375
         4         325         326         377         376
         4         326         327         378         377
         4         327         328         379         378
         4         328         329         380         379
         4         329         330         381         380
         4         330         331         382         381
         4         331         332         383         382
         4         332         333         384         383
         4         333         334         385         384
         4         334         335         386         385
         4         335         336         387         386
         4         336         337         388         387
         4         337         338         389         388
         4         338         339         390         389
         4         339         340         391         390
         4         340         341         392         391
         4         341         342         393         392
         4         342         343         394         393
         4         343         344         395         394
         4         344         345         396         395
         4         345         346         397         396
         4         346         347         398         397
         4         347         348         399         398
         4         348         349         400         399
         4         349         350         401         400
         4         350         351         402         401
         4         351         352         403         402
         4         352         353         404         403
         4         353         354         405         404
         4         354         355         406         405
         4         355         356         407         406
         4         357         358         409         408
         4         358         359         410         409
         4         359         360         411         410
         4         360         361         412         411
         4         361         362         413         412
         4         362         363         414         413
         4         363         364         415         414
         4         364         365         416         415
         4         365         366         417         416
         4         366         367         418         417
         4         367         368         419         418
         4         368         369         420         419
         4         369         370         421         420
         4         370         371         422         421
         4         371         372         423         422
         4         372         373         424         423
         4         373         374         425         424
         4         374         375         426         425
         4         375         376         427         426
         4         376         377         428         427
         4         377         378         429         428
         4         378         379         430         429
         4         379         380         431         430
         4         380         381         432         431
         4         381         382         433         432
         4         382         383         434         433
         4         383         384         435         434
         4         384         385         436         435
         4         385         386         437         436
         4         386         387         438         437
         4         387         388         439         438
         4         388         389         440         439
         4         389         390         441         440
         4         390         391         442         441
         4         391         392         443         442
         4         392         393         444         443
         4         393         394         445         444
         4         394         395         446         445
         4         395         396         447         446
         4         396         397         448         447
         4         397         398         449         448
         4         398         399         450         449
         4         399         400         451         450
         4         400         401         452         451
         4         401         402         453         452
         4         402         403         454         453
         4         403         404         455         454
         4         404         405         456         455
         4         405         406         457         456
         4         406         407         458         457
         4         408         409         460         459
         4         409         410         461         460
         4         410         411         462         461
         4         411         412         463         462
         4         412         413         464         463
         4         413         414         465         464
         4         414         415         466         465
         4         415         416         467         466
         4         416         417         468         467
         4         417         418         469         468
         4         418         419         470         469
         4         419         420         471         470
         4         420         421         472         471
         4         421         422         473         472
         4         422         423         474         473
         4         423         424         475         474
         4         424         425         476         475
         4         425         426         477         476
         4         426         427         478         477
         4         427         428         479         478
         4         428         429         480         479
         4         429         430         481         480
         4         430         431         482         481
         4         431         432         483         482
         4         432         433         484         483
         4         433         434         485         484
         4         434         435         486         485
         4         435         436         487         486
         4         436         437         488         487
         4         437         438         489         488
         4         438         439         490         489
         4         439         440         491         490
         4         440         441         492         491
         4         441         442         493         492
         4         442         443         494         493
         4         443         444         495         494
         4         444         445         496         495
         4         445         446         497         496
         4         446         447         498         497
         4         447         448         499         498
         4         448         449         500         499
         4         449         450         501         500
         4         450         451         502         501
         4         451         452         503         502
         4         452         453         504         503
         4         453         454         505         504
         4         454         455         506         505
         4         455         456         507         506
         4         456         457         508         507
         4         457         458         509         508
         4         459         460         511         510
         4         460         461         512         511
         4         461         462         513         512
         4         462         463         514         513
         4         463         464         515         514
         4         464         465         516         515
         4         465         466         517         516
         4         466         467         518         517
         4         467         468         519         518
         4         468         469         520         519
         4         469         470         521         520
         4         470         471         522         521
         4         471         472         523         522
         4         472         473         524         523
         4         473         474         525         524
         4         474         475         526         525
         4         475         476         527         526
         4         476         477         528         527
         4         477         478         529         528
         4         478         479         530         529
         4         479         480         531         530
         4         480         481         532         531
         4         481         482         533         532
         4         482         483         534         533
         4         483         484         535         534
         4         484         485         536         535
         4         485         486         537         536
         4         486         487         538         537
         4         487         488         539         538
         4         488         489         540         539
         4         489         490         541         540
         4         490         491         542         541
         4         491         492         543         542
         4         492         493         544         543
         4         493         494         545         544
         4         494         495         546         545
         4         495         496         547         546
         4         496         497         548         547
         4         497         498         549         548
         4         498         499         550         549
         4         499         500         551         550
         4         500         501         552         551
         4         501         502         553         552
         4         502         503         554         553
         4         503         504         555         554
         4         504         505         556         555
         4         505         506         557         556
         4         506         507         558         557
         4         507         508         559         558
         4         508         509         560         559
         4         510         511         562         561
         4         511         512         563         562
         4         512         513         564         563
         4         513         514         565         564
         4         514         515         566         565
         4         515         516         567         566
         4         516         517         568         567
         4         517         518         569         568
         4         518         519         570         569
         4         519         520         571         570
         4         520         521         572         571
         4         521         522         573         572
         4         522         523         574         573
         4         523         524         575         574
         4         524         525         576         575
         4         525         526         577         576
         4         526         527         578         577
         4         527         528         579         578
         4         528         529         580         579
         4         529         530         581         580
         4         530         531         582         581
         4         531         532         583         582
         4         532         533         584         583
         4         533         534         585         584
         4         534         535         586         585
         4         535         536         587         586
         4         536         537         588         587
         4         537         538         589         588
         4         538         539         590         589
         4         539         540         591         590
         4         540         541         592         591
         4         541         542         593         592
         4         542         543         594         593
         4         543         544         595         594
         4         544         545         596         595
         4         545         546         597         596
         4         546         547         598         597
         4         547         548         599         598
         4         548         549         600         599
         4         549         550         601         600
         4         550         551         602         601
         4         551         552         603         602
         4         552         553         604         603
         4         553         554         605         604
         4         554         555         606         605
         4         555         556         607         606
         4         556         557         608         607
         4         557         558         609         608
         4         558         559         610         609
         4         559         560         611         610
         4         561         562         613         612
         4         562         563         614         613
         4         563         564         615         614
         4         564         565         616         615
         4         565         566         617         616
         4         566         567         618         617
         4         567         568         619         618
         4         568         569         620         619
         4         569         570         621         620
         4         570         571         622         621
         4         571         572         623         622
         4         572         573         624         623
         4         573         574         625         624
         4         574         575         626         625
         4         575         576         627         626
         4         576         577         628         627
         4         577         578         629         628
         4         578         579         630         629
         4         579         580         631         630
         4         580         581         632         631
         4         581         582         633         632
         4         582         583         634         633
         4         583         584         635         634
         4         584         585         636         635
         4         585         586         637         636
         4         586         587         638         637
         4         587         588         639         638
         4         588         589         640         639
         4         589         590         641         640
         4         590         591         642         641
         4         591         592         643         642
         4         592         593         644         643
         4         593         594         645         644
         4         594         595         646         645
         4         595         596         647         646
         4         596         597         648         647
         4         597         598         649         648
         4         598         599         650         649
         4         599         600         651         650
         4         600         601         652         651
         4         601         602         653         652
         4         602         603         654         653
         4         603         604         655         654
         4         604         605         656         655
         4         605         606         657         656
         4         606         607         658         657
         4         607         608         659         658
         4         608         609         660         659
         4         609         610         661         660
         4         610         611         662         661
         4         612         613         664         663
         4         613         614         665         664
         4         614         615         666         665
         4         615         616         667         666
         4         616         617         668         667
         4         617         618         669         668
         4         618         619         670         669
         4         619         620         671         670
         4         620         621         672         671
         4         621         622         673         672
         4         622         623         674         673
         4         623         624         675         674
         4         624         625         676         675
         4         625         626         677         676
         4         626         627         678         677
         4         627         628         679         678
         4         628         629         680         679
         4         629         630         681         680
         4         630         631         682         681
         4         631         632         683         682
         4         632         633         684         683
         4         633         634         685         684
         4         634         635         686         685
         4         635         636         687         686
         4         636         637         688         687
         4         637         638         689         688
         4         638         639         690         689
         4         639         640         691         690
         4         640         641         692         691
         4         641         642         693         692
         4         642         643         694         693
         4         643         644         695         694
         4         644         645         696         695
         4         645         646         697         696
         4         646         647         698         697
         4         647         648         699         698
         4         648         649         700         699
         4         649         650         701         700
         4         650         651         702         701
         4         651         652         703         702
         4         652         653         704         703
         4         653         654         705         704
         4         654         655         706         705
         4         655         656         707         706
         4         656         657         708         707
         4         657         658         709         708
         4         658         659         710         709
         4         659         660         711         710
         4         660         661         712         711
         4         661         662         713         712
         4         663         664         715         714
         4         664         665         716         715
         4         665         666         717         716
         4         666         667         718         717
         4         667         668         719         718
         4         668         669         720         719
         4         669         670         721         720
         4         670         671         722         721
         4         671         672         723         722
         4         672         673         724         723
         4         673         674         725         724
         4         674         675         726         725
         4         675         676         727         726
         4         676         677         728         727
         4         677         678         729         728
         4         678         679         730         729
         4         679         680         731         730
         4         680         681         732         731
         4         681         682         733         732
         4         682         683         734         733
         4         683         684         735         734
         4         684         685         736         735
         4         685         686         737         736
         4         686         687         738         737
         4         687         688         739         738
         4         688         689         740         739
         4         689         690         741         740
         4         690         691         742         741
         4         691         692         743         742
         4         692         693         744         743
         4         693         694         745         744
         4         694         695         746         745
         4         695         696         747         746
         4         696         697         748         747
         4         697         698         749         748
         4         698         699         750         749
         4         699         700         751         750
         4         700         701         752         751
         4         701         702         753         752
         4         702         703         754         753
         4         703         704         755         754
         4         704         705         756         755
         4         705         706         757         756
         4         706         707         758         757
         4         707         708         759         758
         4         708         709         760         759
         4         709         710         761         760
         4         710         711         762         761
         4         711         712         763         762
         4         712         713         764         763
         4         714         715         766         765
         4         715         716         767         766
         4         716         717         768         767
         4         717         718         769         768
         4         718         719         770         769
         4         719         720         771         770
         4         720         721         772         771
         4         721         722         773         772
         4         722         723         774         773
         4         723         724         775         774
         4         724         725         776         775
         4         725         726         777         776
         4         726         727         778         777
         4         727         728         779         778
         4         728         729         780         779
         4         729         730         781         780
         4         730         731         782         781
         4         731         732         783         782
         4         732         733         784         783
         4         733         734         785         784
         4         734         735         786         785
         4         735         736         787         786
         4         736         737         788         787
         4         737         738         789         788
         4         738         739         790         789
         4         739         740         791         790
         4         740         741         792         791
         4         741         742         793         792
         4         742         743         794         793
         4         743         744         795         794
         4         744         745         796         795
         4         745         746         797         796
         4         746         747         798         797
         4         747         748         799         798
         4         748         749         800         799
         4         749         750         801         800
         4         750         751         802         801
         4         751         752         803         802
         4         752         753         804         803
         4         753         754         805         804
         4         754         755         806         805
         4         755         756         807         806
         4         756         757         808         807
         4         757         758         809         808
         4         758         759         810         809
         4         759         760         811         810
         4         760         761         812         811
         4         761         762         813         812
         4         762         763         814         813
         4         763         764         815         814
         4         765         766         817         816
         4         766         767         818         817
         4         767         768         819         818
         4         768         769         820         819
         4         769         770         821         820
         4         770         771         822         821
         4         771         772         823         822
         4         772         773         824         823
         4         773         774         825         824
         4         774         775         826         825
         4         775         776         827         826
         4         776         777         828         827
         4         777         778         829         828
         4         778         779         830         829
         4         779         780         831         830
         4         780         781         832         831
         4         781         782         833         832
         4         782         783         834         833
         4         783         784         835         834
         4         784         785         836         835
         4         785         786         837         836
         4         786         787         838         837
         4         787         788         839         838
         4         788         789         840         839
         4         789         790         841         840
         4         790         791         842         841
         4         791         792         843         842
         4         792         793         844         843
         4         793         794         845         844
         4         794         795         846         845
         4         795         796         847         846
         4         796         797         848         847
         4         797         798         849         848
         4         798         799         850         849
         4         799         800         851         850
         4         800         801         852         851
         4         801         802         853         852
         4         802         803         854         853
         4         803         804         855         854
         4         804         805         856         855
         4         805         806         857         856
         4         806         807         858         857
         4         807         808         859         858
         4         808         809         860         859
         4         809         810         861         860
         4         810         811         862         861
         4         811         812         863         862
         4         812         813         864         863
         4         813         814         865         864
         4         814         815         866         865
         4         816         817         868         867
         4         817         818         869         868
         4         818         819         870         869
         4         819         820         871         870
         4         820         821         872         871
         4         821         822         873         872
         4         822         823         874         873
         4         823         824         875         874
         4         824         825         876         875
         4         825         826         877         876
         4         826         827         878         877
         4         827         828         879         878
         4         828         829         880         879
         4         829         830         881         880
         4         830         831         882         881
         4         831         832         883         882
         4         832         833         884         883
         4         833         834         885         884
         4         834         835         886         885
         4         835         836         887         886
         4         836         837         888         887
         4         837         838         889         888
         4         838         839         890         889
         4         839         840         891         890
         4         840         841         892         891
         4         841         842         893         892
         4         842         843         894         893
         4         843         844         895         894
         4         844         845         896         895
         4         845         846         897         896
         4         846         847         898         897
         4         847         848         899         898
         4         848         849         900         899
         4         849         850         901         900
         4         850         851         902         901
         4         851         852         903         902
         4         852         853         904         903
         4         853         854         905         904
         4         854         855         906         905
         4         855         856         907         906
         4         856         857         908         907
         4         857         858         909         908
         4         858         859         910         909
         4         859         860         911         910
         4         860         861         912         911
         4         861         862         913         912
         4         862         863         914         913
         4         863         864         915         914
         4         864         865         916         915
         4         865         866         917         916
         4         867         868         919         918
         4         868         869         920         919
         4         869         870         921         920
         4         870         871         922         921
         4         871         872         923         922
         4         872         873         924         923
         4         873         874         925         924
         4         874         875         926         925
         4         875         876         927         926
         4         876         877         928         927
         4         877         878         929         928
         4         878         879         930         929
         4         879         880         931         930
         4         880         881         932         931
         4         881         882         933         932
         4         882         883         934         933
         4         883         884         935         934
         4         884         885         936         935
         4         885         886         937         936
         4         886         887         938         937
         4         887         888         939         938
         4         888         889         940         939
         4         889         890         941         940
         4         890         891         942         941
         4         891         892         943         942
         4         892         893         944         943
         4         893         894         945         944
         4         894         895         946         945
         4         895         896         947         946
         4         896         897         948         947
         4         897         898         949         948
         4         898         899         950         949
         4         899         900         951         950
         4         900         901         952         951
         4         901         902         953         952
         4         902         903         954         953
         4         903         904         955         954
         4         904         905         956         955
         4         905         906         957         956
         4         906         907         958         957
         4         907         908         959         958
         4         908         909         960         959
         4         909         910         961         960
         4         910         911         962         961
         4         911         912         963         962
         4         912         913         964         963
         4         913         914         965         964
         4         914         915         966         965
         4         915         916         967         966
         4         916         917         968         967
         4         918         919         970         969
         4         919         920         971         970
         4         920         921         972         971
         4         921         922         973         972
         4         922         923         974         973
         4         923         924         975         974
         4         924         925         976         975
         4         925         926         977         976
         4         926         927         978         977
         4         927         928         979         978
         4         928         929         980         979
         4         929         930         981         980
         4         930         931         982         981
         4         931         932         983         982
         4         932         933         984         983
         4         933         934         985         984
         4         934         935         986         985
         4         935         936         987         986
         4         936         937         988         987
         4         937         938         989         988
         4         938         939         990         989
         4         939         940         991         990
         4         940         941         992         991
         4         941         942         993         992
         4         942         943         994         993
         4         943         944         995         994
         4         944         945         996         995
         4         945         946         997         996
         4         946         947         998         997
         4         947         948         999         998
         4         948         949        1000         999
         4         949         950        1001        1000
         4         950         951        1002        1001
         4         951         952        1003        1002
         4         952         953        1004        1003
         4         953         954        1005        1004
         4         954         955        1006        1005
         4         955         956        1007        1006
         4         956         957        1008        1007
         4         957         958        1009        1008
         4         958         959        1010        1009
         4         959         960        1011        1010
         4         960         961        1012        1011
         4         961         962        1013        1012
         4         962         963        1014        1013
         4         963         964        1015        1014
         4         964         965        1016        1015
         4         965         966        1017        1016
         4         966         967        1018        1017
         4         967         968        1019        1018
         4         969         970        1021        1020
         4         970         971        1022        1021
         4         971         972        1023        1022
         4         972         973        1024        1023
         4         973         974        1025        1024
         4         974         975        1026        1025
         4         975         976        1027        1026
         4         976         977        1028        1027
         4         977         978        1029        1028
         4         978         979        1030        1029
         4         979         980        1031        1030
         4         980         981        1032        1031
         4         981         982        1033        1032
         4         982         983        1034        1033
         4         983         984        1035        1034
         4         984         985        1036        1035
         4         985         986        1037        1036
         4         986         987        1038        1037
         4         987         988        1039        1038
         4         988         989        1040        1039
         4         989         990        1041        1040
         4         990         991        1042        1041
         4         991         992        1043        1042
         4         992         993        1044        1043
         4         993         994        1045        1044
         4         994         995        1046        1045
         4         995         996        1047        1046
         4         996         997        1048        1047
         4         997         998        1049        1048
         4         998         999        1050        1049
         4         999        1000        1051        1050
         4        1000        1001        1052        1051
         4        1001        1002        1053        1052
         4        1002        1003        1054        1053
         4        1003        1004        1055        1054
         4        1004        1005        1056        1055
         4        1005        1006        1057        1056
         4        1006        1007        1058        1057
         4        1007        1008        1059        1058
         4        1008        1009        1060        1059
         4        1009        1010        1061        1060
         4        1010        1011        1062        1061
         4        1011        1012        1063        1062
         4        1012        1013        1064        1063
         4        1013        1014        1065        1064
         4        1014        1015        1066        1065
         4        1015        1016        1067        1066
         4        1016        1017        1068        1067
         4        1017        1018        1069        1068
         4        1018        1019        1070        1069
         4        1020        1021        1072        1071
         4        1021        1022        1073        1072
         4        1022        1023        1074        1073
         4        1023        1024        1075        1074
         4        1024        1025        1076        1075
         4        1025        1026        1077        1076
         4        1026        1027        1078        1077
         4        1027        1028        1079        1078
         4        1028        1029        1080        1079
         4        1029        1030        1081        1080
         4        1030        1031        1082        1081
         4        1031        1032        1083        1082
         4        1032        1033        1084        1083
         4        1033        1034        1085        1084
         4        1034        1035        1086        1085
         4        1035        1036        1087        1086
         4        1036        1037        1088        1087
         4        1037        1038        1089        1088
         4        1038        1039        1090        1089
         4        1039        1040        1091        1090
         4        1040        1041        1092        1091
         4        1041        1042        1093        1092
         4        1042        1043        1094        1093
         4        1043        1044        1095        1094
         4        1044        1045        1096        1095
         4        1045        1046        1097        1096
         4        1046        1047        1098        1097
         4        1047        1048        1099        1098
         4        1048        1049        1100        1099
         4        1049        1050        1101        1100
         4        1050        1051        1102        1101
         4        1051        1052        1103        1102
         4        1052        1053        1104        1103
         4        1053        1054        1105        1104
         4        1054        1055        1106        1105
         4        1055        1056        1107        1106
         4        1056        1057        1108        1107
         4        1057        1058        1109        1108
         4        1058        1059        1110        1109
         4        1059        1060        1111        1110
         4        1060        1061        1112        1111
         4        1061        1062        1113        1112
         4        1062        1063        1114        1113
         4        1063        1064        1115        1114
         4        1064        1065        1116        1115
         4        1065        1066        1117        1116
         4        1066        1067        1118        1117
         4        1067        1068        1119        1118
         4        1068        1069        1120        1119
         4        1069        1070        1121        1120
         4        1071        1072        1123        1122
         4        1072        1073        1124        1123
         4        1073        1074        1125        1124
         4        1074        1075        1126        1125
         4        1075        1076        1127        1126
         4        1076        1077        1128        1127
         4        1077        1078        1129        1128
         4        1078        1079        1130        1129
         4        1079        1080        1131        1130
         4        1080        1081        1132        1131
         4        1081        1082        1133        1132
         4        1082        1083        1134        1133
         4        1083        1084        1135        1134
         4        1084        1085        1136        1135
         4        1085        1086        1137        1136
         4        1086        1087        1138        1137
         4        1087        1088        1139        1138
         4        1088        1089        1140        1139
         4        1089        1090        1141        1140
         4        1090        1091        1142        1141
         4        1091        1092        1143        1142
         4        1092        1093        1144        1143
         4        1093        1094        1145        1144
         4        1094        1095        1146        1145
         4        1095        1096        1147        1146
         4        1096        1097        1148        1147
         4        1097        1098        1149        1148
         4        1098        1099        1150        1149
         4        1099        1100        1151        1150
         4        1100        1101        1152        1151
         4        1101        1102        1153        1152
         4        1102        1103        1154        1153
         4        1103        1104        1155        1154
         4        1104        1105        1156        1155
         4        1105        1106        1157        1156
         4        1106        1107        1158        1157
         4        1107        1108        1159        1158
         4        1108        1109        1160        1159
         4        1109        1110        1161        1160
         4        1110        1111        1162        1161
         4        1111        1112        1163        1162
         4        1112        1113        1164        1163
         4        1113        1114        1165        1164
         4        1114        1115        1166        1165
         4        1115        1116        1167        1166
         4        1116        1117        1168        1167
         4        1117        1118        1169        1168
         4        1118        1119        1170        1169
         4        1119        1120        1171        1170
         4        1120        1121        1172        1171
         4        1122        1123        1174        1173
         4        1123        1124        1175        1174
         4        1124        1125        1176        1175
         4        1125        1126        1177        1176
         4        1126        1127        1178        1177
         4        1127        1128        1179        1178
         4        1128        1129        1180        1179
         4        1129        1130        1181        1180
         4        1130        1131        1182        1181
         4        1131        1132        1183        1182
         4        1132        1133        1184        1183
         4        1133        1134        1185        1184
         4        1134        1135        1186        1185
         4        1135        1136        1187        1186
         4        1136        1137        1188        1187
         4        1137        1138        1189        1188
         4        1138        1139        1190        1189
         4        1139        1140        1191        1190
         4        1140        1141        1192        1191
         4        1141        1142        1193        1192
         4        1142        1143        1194        1193
         4        1143        1144        1195        1194
         4        1144        1145        1196        1195
         4        1145        1146        1197        1196
         4        1146        1147        1198        1197
         4        1147        1148        1199        1198
         4        1148        1149        1200        1199
         4        1149        1150        1201        1200
         4        1150        1151        1202        1201
         4        1151        1152        1203        1202
         4        1152        1153        1204        1203
         4        1153        1154        1205        1204
         4        1154        1155        1206        1205
         4        1155        1156        1207        1206
         4        1156        1157        1208        1207
         4        1157        1158        1209        1208
         4        1158        1159        1210        1209
         4        1159        1160        1211        1210
         4        1160        1161        1212        1211
         4        1161        1162        1213        1212
         4        1162        1163        1214        1213
         4        1163        1164        1215        1214
         4        1164        1165        1216        1215
         4        1165        1166        1217        1216
         4        1166        1167        1218        1217
         4        1167        1168        1219        1218
         4        1168        1169        1220        1219
         4        1169        1170        1221        1220
         4        1170        1171        1222        1221
         4        1171        1172        1223        1222
         4        1173        1174        1225        1224
         4        1174        1175        1226        1225
         4        1175        1176        1227        1226
         4        1176        1177        1228        1227
         4        1177        1178        1229        1228
         4        1178        1179        1230        1229
         4        1179        1180        1231        1230
         4        1180        1181        1232        1231
         4        1181        1182        1233        1232
         4        1182        1183        1234        1233
         4        1183        1184        1235        1234
         4        1184        1185        1236        1235
         4        1185        1186        1237        1236
         4        1186        1187        1238        1237
         4        1187        1188        1239        1238
         4        1188        1189        1240        1239
         4        1189        1190        1241        1240
         4        1190        1191        1242        1241
         4        1191        1192        1243        1242
         4        1192        1193        1244        1243
         4        1193        1194        1245        1244
         4        1194        1195        1246        1245
         4        1195        1196        1247        1246
         4        1196        1197        1248        1247
         4        1197        1198        1249        1248
         4        1198        1199        1250        1249
         4        1199        1200        1251        1250
         4        1200        1201        1252        1251
         4        1201        1202        1253        1252
         4        1202        1203        1254        1253
         4        1203        1204        1255        1254
         4        1204        1205        1256        1255
         4        1205        1206        1257        1256
         4        1206        1207        1258        1257
         4        1207        1208        1259        1258
         4        1208        1209        1260        1259
         4        1209        1210        1261        1260
         4        1210        1211        1262        1261
         4        1211        1212        1263        1262
         4        1212        1213        1264        1263
         4        1213        1214        1265        1264
         4        1214        1215        1266        1265
         4        1215        1216        1267        1266
         4        1216        1217        1268        1267
         4        1217        1218        1269        1268
         4        1218        1219        1270        1269
         4        1219        1220        1271        1270
         4        1220        1221        1272        1271
         4        1221        1222        1273        1272
         4        1222        1223        1274        1273
         4        1224        1225        1276        1275
         4        1225        1226        1277        1276
         4        1226        1227        1278        1277
         4        1227        1228        1279        1278
         4        1228        1229        1280        1279
         4        1229        1230        1281        1280
         4        1230        1231        1282        1281
         4        1231        1232        1283        1282
         4        1232        1233        1284        1283
         4        1233        1234        1285        1284
         4        1234        1235        1286        1285
         4        1235        1236        1287        1286
         4        1236        1237        1288        1287
         4        1237        1238        1289        1288
         4        1238        1239        1290        1289
         4        1239        1240        1291        1290
         4        1240        1241        1292        1291
         4        1241        1242        1293        1292
         4        1242        1243        1294        1293
         4        1243        1244        1295        1294
         4        1244        1245        1296        1295
         4        1245        1246        1297        1296
         4        1246        1247        1298        1297
         4        1247        1248        1299        1298
         4        1248        1249        1300        1299
         4        1249        1250        1301        1300
         4        1250        1251        1302        1301
         4        1251        1252        1303        1302
         4        1252        1253        1304        1303
         4        1253        1254        1305        1304
         4        1254        1255        1306        1305
         4        1255        1256        1307        1306
         4        1256        1257        1308        1307
         4        1257        1258        1309        1308
         4        1258        1259        1310        1309
         4        1259        1260        1311        1310
         4        1260        1261        1312        1311
         4        1261        1262        1313        1312
         4        1262        1263        1314        1313
         4        1263        1264        1315        1314
         4        1264        1265        1316        1315
         4        1265        1266        1317        1316
         4        1266        1267        1318        1317
         4        1267        1268        1319        1318
         4        1268        1269        1320        1319
         4        1269        1270        1321        1320
         4        1270        1271        1322        1321
         4        1271        1272        1323        1322
         4        1272        1273        1324        1323
         4        1273        1274        1325        1324
         4        1275        1276        1327        1326
         4        1276        1277        1328        1327
         4        1277        1278        1329        1328
         4        1278        1279        1330        1329
         4        1279        1280        1331        1330
         4        1280        1281        1332        1331
         4        1281        1282        1333        1332
         4        1282        1283        1334        1333
         4        1283        1284        1335        1334
         4        1284        1285        1336        1335
         4        1285        1286        1337        1336
         4        1286        1287        1338        1337
         4        1287        1288        1339        1338
         4        1288        1289        1340        1339
         4        1289        1290        1341        1340
         4        1290        1291        1342        1341
         4        1291        1292        1343        1342
         4        1292        1293        1344        1343
         4        1293        1294        1345        1344
         4        1294        1295        1346        1345
         4        1295        1296        1347        1346
         4        1296        1297        1348        1347
         4        1297        1298        1349        1348
         4        1298        1299        1350        1349
         4        1299        1300        1351        1350
         4        1300        1301        1352        1351
         4        1301        1302        1353        1352
         4        1302        1303        1354        1353
         4        1303        1304        1355        1354
         4        1304        1305        1356        1355
         4        1305        1306        1357        1356
         4        1306        1307        1358        1357
         4        1307        1308        1359        1358
         4        1308        1309        1360        1359
         4        1309        1310        1361        1360
         4        1310        1311        1362        1361
         4        1311        1312        1363        1362
         4        1312        1313        1364        1363
         4        1313        1314        1365        1364
         4        1314        1315        1366        1365
         4        1315        1316        1367        1366
         4        1316        1317        1368        1367
         4        1317        1318        1369        1368
         4        1318        1319        1370        1369
         4        1319        1320        1371        1370
         4        1320        1321        1372        1371
         4        1321        1322        1373        1372
         4        1322        1323        1374        1373
         4        1323        1324        1375        1374
         4        1324        1325        1376        1375
         4        1326        1327        1378        1377
         4        1327        1328        1379        1378
         4        1328        1329        1380        1379
         4        1329        1330        1381        1380
         4        1330        1331        1382        1381
         4        1331        1332        1383        1382
         4        1332        1333        1384        1383
         4        1333        1334        1385        1384
         4        1334        1335        1386        1385
         4        1335        1336        1387        1386
         4        1336        1337        1388        1387
         4        1337        1338        1389        1388
         4        1338        1339        1390        1389
         4        1339        1340        1391        1390
         4        1340        1341        1392        1391
         4        1341        1342        1393        1392
         4        1342        1343        1394        1393
         4        1343        1344        1395        1394
         4        1344        1345        1396        1395
         4        1345        1346        1397        1396
         4        1346        1347        1398        1397
         4        1347        1348        1399        1398
         4        1348        1349        1400        1399
         4        1349        1350        1401        1400
         4        1350        1351        1402        1401
         4        1351        1352        1403        1402
         4        1352        1353        1404        1403
         4        1353        1354        1405        1404
         4        1354        1355        1406        1405
         4        1355        1356        1407        1406
         4        1356        1357        1408        1407
         4        1357        1358        1409        1408
         4        1358        1359        1410        1409
         4        1359        1360        1411        1410
         4        1360        1361        1412        1411
         4        1361        1362        1413        1412
         4        1362        1363        1414        1413
         4        1363        1364        1415        1414
         4        1364        1365        1416        1415
         4        1365        1366        1417        1416
         4        1366        1367        1418        1417
         4        1367        1368        1419        1418
         4        1368        1369        1420        1419
         4        1369        1370        1421        1420
         4        1370        1371        1422        1421
         4        1371        1372        1423        1422
         4        1372        1373        1424        1423
         4        1373        1374        1425        1424
         4        1374        1375        1426        1425
         4        1375        1376        1427        1426
         4        1377        1378        1429        1428
         4        1378        1379        1430        1429
         4        1379        1380        1431        1430
         4        1380        1381        1432        1431
         4        1381        1382        1433        1432
         4        1382        1383        1434        1433
         4        1383        1384        1435        1434
         4        1384        1385        1436        1435
         4        1385        1386        1437        1436
         4        1386        1387        1438        1437
         4        1387        1388        1439        1438
         4        1388        1389        1440        1439
         4        1389        1390        1441        1440
         4        1390        1391        1442        1441
         4        1391        1392        1443        1442
         4        1392        1393        1444        1443
         4        1393        1394        1445        1444
         4        1394        1395        1446        1445
         4        1395        1396        1447        1446
         4        1396        1397        1448        1447
         4        1397        1398        1449        1448
         4        1398        1399        1450        1449
         4        1399        1400        1451        1450
         4        1400        1401        1452        1451
         4        1401        1402        1453        1452
         4        1402        1403        1454        1453
         4        1403        1404        1455        1454
         4        1404        1405        1456        1455
         4        1405        1406        1457        1456
         4        1406        1407        1458        1457
         4        1407        1408        1459        1458
         4        1408        1409        1460        1459
         4        1409        1410        1461        1460
         4        1410        1411        1462        1461
         4        1411        1412        1463        1462
         4        1412        1413        1464        1463
         4        1413        1414        1465        1464
         4        1414        1415        1466        1465
         4        1415        1416        1467        1466
         4        1416        1417        1468        1467
         4        1417        1418        1469        1468
         4        1418        1419        1470        1469
         4        1419        1420        1471        1470
         4        1420        1421        1472        1471
         4        1421        1422        1473        1472
         4        1422        1423        1474        1473
         4        1423        1424        1475        1474
         4        1424        1425        1476        1475
         4        1425        1426        1477        1476
         4        1426        1427        1478        1477
         4        1428        1429        1480        1479
         4        1429        1430        1481        1480
         4        1430        1431        1482        1481
         4        1431        1432        1483        1482
         4        1432        1433        1484        1483
         4        1433        1434        1485        1484
         4        1434        1435        1486        1485
         4        1435        1436        1487        1486
         4        1436        1437        1488        1487
         4        1437        1438        1489        1488
         4        1438        1439        1490        1489
         4        1439        1440        1491        1490
         4        1440        1441        1492        1491
         4        1441        1442        1493        1492
         4        1442        1443        1494        1493
         4        1443        1444        1495        1494
         4        1444        1445        1496        1495
         4        1445        1446        1497        1496
         4        1446        1447        1498        1497
         4        1447        1448        1499        1498
         4        1448        1449        1500        1499
         4        1449        1450        1501        1500
         4        1450        1451        1502        1501
         4        1451        1452        1503        1502
         4        1452        1453        1504        1503
         4        1453        1454        1505        1504
         4        1454        1455        1506        1505
         4        1455        1456        1507        1506
         4        1456        1457        1508        1507
         4        1457        1458        1509        1508
         4        1458        1459        1510        1509
         4        1459        1460        1511        1510
         4        1460        1461        1512        1511
         4        1461        1462        1513        1512
         4        1462        1463        1514        1513
         4        1463        1464        1515        1514
         4        1464        1465        1516        1515
         4        1465        1466        1517        1516
         4        1466        1467        1518        1517
         4        1467        1468        1519        1518
         4        1468        1469        1520        1519
         4        1469        1470        1521        1520
         4        1470        1471        1522        1521
         4        1471        1472        1523        1522
         4        1472        1473        1524        1523
         4        1473        1474        1525        1524
         4        1474        1475        1526        1525
         4        1475        1476        1527        1526
         4        1476        1477        1528        1527
         4        1477        1478        1529        1528
         4        1479        1480        1531        1530
         4        1480        1481        1532        1531
         4        1481        1482        1533        1532
         4        1482        1483        1534        1533
         4        1483        1484        1535        1534
         4        1484        1485        1536        1535
         4        1485        1486        1537        1536
         4        1486        1487        1538        1537
         4        1487        1488        1539        1538
         4        1488        1489        1540        1539
         4        1489        1490        1541        1540
         4        1490        1491        1542        1541
         4        1491        1492        1543        1542
         4        1492        1493        1544        1543
         4        1493        1494        1545        1544
         4        1494        1495        1546        1545
         4        1495        1496        1547        1546
         4        1496        1497        1548        1547
         4        1497        1498        1549        1548
         4        1498        1499        1550        1549
         4        1499        1500        1551        1550
         4        1500        1501        1552        1551
         4        1501        1502        1553        1552
         4        1502        1503        1554        1553
         4        1503        1504        1555        1554
         4        1504        1505        1556        1555
         4        1505        1506        1557        1556
         4        1506        1507        1558        1557
         4        1507        1508        1559        1558
         4        1508        1509        1560        1559
         4        1509        1510        1561        1560
         4        1510        1511        1562        1561
         4        1511        1512        1563        1562
         4        1512        1513        1564        1563
         4        1513        1514        1565        1564
         4        1514        1515        1566        1565
         4        1515        1516        1567        1566
         4        1516        1517        1568        1567
         4        1517        1518        1569        1568
         4        1518        1519        1570        1569
         4        1519        1520        1571        1570
         4        1520        1521        1572        1571
         4        1521        1522        1573        1572
         4        1522        1523        1574        1573
         4        1523        1524        1575        1574
         4        1524        1525        1576        1575
         4        1525        1526        1577        1576
         4        1526        1527        1578        1577
         4        1527        1528        1579        1578
         4        1528        1529        1580        1579
         4        1530        1531        1582        1581
         4        1531        1532        1583        1582
         4        1532        1533        1584        1583
         4        1533        1534        1585        1584
         4        1534        1535        1586        1585
         4        1535        1536        1587        1586
         4        1536        1537        1588        1587
         4        1537        1538        1589        1588
         4        1538        1539        1590        1589
         4        1539        1540        1591        1590
         4        1540        1541        1592        1591
         4        1541        1542        1593        1592
         4        1542        1543        1594        1593
         4        1543        1544        1595        1594
         4        1544        1545        1596        1595
         4        1545        1546        1597        1596
         4        1546        1547        1598        1597
         4        1547        1548        1599        1598
         4        1548        1549        1600        1599
         4        1549        1550        1601        1600
         4        1550        1551        1602        1601
         4        1551        1552        1603        1602
         4        1552        1553        1604        1603
         4        1553        1554        1605        1604
         4        1554        1555        1606        1605
         4        1555        1556        1607        1606
         4        1556        1557        1608        1607
         4        1557        1558        1609        1608
         4        1558        1559        1610        1609
         4        1559        1560        1611        1610
         4        1560        1561        1612        1611
         4        1561        1562        1613        1612
         4        1562        1563        1614        1613
         4        1563        1564        1615        1614
         4        1564        1565        1616        1615
         4        1565        1566        1617        1616
         4        1566        1567        1618        1617
         4        1567        1568        1619        1618
         4        1568        1569        1620        1619
         4        1569        1570        1621        1620
         4        1570        1571        1622        1621
         4        1571        1572        1623        1622
         4        1572        1573        1624        1623
         4        1573        1574        1625        1624
         4        1574        1575        1626        1625
         4        1575        1576        1627        1626
         4        1576        1577        1628        1627
         4        1577        1578        1629        1628
         4        1578        1579        1630        1629
         4        1579        1580        1631        1630
         4        1581        1582        1633        1632
         4        1582        1583        1634        1633
         4        1583        1584        1635        1634
         4        1584        1585        1636        1635
         4        1585        1586        1637        1636
         4        1586        1587        1638        1637
         4        1587        1588        1639        1638
         4        1588        1589        1640        1639
         4        1589        1590        1641        1640
         4        1590        1591        1642        1641
         4        1591        1592        1643        1642
         4        1592        1593        1644        1643
         4        1593        1594        1645        1644
         4        1594        1595        1646        1645
         4        1595        1596        1647        1646
         4        1596        1597        1648        1647
         4        1597        1598        1649        1648
         4        1598        1599        1650        1649
         4        1599        1600        1651        1650
         4        1600        1601        1652        1651
         4        1601        1602        1653        1652
         4        1602        1603        1654        1653
         4        1603        1604        1655        1654
         4        1604        1605        1656        1655
         4        1605        1606        1657        1656
         4        1606        1607        1658        1657
         4        1607        1608        1659        1658
         4        1608        1609        1660        1659
         4        1609        1610        1661        1660
         4        1610        1611        1662        1661
         4        1611        1612        1663        1662
         4        1612        1613        1664        1663
         4        1613        1614        1665        1664
         4        1614        1615        1666        1665
         4        1615        1616        1667        1666
         4        1616        1617        1668        1667
         4        1617        1618        1669        1668
         4        1618        1619        1670        1669
         4        1619        1620        1671        1670
         4        1620        1621        1672        1671
         4        1621        1622        1673        1672
         4        1622        1623        1674        1673
         4        1623        1624        1675        1674
         4        1624        1625        1676        1675
         4        1625        1626        1677        1676
         4        1626        1627        1678        1677
         4        1627        1628        1679        1678
         4        1628        1629        1680        1679
         4        1629        1630        1681        1680
         4        1630        1631        1682        1681
         4        1632        1633        1684        1683
         4        1633        1634        1685        1684
         4        1634        1635        1686        1685
         4        1635        1636        1687        1686
         4        1636        1637        1688        1687
         4        1637        1638        1689        1688
         4        1638        1639        1690        1689
         4        1639        1640        1691        1690
         4        1640        1641        1692        1691
         4        1641        1642        1693        1692
         4        1642        1643        1694        1693
         4        1643        1644        1695        1694
         4        1644        1645        1696        1695
         4        1645        1646        1697        1696
         4        1646        1647        1698        1697
         4        1647        1648        1699        1698
         4        1648        1649        1700        1699
         4        1649        1650        1701        1700
         4        1650        1651        1702        1701
         4        1651        1652        1703        1702
         4        1652        1653        1704        1703
         4        1653        1654        1705        1704
         4        1654        1655        1706        1705
         4        1655        1656        1707        1706
         4        1656        1657        1708        1707
         4        1657        1658        1709        1708
         4        1658        1659        1710        1709
         4        1659        1660        1711        1710
         4        1660        1661        1712        1711
         4        1661        1662        1713        1712
         4        1662        1663        1714        1713
         4        1663        1664        1715        1714
         4        1664        1665        1716        1715
         4        1665        1666        1717        1716
         4        1666        1667        1718        1717
         4        1667        1668        1719        1718
         4        1668        1669        1720        1719
         4        1669        1670        1721        1720
         4        1670        1671        1722        1721
         4        1671        1672        1723        1722
         4        1672        1673        1724        1723
         4        1673        1674        1725        1724
         4        1674        1675        1726        1725
         4        1675        1676        1727        1726
         4        1676        1677        1728        1727
         4        1677        1678        1729        1728
         4        1678        1679        1730        1729
         4        1679        1680        1731        1730
         4        1680        1681        1732        1731
         4        1681        1682        1733        1732
         4        1683        1684        1735        1734
         4        1684        1685        1736        1735
         4        1685        1686        1737        1736
         4        1686        1687        1738        1737
         4        1687        1688        1739        1738
         4        1688        1689        1740        1739
         4        1689        1690        1741        1740
         4        1690        1691        1742        1741
         4        1691        1692        1743        1742
         4        1692        1693        1744        1743
         4        1693        1694        1745        1744
         4        1694        1695        1746        1745
         4        1695        1696        1747        1746
         4        1696        1697        1748        1747
         4        1697        1698        1749        1748
         4        1698        1699        1750        1749
         4        1699        1700        1751        1750
         4        1700        1701        1752        1751
         4        1701        1702        1753        1752
         4        1702        1703        1754        1753
         4        1703        1704        1755        1754
         4        1704        1705        1756        1755
         4        1705        1706        1757        1756
         4        1706        1707        1758        1757
         4        1707        1708        1759        1758
         4        1708        1709        1760        1759
         4        1709        1710        1761        1760
         4        1710        1711        1762        1761
         4        1711        1712        1763        1762
         4        1712        1713        1764        1763
         4        1713        1714        1765        1764
         4        1714        1715        1766        1765
         4        1715        1716        1767        1766
         4        1716        1717        1768        1767
         4        1717        1718        1769        1768
         4        1718        1719        1770        1769
         4        1719        1720        1771        1770
         4        1720        1721        1772        1771
         4        1721        1722        1773        1772
         4        1722        1723        1774        1773
         4        1723        1724        1775        1774
         4        1724        1725        1776        1775
         4        1725        1726        1777        1776
         4        1726        1727        1778        1777
         4        1727        1728        1779        1778
         4        1728        1729        1780        1779
         4        1729        1730        1781        1780
         4        1730        1731        1782        1781
         4        1731        1732        1783        1782
         4        1732        1733        1784        1783
         4        1734        1735        1786        1785
         4        1735        1736        1787        1786
         4        1736        1737        1788        1787
         4        1737        1738        1789        1788
         4        1738        1739        1790        1789
         4        1739        1740        1791        1790
         4        1740        1741        1792        1791
         4        1741        1742        1793        1792
         4        1742        1743        1794        1793
         4        1743        1744        1795        1794
         4        1744        1745        1796        1795
         4        1745        1746        1797        1796
         4        1746        1747        1798        1797
         4        1747        1748        1799        1798
         4        1748        1749        1800        1799
         4        1749        1750        1801        1800
         4        1750        1751        1802        1801
         4        1751        1752        1803        1802
         4        1752        1753        1804        1803
         4        1753        1754        1805        1804
         4        1754        1755        1806        1805
         4        1755        1756        1807        1806
         4        1756        1757        1808        1807
         4        1757        1758        1809        1808
         4        1758        1759        1810        1809
         4        1759        1760        1811        1810
         4        1760        1761        1812        1811
         4        1761        1762        1813        1812
         4        1762        1763        1814        1813
         4        1763        1764        1815        1814
         4        1764        1765        1816        1815
         4        1765        1766        1817        1816
         4        1766        1767        1818        1817
         4        1767        1768        1819        1818
         4        1768        1769        1820        1819
         4        1769        1770        1821        1820
         4        1770        1771        1822        1821
         4        1771        1772        1823        1822
         4        1772        1773        1824        1823
         4        1773        1774        1825        1824
         4        1774        1775        1826        1825
         4        1775        1776        1827        1826
         4        1776        1777        1828        1827
         4        1777        1778        1829        1828
         4        1778        1779        1830        1829
         4        1779        1780        1831        1830
         4        1780        1781        1832        1831
         4        1781        1782        1833        1832
         4        1782        1783        1834        1833
         4        1783        1784        1835        1834
         4        1785        1786        1837        1836
         4        1786        1787        1838        1837
         4        1787        1788        1839        1838
         4        1788        1789        1840        1839
         4        1789        1790        1841        1840
         4        1790        1791        1842        1841
         4        1791        1792        1843        1842
         4        1792        1793        1844        1843
         4        1793        1794        1845        1844
         4        1794        1795        1846        1845
         4        1795        1796        1847        1846
         4        1796        1797        1848        1847
         4        1797        1798        1849        1848
         4        1798        1799        1850        1849
         4        1799        1800        1851        1850
         4        1800        1801        1852        1851
         4        1801        1802        1853        1852
         4        1802        1803        1854        1853
         4        1803        1804        1855        1854
         4        1804        1805        1856        1855
         4        1805        1806        1857        1856
         4        1806        1807        1858        1857
         4        1807        1808        1859        1858
         4        1808        1809        1860        1859
         4        1809        1810        1861        1860
         4        1810        1811        1862        1861
         4        1811        1812        1863        1862
         4        1812        1813        1864        1863
         4        1813        1814        1865        1864
         4        1814        1815        1866        1865
         4        1815        1816        1867        1866
         4        1816        1817        1868        1867
         4        1817        1818        1869        1868
         4        1818        1819        1870        1869
         4        1819        1820        1871        1870
         4        1820        1821        1872        1871
         4        1821        1822        1873        1872
         4        1822        1823        1874        1873
         4        1823        1824        1875        1874
         4        1824        1825        1876        1875
         4        1825        1826        1877        1876
         4        1826        1827        1878        1877
         4        1827        1828        1879        1878
         4        1828        1829        1880        1879
         4        1829        1830        1881        1880
         4        1830        1831        1882        1881
         4        1831        1832        1883        1882
         4        1832        1833        1884        1883
         4        1833        1834        1885        1884
         4        1834        1835        1886        1885
         4        1836        1837        1888        1887
         4        1837        1838        1889        1888
         4        1838        1839        1890        1889
         4        1839        1840        1891        1890
         4        1840        1841        1892        1891
         4        1841        1842        1893        1892
         4        1842        1843        1894        1893
         4        1843        1844        1895        1894
         4        1844        1845        1896        1895
         4        1845        1846        1897        1896
         4        1846        1847        1898        1897
         4        1847        1848        1899        1898
         4        1848        1849        1900        1899
         4        1849        1850        1901        1900
         4        1850        1851        1902        1901
         4        1851        1852        1903        1902
         4        1852        1853        1904        1903
         4        1853        1854        1905        1904
         4        1854        1855        1906        1905
         4        1855        1856        1907        1906
         4        1856        1857        1908        1907
         4        1857        1858        1909        1908
         4        1858        1859        1910        1909
         4        1859        1860        1911        1910
         4        1860        1861        1912        1911
         4        1861        1862        1913        1912
         4        1862        1863        1914        1913
         4        1863        1864        1915        1914
         4        1864        1865        1916        1915
         4        1865        1866        1917        1916
         4        1866        1867        1918        1917
         4        1867        1868        1919        1918
         4        1868        1869        1920        1919
         4        1869        1870        1921        1920
         4        1870        1871        1922        1921
         4        1871        1872        1923        1922
         4        1872        1873        1924        1923
         4        1873        1874        1925        1924
         4        1874        1875        1926        1925
         4        1875        1876        1927        1926
         4        1876        1877        1928        1927
         4        1877        1878        1929        1928
         4        1878        1879        1930        1929
         4        1879        1880        1931        1930
         4        1880        1881        1932        1931
         4        1881        1882        1933        1932
         4        1882        1883        1934        1933
         4        1883        1884        1935        1934
         4        1884        1885        1936        1935
         4        1885        1886        1937        1936
         4        1887        1888        1939        1938
         4        1888        1889        1940        1939
         4        1889        1890        1941        1940
         4        1890        1891        1942        1941
         4        1891        1892        1943        1942
         4        1892        1893        1944        1943
         4        1893        1894        1945        1944
         4        1894        1895        1946        1945
         4        1895        1896        1947        1946
         4        1896        1897        1948        1947
         4        1897        1898        1949        1948
         4        1898        1899        1950        1949
         4        1899        1900        1951        1950
         4        1900        1901        1952        1951
         4        1901        1902        1953        1952
         4        1902        1903        1954        1953
         4        1903        1904        1955        1954
         4        1904        1905        1956        1955
         4        1905        1906        1957        1956
         4        1906        1907        1958        1957
         4        1907        1908        1959        1958
         4        1908        1909        1960        1959
         4        1909        1910        1961        1960
         4        1910        1911        1962        1961
         4        1911        1912        1963        1962
         4        1912        1913        1964        1963
         4        1913        1914        1965        1964
         4        1914        1915        1966        1965
         4        1915        1916        1967        1966
         4        1916        1917        1968        1967
         4        1917        1918        1969        1968
         4        1918        1919        1970        1969
         4        1919        1920        1971        1970
         4        1920        1921        1972        1971
         4        1921        1922        1973        1972
         4        1922        1923        1974        1973
         4        1923        1924        1975        1974
         4        1924        1925        1976        1975
         4        1925        1926        1977        1976
         4        1926        1927        1978        1977
         4        1927        1928        1979        1978
         4        1928        1929        1980        1979
         4        1929        1930        1981        1980
         4        1930        1931        1982        1981
         4        1931        1932        1983        1982
         4        1932        1933        1984        1983
         4        1933        1934        1985        1984
         4        1934        1935        1986        1985
         4        1935        1936        1987        1986
         4        1936        1937        1988        1987
         4        1938        1939        1990        1989
         4        1939        1940        1991        1990
         4        1940        1941        1992        1991
         4        1941        1942        1993        1992
         4        1942        1943        1994        1993
         4        1943        1944        1995        1994
         4        1944        1945        1996        1995
         4        1945        1946        1997        1996
         4        1946        1947        1998        1997
         4        1947        1948        1999        1998
         4        1948        1949        2000        1999
         4        1949        1950        2001        2000
         4        1950        1951        2002        2001
         4        1951        1952        2003        2002
         4        1952        1953        2004        2003
         4        1953        1954        2005        2004
         4        1954        1955        2006        2005
         4        1955        1956        2007        2006
         4        1956        1957        2008        2007
         4        1957        1958        2009        2008
         4        1958        1959        2010        2009
         4        1959        1960        2011        2010
         4        1960        1961        2012        2011
         4        1961        1962        2013        2012
         4        1962        1963        2014        2013
         4        1963        1964        2015        2014
         4        1964        1965        2016        2015
         4        1965        1966        2017        2016
         4        1966        1967        2018        2017
         4        1967        1968        2019        2018
         4        1968        1969        2020        2019
         4        1969        1970        2021        2020
         4        1970        1971        2022        2021
         4        1971        1972        2023        2022
         4        1972        1973        2024        2023
         4        1973        1974        2025        2024
         4        1974        1975        2026        2025
         4        1975        1976        2027        2026
         4        1976        1977        2028        2027
         4        1977        1978        2029        2028
         4        1978        1979        2030        2029
         4        1979        1980        2031        2030
         4        1980        1981        2032        2031
         4        1981        1982        2033        2032
         4        1982        1983        2034        2033
         4        1983        1984        2035        2034
         4        1984        1985        2036        2035
         4        1985        1986        2037        2036
         4        1986        1987        2038        2037
         4        1987        1988        2039        2038
         4        1989        1990        2041        2040
         4        1990        1991        2042        2041
         4        1991        1992        2043        2042
         4        1992        1993        2044        2043
         4        1993        1994        2045        2044
         4        1994        1995        2046        2045
         4        1995        1996        2047        2046
         4        1996        1997        2048        2047
         4        1997        1998        2049        2048
         4        1998        1999        2050        2049
         4        1999        2000        2051        2050
         4        2000        2001        2052        2051
         4        2001        2002        2053        2052
         4        2002        2003        2054        2053
         4        2003        2004        2055        2054
         4        2004        2005        2056        2055
         4        2005        2006        2057        2056
         4        2006        2007        2058        2057
         4        2007        2008        2059        2058
         4        2008        2009        2060        2059
         4        2009        2010        2061        2060
         4        2010        2011        2062        2061
         4        2011        2012        2063        2062
         4        2012        2013        2064        2063
         4        2013        2014        2065        2064
         4        2014        2015        2066        2065
         4        2015        2016        2067        2066
         4        2016        2017        2068        2067
         4        2017        2018        2069        2068
         4        2018        2019        2070        2069
         4        2019        2020        2071        2070
         4        2020        2021        2072        2071
         4        2021        2022        2073        2072
         4        2022        2023        2074        2073
         4        2023        2024        2075        2074
         4        2024        2025        2076        2075
         4        2025        2026        2077        2076
         4        2026        2027        2078        2077
         4        2027        2028        2079        2078
         4        2028        2029        2080        2079
         4        2029        2030        2081        2080
         4        2030        2031        2082        2081
         4        2031        2032        2083        2082
         4        2032        2033        2084        2083
         4        2033        2034        2085        2084
         4        2034        2035        2086        2085
         4        2035        2036        2087        2086
         4        2036        2037        2088        2087
         4        2037        2038        2089        2088
         4        2038        2039        2090        2089
         4        2040        2041        2092        2091
         4        2041        2042        2093        2092
         4        2042        2043        2094        2093
         4        2043        2044        2095        2094
         4        2044        2045        2096        2095
         4        2045        2046        2097        2096
         4        2046        2047        2098        2097
         4        2047        2048        2099        2098
         4        2048        2049        2100        2099
         4        2049        2050        2101        2100
         4        2050        2051        2102        2101
         4        2051        2052        2103        2102
         4        2052        2053        2104        2103
         4        2053        2054        2105        2104
         4        2054        2055        2106        2105
         4        2055        2056        2107        2106
         4        2056        2057        2108        2107
         4        2057        2058        2109        2108
         4        2058        2059        2110        2109
         4        2059        2060        2111        2110
         4        2060        2061        2112        2111
         4        2061        2062        2113        2112
         4        2062        2063        2114        2113
         4        2063        2064        2115        2114
         4        2064        2065        2116        2115
         4        2065        2066        2117        2116
         4        2066        2067        2118        2117
         4        2067        2068        2119        2118
         4        2068        2069        2120        2119
         4        2069        2070        2121        2120
         4        2070        2071        2122        2121
         4        2071        2072        2123        2122
         4        2072        2073        2124        2123
         4        2073        2074        2125        2124
         4        2074        2075        2126        2125
         4        2075        2076        2127        2126
         4        2076        2077        2128        2127
         4        2077        2078        2129        2128
         4        2078        2079        2130        2129
         4        2079        2080        2131        2130
         4        2080        2081        2132        2131
         4        2081        2082        2133        2132
         4        2082        2083        2134        2133
         4        2083        2084        2135        2134
         4        2084        2085        2136        2135
         4        2085        2086        2137        2136
         4        2086        2087        2138        2137
         4        2087        2088        2139        2138
         4        2088        2089        2140        2139
         4        2089        2090        2141        2140
         4        2091        2092        2143        2142
         4        2092        2093        2144        2143
         4        2093        2094        2145        2144
         4        2094        2095        2146        2145
         4        2095        2096        2147        2146
         4        2096        2097        2148        2147
         4        2097        2098        2149        2148
         4        2098        2099        2150        2149
         4        2099        2100        2151        2150
         4        2100        2101        2152        2151
         4        2101        2102        2153        2152
         4        2102        2103        2154        2153
         4        2103        2104        2155        2154
         4        2104        2105        2156        2155
         4        2105        2106        2157        2156
         4        2106        2107        2158        2157
         4        2107        2108        2159        2158
         4        2108        2109        2160        2159
         4        2109        2110        2161        2160
         4        2110        2111        2162        2161
         4        2111        2112        2163        2162
         4        2112        2113        2164        2163
         4        2113        2114        2165        2164
         4        2114        2115        2166        2165
         4        2115        2116        2167        2166
         4        2116        2117        2168        2167
         4        2117        2118        2169        2168
         4        2118        2119        2170        2169
         4        2119        2120        2171        2170
         4        2120        2121        2172        2171
         4        2121        2122        2173        2172
         4        2122        2123        2174        2173
         4        2123        2124        2175        2174
         4        2124        2125        2176        2175
         4        2125        2126        2177        2176
         4        2126        2127        2178        2177
         4        2127        2128        2179        2178
         4        2128        2129        2180        2179
         4        2129        2130        2181        2180
         4        2130        2131        2182        2181
         4        2131        2132        2183        2182
         4        2132        2133        2184        2183
         4        2133        2134        2185        2184
         4        2134        2135        2186        2185
         4        2135        2136        2187        2186
         4        2136        2137        2188        2187
         4        2137        2138        2189        2188
         4        2138        2139        2190        2189
         4        2139        2140        2191        2190
         4        2140        2141        2192        2191
         4        2142        2143        2194        2193
         4        2143        2144        2195        2194
         4        2144        2145        2196        2195
         4        2145        2146        2197        2196
         4        2146        2147        2198        2197
         4        2147        2148        2199        2198
         4        2148        2149        2200        2199
         4        2149        2150        2201        2200
         4        2150        2151        2202        2201
         4        2151        2152        2203        2202
         4        2152        2153        2204        2203
         4        2153        2154        2205        2204
         4        2154        2155        2206        2205
         4        2155        2156        2207        2206
         4        2156        2157        2208        2207
         4        2157        2158        2209        2208
         4        2158        2159        2210        2209
         4        2159        2160        2211        2210
         4        2160        2161        2212        2211
         4        2161        2162        2213        2212
         4        2162        2163        2214        2213
         4        2163        2164        2215        2214
         4        2164        2165        2216        2215
         4        2165        2166        2217        2216
         4        2166        2167        2218        2217
         4        2167        2168        2219        2218
         4        2168        2169        2220        2219
         4        2169        2170        2221        2220
         4        2170        2171        2222        2221
         4        2171        2172        2223        2222
         4        2172        2173        2224        2223
         4        2173        2174        2225        2224
         4        2174        2175        2226        2225
         4        2175        2176        2227        2226
         4        2176        2177        2228        2227
         4        2177        2178        2229        2228
         4        2178        2179        2230        2229
         4        2179        2180        2231        2230
         4        2180        2181        2232        2231
         4        2181        2182        2233        2232
         4        2182        2183        2234        2233
         4        2183        2184        2235        2234
         4        2184        2185        2236        2235
         4        2185        2186        2237        2236
         4        2186        2187        2238        2237
         4        2187        2188        2239        2238
         4        2188        2189        2240        2239
         4        2189        2190        2241        2240
         4        2190        2191        2242        2241
         4        2191        2192        2243        2242
         4        2193        2194        2245        2244
         4        2194        2195        2246        2245
         4        2195        2196        2247        2246
         4        2196        2197        2248        2247
         4        2197        2198        2249        2248
         4        2198        2199        2250        2249
         4        2199        2200        2251        2250
         4        2200        2201        2252        2251
         4        2201        2202        2253        2252
         4        2202        2203        2254        2253
         4        2203        2204        2255        2254
         4        2204        2205        2256        2255
         4        2205        2206        2257        2256
         4        2206        2207        2258        2257
         4        2207        2208        2259        2258
         4        2208        2209        2260        2259
         4        2209        2210        2261        2260
         4        2210        2211        2262        2261
         4        2211        2212        2263        2262
         4        2212        2213        2264        2263
         4        2213        2214        2265        2264
         4        2214        2215        2266        2265
         4        2215        2216        2267        2266
         4        2216        2217        2268        2267
         4        2217        2218        2269        2268
         4        2218        2219        2270        2269
         4        2219        2220        2271        2270
         4        2220        2221        2272        2271
         4        2221        2222        2273        2272
         4        2222        2223        2274        2273
         4        2223        2224        2275        2274
         4        2224        2225        2276        2275
         4        2225        2226        2277        2276
         4        2226        2227        2278        2277
         4        2227        2228        2279        2278
         4        2228        2229        2280        2279
         4        2229        2230        2281        2280
         4        2230        2231        2282        2281
         4        2231        2232        2283        2282
         4        2232        2233        2284        2283
         4        2233        2234        2285        2284
         4        2234        2235        2286        2285
         4        2235        2236        2287        2286
         4        2236        2237        2288        2287
         4        2237        2238        2289        2288
         4        2238        2239        2290        2289
         4        2239        2240        2291        2290
         4        2240        2241        2292        2291
         4        2241        2242        2293        2292
         4        2242        2243        2294        2293
         4        2244        2245        2296        2295
         4        2245        2246        2297        2296
         4        2246        2247        2298        2297
         4        2247        2248        2299        2298
         4        2248        2249        2300        2299
         4        2249        2250        2301        2300
         4        2250        2251        2302        2301
         4        2251        2252        2303        2302
         4        2252        2253        2304        2303
         4        2253        2254        2305        2304
         4        2254        2255        2306        2305
         4        2255        2256        2307        2306
         4        2256        2257        2308        2307
         4        2257        2258        2309        2308
         4        2258        2259        2310        2309
         4        2259        2260        2311        2310
         4        2260        2261        2312        2311
         4        2261        2262        2313        2312
         4        2262        2263        2314        2313
         4        2263        2264        2315        2314
         4        2264        2265        2316        2315
         4        2265        2266        2317        2316
         4        2266        2267        2318        2317
         4        2267        2268        2319        2318
         4        2268        2269        2320        2319
         4        2269        2270        2321        2320
         4        2270        2271        2322        2321
         4        2271        2272        2323        2322
         4        2272        2273        2324        2323
         4        2273        2274        2325        2324
         4        2274        2275        2326        2325
         4        2275        2276        2327        2326
         4        2276        2277        2328        2327
         4        2277        2278        2329        2328
         4        2278        2279        2330        2329
         4        2279        2280        2331        2330
         4        2280        2281        2332        2331
         4        2281        2282        2333        2332
         4        2282        2283        2334        2333
         4        2283        2284        2335        2334
         4        2284        2285        2336        2335
         4        2285        2286        2337        2336
         4        2286        2287        2338        2337
         4        2287        2288        2339        2338
         4        2288        2289        2340        2339
         4        2289        2290        2341        2340
         4        2290        2291        2342        2341
         4        2291        2292        2343        2342
         4        2292        2293        2344        2343
         4        2293        2294        2345        2344
         4        2295        2296        2347        2346
         4        2296        2297        2348        2347
         4        2297        2298        2349        2348
         4        2298        2299        2350        2349
         4        2299        2300        2351        2350
         4        2300        2301        2352        2351
         4        2301        2302        2353        2352
         4        2302        2303        2354        2353
         4        2303        2304        2355        2354
         4        2304        2305        2356        2355
         4        2305        2306        2357        2356
         4        2306        2307        2358        2357
         4        2307        2308        2359        2358
         4        2308        2309        2360        2359
         4        2309        2310        2361        2360
         4        2310        2311        2362        2361
         4        2311        2312        2363        2362
         4        2312        2313        2364        2363
         4        2313        2314        2365        2364
         4        2314        2315        2366        2365
         4        2315        2316        2367        2366
         4        2316        2317        2368        2367
         4        2317        2318        2369        2368
         4        2318        2319        2370        2369
         4        2319        2320        2371        2370
         4        2320        2321        2372        2371
         4        2321        2322        2373        2372
         4        2322        2323        2374        2373
         4        2323        2324        2375        2374
         4        2324        2325        2376        2375
         4        2325        2326        2377        2376
         4        2326        2327        2378        2377
         4        2327        2328        2379        2378
         4        2328        2329        2380        2379
         4        2329        2330        2381        2380
         4        2330        2331        2382        2381
         4        2331        2332        2383        2382
         4        2332        2333        2384        2383
         4        2333        2334        2385        2384
         4        2334        2335        2386        2385
         4        2335        2336        2387        2386
         4        2336        2337        2388        2387
         4        2337        2338        2389        2388
         4        2338        2339        2390        2389
         4        2339        2340        2391        2390
         4        2340        2341        2392        2391
         4        2341        2342        2393        2392
         4        2342        2343        2394        2393
         4        2343        2344        2395        2394
         4        2344        2345        2396        2395
         4        2346        2347        2398        2397
         4        2347        2348        2399        2398
         4        2348        2349        2400        2399
         4        2349        2350        2401        2400
         4        2350        2351        2402        2401
         4        2351        2352        2403        2402
         4        2352        2353        2404        2403
         4        2353        2354        2405        2404
         4        2354        2355        2406        2405
         4        2355        2356        2407        2406
         4        2356        2357        2408        2407
         4        2357        2358        2409        2408
         4        2358        2359        2410        2409
         4        2359        2360        2411        2410
         4        2360        2361        2412        2411
         4        2361        2362        2413        2412
         4        2362        2363        2414        2413
         4        2363        2364        2415        2414
         4        2364        2365        2416        2415
         4        2365        2366        2417        2416
         4        2366        2367        2418        2417
         4        2367        2368        2419        2418
         4        2368        2369        2420        2419
         4        2369        2370        2421        2420
         4        2370        2371        2422        2421
         4        2371        2372        2423        2422
         4        2372        2373        2424        2423
         4        2373        2374        2425        2424
         4        2374        2375        2426        2425
         4        2375        2376        2427        2426
         4        2376        2377        2428        2427
         4        2377        2378        2429        2428
         4        2378        2379        2430        2429
         4        2379        2380        2431        2430
         4        2380        2381        2432        2431
         4        2381        2382        2433        2432
         4        2382        2383        2434        2433
         4        2383        2384        2435        2434
         4        2384        2385        2436        2435
         4        2385        2386        2437        2436
         4        2386        2387        2438        2437
         4        2387        2388        2439        2438
         4        2388        2389        2440        2439
         4        2389        2390        2441        2440
         4        2390        2391        2442        2441
         4        2391        2392        2443        2442
         4        2392        2393        2444        2443
         4        2393        2394        2445        2444
         4        2394        2395        2446        2445
         4        2395        2396        2447        2446
         4        2397        2398        2449        2448
         4        2398        2399        2450        2449
         4        2399        2400        2451        2450
         4        2400        2401        2452        2451
         4        2401        2402        2453        2452
         4        2402        2403        2454        2453
         4        2403        2404        2455        2454
         4        2404        2405        2456        2455
         4        2405        2406        2457        2456
         4        2406        2407        2458        2457
         4        2407        2408        2459        2458
         4        2408        2409        2460        2459
         4        2409        2410        2461        2460
         4        2410        2411        2462        2461
         4        2411        2412        2463        2462
         4        2412        2413        2464        2463
         4        2413        2414        2465        2464
         4        2414        2415        2466        2465
         4        2415        2416        2467        2466
         4        2416        2417        2468        2467
         4        2417        2418        2469        2468
         4        2418        2419        2470        2469
         4        2419        2420        2471        2470
         4        2420        2421        2472        2471
         4        2421        2422        2473        2472
         4        2422        2423        2474        2473
         4        2423        2424        2475        2474
         4        2424        2425        2476        2475
         4        2425        2426        2477        2476
         4        2426        2427        2478        2477
         4        2427        2428        2479        2478
         4        2428        2429        2480        2479
         4        2429        2430        2481        2480
         4        2430        2431        2482        2481
         4        2431        2432        2483        2482
         4        2432        2433        2484        2483
         4        2433        2434        2485        2484
         4        2434        2435        2486        2485
         4        2435        2436        2487        2486
         4        2436        2437        2488        2487
         4        2437        2438        2489        2488
         4        2438        2439        2490        2489
         4        2439        2440        2491        2490
         4        2440        2441        2492        2491
         4        2441        2442        2493        2492
         4        2442        2443        2494        2493
         4        2443        2444        2495        2494
         4        2444        2445        2496        2495
         4        2445        2446        2497        2496
         4        2446        2447        2498        2497
         4        2448        2449        2500        2499
         4        2449        2450        2501        2500
         4        2450        2451        2502        2501
         4        2451        2452        2503        2502
         4        2452        2453        2504        2503
         4        2453        2454        2505        2504
         4        2454        2455        2506        2505
         4        2455        2456        2507        2506
         4        2456        2457        2508        2507
         4        2457        2458        2509        2508
         4        2458        2459        2510        2509
         4        2459        2460        2511        2510
         4        2460        2461        2512        2511
         4        2461        2462        2513        2512
         4        2462        2463        2514        2513
         4        2463        2464        2515        2514
         4        2464        2465        2516        2515
         4        2465        2466        2517        2516
         4        2466        2467        2518        2517
         4        2467        2468        2519        2518
         4        2468        2469        2520        2519
         4        2469        2470        2521        2520
         4        2470        2471        2522        2521
         4        2471        2472        2523        2522
         4        2472        2473        2524        2523
         4        2473        2474        2525        2524
         4        2474        2475        2526        2525
         4        2475        2476        2527        2526
         4        2476        2477        2528        2527
         4        2477        2478        2529        2528
         4        2478        2479        2530        2529
         4        2479        2480        2531        2530
         4        2480        2481        2532        2531
         4        2481        2482        2533        2532
         4        2482        2483        2534        2533
         4        2483        2484        2535        2534
         4        2484        2485        2536        2535
         4        2485        2486        2537        2536
         4        2486        2487        2538        2537
         4        2487        2488        2539        2538
         4        2488        2489        2540        2539
         4        2489        2490        2541        2540
         4        2490        2491        2542        2541
         4        2491        2492        2543        2542
         4        2492        2493        2544        2543
         4        2493        2494        2545        2544
         4        2494        2495        2546        2545
         4        2495        2496        2547        2546
         4        2496        2497        2548        2547
         4        2497        2498        2549        2548
         4        2499        2500        2551        2550
         4        2500        2501        2552        2551
         4        2501        2502        2553        2552
         4        2502        2503        2554        2553
         4        2503        2504        2555        2554
         4        2504        2505        2556        2555
         4        2505        2506        2557        2556
         4        2506        2507        2558        2557
         4        2507        2508        2559        2558
         4        2508        2509        2560        2559
         4        2509        2510        2561        2560
         4        2510        2511        2562        2561
         4        2511        2512        2563        2562
         4        2512        2513        2564        2563
         4        2513        2514        2565        2564
         4        2514        2515        2566        2565
         4        2515        2516        2567        2566
         4        2516        2517        2568        2567
         4        2517        2518        2569        2568
         4        2518        2519        2570        2569
         4        2519        2520        2571        2570
         4        2520        2521        2572        2571
         4        2521        2522        2573        2572
         4        2522        2523        2574        2573
         4        2523        2524        2575        2574
         4        2524        2525        2576        2575
         4        2525        2526        2577        2576
         4        2526        2527        2578        2577
         4        2527        2528        2579        2578
         4        2528        2529        2580        2579
         4        2529        2530        2581        2580
         4        2530        2531        2582        2581
         4        2531        2532        2583        2582
         4        2532        2533        2584        2583
         4        2533        2534        2585        2584
         4        2534        2535        2586        2585
         4        2535        2536        2587        2586
         4        2536        2537        2588        2587
         4        2537        2538        2589        2588
         4        2538        2539        2590        2589
         4        2539        2540        2591        2590
         4        2540        2541        2592        2591
         4        2541        2542        2593        2592
         4        2542        2543        2594        2593
         4        2543        2544        2595        2594
         4        2544        2545        2596        2595
         4        2545        2546        2597        2596
         4        2546        2547        2598        2597
         4        2547        2548        2599        2598
         4        2548        2549        2600        2599
         4        2550        2551        2602        2601
         4        2551        2552        2603        2602
         4        2552        2553        2604        2603
         4        2553        2554        2605        2604
         4        2554        2555        2606        2605
         4        2555        2556        2607        2606
         4        2556        2557        2608        2607
         4        2557        2558        2609        2608
         4        2558        2559        2610        2609
         4        2559        2560        2611        2610
         4        2560        2561        2612        2611
         4        2561        2562        2613        2612
         4        2562        2563        2614        2613
         4        2563        2564        2615        2614
         4        2564        2565        2616        2615
         4        2565        2566        2617        2616
         4        2566        2567        2618        2617
         4        2567        2568        2619        2618
         4        2568        2569        2620        2619
         4        2569        2570        2621        2620
         4        2570        2571        2622        2621
         4        2571        2572        2623        2622
         4        2572        2573        2624        2623
         4        2573        2574        2625        2624
         4        2574        2575        2626        2625
         4        2575        2576        2627        2626
         4        2576        2577        2628        2627
         4        2577        2578        2629        2628
         4        2578        2579        2630        2629
         4        2579        2580        2631        2630
         4        2580        2581        2632        2631
         4        2581        2582        2633        2632
         4        2582        2583        2634        2633
         4        2583        2584        2635        2634
         4        2584        2585        2636        2635
         4        2585        2586        2637        2636
         4        2586        2587        2638        2637
         4        2587        2588        2639        2638
         4        2588        2589        2640        2639
         4        2589        2590        2641        2640
         4        2590        2591        2642        2641
         4        2591        2592        2643        2642
         4        2592        2593        2644        2643
         4        2593        2594        2645        2644
         4        2594        2595        2646        2645
         4        2595        2596        2647        2646
         4        2596        2597        2648        2647
         4        2597        2598        2649        2648
         4        2598        2599        2650        2649
         4        2599        2600        2651        2650
         4        2601        2602        2653        2652
         4        2602        2603        2654        2653
         4        2603        2604        2655        2654
         4        2604        2605        2656        2655
         4        2605        2606        2657        2656
         4        2606        2607        2658        2657
         4        2607        2608        2659        2658
         4        2608        2609        2660        2659
         4        2609        2610        2661        2660
         4        2610        2611        2662        2661
         4        2611        2612        2663        2662
         4        2612        2613        2664        2663
         4        2613        2614        2665        2664
         4        2614        2615        2666        2665
         4        2615        2616        2667        2666
         4        2616        2617        2668        2667
         4        2617        2618        2669        2668
         4        2618        2619        2670        2669
         4        2619        2620        2671        2670
         4        2620        2621        2672        2671
         4        2621        2622        2673        2672
         4        2622        2623        2674        2673
         4        2623        2624        2675        2674
         4        2624        2625        2676        2675
         4        2625        2626        2677        2676
         4        2626        2627        2678        2677
         4        2627        2628        2679        2678
         4        2628        2629        2680        2679
         4        2629        2630        2681        2680
         4        2630        2631        2682        2681
         4        2631        2632        2683        2682
         4        2632        2633        2684        2683
         4        2633        2634        2685        2684
         4        2634        2635        2686        2685
         4        2635        2636        2687        2686
         4        2636        2637        2688        2687
         4        2637        2638        2689        2688
         4        2638        2639        2690        2689
         4        2639        2640        2691        2690
         4        2640        2641        2692        2691
         4        2641        2642        2693        2692
         4        2642        2643        2694        2693
         4        2643        2644        2695        2694
         4        2644        2645        2696        2695
         4        2645        2646        2697        2696
         4        2646        2647        2698        2697
         4        2647        2648        2699        2698
         4        2648        2649        2700        2699
         4        2649        2650        2701        2700
         4        2650        2651        2702        2701
         4        2652        2653        2704        2703
         4        2653        2654        2705        2704
         4        2654        2655        2706        2705
         4        2655        2656        2707        2706
         4        2656        2657        2708        2707
         4        2657        2658        2709        2708
         4        2658        2659        2710        2709
         4        2659        2660        2711        2710
         4        2660        2661        2712        2711
         4        2661        2662        2713        2712
         4        2662        2663        2714        2713
         4        2663        2664        2715        2714
         4        2664        2665        2716        2715
         4        2665        2666        2717        2716
         4        2666        2667        2718        2717
         4        2667        2668        2719        2718
         4        2668        2669        2720        2719
         4        2669        2670        2721        2720
         4        2670        2671        2722        2721
         4        2671        2672        2723        2722
         4        2672        2673        2724        2723
         4        2673        2674        2725        2724
         4        2674        2675        2726        2725
         4        2675        2676        2727        2726
         4        2676        2677        2728        2727
         4        2677        2678        2729        2728
         4        2678        2679        2730        2729
         4        2679        2680        2731        2730
         4        2680        2681        2732        2731
         4        2681        2682        2733        2732
         4        2682        2683        2734        2733
         4        2683        2684        2735        2734
         4        2684        2685        2736        2735
         4        2685        2686        2737        2736
         4        2686        2687        2738        2737
         4        2687        2688        2739        2738
         4        2688        2689        2740        2739
         4        2689        2690        2741        2740
         4        2690        2691        2742        2741
         4        2691        2692        2743        2742
         4        2692        2693        2744        2743
         4        2693        2694        2745        2744
         4        2694        2695        2746        2745
         4        2695        2696        2747        2746
         4        2696        2697        2748        2747
         4        2697        2698        2749        2748
         4        2698        2699        2750        2749
         4        2699        2700        2751        2750
         4        2700        2701        2752        2751
         4        2701        2702        2753        2752
         4        2703        2704        2755        2754
         4        2704        2705        2756        2755
         4        2705        2706        2757        2756
         4        2706        2707        2758        2757
         4        2707        2708        2759        2758
         4        2708        2709        2760        2759
         4        2709        2710        2761        2760
         4        2710        2711        2762        2761
         4        2711        2712        2763        2762
         4        2712        2713        2764        2763
         4        2713        2714        2765        2764
         4        2714        2715        2766        2765
         4        2715        2716        2767        2766
         4        2716        2717        2768        2767
         4        2717        2718        2769        2768
         4        2718        2719        2770        2769
         4        2719        2720        2771        2770
         4        2720        2721        2772        2771
         4        2721        2722        2773        2772
         4        2722        2723        2774        2773
         4        2723        2724        2775        2774
         4        2724        2725        2776        2775
         4        2725        2726        2777        2776
         4        2726        2727        2778        2777
         4        2727        2728        2779        2778
         4        2728        2729        2780        2779
         4        2729        2730        2781        2780
         4        2730        2731        2782        2781
         4        2731        2732        2783        2782
         4        2732        2733        2784        2783
         4        2733        2734        2785        2784
         4        2734        2735        2786        2785
         4        2735        2736        2787        2786
         4        2736        2737        2788        2787
         4        2737        2738        2789        2788
         4        2738        2739        2790        2789
         4        2739        2740        2791        2790
         4        2740        2741        2792        2791
         4        2741        2742        2793        2792
         4        2742        2743        2794        2793
         4        2743        2744        2795        2794
         4        2744        2745        2796        2795
         4        2745        2746        2797        2796
         4        2746        2747        2798        2797
         4        2747        2748        2799        2798
         4        2748        2749        2800        2799
         4        2749        2750        2801        2800
         4        2750        2751        2802        2801
         4        2751        2752        2803        2802
         4        2752        2753        2804        2803
         4        2754        2755        2806        2805
         4        2755        2756        2807        2806
         4        2756        2757        2808        2807
         4        2757        2758        2809        2808
         4        2758        2759        2810        2809
         4        2759        2760        2811        2810
         4        2760        2761        2812        2811
         4        2761        2762        2813        2812
         4        2762        2763        2814        2813
         4        2763        2764        2815        2814
         4        2764        2765        2816        2815
         4        2765        2766        2817        2816
         4        2766        2767        2818        2817
         4        2767        2768        2819        2818
         4        2768        2769        2820        2819
         4        2769        2770        2821        2820
         4        2770        2771        2822        2821
         4        2771        2772        2823        2822
         4        2772        2773        2824        2823
         4        2773        2774        2825        2824
         4        2774        2775        2826        2825
         4        2775        2776        2827        2826
         4        2776        2777        2828        2827
         4        2777        2778        2829        2828
         4        2778        2779        2830        2829
         4        2779        2780        2831        2830
         4        2780        2781        2832        2831
         4        2781        2782        2833        2832
         4        2782        2783        2834        2833
         4        2783        2784        2835        2834
         4        2784        2785        2836        2835
         4        2785        2786        2837        2836
         4        2786        2787        2838        2837
         4        2787        2788        2839        2838
         4        2788        2789        2840        2839
         4        2789        2790        2841        2840
         4        2790        2791        2842        2841
         4        2791        2792        2843        2842
         4        2792        2793        2844        2843
         4        2793        2794        2845        2844
         4        2794        2795        2846        2845
         4        2795        2796        2847        2846
         4        2796        2797        2848        2847
         4        2797        2798        2849        2848
         4        2798        2799        2850        2849
         4        2799        2800        2851        2850
         4        2800        2801        2852        2851
         4        2801        2802        2853        2852
         4        2802        2803        2854        2853
         4        2803        2804        2855        2854
         4        2805        2806        2857        2856
         4        2806        2807        2858        2857
         4        2807        2808        2859        2858
         4        2808        2809        2860        2859
         4        2809        2810        2861        2860
         4        2810        2811        2862        2861
         4        2811        2812        2863        2862
         4        2812        2813        2864        2863
         4        2813        2814        2865        2864
         4        2814        2815        2866        2865
         4        2815        2816        2867        2866
         4        2816        2817        2868        2867
         4        2817        2818        2869        2868
         4        2818        2819        2870        2869
         4        2819        2820        2871        2870
         4        2820        2821        2872        2871
         4        2821        2822        2873        2872
         4        2822        2823        2874        2873
         4        2823        2824        2875        2874
         4        2824        2825        2876        2875
         4        2825        2826        2877        2876
         4        2826        2827        2878        2877
         4        2827        2828        2879        2878
         4        2828        2829        2880        2879
         4        2829        2830        2881        2880
         4        2830        2831        2882        2881
         4        2831        2832        2883        2882
         4        2832        2833        2884        2883
         4        2833        2834        2885        2884
         4        2834        2835        2886        2885
         4        2835        2836        2887        2886
         4        2836        2837        2888        2887
         4        2837        2838        2889        2888
         4        2838        2839        2890        2889
         4        2839        2840        2891        2890
         4        2840        2841        2892        2891
         4        2841        2842        2893        2892
         4        2842        2843        2894        2893
         4        2843        2844        2895        2894
         4        2844        2845        2896        2895
         4        2845        2846        2897        2896
         4        2846        2847        2898        2897
         4        2847        2848        2899        2898
         4        2848        2849        2900        2899
         4        2849        2850        2901        2900
         4        2850        2851        2902        2901
         4        2851        2852        2903        2902
         4        2852        2853        2904        2903
         4        2853        2854        2905        2904
         4        2854        2855        2906        2905
         4        2856        2857        2908        2907
         4        2857        2858        2909        2908
         4        2858        2859        2910        2909
         4        2859        2860        2911        2910
         4        2860        2861        2912        2911
         4        2861        2862        2913        2912
         4        2862        2863        2914        2913
         4        2863        2864        2915        2914
         4        2864        2865        2916        2915
         4        2865        2866        2917        2916
         4        2866        2867        2918        2917
         4        2867        2868        2919        2918
         4        2868        2869        2920        2919
         4        2869        2870        2921        2920
         4        2870        2871        2922        2921
         4        2871        2872        2923        2922
         4        2872        2873        2924        2923
         4        2873        2874        2925        2924
         4        2874        2875        2926        2925
         4        2875        2876        2927        2926
         4        2876        2877        2928        2927
         4        2877        2878        2929        2928
         4        2878        2879        2930        2929
         4        2879        2880        2931        2930
         4        2880        2881        2932        2931
         4        2881        2882        2933        2932
         4        2882        2883        2934        2933
         4        2883        2884        2935        2934
         4        2884        2885        2936        2935
         4        2885        2886        2937        2936
         4        2886        2887        2938        2937
         4        2887        2888        2939        2938
         4        2888        2889        2940        2939
         4        2889        2890        2941        2940
         4        2890        2891        2942        2941
         4        2891        2892        2943        2942
         4        2892        2893        2944        2943
         4        2893        2894        2945        2944
         4        2894        2895        2946        2945
         4        2895        2896        2947        2946
         4        2896        2897        2948        2947
         4        2897        2898        2949        2948
         4        2898        2899        2950        2949
         4        2899        2900        2951        2950
         4        2900        2901        2952        2951
         4        2901        2902        2953        2952
         4        2902        2903        2954        2953
         4        2903        2904        2955        2954
         4        2904        2905        2956        2955
         4        2905        2906        2957        2956
         4        2907        2908        2959        2958
         4        2908        2909        2960        2959
         4        2909        2910        2961        2960
         4        2910        2911        2962        2961
         4        2911        2912        2963        2962
         4        2912        2913        2964        2963
         4        2913        2914        2965        2964
         4        2914        2915        2966        2965
         4        2915        2916        2967        2966
         4        2916        2917        2968        2967
         4        2917        2918        2969        2968
         4        2918        2919        2970        2969
         4        2919        2920        2971        2970
         4        2920        2921        2972        2971
         4        2921        2922        2973        2972
         4        2922        2923        2974        2973
         4        2923        2924        2975        2974
         4        2924        2925        2976        2975
         4        2925        2926        2977        2976
         4        2926        2927        2978        2977
         4        2927        2928        2979        2978
         4        2928        2929        2980        2979
         4        2929        2930        2981        2980
         4        2930        2931        2982        2981
         4        2931        2932        2983        2982
         4        2932        2933        2984        2983
         4        2933        2934        2985        2984
         4        2934        2935        2986        2985
         4        2935        2936        2987        2986
         4        2936        2937        2988        2987
         4        2937        2938        2989        2988
         4        2938        2939        2990        2989
         4        2939        2940        2991        2990
         4        2940        2941        2992        2991
         4        2941        2942        2993        2992
         4        2942        2943        2994        2993
         4        2943        2944        2995        2994
         4        2944        2945        2996        2995
         4        2945        2946        2997        2996
         4        2946        2947        2998        2997
         4        2947        2948        2999        2998
         4        2948        2949        3000        2999
         4        2949        2950        3001        3000
         4        2950        2951        3002        3001
         4        2951        2952        3003        3002
         4        2952        2953        3004        3003
         4        2953        2954        3005        3004
         4        2954        2955        3006        3005
         4        2955        2956        3007        3006
         4        2956        2957        3008        3007
         4        2958        2959        3010        3009
         4        2959        2960        3011        3010
         4        2960        2961        3012        3011
         4        2961        2962        3013        3012
         4        2962        2963        3014        3013
         4        2963        2964        3015        3014
         4        2964        2965        3016        3015
         4        2965        2966        3017        3016
         4        2966        2967        3018        3017
         4        2967        2968        3019        3018
         4        2968        2969        3020        3019
         4        2969        2970        3021        3020
         4        2970        2971        3022        3021
         4        2971        2972        3023        3022
         4        2972        2973        3024        3023
         4        2973        2974        3025        3024
         4        2974        2975        3026        3025
         4        2975        2976        3027        3026
         4        2976        2977        3028        3027
         4        2977        2978        3029        3028
         4        2978        2979        3030        3029
         4        2979        2980        3031        3030
         4        2980        2981        3032        3031
         4        2981        2982        3033        3032
         4        2982        2983        3034        3033
         4        2983        2984        3035        3034
         4        2984        2985        3036        3035
         4        2985        2986        3037        3036
         4        2986        2987        3038        3037
         4        2987        2988        3039        3038
         4        2988        2989        3040        3039
         4        2989        2990        3041        3040
         4        2990        2991        3042        3041
         4        2991        2992        3043        3042
         4        2992        2993        3044        3043
         4        2993        2994        3045        3044
         4        2994        2995        3046        3045
         4        2995        2996        3047        3046
         4        2996        2997        3048        3047
         4        2997        2998        3049        3048
         4        2998        2999        3050        3049
         4        2999        3000        3051        3050
         4        3000        3001        3052        3051
         4        3001        3002        3053        3052
         4        3002        3003        3054        3053
         4        3003        3004        3055        3054
         4        3004        3005        3056        3055
         4        3005        3006        3057        3056
         4        3006        3007        3058        3057
         4        3007        3008        3059        3058
         4        3009        3010        3061        3060
         4        3010        3011        3062        3061
         4        3011        3012        3063        3062
         4        3012        3013        3064        3063
         4        3013        3014        3065        3064
         4        3014        3015        3066        3065
         4        3015        3016        3067        3066
         4        3016        3017        3068        3067
         4        3017        3018        3069        3068
         4        3018        3019        3070        3069
         4        3019        3020        3071        3070
         4        3020        3021        3072        3071
         4        3021        3022        3073        3072
         4        3022        3023        3074        3073
         4        3023        3024        3075        3074
         4        3024        3025        3076        3075
         4        3025        3026        3077        3076
         4        3026        3027        3078        3077
         4        3027        3028        3079        3078
         4        3028        3029        3080        3079
         4        3029        3030        3081        3080
         4        3030        3031        3082        3081
         4        3031        3032        3083        3082
         4        3032        3033        3084        3083
         4        3033        3034        3085        3084
         4        3034        3035        3086        3085
         4        3035        3036        3087        3086
         4        3036        3037        3088        3087
         4        3037        3038        3089        3088
         4        3038        3039        3090        3089
         4        3039        3040        3091        3090
         4        3040        3041        3092        3091
         4        3041        3042        3093        3092
         4        3042        3043        3094        3093
         4        3043        3044        3095        3094
         4        3044        3045        3096        3095
         4        3045        3046        3097        3096
         4        3046        3047        3098        3097
         4        3047        3048        3099        3098
         4        3048        3049        3100        3099
         4        3049        3050        3101        3100
         4        3050        3051        3102        3101
         4        3051        3052        3103        3102
         4        3052        3053        3104        3103
         4        3053        3054        3105        3104
         4        3054        3055        3106        3105
         4        3055        3056        3107        3106
         4        3056        3057        3108        3107
         4        3057        3058        3109        3108
         4        3058        3059        3110        3109
         4        3060        3061        3112        3111
         4        3061        3062        3113        3112
         4        3062        3063        3114        3113
         4        3063        3064        3115        3114
         4        3064        3065        3116        3115
         4        3065        3066        3117        3116
         4        3066        3067        3118        3117
         4        3067        3068        3119        3118
         4        3068        3069        3120        3119
         4        3069        3070        3121        3120
         4        3070        3071        3122        3121
         4        3071        3072        3123        3122
         4        3072        3073        3124        3123
         4        3073        3074        3125        3124
         4        3074        3075        3126        3125
         4        3075        3076        3127        3126
         4        3076        3077        3128        3127
         4        3077        3078        3129        3128
         4        3078        3079        3130        3129
         4        3079        3080        3131        3130
         4        3080        3081        3132        3131
         4        3081        3082        3133        3132
         4        3082        3083        3134        3133
         4        3083        3084        3135        3134
         4        3084        3085        3136        3135
         4        3085        3086        3137        3136
         4        3086        3087        3138        3137
         4        3087        3088        3139        3138
         4        3088        3089        3140        3139
         4        3089        3090        3141        3140
         4        3090        3091        3142        3141
         4        3091        3092        3143        3142
         4        3092        3093        3144        3143
         4        3093        3094        3145        3144
         4        3094        3095        3146        3145
         4        3095        3096        3147        3146
         4        3096        3097        3148        3147
         4        3097        3098        3149        3148
         4        3098        3099        3150        3149
         4        3099        3100        3151        3150
         4        3100        3101        3152        3151
         4        3101        3102        3153        3152
         4        3102        3103        3154        3153
         4        3103        3104        3155        3154
         4        3104        3105        3156        3155
         4        3105        3106        3157        3156
         4        3106        3107        3158        3157
         4        3107        3108        3159        3158
         4        3108        3109        3160        3159
         4        3109        3110        3161        3160
         4        3111        3112        3163        3162
         4        3112        3113        3164        3163
         4        3113        3114        3165        3164
         4        3114        3115        3166        3165
         4        3115        3116        3167        3166
         4        3116        3117        3168        3167
         4        3117        3118        3169        3168
         4        3118        3119        3170        3169
         4        3119        3120        3171        3170
         4        3120        3121        3172        3171
         4        3121        3122        3173        3172
         4        3122        3123        3174        3173
         4        3123        3124        3175        3174
         4        3124        3125        3176        3175
         4        3125        3126        3177        3176
         4        3126        3127        3178        3177
         4        3127        3128        3179        3178
         4        3128        3129        3180        3179
         4        3129        3130        3181        3180
         4        3130        3131        3182        3181
         4        3131        3132        3183        3182
         4        3132        3133        3184        3183
         4        3133        3134        3185        3184
         4        3134        3135        3186        3185
         4        3135        3136        3187        3186
         4        3136        3137        3188        3187
         4        3137        3138        3189        3188
         4        3138        3139        3190        3189
         4        3139        3140        3191        3190
         4        3140        3141        3192        3191
         4        3141        3142        3193        3192
         4        3142        3143        3194        3193
         4        3143        3144        3195        3194
         4        3144        3145        3196        3195
         4        3145        3146        3197        3196
         4        3146        3147        3198        3197
         4        3147        3148        3199        3198
         4        3148        3149        3200        3199
         4        3149        3150        3201        3200
         4        3150        3151        3202        3201
         4        3151        3152        3203        3202
         4        3152        3153        3204        3203
         4        3153        3154        3205        3204
         4        3154        3155        3206        3205
         4        3155        3156        3207        3206
         4        3156        3157        3208        3207
         4        3157        3158        3209        3208
         4        3158        3159        3210        3209
         4        3159        3160        3211        3210
         4        3160        3161        3212        3211
         4        3162        3163        3214        3213
         4        3163        3164        3215        3214
         4        3164        3165        3216        3215
         4        3165        3166        3217        3216
         4        3166        3167        3218        3217
         4        3167        3168        3219        3218
         4        3168        3169        3220        3219
         4        3169        3170        3221        3220
         4        3170        3171        3222        3221
         4        3171        3172        3223        3222
         4        3172        3173        3224        3223
         4        3173        3174        3225        3224
         4        3174        3175        3226        3225
         4        3175        3176        3227        3226
         4        3176        3177        3228        3227
         4        3177        3178        3229        3228
         4        3178        3179        3230        3229
         4        3179        3180        3231        3230
         4        3180        3181        3232        3231
         4        3181        3182        3233        3232
         4        3182        3183        3234        3233
         4        3183        3184        3235        3234
         4        3184        3185        3236        3235
         4        3185        3186        3237        3236
         4        3186        3187        3238        3237
         4        3187        3188        3239        3238
         4        3188        3189        3240        3239
         4        3189        3190        3241        3240
         4        3190        3191        3242        3241
         4        3191        3192        3243        3242
         4        3192        3193        3244        3243
         4        3193        3194        3245        3244
         4        3194        3195        3246        3245
         4        3195        3196        3247        3246
         4        3196        3197        3248        3247
         4        3197        3198        3249        3248
         4        3198        3199        3250        3249
         4        3199        3200        3251        3250
         4        3200        3201        3252        3251
         4        3201        3202        3253        3252
         4        3202        3203        3254        3253
         4        3203        3204        3255        3254
         4        3204        3205        3256        3255
         4        3205        3206        3257        3256
         4        3206        3207        3258        3257
         4        3207        3208        3259        3258
         4        3208        3209        3260        3259
         4        3209        3210        3261        3260
         4        3210        3211        3262        3261
         4        3211        3212        3263        3262
         4        3213        3214        3265        3264
         4        3214        3215        3266        3265
         4        3215        3216        3267        3266
         4        3216        3217        3268        3267
         4        3217        3218        3269        3268
         4        3218        3219        3270        3269
         4        3219        3220        3271        3270
         4        3220        3221        3272        3271
         4        3221        3222        3273        3272
         4        3222        3223        3274        3273
         4        3223        3224        3275        3274
         4        3224        3225        3276        3275
         4        3225        3226        3277        3276
         4        3226        3227        3278        3277
         4        3227        3228        3279        3278
         4        3228        3229        3280        3279
         4        3229        3230        3281        3280
         4        3230        3231        3282        3281
         4        3231        3232        3283        3282
         4        3232        3233        3284        3283
         4        3233        3234        3285        3284
         4        3234        3235        3286        3285
         4        3235        3236        3287        3286
         4        3236        3237        3288        3287
         4        3237        3238        3289        3288
         4        3238        3239        3290        3289
         4        3239        3240        3291        3290
         4        3240        3241        3292        3291
         4        3241        3242        3293        3292
         4        3242        3243        3294        3293
         4        3243        3244        3295        3294
         4        3244        3245        3296        3295
         4        3245        3246        3297        3296
         4        3246        3247        3298        3297
         4        3247        3248        3299        3298
         4        3248        3249        3300        3299
         4        3249        3250        3301        3300
         4        3250        3251        3302        3301
         4        3251        3252        3303        3302
         4        3252        3253        3304        3303
         4        3253        3254        3305        3304
         4        3254        3255        3306        3305
         4        3255        3256        3307        3306
         4        3256        3257        3308        3307
         4        3257        3258        3309        3308
         4        3258        3259        3310        3309
         4        3259        3260        3311        3310
         4        3260        3261        3312        3311
         4        3261        3262        3313        3312
         4        3262        3263        3314        3313
         4        3264        3265        3316        3315
         4        3265        3266        3317        3316
         4        3266        3267        3318        3317
         4        3267        3268        3319        3318
         4        3268        3269        3320        3319
         4        3269        3270        3321        3320
         4        3270        3271        3322        3321
         4        3271        3272        3323        3322
         4        3272        3273        3324        3323
         4        3273        3274        3325        3324
         4        3274        3275        3326        3325
         4        3275        3276        3327        3326
         4        3276        3277        3328        3327
         4        3277        3278        3329        3328
         4        3278        3279        3330        3329
         4        3279        3280        3331        3330
         4        3280        3281        3332        3331
         4        3281        3282        3333        3332
         4        3282        3283        3334        3333
         4        3283        3284        3335        3334
         4        3284        3285        3336        3335
         4        3285        3286        3337        3336
         4        3286        3287        3338        3337
         4        3287        3288        3339        3338
         4        3288        3289        3340        3339
         4        3289        3290        3341        3340
         4        3290        3291        3342        3341
         4        3291        3292        3343        3342
         4        3292        3293        3344        3343
         4        3293        3294        3345        3344
         4        3294        3295        3346        3345
         4        3295        3296        3347        3346
         4        3296        3297        3348        3347
         4        3297        3298        3349        3348
         4        3298        3299        3350        3349
         4        3299        3300        3351        3350
         4        3300        3301        3352        3351
         4        3301        3302        3353        3352
         4        3302        3303        3354        3353
         4        3303        3304        3355        3354
         4        3304        3305        3356        3355
         4        3305        3306        3357        3356
         4        3306        3307        3358        3357
         4        3307        3308        3359        3358
         4        3308        3309        3360        3359
         4        3309        3310        3361        3360
         4        3310        3311        3362        3361
         4        3311        3312        3363        3362
         4        3312        3313        3364        3363
         4        3313        3314        3365        3364
         4        3315        3316        3367        3366
         4        3316        3317        3368        3367
         4        3317        3318        3369        3368
         4        3318        3319        3370        3369
         4        3319        3320        3371        3370
         4        3320        3321        3372        3371
         4        3321        3322        3373        3372
         4        3322        3323        3374        3373
         4        3323        3324        3375        3374
         4        3324        3325        3376        3375
         4        3325        3326        3377        3376
         4        3326        3327        3378        3377
         4        3327        3328        3379        3378
         4        3328        3329        3380        3379
         4        3329        3330        3381        3380
         4        3330        3331        3382        3381
         4        3331        3332        3383        3382
         4        3332        3333        3384        3383
         4        3333        3334        3385        3384
         4        3334        3335        3386        3385
         4        3335        3336        3387        3386
         4        3336        3337        3388        3387
         4        3337        3338        3389        3388
         4        3338        3339        3390        3389
         4        3339        3340        3391        3390
         4        3340        3341        3392        3391
         4        3341        3342        3393        3392
         4        3342        3343        3394        3393
         4        3343        3344        3395        3394
         4        3344        3345        3396        3395
         4        3345        3346        3397        3396
         4        3346        3347        3398        3397
         4        3347        3348        3399        3398
         4        3348        3349        3400        3399
         4        3349        3350        3401        3400
         4        3350        3351        3402        3401
         4        3351        3352        3403        3402
         4        3352        3353        3404        3403
         4        3353        3354        3405        3404
         4        3354        3355        3406        3405
         4        3355        3356        3407        3406
         4        3356        3357        3408        3407
         4        3357        3358        3409        3408
         4        3358        3359        3410        3409
         4        3359        3360        3411        3410
         4        3360        3361        3412        3411
         4        3361        3362        3413        3412
         4        3362        3363        3414        3413
         4        3363        3364        3415        3414
         4        3364        3365        3416        3415
         4        3366        3367        3418        3417
         4        3367        3368        3419        3418
         4        3368        3369        3420        3419
         4        3369        3370        3421        3420
         4        3370        3371        3422        3421
         4        3371        3372        3423        3422
         4        3372        3373        3424        3423
         4        3373        3374        3425        3424
         4        3374        3375        3426        3425
         4        3375        3376        3427        3426
         4        3376        3377        3428        3427
         4        3377        3378        3429        3428
         4        3378        3379        3430        3429
         4        3379        3380        3431        3430
         4        3380        3381        3432        3431
         4        3381        3382        3433        3432
         4        3382        3383        3434        3433
         4        3383        3384        3435        3434
         4        3384        3385        3436        3435
         4        3385        3386        3437        3436
         4        3386        3387        3438        3437
         4        3387        3388        3439        3438
         4        3388        3389        3440        3439
         4        3389        3390        3441        3440
         4        3390        3391        3442        3441
         4        3391        3392        3443        3442
         4        3392        3393        3444        3443
         4        3393        3394        3445        3444
         4        3394        3395        3446        3445
         4        3395        3396        3447        3446
         4        3396        3397        3448        3447
         4        3397        3398        3449        3448
         4        3398        3399        3450        3449
         4        3399        3400        3451        3450
         4        3400        3401        3452        3451
         4        3401        3402        3453        3452
         4        3402        3403        3454        3453
         4        3403        3404        3455        3454
         4        3404        3405        3456        3455
         4        3405        3406        3457        3456
         4        3406        3407        3458        3457
         4        3407        3408        3459        3458
         4        3408        3409        3460        3459
         4        3409        3410        3461        3460
         4        3410        3411        3462        3461
         4        3411        3412        3463        3462
         4        3412        3413        3464        3463
         4        3413        3414        3465        3464
         4        3414        3415        3466        3465
         4        3415        3416        3467        3466
         4        3417        3418        3469        3468
         4        3418        3419        3470        3469
         4        3419        3420        3471        3470
         4        3420        3421        3472        3471
         4        3421        3422        3473        3472
         4        3422        3423        3474        3473
         4        3423        3424        3475        3474
         4        3424        3425        3476        3475
         4        3425        3426        3477        3476
         4        3426        3427        3478        3477
         4        3427        3428        3479        3478
         4        3428        3429        3480        3479
         4        3429        3430        3481        3480
         4        3430        3431        3482        3481
         4        3431        3432        3483        3482
         4        3432        3433        3484        3483
         4        3433        3434        3485        3484
         4        3434        3435        3486        3485
         4        3435        3436        3487        3486
         4        3436        3437        3488        3487
         4        3437        3438        3489        3488
         4        3438        3439        3490        3489
         4        3439        3440        3491        3490
         4        3440        3441        3492        3491
         4        3441        3442        3493        3492
         4        3442        3443        3494        3493
         4        3443        3444        3495        3494
         4        3444        3445        3496        3495
         4        3445        3446        3497        3496
         4        3446        3447        3498        3497
         4        3447        3448        3499        3498
         4        3448        3449        3500        3499
         4        3449        3450        3501        3500
         4        3450        3451        3502        3501
         4        3451        3452        3503        3502
         4        3452        3453        3504        3503
         4        3453        3454        3505        3504
         4        3454        3455        3506        3505
         4        3455        3456        3507        3506
         4        3456        3457        3508        3507
         4        3457        3458        3509        3508
         4        3458        3459        3510        3509
         4        3459        3460        3511        3510
         4        3460        3461        3512        3511
         4        3461        3462        3513        3512
         4        3462        3463        3514        3513
         4        3463        3464        3515        3514
         4        3464        3465        3516        3515
         4        3465        3466        3517        3516
         4        3466        3467        3518        3517
         4        3468        3469        3520        3519
         4        3469        3470        3521        3520
         4        3470        3471        3522        3521
         4        3471        3472        3523        3522
         4        3472        3473        3524        3523
         4        3473        3474        3525        3524
         4        3474        3475        3526        3525
         4        3475        3476        3527        3526
         4        3476        3477        3528        3527
         4        3477        3478        3529        3528
         4        3478        3479        3530        3529
         4        3479        3480        3531        3530
         4        3480        3481        3532        3531
         4        3481        3482        3533        3532
         4        3482        3483        3534        3533
         4        3483        3484        3535        3534
         4        3484        3485        3536        3535
         4        3485        3486        3537        3536
         4        3486        3487        3538        3537
         4        3487        3488        3539        3538
         4        3488        3489        3540        3539
         4        3489        3490        3541        3540
         4        3490        3491        3542        3541
         4        3491        3492        3543        3542
         4        3492        3493        3544        3543
         4        3493        3494        3545        3544
         4        3494        3495        3546        3545
         4        3495        3496        3547        3546
         4        3496        3497        3548        3547
         4        3497        3498        3549        3548
         4        3498        3499        3550        3549
         4        3499        3500        3551        3550
         4        3500        3501        3552        3551
         4        3501        3502        3553        3552
         4        3502        3503        3554        3553
         4        3503        3504        3555        3554
         4        3504        3505        3556        3555
         4        3505        3506        3557        3556
         4        3506        3507        3558        3557
         4        3507        3508        3559        3558
         4        3508        3509        3560        3559
         4        3509        3510        3561        3560
         4        3510        3511        3562        3561
         4        3511        3512        3563        3562
         4        3512        3513        3564        3563
         4        3513        3514        3565        3564
         4        3514        3515        3566        3565
         4        3515        3516        3567        3566
         4        3516        3517        3568        3567
         4        3517        3518        3569        3568
         4        3519        3520        3571        3570
         4        3520        3521        3572        3571
         4        3521        3522        3573        3572
         4        3522        3523        3574        3573
         4        3523        3524        3575        3574
         4        3524        3525        3576        3575
         4        3525        3526        3577        3576
         4        3526        3527        3578        3577
         4        3527        3528        3579        3578
         4        3528        3529        3580        3579
         4        3529        3530        3581        3580
         4        3530        3531        3582        3581
         4        3531        3532        3583        3582
         4        3532        3533        3584        3583
         4        3533        3534        3585        3584
         4        3534        3535        3586        3585
         4        3535        3536        3587        3586
         4        3536        3537        3588        3587
         4        3537        3538        3589        3588
         4        3538        3539        3590        3589
         4        3539        3540        3591        3590
         4        3540        3541        3592        3591
         4        3541        3542        3593        3592
         4        3542        3543        3594        3593
         4        3543        3544        3595        3594
         4        3544        3545        3596        3595
         4        3545        3546        3597        3596
         4        3546        3547        3598        3597
         4        3547        3548        3599        3598
         4        3548        3549        3600        3599
         4        3549        3550        3601        3600
         4        3550        3551        3602        3601
         4        3551        3552        3603        3602
         4        3552        3553        3604        3603
         4        3553        3554        3605        3604
         4        3554        3555        3606        3605
         4        3555        3556        3607        3606
         4        3556        3557        3608        3607
         4        3557        3558        3609        3608
         4        3558        3559        3610        3609
         4        3559        3560        3611        3610
         4        3560        3561        3612        3611
         4        3561        3562        3613        3612
         4        3562        3563        3614        3613
         4        3563        3564        3615        3614
         4        3564        3565        3616        3615
         4        3565        3566        3617        3616
         4        3566        3567        3618        3617
         4        3567        3568        3619        3618
         4        3568        3569        3620        3619
         4        3570        3571        3622        3621
         4        3571        3572        3623        3622
         4        3572        3573        3624        3623
         4        3573        3574        3625        3624
         4        3574        3575        3626        3625
         4        3575        3576        3627        3626
         4        3576        3577        3628        3627
         4        3577        3578        3629        3628
         4        3578        3579        3630        3629
         4        3579        3580        3631        3630
         4        3580        3581        3632        3631
         4        3581        3582        3633        3632
         4        3582        3583        3634        3633
         4        3583        3584        3635        3634
         4        3584        3585        3636        3635
         4        3585        3586        3637        3636
         4        3586        3587        3638        3637
         4        3587        3588        3639        3638
         4        3588        3589        3640        3639
         4        3589        3590        3641        3640
         4        3590        3591        3642        3641
         4        3591        3592        3643        3642
         4        3592        3593        3644        3643
         4        3593        3594        3645        3644
         4        3594        3595        3646        3645
         4        3595        3596        3647        3646
         4        3596        3597        3648        3647
         4        3597        3598        3649        3648
         4        3598        3599        3650        3649
         4        3599        3600        3651        3650
         4        3600        3601        3652        3651
         4        3601        3602        3653        3652
         4        3602        3603        3654        3653
         4        3603        3604        3655        3654
         4        3604        3605        3656        3655
         4        3605        3606        3657        3656
         4        3606        3607        3658        3657
         4        3607        3608        3659        3658
         4        3608        3609        3660        3659
         4        3609        3610        3661        3660
         4        3610        3611        3662        3661
         4        3611        3612        3663        3662
         4        3612        3613        3664        3663
         4        3613        3614        3665        3664
         4        3614        3615        3666        3665
         4        3615        3616        3667        3666
         4        3616        3617        3668        3667
         4        3617        3618        3669        3668
         4        3618        3619        3670        3669
         4        3619        3620        3671        3670
         4        3621        3622        3673        3672
         4        3622        3623        3674        3673
         4        3623        3624        3675        3674
         4        3624        3625        3676        3675
         4        3625        3626        3677        3676
         4        3626        3627        3678        3677
         4        3627        3628        3679        3678
         4        3628        3629        3680        3679
         4        3629        3630        3681        3680
         4        3630        3631        3682        3681
         4        3631        3632        3683        3682
         4        3632        3633        3684        3683
         4        3633        3634        3685        3684
         4        3634        3635        3686        3685
         4        3635        3636        3687        3686
         4        3636        3637        3688        3687
         4        3637        3638        3689        3688
         4        3638        3639        3690        3689
         4        3639        3640        3691        3690
         4        3640        3641        3692        3691
         4        3641        3642        3693        3692
         4        3642        3643        3694        3693
         4        3643        3644        3695        3694
         4        3644        3645        3696        3695
         4        3645        3646        3697        3696
         4        3646        3647        3698        3697
         4        3647        3648        3699        3698
         4        3648        3649        3700        3699
         4        3649        3650        3701        3700
         4        3650        3651        3702        3701
         4        3651        3652        3703        3702
         4        3652        3653        3704        3703
         4        3653        3654        3705        3704
         4        3654        3655        3706        3705
         4        3655        3656        3707        3706
         4        3656        3657        3708        3707
         4        3657        3658        3709        3708
         4        3658        3659        3710        3709
         4        3659        3660        3711        3710
         4        3660        3661        3712        3711
         4        3661        3662        3713        3712
         4        3662        3663        3714        3713
         4        3663        3664        3715        3714
         4        3664        3665        3716        3715
         4        3665        3666        3717        3716
         4        3666        3667        3718        3717
         4        3667        3668        3719        3718
         4        3668        3669        3720        3719
         4        3669        3670        3721        3720
         4        3670        3671        3722        3721
         4        3672        3673        3724        3723
         4        3673        3674        3725        3724
         4        3674        3675        3726        3725
         4        3675        3676        3727        3726
         4        3676        3677        3728        3727
         4        3677        3678        3729        3728
         4        3678        3679        3730        3729
         4        3679        3680        3731        3730
         4        3680        3681        3732        3731
         4        3681        3682        3733        3732
         4        3682        3683        3734        3733
         4        3683        3684        3735        3734
         4        3684        3685        3736        3735
         4        3685        3686        3737        3736
         4        3686        3687        3738        3737
         4        3687        3688        3739        3738
         4        3688        3689        3740        3739
         4        3689        3690        3741        3740
         4        3690        3691        3742        3741
         4        3691        3692        3743        3742
         4        3692        3693        3744        3743
         4        3693        3694        3745        3744
         4        3694        3695        3746        3745
         4        3695        3696        3747        3746
         4        3696        3697        3748        3747
         4        3697        3698        3749        3748
         4        3698        3699        3750        3749
         4        3699        3700        3751        3750
         4        3700        3701        3752        3751
         4        3701        3702        3753        3752
         4        3702        3703        3754        3753
         4        3703        3704        3755        3754
         4        3704        3705        3756        3755
         4        3705        3706        3757        3756
         4        3706        3707        3758        3757
         4        3707        3708        3759        3758
         4        3708        3709        3760        3759
         4        3709        3710        3761        3760
         4        3710        3711        3762        3761
         4        3711        3712        3763        3762
         4        3712        3713        3764        3763
         4        3713        3714        3765        3764
         4        3714        3715        3766        3765
         4        3715        3716        3767        3766
         4        3716        3717        3768        3767
         4        3717        3718        3769        3768
         4        3718        3719        3770        3769
         4        3719        3720        3771        3770
         4        3720        3721        3772        3771
         4        3721        3722        3773        3772
         4        3723        3724        3775        3774
         4        3724        3725        3776        3775
         4        3725        3726        3777        3776
         4        3726        3727        3778        3777
         4        3727        3728        3779        3778
         4        3728        3729        3780        3779
         4        3729        3730        3781        3780
         4        3730        3731        3782        3781
         4        3731        3732        3783        3782
         4        3732        3733        3784        3783
         4        3733        3734        3785        3784
         4        3734        3735        3786        3785
         4        3735        3736        3787        3786
         4        3736        3737        3788        3787
         4        3737        3738        3789        3788
         4        3738        3739        3790        3789
         4        3739        3740        3791        3790
         4        3740        3741        3792        3791
         4        3741        3742        3793        3792
         4        3742        3743        3794        3793
         4        3743        3744        3795        3794
         4        3744        3745        3796        3795
         4        3745        3746        3797        3796
         4        3746        3747        3798        3797
         4        3747        3748        3799        3798
         4        3748        3749        3800        3799
         4        3749        3750        3801        3800
         4        3750        3751        3802        3801
         4        3751        3752        3803        3802
         4        3752        3753        3804        3803
         4        3753        3754        3805        3804
         4        3754        3755        3806        3805
         4        3755        3756        3807        3806
         4        3756        3757        3808        3807
         4        3757        3758        3809        3808
         4        3758        3759        3810        3809
         4        3759        3760        3811        3810
         4        3760        3761        3812        3811
         4        3761        3762        3813        3812
         4        3762        3763        3814        3813
         4        3763        3764        3815        3814
         4        3764        3765        3816        3815
         4        3765        3766        3817        3816
         4        3766        3767        3818        3817
         4        3767        3768        3819        3818
         4        3768        3769        3820        3819
         4        3769        3770        3821        3820
         4        3770        3771        3822        3821
         4        3771        3772        3823        3822
         4        3772        3773        3824        3823
         4        3774        3775        3826        3825
         4        3775        3776        3827        3826
         4        3776        3777        3828        3827
         4        3777        3778        3829        3828
         4        3778        3779        3830        3829
         4        3779        3780        3831        3830
         4        3780        3781        3832        3831
         4        3781        3782        3833        3832
         4        3782        3783        3834        3833
         4        3783        3784        3835        3834
         4        3784        3785        3836        3835
         4        3785        3786        3837        3836
         4        3786        3787        3838        3837
         4        3787        3788        3839        3838
         4        3788        3789        3840        3839
         4        3789        3790        3841        3840
         4        3790        3791        3842        3841
         4        3791        3792        3843        3842
         4        3792        3793        3844        3843
         4        3793        3794        3845        3844
         4        3794        3795        3846        3845
         4        3795        3796        3847        3846
         4        3796        3797        3848        3847
         4        3797        3798        3849        3848
         4        3798        3799        3850        3849
         4        3799        3800        3851        3850
         4        3800        3801        3852        3851
         4        3801        3802        3853        3852
         4        3802        3803        3854        3853
         4        3803        3804        3855        3854
         4        3804        3805        3856        3855
         4        3805        3806        3857        3856
         4        3806        3807        3858        3857
         4        3807        3808        3859        3858
         4        3808        3809        3860        3859
         4        3809        3810        3861        3860
         4        3810        3811        3862        3861
         4        3811        3812        3863        3862
         4        3812        3813        3864        3863
         4        3813        3814        3865        3864
         4        3814        3815        3866        3865
         4        3815        3816        3867        3866
         4        3816        3817        3868        3867
         4        3817        3818        3869        3868
         4        3818        3819        3870        3869
         4        3819        3820        3871        3870
         4        3820        3821        3872        3871
         4        3821        3822        3873        3872
         4        3822        3823        3874        3873
         4        3823        3824        3875        3874
         4        3825        3826        3877        3876
         4        3826        3827        3878        3877
         4        3827        3828        3879        3878
         4        3828        3829        3880        3879
         4        3829        3830        3881        3880
         4        3830        3831        3882        3881
         4        3831        3832        3883        3882
         4        3832        3833        3884        3883
         4        3833        3834        3885        3884
         4        3834        3835        3886        3885
         4        3835        3836        3887        3886
         4        3836        3837        3888        3887
         4        3837        3838        3889        3888
         4        3838        3839        3890        3889
         4        3839        3840        3891        3890
         4        3840        3841        3892        3891
         4        3841        3842        3893        3892
         4        3842        3843        3894        3893
         4        3843        3844        3895        3894
         4        3844        3845        3896        3895
         4        3845        3846        3897        3896
         4        3846        3847        3898        3897
         4        3847        3848        3899        3898
         4        3848        3849        3900        3899
         4        3849        3850        3901        3900
         4        3850        3851        3902        3901
         4        3851        3852        3903        3902
         4        3852        3853        3904        3903
         4        3853        3854        3905        3904
         4        3854        3855        3906        3905
         4        3855        3856        3907        3906
         4        3856        3857        3908        3907
         4        3857        3858        3909        3908
         4        3858        3859        3910        3909
         4        3859        3860        3911        3910
         4        3860        3861        3912        3911
         4        3861        3862        3913        3912
         4        3862        3863        3914        3913
         4        3863        3864        3915        3914
         4        3864        3865        3916        3915
         4        3865        3866        3917        3916
         4        3866        3867        3918        3917
         4        3867        3868        3919        3918
         4        3868        3869        3920        3919
         4        3869        3870        3921        3920
         4        3870        3871        3922        3921
         4        3871        3872        3923        3922
         4        3872        3873        3924        3923
         4        3873        3874        3925        3924
         4        3874        3875        3926        3925
         4        3876        3877        3928        3927
         4        3877        3878        3929        3928
         4        3878        3879        3930        3929
         4        3879        3880        3931        3930
         4        3880        3881        3932        3931
         4        3881        3882        3933        3932
         4        3882        3883        3934        3933
         4        3883        3884        3935        3934
         4        3884        3885        3936        3935
         4        3885        3886        3937        3936
         4        3886        3887        3938        3937
         4        3887        3888        3939        3938
         4        3888        3889        3940        3939
         4        3889        3890        3941        3940
         4        3890        3891        3942        3941
         4        3891        3892        3943        3942
         4        3892        3893        3944        3943
         4        3893        3894        3945        3944
         4        3894        3895        3946        3945
         4        3895        3896        3947        3946
         4        3896        3897        3948        3947
         4        3897        3898        3949        3948
         4        3898        3899        3950        3949
         4        3899        3900        3951        3950
         4        3900        3901        3952        3951
         4        3901        3902        3953        3952
         4        3902        3903        3954        3953
         4        3903        3904        3955        3954
         4        3904        3905        3956        3955
         4        3905        3906        3957        3956
         4        3906        3907        3958        3957
         4        3907        3908        3959        3958
         4        3908        3909        3960        3959
         4        3909        3910        3961        3960
         4        3910        3911        3962        3961
         4        3911        3912        3963        3962
         4        3912        3913        3964        3963
         4        3913        3914        3965        3964
         4        3914        3915        3966        3965
         4        3915        3916        3967        3966
         4        3916        3917        3968        3967
         4        3917        3918        3969        3968
         4        3918        3919        3970        3969
         4        3919        3920        3971        3970
         4        3920        3921        3972        3971
         4        3921        3922        3973        3972
         4        3922        3923        3974        3973
         4        3923        3924        3975        3974
         4        3924        3925        3976        3975
         4        3925        3926        3977        3976
         4        3927        3928        3979        3978
         4        3928        3929        3980        3979
         4        3929        3930        3981        3980
         4        3930        3931        3982        3981
         4        3931        3932        3983        3982
         4        3932        3933        3984        3983
         4        3933        3934        3985        3984
         4        3934        3935        3986        3985
         4        3935        3936        3987        3986
         4        3936        3937        3988        3987
         4        3937        3938        3989        3988
         4        3938        3939        3990        3989
         4        3939        3940        3991        3990
         4        3940        3941        3992        3991
         4        3941        3942        3993        3992
         4        3942        3943        3994        3993
         4        3943        3944        3995        3994
         4        3944        3945        3996        3995
         4        3945        3946        3997        3996
         4        3946        3947        3998        3997
         4        3947        3948        3999        3998
         4        3948        3949        4000        3999
         4        3949        3950        4001        4000
         4        3950        3951        4002        4001
         4        3951        3952        4003        4002
         4        3952        3953        4004        4003
         4        3953        3954        4005        4004
         4        3954        3955        4006        4005
         4        3955        3956        4007        4006
         4        3956        3957        4008        4007
         4        3957        3958        4009        4008
         4        3958        3959        4010        4009
         4        3959        3960        4011        4010
         4        3960        3961        4012        4011
         4        3961        3962        4013        4012
         4        3962        3963        4014        4013
         4        3963        3964        4015        4014
         4        3964        3965        4016        4015
         4        3965        3966        4017        4016
         4        3966        3967        4018        4017
         4        3967        3968        4019        4018
         4        3968        3969        4020        4019
         4        3969        3970        4021        4020
         4        3970        3971        4022        4021
         4        3971        3972        4023        4022
         4        3972        3973        4024        4023
         4        3973        3974        4025        4024
         4        3974        3975        4026        4025
         4        3975        3976        4027        4026
         4        3976        3977        4028        4027
         4        3978        3979        4030        4029
         4        3979        3980        4031        4030
         4        3980        3981        4032        4031
         4        3981        3982        4033        4032
         4        3982        3983        4034        4033
         4        3983        3984        4035        4034
         4        3984        3985        4036        4035
         4        3985        3986        4037        4036
         4        3986        3987        4038        4037
         4        3987        3988        4039        4038
         4        3988        3989        4040        4039
         4        3989        3990        4041        4040
         4        3990        3991        4042        4041
         4        3991        3992        4043        4042
         4        3992        3993        4044        4043
         4        3993        3994        4045        4044
         4        3994        3995        4046        4045
         4        3995        3996        4047        4046
         4        3996        3997        4048        4047
         4        3997        3998        4049        4048
         4        3998        3999        4050        4049
         4        3999        4000        4051        4050
         4        4000        4001        4052        4051
         4        4001        4002        4053        4052
         4        4002        4003        4054        4053
         4        4003        4004        4055        4054
         4        4004        4005        4056        4055
         4        4005        4006        4057        4056
         4        4006        4007        4058        4057
         4        4007        4008        4059        4058
         4        4008        4009        4060        4059
         4        4009        4010        4061        4060
         4        4010        4011        4062        4061
         4        4011        4012        4063        4062
         4        4012        4013        4064        4063
         4        4013        4014        4065        4064
         4        4014        4015        4066        4065
         4        4015        4016        4067        4066
         4        4016        4017        4068        4067
         4        4017        4018        4069        4068
         4        4018        4019        4070        4069
         4        4019        4020        4071        4070
         4        4020        4021        4072        4071
         4        4021        4022        4073        4072
         4        4022        4023        4074        4073
         4        4023        4024        4075        4074
         4        4024        4025        4076        4075
         4        4025        4026        4077        4076
         4        4026        4027        4078        4077
         4        4027        4028        4079        4078
         4        4029        4030        4081        4080
         4        4030        4031        4082        4081
         4        4031        4032        4083        4082
         4        4032        4033        4084        4083
         4        4033        4034        4085        4084
         4        4034        4035        4086        4085
         4        4035        4036        4087        4086
         4        4036        4037        4088        4087
         4        4037        4038        4089        4088
         4        4038        4039        4090        4089
         4        4039        4040        4091        4090
         4        4040        4041        4092        4091
         4        4041        4042        4093        4092
         4        4042        4043        4094        4093
         4        4043        4044        4095        4094
         4        4044        4045        4096        4095
         4        4045        4046        4097        4096
         4        4046        4047        4098        4097
         4        4047        4048        4099        4098
         4        4048        4049        4100        4099
         4        4049        4050        4101        4100
         4        4050        4051        4102        4101
         4        4051        4052        4103        4102
         4        4052        4053        4104        4103
         4        4053        4054        4105        4104
         4        4054        4055        4106        4105
         4        4055        4056        4107        4106
         4        4056        4057        4108        4107
         4        4057        4058        4109        4108
         4        4058        4059        4110        4109
         4        4059        4060        4111        4110
         4        4060        4061        4112        4111
         4        4061        4062        4113        4112
         4        4062        4063        4114        4113
         4        4063        4064        4115        4114
         4        4064        4065        4116        4115
         4        4065        4066        4117        4116
         4        4066        4067        4118        4117
         4        4067        4068        4119        4118
         4        4068        4069        4120        4119
         4        4069        4070        4121        4120
         4        4070        4071        4122        4121
         4        4071        4072        4123        4122
         4        4072        4073        4124        4123
         4        4073        4074        4125        4124
         4        4074        4075        4126        4125
         4        4075        4076        4127        4126
         4        4076        4077        4128        4127
         4        4077        4078        4129        4128
         4        4078        4079        4130        4129
         4        4080        4081        4132        4131
         4        4081        4082        4133        4132
         4        4082        4083        4134        4133
         4        4083        4084        4135        4134
         4        4084        4085        4136        4135
         4        4085        4086        4137        4136
         4        4086        4087        4138        4137
         4        4087        4088        4139        4138
         4        4088        4089        4140        4139
         4        4089        4090        4141        4140
         4        4090        4091        4142        4141
         4        4091        4092        4143        4142
         4        4092        4093        4144        4143
         4        4093        4094        4145        4144
         4        4094        4095        4146        4145
         4        4095        4096        4147        4146
         4        4096        4097        4148        4147
         4        4097        4098        4149        4148
         4        4098        4099        4150        4149
         4        4099        4100        4151        4150
         4        4100        4101        4152        4151
         4        4101        4102        4153        4152
         4        4102        4103        4154        4153
         4        4103        4104        4155        4154
         4        4104        4105        4156        4155
         4        4105        4106        4157        4156
         4        4106        4107        4158        4157
         4        4107        4108        4159        4158
         4        4108        4109        4160        4159
         4        4109        4110        4161        4160
         4        4110        4111        4162        4161
         4        4111        4112        4163        4162
         4        4112        4113        4164        4163
         4        4113        4114        4165        4164
         4        4114        4115        4166        4165
         4        4115        4116        4167        4166
         4        4116        4117        4168        4167
         4        4117        4118        4169        4168
         4        4118        4119        4170        4169
         4        4119        4120        4171        4170
         4        4120        4121        4172        4171
         4        4121        4122        4173        4172
         4        4122        4123        4174        4173
         4        4123        4124        4175        4174
         4        4124        4125        4176        4175
         4        4125        4126        4177        4176
         4        4126        4127        4178        4177
         4        4127        4128        4179        4178
         4        4128        4129        4180        4179
         4        4129        4130        4181        4180
         4        4131        4132        4183        4182
         4        4132        4133        4184        4183
         4        4133        4134        4185        4184
         4        4134        4135        4186        4185
         4        4135        4136        4187        4186
         4        4136        4137        4188        4187
         4        4137        4138        4189        4188
         4        4138        4139        4190        4189
         4        4139        4140        4191        4190
         4        4140        4141        4192        4191
         4        4141        4142        4193        4192
         4        4142        4143        4194        4193
         4        4143        4144        4195        4194
         4        4144        4145        4196        4195
         4        4145        4146        4197        4196
         4        4146        4147        4198        4197
         4        4147        4148        4199        4198
         4        4148        4149        4200        4199
         4        4149        4150        4201        4200
         4        4150        4151        4202        4201
         4        4151        4152        4203        4202
         4        4152        4153        4204        4203
         4        4153        4154        4205        4204
         4        4154        4155        4206        4205
         4        4155        4156        4207        4206
         4        4156        4157        4208        4207
         4        4157        4158        4209        4208
         4        4158        4159        4210        4209
         4        4159        4160        4211        4210
         4        4160        4161        4212        4211
         4        4161        4162        4213        4212
         4        4162        4163        4214        4213
         4        4163        4164        4215        4214
         4        4164        4165        4216        4215
         4        4165        4166        4217        4216
         4        4166        4167        4218        4217
         4        4167        4168        4219        4218
         4        4168        4169        4220        4219
         4        4169        4170        4221        4220
         4        4170        4171        4222        4221
         4        4171        4172        4223        4222
         4        4172        4173        4224        4223
         4        4173        4174        4225        4224
         4        4174        4175        4226        4225
         4        4175        4176        4227        4226
         4        4176        4177        4228        4227
         4        4177        4178        4229        4228
         4        4178        4179        4230        4229
         4        4179        4180        4231        4230
         4        4180        4181        4232        4231
         4        4182        4183        4234        4233
         4        4183        4184        4235        4234
         4        4184        4185        4236        4235
         4        4185        4186        4237        4236
         4        4186        4187        4238        4237
         4        4187        4188        4239        4238
         4        4188        4189        4240        4239
         4        4189        4190        4241        4240
         4        4190        4191        4242        4241
         4        4191        4192        4243        4242
         4        4192        4193        4244        4243
         4        4193        4194        4245        4244
         4        4194        4195        4246        4245
         4        4195        4196        4247        4246
         4        4196        4197        4248        4247
         4        4197        4198        4249        4248
         4        4198        4199        4250        4249
         4        4199        4200        4251        4250
         4        4200        4201        4252        4251
         4        4201        4202        4253        4252
         4        4202        4203        4254        4253
         4        4203        4204        4255        4254
         4        4204        4205        4256        4255
         4        4205        4206        4257        4256
         4        4206        4207        4258        4257
         4        4207        4208        4259        4258
         4        4208        4209        4260        4259
         4        4209        4210        4261        4260
         4        4210        4211        4262        4261
         4        4211        4212        4263        4262
         4        4212        4213        4264        4263
         4        4213        4214        4265        4264
         4        4214        4215        4266        4265
         4        4215        4216        4267        4266
         4        4216        4217        4268        4267
         4        4217        4218        4269        4268
         4        4218        4219        4270        4269
         4        4219        4220        4271        4270
         4        4220        4221        4272        4271
         4        4221        4222        4273        4272
         4        4222        4223        4274        4273
         4        4223        4224        4275        4274
         4        4224        4225        4276        4275
         4        4225        4226        4277        4276
         4        4226        4227        4278        4277
         4        4227        4228        4279        4278
         4        4228        4229        4280        4279
         4        4229        4230        4281        4280
         4        4230        4231        4282        4281
         4        4231        4232        4283        4282
         4        4233        4234        4285        4284
         4        4234        4235        4286        4285
         4        4235        4236        4287        4286
         4        4236        4237        4288        4287
         4        4237        4238        4289        4288
         4        4238        4239        4290        4289
         4        4239        4240        4291        4290
         4        4240        4241        4292        4291
         4        4241        4242        4293        4292
         4        4242        4243        4294        4293
         4        4243        4244        4295        4294
         4        4244        4245        4296        4295
         4        4245        4246        4297        4296
         4        4246        4247        4298        4297
         4        4247        4248        4299        4298
         4        4248        4249        4300        4299
         4        4249        4250        4301        4300
         4        4250        4251        4302        4301
         4        4251        4252        4303        4302
         4        4252        4253        4304        4303
         4        4253        4254        4305        4304
         4        4254        4255        4306        4305
         4        4255        4256        4307        4306
         4        4256        4257        4308        4307
         4        4257        4258        4309        4308
         4        4258        4259        4310        4309
         4        4259        4260        4311        4310
         4        4260        4261        4312        4311
         4        4261        4262        4313        4312
         4        4262        4263        4314        4313
         4        4263        4264        4315        4314
         4        4264        4265        4316        4315
         4        4265        4266        4317        4316
         4        4266        4267        4318        4317
         4        4267        4268        4319        4318
         4        4268        4269        4320        4319
         4        4269        4270        4321        4320
         4        4270        4271        4322        4321
         4        4271        4272        4323        4322
         4        4272        4273        4324        4323
         4        4273        4274        4325        4324
         4        4274        4275        4326        4325
         4        4275        4276        4327        4326
         4        4276        4277        4328        4327
         4        4277        4278        4329        4328
         4        4278        4279        4330        4329
         4        4279        4280        4331        4330
         4        4280        4281        4332        4331
         4        4281        4282        4333        4332
         4        4282        4283        4334        4333
         4        4284        4285        4336        4335
         4        4285        4286        4337        4336
         4        4286        4287        4338        4337
         4        4287        4288        4339        4338
         4        4288        4289        4340        4339
         4        4289        4290        4341        4340
         4        4290        4291        4342        4341
         4        4291        4292        4343        4342
         4        4292        4293        4344        4343
         4        4293        4294        4345        4344
         4        4294        4295        4346        4345
         4        4295        4296        4347        4346
         4        4296        4297        4348        4347
         4        4297        4298        4349        4348
         4        4298        4299        4350        4349
         4        4299        4300        4351        4350
         4        4300        4301        4352        4351
         4        4301        4302        4353        4352
         4        4302        4303        4354        4353
         4        4303        4304        4355        4354
         4        4304        4305        4356        4355
         4        4305        4306        4357        4356
         4        4306        4307        4358        4357
         4        4307        4308        4359        4358
         4        4308        4309        4360        4359
         4        4309        4310        4361        4360
         4        4310        4311        4362        4361
         4        4311        4312        4363        4362
         4        4312        4313        4364        4363
         4        4313        4314        4365        4364
         4        4314        4315        4366        4365
         4        4315        4316        4367        4366
         4        4316        4317        4368        4367
         4        4317        4318        4369        4368
         4        4318        4319        4370        4369
         4        4319        4320        4371        4370
         4        4320        4321        4372        4371
         4        4321        4322        4373        4372
         4        4322        4323        4374        4373
         4        4323        4324        4375        4374
         4        4324        4325        4376        4375
         4        4325        4326        4377        4376
         4        4326        4327        4378        4377
         4        4327        4328        4379        4378
         4        4328        4329        4380        4379
         4        4329        4330        4381        4380
         4        4330        4331        4382        4381
         4        4331        4332        4383        4382
         4        4332        4333        4384        4383
         4        4333        4334        4385        4384
         4        4335        4336        4387        4386
         4        4336        4337        4388        4387
         4        4337        4338        4389        4388
         4        4338        4339        4390        4389
         4        4339        4340        4391        4390
         4        4340        4341        4392        4391
         4        4341        4342        4393        4392
         4        4342        4343        4394        4393
         4        4343        4344        4395        4394
         4        4344        4345        4396        4395
         4        4345        4346        4397        4396
         4        4346        4347        4398        4397
         4        4347        4348        4399        4398
         4        4348        4349        4400        4399
         4        4349        4350        4401        4400
         4        4350        4351        4402        4401
         4        4351        4352        4403        4402
         4        4352        4353        4404        4403
         4        4353        4354        4405        4404
         4        4354        4355        4406        4405
         4        4355        4356        4407        4406
         4        4356        4357        4408        4407
         4        4357        4358        4409        4408
         4        4358        4359        4410        4409
         4        4359        4360        4411        4410
         4        4360        4361        4412        4411
         4        4361        4362        4413        4412
         4        4362        4363        4414        4413
         4        4363        4364        4415        4414
         4        4364        4365        4416        4415
         4        4365        4366        4417        4416
         4        4366        4367        4418        4417
         4        4367        4368        4419        4418
         4        4368        4369        4420        4419
         4        4369        4370        4421        4420
         4        4370        4371        4422        4421
         4        4371        4372        4423        4422
         4        4372        4373        4424        4423
         4        4373        4374        4425        4424
         4        4374        4375        4426        4425
         4        4375        4376        4427        4426
         4        4376        4377        4428        4427
         4        4377        4378        4429        4428
         4        4378        4379        4430        4429
         4        4379        4380        4431        4430
         4        4380        4381        4432        4431
         4        4381        4382        4433        4432
         4        4382        4383        4434        4433
         4        4383        4384        4435        4434
         4        4384        4385        4436        4435
         4        4386        4387        4438        4437
         4        4387        4388        4439        4438
         4        4388        4389        4440        4439
         4        4389        4390        4441        4440
         4        4390        4391        4442        4441
         4        4391        4392        4443        4442
         4        4392        4393        4444        4443
         4        4393        4394        4445        4444
         4        4394        4395        4446        4445
         4        4395        4396        4447        4446
         4        4396        4397        4448        4447
         4        4397        4398        4449        4448
         4        4398        4399        4450        4449
         4        4399        4400        4451        4450
         4        4400        4401        4452        4451
         4        4401        4402        4453        4452
         4        4402        4403        4454        4453
         4        4403        4404        4455        4454
         4        4404        4405        4456        4455
         4        4405        4406        4457        4456
         4        4406        4407        4458        4457
         4        4407        4408        4459        4458
         4        4408        4409        4460        4459
         4        4409        4410        4461        4460
         4        4410        4411        4462        4461
         4        4411        4412        4463        4462
         4        4412        4413        4464        4463
         4        4413        4414        4465        4464
         4        4414        4415        4466        4465
         4        4415        4416        4467        4466
         4        4416        4417        4468        4467
         4        4417        4418        4469        4468
         4        4418        4419        4470        4469
         4        4419        4420        4471        4470
         4        4420        4421        4472        4471
         4        4421        4422        4473        4472
         4        4422        4423        4474        4473
         4        4423        4424        4475        4474
         4        4424        4425        4476        4475
         4        4425        4426        4477        4476
         4        4426        4427        4478        4477
         4        4427        4428        4479        4478
         4        4428        4429        4480        4479
         4        4429        4430        4481        4480
         4        4430        4431        4482        4481
         4        4431        4432        4483        4482
         4        4432        4433        4484        4483
         4        4433        4434        4485        4484
         4        4434        4435        4486        4485
         4        4435        4436        4487        4486
         4        4437        4438        4489        4488
         4        4438        4439        4490        4489
         4        4439        4440        4491        4490
         4        4440        4441        4492        4491
         4        4441        4442        4493        4492
         4        4442        4443        4494        4493
         4        4443        4444        4495        4494
         4        4444        4445        4496        4495
         4        4445        4446        4497        4496
         4        4446        4447        4498        4497
         4        4447        4448        4499        4498
         4        4448        4449        4500        4499
         4        4449        4450        4501        4500
         4        4450        4451        4502        4501
         4        4451        4452        4503        4502
         4        4452        4453        4504        4503
         4        4453        4454        4505        4504
         4        4454        4455        4506        4505
         4        4455        4456        4507        4506
         4        4456        4457        4508        4507
         4        4457        4458        4509        4508
         4        4458        4459        4510        4509
         4        4459        4460        4511        4510
         4        4460        4461        4512        4511
         4        4461        4462        4513        4512
         4        4462        4463        4514        4513
         4        4463        4464        4515        4514
         4        4464        4465        4516        4515
         4        4465        4466        4517        4516
         4        4466        4467        4518        4517
         4        4467        4468        4519        4518
         4        4468        4469        4520        4519
         4        4469        4470        4521        4520
         4        4470        4471        4522        4521
         4        4471        4472        4523        4522
         4        4472        4473        4524        4523
         4        4473        4474        4525        4524
         4        4474        4475        4526        4525
         4        4475        4476        4527        4526
         4        4476        4477        4528        4527
         4        4477        4478        4529        4528
         4        4478        4479        4530        4529
         4        4479        4480        4531        4530
         4        4480        4481        4532        4531
         4        4481        4482        4533        4532
         4        4482        4483        4534        4533
         4        4483        4484        4535        4534
         4        4484        4485        4536        4535
         4        4485        4486        4537        4536
         4        4486        4487        4538        4537
         4        4488        4489        4540        4539
         4        4489        4490        4541        4540
         4        4490        4491        4542        4541
         4        4491        4492        4543        4542
         4        4492        4493        4544        4543
         4        4493        4494        4545        4544
         4        4494        4495        4546        4545
         4        4495        4496        4547        4546
         4        4496        4497        4548        4547
         4        4497        4498        4549        4548
         4        4498        4499        4550        4549
         4        4499        4500        4551        4550
         4        4500        4501        4552        4551
         4        4501        4502        4553        4552
         4        4502        4503        4554        4553
         4        4503        4504        4555        4554
         4        4504        4505        4556        4555
         4        4505        4506        4557        4556
         4        4506        4507        4558        4557
         4        4507        4508        4559        4558
         4        4508        4509        4560        4559
         4        4509        4510        4561        4560
         4        4510        4511        4562        4561
         4        4511        4512        4563        4562
         4        4512        4513        4564        4563
         4        4513        4514        4565        4564
         4        4514        4515        4566        4565
         4        4515        4516        4567        4566
         4        4516        4517        4568        4567
         4        4517        4518        4569        4568
         4        4518        4519        4570        4569
         4        4519        4520        4571        4570
         4        4520        4521        4572        4571
         4        4521        4522        4573        4572
         4        4522        4523        4574        4573
         4        4523        4524        4575        4574
         4        4524        4525        4576        4575
         4        4525        4526        4577        4576
         4        4526        4527        4578        4577
         4        4527        4528        4579        4578
         4        4528        4529        4580        4579
         4        4529        4530        4581        4580
         4        4530        4531        4582        4581
         4        4531        4532        4583        4582
         4        4532        4533        4584        4583
         4        4533        4534        4585        4584
         4        4534        4535        4586        4585
         4        4535        4536        4587        4586
         4        4536        4537        4588        4587
         4        4537        4538        4589        4588
         4        4539        4540        4591        4590
         4        4540        4541        4592        4591
         4        4541        4542        4593        4592
         4        4542        4543        4594        4593
         4        4543        4544        4595        4594
         4        4544        4545        4596        4595
         4        4545        4546        4597        4596
         4        4546        4547        4598        4597
         4        4547        4548        4599        4598
         4        4548        4549        4600        4599
         4        4549        4550        4601        4600
         4        4550        4551        4602        4601
         4        4551        4552        4603        4602
         4        4552        4553        4604        4603
         4        4553        4554        4605        4604
         4        4554        4555        4606        4605
         4        4555        4556        4607        4606
         4        4556        4557        4608        4607
         4        4557        4558        4609        4608
         4        4558        4559        4610        4609
         4        4559        4560        4611        4610
         4        4560        4561        4612        4611
         4        4561        4562        4613        4612
         4        4562        4563        4614        4613
         4        4563        4564        4615        4614
         4        4564        4565        4616        4615
         4        4565        4566        4617        4616
         4        4566        4567        4618        4617
         4        4567        4568        4619        4618
         4        4568        4569        4620        4619
         4        4569        4570        4621        4620
         4        4570        4571        4622        4621
         4        4571        4572        4623        4622
         4        4572        4573        4624        4623
         4        4573        4574        4625        4624
         4        4574        4575        4626        4625
         4        4575        4576        4627        4626
         4        4576        4577        4628        4627
         4        4577        4578        4629        4628
         4        4578        4579        4630        4629
         4        4579        4580        4631        4630
         4        4580        4581        4632        4631
         4        4581        4582        4633        4632
         4        4582        4583        4634        4633
         4        4583        4584        4635        4634
         4        4584        4585        4636        4635
         4        4585        4586        4637        4636
         4        4586        4587        4638        4637
         4        4587        4588        4639        4638
         4        4588        4589        4640        4639
         4        4590        4591        4642        4641
         4        4591        4592        4643        4642
         4        4592        4593        4644        4643
         4        4593        4594        4645        4644
         4        4594        4595        4646        4645
         4        4595        4596        4647        4646
         4        4596        4597        4648        4647
         4        4597        4598        4649        4648
         4        4598        4599        4650        4649
         4        4599        4600        4651        4650
         4        4600        4601        4652        4651
         4        4601        4602        4653        4652
         4        4602        4603        4654        4653
         4        4603        4604        4655        4654
         4        4604        4605        4656        4655
         4        4605        4606        4657        4656
         4        4606        4607        4658        4657
         4        4607        4608        4659        4658
         4        4608        4609        4660        4659
         4        4609        4610        4661        4660
         4        4610        4611        4662        4661
         4        4611        4612        4663        4662
         4        4612        4613        4664        4663
         4        4613        4614        4665        4664
         4        4614        4615        4666        4665
         4        4615        4616        4667        4666
         4        4616        4617        4668        4667
         4        4617        4618        4669        4668
         4        4618        4619        4670        4669
         4        4619        4620        4671        4670
         4        4620        4621        4672        4671
         4        4621        4622        4673        4672
         4        4622        4623        4674        4673
         4        4623        4624        4675        4674
         4        4624        4625        4676        4675
         4        4625        4626        4677        4676
         4        4626        4627        4678        4677
         4        4627        4628        4679        4678
         4        4628        4629        4680        4679
         4        4629        4630        4681        4680
         4        4630        4631        4682        4681
         4        4631        4632        4683        4682
         4        4632        4633        4684        4683
         4        4633        4634        4685        4684
         4        4634        4635        4686        4685
         4        4635        4636        4687        4686
         4        4636        4637        4688        4687
         4        4637        4638        4689        4688
         4        4638        4639        4690        4689
         4        4639        4640        4691        4690
         4        4641        4642        4693        4692
         4        4642        4643        4694        4693
         4        4643        4644        4695        4694
         4        4644        4645        4696        4695
         4        4645        4646        4697        4696
         4        4646        4647        4698        4697
         4        4647        4648        4699        4698
         4        4648        4649        4700        4699
         4        4649        4650        4701        4700
         4        4650        4651        4702        4701
         4        4651        4652        4703        4702
         4        4652        4653        4704        4703
         4        4653        4654        4705        4704
         4        4654        4655        4706        4705
         4        4655        4656        4707        4706
         4        4656        4657        4708        4707
         4        4657        4658        4709        4708
         4        4658        4659        4710        4709
         4        4659        4660        4711        4710
         4        4660        4661        4712        4711
         4        4661        4662        4713        4712
         4        4662        4663        4714        4713
         4        4663        4664        4715        4714
         4        4664        4665        4716        4715
         4        4665        4666        4717        4716
         4        4666        4667        4718        4717
         4        4667        4668        4719        4718
         4        4668        4669        4720        4719
         4        4669        4670        4721        4720
         4        4670        4671        4722        4721
         4        4671        4672        4723        4722
         4        4672        4673        4724        4723
         4        4673        4674        4725        4724
         4        4674        4675        4726        4725
         4        4675        4676        4727        4726
         4        4676        4677        4728        4727
         4        4677        4678        4729        4728
         4        4678        4679        4730        4729
         4        4679        4680        4731        4730
         4        4680        4681        4732        4731
         4        4681        4682        4733        4732
         4        4682        4683        4734        4733
         4        4683        4684        4735        4734
         4        4684        4685        4736        4735
         4        4685        4686        4737        4736
         4        4686        4687        4738        4737
         4        4687        4688        4739        4738
         4        4688        4689        4740        4739
         4        4689        4690        4741        4740
         4        4690        4691        4742        4741
         4        4692        4693        4744        4743
         4        4693        4694        4745        4744
         4        4694        4695        4746        4745
         4        4695        4696        4747        4746
         4        4696        4697        4748        4747
         4        4697        4698        4749        4748
         4        4698        4699        4750        4749
         4        4699        4700        4751        4750
         4        4700        4701        4752        4751
         4        4701        4702        4753        4752
         4        4702        4703        4754        4753
         4        4703        4704        4755        4754
         4        4704        4705        4756        4755
         4        4705        4706        4757        4756
         4        4706        4707        4758        4757
         4        4707        4708        4759        4758
         4        4708        4709        4760        4759
         4        4709        4710        4761        4760
         4        4710        4711        4762        4761
         4        4711        4712        4763        4762
         4        4712        4713        4764        4763
         4        4713        4714        4765        4764
         4        4714        4715        4766        4765
         4        4715        4716        4767        4766
         4        4716        4717        4768        4767
         4        4717        4718        4769        4768
         4        4718        4719        4770        4769
         4        4719        4720        4771        4770
         4        4720        4721        4772        4771
         4        4721        4722        4773        4772
         4        4722        4723        4774        4773
         4        4723        4724        4775        4774
         4        4724        4725        4776        4775
         4        4725        4726        4777        4776
         4        4726        4727        4778        4777
         4        4727        4728        4779        4778
         4        4728        4729        4780        4779
         4        4729        4730        4781        4780
         4        4730        4731        4782        4781
         4        4731        4732        4783        4782
         4        4732        4733        4784        4783
         4        4733        4734        4785        4784
         4        4734        4735        4786        4785
         4        4735        4736        4787        4786
         4        4736        4737        4788        4787
         4        4737        4738        4789        4788
         4        4738        4739        4790        4789
         4        4739        4740        4791        4790
         4        4740        4741        4792        4791
         4        4741        4742        4793        4792
         4        4743        4744        4795        4794
         4        4744        4745        4796        4795
         4        4745        4746        4797        4796
         4        4746        4747        4798        4797
         4        4747        4748        4799        4798
         4        4748        4749        4800        4799
         4        4749        4750        4801        4800
         4        4750        4751        4802        4801
         4        4751        4752        4803        4802
         4        4752        4753        4804        4803
         4        4753        4754        4805        4804
         4        4754        4755        4806        4805
         4        4755        4756        4807        4806
         4        4756        4757        4808        4807
         4        4757        4758        4809        4808
         4        4758        4759        4810        4809
         4        4759        4760        4811        4810
         4        4760        4761        4812        4811
         4        4761        4762        4813        4812
         4        4762        4763        4814        4813
         4        4763        4764        4815        4814
         4        4764        4765        4816        4815
         4        4765        4766        4817        4816
         4        4766        4767        4818        4817
         4        4767        4768        4819        4818
         4        4768        4769        4820        4819
         4        4769        4770        4821        4820
         4        4770        4771        4822        4821
         4        4771        4772        4823        4822
         4        4772        4773        4824        4823
         4        4773        4774        4825        4824
         4        4774        4775        4826        4825
         4        4775        4776        4827        4826
         4        4776        4777        4828        4827
         4        4777        4778        4829        4828
         4        4778        4779        4830        4829
         4        4779        4780        4831        4830
         4        4780        4781        4832        4831
         4        4781        4782        4833        4832
         4        4782        4783        4834        4833
         4        4783        4784        4835        4834
         4        4784        4785        4836        4835
         4        4785        4786        4837        4836
         4        4786        4787        4838        4837
         4        4787        4788        4839        4838
         4        4788        4789        4840        4839
         4        4789        4790        4841        4840
         4        4790        4791        4842        4841
         4        4791        4792        4843        4842
         4        4792        4793        4844        4843
         4        4794        4795        4846        4845
         4        4795        4796        4847        4846
         4        4796        4797        4848        4847
         4        4797        4798        4849        4848
         4        4798        4799        4850        4849
         4        4799        4800        4851        4850
         4        4800        4801        4852        4851
         4        4801        4802        4853        4852
         4        4802        4803        4854        4853
         4        4803        4804        4855        4854
         4        4804        4805        4856        4855
         4        4805        4806        4857        4856
         4        4806        4807        4858        4857
         4        4807        4808        4859        4858
         4        4808        4809        4860        4859
         4        4809        4810        4861        4860
         4        4810        4811        4862        4861
         4        4811        4812        4863        4862
         4        4812        4813        4864        4863
         4        4813        4814        4865        4864
         4        4814        4815        4866        4865
         4        4815        4816        4867        4866
         4        4816        4817        4868        4867
         4        4817        4818        4869        4868
         4        4818        4819        4870        4869
         4        4819        4820        4871        4870
         4        4820        4821        4872        4871
         4        4821        4822        4873        4872
         4        4822        4823        4874        4873
         4        4823        4824        4875        4874
         4        4824        4825        4876        4875
         4        4825        4826        4877        4876
         4        4826        4827        4878        4877
         4        4827        4828        4879        4878
         4        4828        4829        4880        4879
         4        4829        4830        4881        4880
         4        4830        4831        4882        4881
         4        4831        4832        4883        4882
         4        4832        4833        4884        4883
         4        4833        4834        4885        4884
         4        4834        4835        4886        4885
         4        4835        4836        4887        4886
         4        4836        4837        4888        4887
         4        4837        4838        4889        4888
         4        4838        4839        4890        4889
         4        4839        4840        4891        4890
         4        4840        4841        4892        4891
         4        4841        4842        4893        4892
         4        4842        4843        4894        4893
         4        4843        4844        4895        4894
         4        4845        4846        4897        4896
         4        4846        4847        4898        4897
         4        4847        4848        4899        4898
         4        4848        4849        4900        4899
         4        4849        4850        4901        4900
         4        4850        4851        4902        4901
         4        4851        4852        4903        4902
         4        4852        4853        4904        4903
         4        4853        4854        4905        4904
         4        4854        4855        4906        4905
         4        4855        4856        4907        4906
         4        4856        4857        4908        4907
         4        4857        4858        4909        4908
         4        4858        4859        4910        4909
         4        4859        4860        4911        4910
         4        4860        4861        4912        4911
         4        4861        4862        4913        4912
         4        4862        4863        4914        4913
         4        4863        4864        4915        4914
         4        4864        4865        4916        4915
         4        4865        4866        4917        4916
         4        4866        4867        4918        4917
         4        4867        4868        4919        4918
         4        4868        4869        4920        4919
         4        4869        4870        4921        4920
         4        4870        4871        4922        4921
         4        4871        4872        4923        4922
         4        4872        4873        4924        4923
         4        4873        4874        4925        4924
         4        4874        4875        4926        4925
         4        4875        4876        4927        4926
         4        4876        4877        4928        4927
         4        4877        4878        4929        4928
         4        4878        4879        4930        4929
         4        4879        4880        4931        4930
         4        4880        4881        4932        4931
         4        4881        4882        4933        4932
         4        4882        4883        4934        4933
         4        4883        4884        4935        4934
         4        4884        4885        4936        4935
         4        4885        4886        4937        4936
         4        4886        4887        4938        4937
         4        4887        4888        4939        4938
         4        4888        4889        4940        4939
         4        4889        4890        4941        4940
         4        4890        4891        4942        4941
         4        4891        4892        4943        4942
         4        4892        4893        4944        4943
         4        4893        4894        4945        4944
         4        4894        4895        4946        4945
         4        4896        4897        4948        4947
         4        4897        4898        4949        4948
         4        4898        4899        4950        4949
         4        4899        4900        4951        4950
         4        4900        4901        4952        4951
         4        4901        4902        4953        4952
         4        4902        4903        4954        4953
         4        4903        4904        4955        4954
         4        4904        4905        4956        4955
         4        4905        4906        4957        4956
         4        4906        4907        4958        4957
         4        4907        4908        4959        4958
         4        4908        4909        4960        4959
         4        4909        4910        4961        4960
         4        4910        4911        4962        4961
         4        4911        4912        4963        4962
         4        4912        4913        4964        4963
         4        4913        4914        4965        4964
         4        4914        4915        4966        4965
         4        4915        4916        4967        4966
         4        4916        4917        4968        4967
         4        4917        4918        4969        4968
         4        4918        4919        4970        4969
         4        4919        4920        4971        4970
         4        4920        4921        4972        4971
         4        4921        4922        4973        4972
         4        4922        4923        4974        4973
         4        4923        4924        4975        4974
         4        4924        4925        4976        4975
         4        4925        4926        4977        4976
         4        4926        4927        4978        4977
         4        4927        4928        4979        4978
         4        4928        4929        4980        4979
         4        4929        4930        4981        4980
         4        4930        4931        4982        4981
         4        4931        4932        4983        4982
         4        4932        4933        4984        4983
         4        4933        4934        4985        4984
         4        4934        4935        4986        4985
         4        4935        4936        4987        4986
         4        4936        4937        4988        4987
         4        4937        4938        4989        4988
         4        4938        4939        4990        4989
         4        4939        4940        4991        4990
         4        4940        4941        4992        4991
         4        4941        4942        4993        4992
         4        4942        4943        4994        4993
         4        4943        4944        4995        4994
         4        4944        4945        4996        4995
         4        4945        4946        4997        4996
         4        4947        4948        4999        4998
         4        4948        4949        5000        4999
         4        4949        4950        5001        5000
         4        4950        4951        5002        5001
         4        4951        4952        5003        5002
         4        4952        4953        5004        5003
         4        4953        4954        5005        5004
         4        4954        4955        5006        5005
         4        4955        4956        5007        5006
         4        4956        4957        5008        5007
         4        4957        4958        5009        5008
         4        4958        4959        5010        5009
         4        4959        4960        5011        5010
         4        4960        4961        5012        5011
         4        4961        4962        5013        5012
         4        4962        4963        5014        5013
         4        4963        4964        5015        5014
         4        4964        4965        5016        5015
         4        4965        4966        5017        5016
         4        4966        4967        5018        5017
         4        4967        4968        5019        5018
         4        4968        4969        5020        5019
         4        4969        4970        5021        5020
         4        4970        4971        5022        5021
         4        4971        4972        5023        5022
         4        4972        4973        5024        5023
         4        4973        4974        5025        5024
         4        4974        4975        5026        5025
         4        4975        4976        5027        5026
         4        4976        4977        5028        5027
         4        4977        4978        5029        5028
         4        4978        4979        5030        5029
         4        4979        4980        5031        5030
         4        4980        4981        5032        5031
         4        4981        4982        5033        5032
         4        4982        4983        5034        5033
         4        4983        4984        5035        5034
         4        4984        4985        5036        5035
         4        4985        4986        5037        5036
         4        4986        4987        5038        5037
         4        4987        4988        5039        5038
         4        4988        4989        5040        5039
         4        4989        4990        5041        5040
         4        4990        4991        5042        5041
         4        4991        4992        5043        5042
         4        4992        4993        5044        5043
         4        4993        4994        5045        5044
         4        4994        4995        5046        5045
         4        4995        4996        5047        5046
         4        4996        4997        5048        5047
         4        4998        4999        5050        5049
         4        4999        5000        5051        5050
         4        5000        5001        5052        5051
         4        5001        5002        5053        5052
         4        5002        5003        5054        5053
         4        5003        5004        5055        5054
         4        5004        5005        5056        5055
         4        5005        5006        5057        5056
         4        5006        5007        5058        5057
         4        5007        5008        5059        5058
         4        5008        5009        5060        5059
         4        5009        5010        5061        5060
         4        5010        5011        5062        5061
         4        5011        5012        5063        5062
         4        5012        5013        5064        5063
         4        5013        5014        5065        5064
         4        5014        5015        5066        5065
         4        5015        5016        5067        5066
         4        5016        5017        5068        5067
         4        5017        5018        5069        5068
         4        5018        5019        5070        5069
         4        5019        5020        5071        5070
         4        5020        5021        5072        5071
         4        5021        5022        5073        5072
         4        5022        5023        5074        5073
         4        5023        5024        5075        5074
         4        5024        5025        5076        5075
         4        5025        5026        5077        5076
         4        5026        5027        5078        5077
         4        5027        5028        5079        5078
         4        5028        5029        5080        5079
         4        5029        5030        5081        5080
         4        5030        5031        5082        5081
         4        5031        5032        5083        5082
         4        5032        5033        5084        5083
         4        5033        5034        5085        5084
         4        5034        5035        5086        5085
         4        5035        5036        5087        5086
         4        5036        5037        5088        5087
         4        5037        5038        5089        5088
         4        5038        5039        5090        5089
         4        5039        5040        5091        5090
         4        5040        5041        5092        5091
         4        5041        5042        5093        5092
         4        5042        5043        5094        5093
         4        5043        5044        5095        5094
         4        5044        5045        5096        5095
         4        5045        5046        5097        5096
         4        5046        5047        5098        5097
         4        5047        5048        5099        5098
         4        5049        5050        5101        5100
         4        5050        5051        5102        5101
         4        5051        5052        5103        5102
         4        5052        5053        5104        5103
         4        5053        5054        5105        5104
         4        5054        5055        5106        5105
         4        5055        5056        5107        5106
         4        5056        5057        5108        5107
         4        5057        5058        5109        5108
         4        5058        5059        5110        5109
         4        5059        5060        5111        5110
         4        5060        5061        5112        5111
         4        5061        5062        5113        5112
         4        5062        5063        5114        5113
         4        5063        5064        5115        5114
         4        5064        5065        5116        5115
         4        5065        5066        5117        5116
         4        5066        5067        5118        5117
         4        5067        5068        5119        5118
         4        5068        5069        5120        5119
         4        5069        5070        5121        5120
         4        5070        5071        5122        5121
         4        5071        5072        5123        5122
         4        5072        5073        5124        5123
         4        5073        5074        5125        5124
         4        5074        5075        5126        5125
         4        5075        5076        5127        5126
         4        5076        5077        5128        5127
         4        5077        5078        5129        5128
         4        5078        5079        5130        5129
         4        5079        5080        5131        5130
         4        5080        5081        5132        5131
         4        5081        5082        5133        5132
         4        5082        5083        5134        5133
         4        5083        5084        5135        5134
         4        5084        5085        5136        5135
         4        5085        5086        5137        5136
         4        5086        5087        5138        5137
         4        5087        5088        5139        5138
         4        5088        5089        5140        5139
         4        5089        5090        5141        5140
         4        5090        5091        5142        5141
         4        5091        5092        5143        5142
         4        5092        5093        5144        5143
         4        5093        5094        5145        5144
         4        5094        5095        5146        5145
         4        5095        5096        5147        5146
         4        5096        5097        5148        5147
         4        5097        5098        5149        5148
         4        5098        5099        5150        5149
CELL_TYPES       5000
9
9
9
9
9
9
9
9
9
9
9
9
9
9
9
9
9
9
9
9
9
9
9
9
9
9
9
9
9
9
9
9
9
9
9
9
9
9
9
9
9
9
9
9
9
9
9
9
9
9
9
9
9
9
9
9
9
9
9
9
9
9
9
9
9
9
9
9
9
9
9
9
9
9
9
9
9
9
9
9
9
9
9
9
9
9
9
9
9
9
9
9
9
9
9
9
9
9
9
9
9
9
9
9
9
9
9
9
9
9
9
9
9
9
9
9
9
9
9
9
9
9
9
9
9
9
9
9
9
9
9
9
9
9
9
9
9
9
9
9
9
9
9
9
9
9
9
9
9
9
9
9
9
9
9
9
9
9
9
9
9
9
9
9
9
9
9
9
9
9
9
9
9
9
9
9
9
9
9
9
9
9
9
9
9
9
9
9
9
9
9
9
9
9
9
9
9
9
9
9
9
9
9
9
9
9
9
9
9
9
9
9
9
9
9
9
9
9
9
9
9
9
9
9
9
9
9
9
9
9
9
9
9
9
9
9
9
9
9
9
9
9
9
9
9
9
9
9
9
9
9
9
9
9
9
9
9
9
9
9
9
9
9
9
9
9
9
9
9
9
9
9
9
9
9
9
9
9
9
9
9
9
9
9
9
9
9
9
9
9
9
9
9
9
9
9
9
9
9
9
9
9
9
9
9
9
9
9
9
9
9
9
9
9
9
9
9
9
9
9
9
9
9
9
9
9
9
9
9
9
9
9
9
9
9
9
9
9
9
9
9
9
9
9
9
9
9
9
9
9
9
9
9
9
9
9
9
9
9
9
9
9
9
9
9
9
9
9
9
9
9
9
9
9
9
9
9
9
9
9
9
9
9
9
9
9
9
9
9
9
9
9
9
9
9
9
9
9
9
9
9
9
9
9
9
9
9
9
9
9
9
9
9
9
9
9
9
9
9
9
9
9
9
9
9
9
9
9
9
9
9
9
9
9
9
9
9
9
9
9
9
9
9
9
9
9
9
9
9
9
9
9
9
9
9
9
9
9
9
9
9
9
9
9
9
9
9
9
9
9
9
9
9
9
9
9
9
9
9
9
9
9
9
9
9
9
9
9
9
9
9
9
9
9
9
9
9
9
9
9
9
9
9
9
9
9
9
9
9
9
9
9
9
9
9
9
9
9
9
9
9
9
9
9
9
9
9
9
9
9
9
9
9
9
9
9
9
9
9
9
9
9
9
9
9
9
9
9
9
9
9
9
9
9
9
9
9
9
9
9
9
9
9
9
9
9
9
9
9
9
9
9
9
9
9
9
9
9
9
9
9
9
9
9
9
9
9
9
9
9
9
9
9
9
9
9
9
9
9
9
9
9
9
9
9
9
9
9
9
9
9
9
9
9
9
9
9
9
9
9
9
9
9
9
9
9
9
9
9
9
9
9
9
9
9
9
9
9
9
9
9
9
9
9
9
9
9
9
9
9
9
9
9
9
9
9
9
9
9
9
9
9
9
9
9
9
9
9
9
9
9
9
9
9
9
9
9
9
9
9
9
9
9
9
9
9
9
9
9
9
9
9
9
9
9
9
9
9
9
9
9
9
9
9
9
9
9
9
9
9
9
9
9
9
9
9
9
9
9
9
9
9
9
9
9
9
9
9
9
9
9
9
9
9
9
9
9
9
9
9
9
9
9
9
9
9
9
9
9
9
9
9
9
9
9
9
9
9
9
9
9
9
9
9
9
9
9
9
9
9
9
9
9
9
9
9
9
9
9
9
9
9
9
9
9
9
9
9
9
9
9
9
9
9
9
9
9
9
9
9
9
9
9
9
9
9
9
9
9
9
9
9
9
9
9
9
9
9
9
9
9
9
9
9
9
9
9
9
9
9
9
9
9
9
9
9
9
9
9
9
9
9
9
9
9
9
9
9
9
9
9
9
9
9
9
9
9
9
9
9
9
9
9
9
9
9
9
9
9
9
9
9
9
9
9
9
9
9
9
9
9
9
9
9
9
9
9
9
9
9
9
9
9
9
9
9
9
9
9
9
9
9
9
9
9
9
9
9
9
9
9
9
9
9
9
9
9
9
9
9
9
9
9
9
9
9
9
9
9
9
9
9
9
9
9
9
9
9
9
9
9
9
9
9
9
9
9
9
9
9
9
9
9
9
9
9
9
9
9
9
9
9
9
9
9
9
9
9
9
9
9
9
9
9
9
9
9
9
9
9
9
9
9
9
9
9
9
9
9
9
9
9
9
9
9
9
9
9
9
9
9
9
9
9
9
9
9
9
9
9
9
9
9
9
9
9
9
9
9
9
9
9
9
9
9
9
9
9
9
9
9
9
9
9
9
9
9
9
9
9
9
9
9
9
9
9
9
9
9
9
9
9
9
9
9
9
9
9
9
9
9
9
9
9
9
9
9
9
9
9
9
9
9
9
9
9
9
9
9
9
9
9
9
9
9
9
9
9
9
9
9
9
9
9
9
9
9
9
9
9
9
9
9
9
9
9
9
9
9
9
9
9
9
9
9
9
9
9
9
9
9
9
9
9
9
9
9
9
9
9
9
9
9
9
9
9
9
9
9
9
9
9
9
9
9
9
9
9
9
9
9
9
9
9
9
9
9
9
9
9
9
9
9
9
9
9
9
9
9
9
9
9
9
9
9
9
9
9
9
9
9
9
9
9
9
9
9
9
9
9
9
9
9
9
9
9
9
9
9
9
9
9
9
9
9
9
9
9
9
9
9
9
9
9
9
9
9
9
9
9
9
9
9
9
9
9
9
9
9
9
9
9
9
9
9
9
9
9
9
9
9
9
9
9
9
9
9
9
9
9
9
9
9
9
9
9
9
9
9
9
9
9
9
9
9
9
9
9
9
9
9
9
9
9
9
9
9
9
9
9
9
9
9
9
9
9
9
9
9
9
9
9
9
9
9
9
9
9
9
9
9
9
9
9
9
9
9
9
9
9
9
9
9
9
9
9
9
9
9
9
9
9
9
9
9
9
9
9
9
9
9
9
9
9
9
9
9
9
9
9
9
9
9
9
9
9
9
9
9
9
9
9
9
9
9
9
9
9
9
9
9
9
9
9
9
9
9
9
9
9
9
9
9
9
9
9
9
9
9
9
9
9
9
9
9
9
9
9
9
9
9
9
9
9
9
9
9
9
9
9
9
9
9
9
9
9
9
9
9
9
9
9
9
9
9
9
9
9
9
9
9
9
9
9
9
9
9
9
9
9
9
9
9
9
9
9
9
9
9
9
9
9
9
9
9
9
9
9
9
9
9
9
9
9
9
9
9
9
9
9
9
9
9
9
9
9
9
9
9
9
9
9
9
9
9
9
9
9
9
9
9
9
9
9
9
9
9
9
9
9
9
9
9
9
9
9
9
9
9
9
9
9
9
9
9
9
9
9
9
9
9
9
9
9
9
9
9
9
9
9
9
9
9
9
9
9
9
9
9
9
9
9
9
9
9
9
9
9
9
9
9
9
9
9
9
9
9
9
9
9
9
9
9
9
9
9
9
9
9
9
9
9
9
9
9
9
9
9
9
9
9
9
9
9
9
9
9
9
9
9
9
9
9
9
9
9
9
9
9
9
9
9
9
9
9
9
9
9
9
9
9
9
9
9
9
9
9
9
9
9
9
9
9
9
9
9
9
9
9
9
9
9
9
9
9
9
9
9
9
9
9
9
9
9
9
9
9
9
9
9
9
9
9
9
9
9
9
9
9
9
9
9
9
9
9
9
9
9
9
9
9
9
9
9
9
9
9
9
9
9
9
9
9
9
9
9
9
9
9
9
9
9
9
9
9
9
9
9
9
9
9
9
9
9
9
9
9
9
9
9
9
9
9
9
9
9
9
9
9
9
9
9
9
9
9
9
9
9
9
9
9
9
9
9
9
9
9
9
9
9
9
9
9
9
9
9
9
9
9
9
9
9
9
9
9
9
9
9
9
9
9
9
9
9
9
9
9
9
9
9
9
9
9
9
9
9
9
9
9
9
9
9
9
9
9
9
9
9
9
9
9
9
9
9
9
9
9
9
9
9
9
9
9
9
9
9
9
9
9
9
9
9
9
9
9
9
9
9
9
9
9
9
9
9
9
9
9
9
9
9
9
9
9
9
9
9
9
9
9
9
9
9
9
9
9
9
9
9
9
9
9
9
9
9
9
9
9
9
9
9
9
9
9
9
9
9
9
9
9
9
9
9
9
9
9
9
9
9
9
9
9
9
9
9
9
9
9
9
9
9
9
9
9
9
9
9
9
9
9
9
9
9
9
9
9
9
9
9
9
9
9
9
9
9
9
9
9
9
9
9
9
9
9
9
9
9
9
9
9
9
9
9
9
9
9
9
9
9
9
9
9
9
9
9
9
9
9
9
9
9
9
9
9
9
9
9
9
9
9
9
9
9
9
9
9
9
9
9
9
9
9
9
9
9
9
9
9
9
9
9
9
9
9
9
9
9
9
9
9
9
9
9
9
9
9
9
9
9
9
9
9
9
9
9
9
9
9
9
9
9
9
9
9
9
9
9
9
9
9
9
9
9
9
9
9
9
9
9
9
9
9
9
9
9
9
9
9
9
9
9
9
9
9
9
9
9
9
9
9
9
9
9
9
9
9
9
9
9
9
9
9
9
9
9
9
9
9
9
9
9
9
9
9
9
9
9
9
9
9
9
9
9
9
9
9
9
9
9
9
9
9
9
9
9
9
9
9
9
9
9
9
9
9
9
9
9
9
9
9
9
9
9
9
9
9
9
9
9
9
9
9
9
9
9
9
9
9
9
9
9
9
9
9
9
9
9
9
9
9
9
9
9
9
9
9
9
9
9
9
9
9
9
9
9
9
9
9
9
9
9
9
9
9
9
9
9
9
9
9
9
9
9
9
9
9
9
9
9
9
9
9
9
9
9
9
9
9
9
9
9
9
9
9
9
9
9
9
9
9
9
9
9
9
9
9
9
9
9
9
9
9
9
9
9
9
9
9
9
9
9
9
9
9
9
9
9
9
9
9
9
9
9
9
9
9
9
9
9
9
9
9
9
9
9
9
9
9
9
9
9
9
9
9
9
9
9
9
9
9
9
9
9
9
9
9
9
9
9
9
9
9
9
9
9
9
9
9
9
9
9
9
9
9
9
9
9
9
9
9
9
9
9
9
9
9
9
9
9
9
9
9
9
9
9
9
9
9
9
9
9
9
9
9
9
9
9
9
9
9
9
9
9
9
9
9
9
9
9
9
9
9
9
9
9
9
9
9
9
9
9
9
9
9
9
9
9
9
9
9
9
9
9
9
9
9
9
9
9
9
9
9
9
9
9
9
9
9
9
9
9
9
9
9
9
9
9
9
9
9
9
9
9
9
9
9
9
9
9
9
9
9
9
9
9
9
9
9
9
9
9
9
9
9
9
9
9
9
9
9
9
9
9
9
9
9
9
9
9
9
9
9
9
9
9
9
9
9
9
9
9
9
9
9
9
9
9
9
9
9
9
9
9
9
9
9
9
9
9
9
9
9
9
9
9
9
9
9
9
9
9
9
9
9
9
9
9
9
9
9
9
9
9
9
9
9
9
9
9
9
9
9
9
9
9
9
9
9
9
9
9
9
9
9
9
9
9
9
9
9
9
9
9
9
9
9
9
9
9
9
9
9
9
9
9
9
9
9
9
9
9
9
9
9
9
9
9
9
9
9
9
9
9
9
9
9
9
9
9
9
9
9
9
9
9
9
9
9
9
9
9
9
9
9
9
9
9
9
9
9
9
9
9
9
9
9
9
9
9
9
9
9
9
9
9
9
9
9
9
9
9
9
9
9
9
9
9
9
9
9
9
9
9
9
9
9
9
9
9
9
9
9
9
9
9
9
9
9
9
9
9
9
9
9
9
9
9
9
9
9
9
9
9
9
9
9
9
9
9
9
9
9
9
9
9
9
9
9
9
9
9
9
9
9
9
9
9
9
9
9
9
9
9
9
9
9
9
9
9
9
9
9
9
9
9
9
9
9
9
9
9
9
9
9
9
9
9
9
9
9
9
9
9
9
9
9
9
9
9
9
9
9
9
9
9
9
9
9
9
9
9
9
9
9
9
9
9
9
9
9
9
9
9
9
9
9
9
9
9
9
9
9
9
9
9
9
9
9
9
9
9
9
9
9
9
9
9
9
9
9
9
9
9
9
9
9
9
9
9
9
9
9
9
9
9
9
9
9
9
9
9
9
9
9
9
9
9
9
9
9
9
9
9
9
9
9
9
9
9
9
9
9
9
9
9
9
9
9
9
9
9
9
9
9
9
9
9
9
9
9
9
9
9
9
9
9
9
9
9
9
9
9
9
9
9
9
9
9
9
9
9
9
9
9
9
9
9
9
9
9
9
9
9
9
9
9
9
9
9
9
9
9
9
9
9
9
9
9
9
9
9
9
9
9
9
9
9
9
9
9
9
9
9
9
9
9
9
9
9
9
9
9
9
9
9
9
9
9
9
9
9
9
9
9
9
9
9
9
9
9
9
9
9
9
9
9
9
9
9
9
9
9
9
9
9
9
9
9
9
9
9
9
9
9
9
9
9
9
9
9
9
9
9
9
9
9
9
9
9
9
9
9
9
9
9
9
9
9
9
9
9
9
9
9
9
9
9
9
9
9
9
9
9
9
9
9
9
9
9
9
9
9
9
9
9
9
9
9
9
9
9
9
9
9
9
9
9
9
9
9
9
9
9
9
9
9
9
9
9
9
9
9
9
9
9
9
9
9
9
9
9
9
9
9
9
9
9
9
9
9
9
9
9
9
9
9
9
9
9
9
9
9
9
9
9
9
9
9
9
9
9
9
9
9
9
9
9
9
9
9
9
9
9
9
9
9
9
9
9
9
9
9
9
9
9
9
9
9
9
9
9
9
9
9
9
9
9
9
9
9
9
9
9
9
9
9
9
9
9
9
9
9
9
9
9
9
9
9
9
9
9
9
9
9
9
9
9
9
9
9
9
9
9
9
9
9
9
9
9
9
9
9
9
9
9
9
9
9
9
9
9
9
9
9
9
9
9
9
9
9
9
9
9
9
9
9
9
9
9
9
9
9
9
9
9
9
9
9
9
9
9
9
9
9
9
9
9
9
9
9
9
9
9
9
9
9
9
9
9
9
9
9
9
9
9
9
9
9
9
9
9
9
9
9
9
9
9
9
9
9
9
9
9
9
9
9
9
9
9
9
9
9
9
9
9
9
9
9
9
9
9
9
9
9
9
9
9
9
9
9
9
9
9
9
9
9
9
9
9
9
9
9
9
9
9
9
9
9
9
9
9
9
9
9
9
9
9
9
9
9
9
9
9
9
9
9
9
9
9
9
9
9
9
9
9
9
9
9
9
9
9
9
9
9
9
9
9
9
9
9
9
9
9
9
9
9
9
9
9
9
9
9
9
9
9
9
9
9
9
9
9
9
9
9
9
9
9
9
9
9
9
9
9
9
9
9
9
9
9
9
9
9
9
9
9
9
9
9
9
9
9
9
9
9
9
9
9
9
9
9
9
9
9
9
9
9
9
9
9
9
9
9
9
9
9
9
9
9
9
9
9
9
9
9
9
9
9
9
9
9
9
9
9
9
9
9
9
9
9
9
9
9
9
9
9
9
9
9
9
9
9
9
9
9
9
9
9
9
9
9
9
9
9
9
9
9
9
9
9
9
9
9
9
9
9
9
9
9
9
9
9
9
9
9
9
9
9
9
9
9
9
9
9
9
9
9
9
9
9
9
9
9
9
9
9
9
9
9
9
9
9
9
9
9
9
9
9
9
9
9
9
9
9
9
9
9
9
9
9
9
9
9
9
9
9
9
9
9
9
9
9
9
9
9
9
9
9
9
9
9
9
9
9
9
9
9
9
9
9
9
9
9
9
9
9
9
9
9
9
9
9
9
9
9
9
9
9
9
9
9
9
9
9
9
9
9
9
9
9
9
9
9
9
9
9
9
9
9
9
9
9
9
9
9
9
9
9
9
9
9
9
9
9
9
9
9
9
9
9
9
9
9
9
9
9
9
9
9
9
9
9
9
9
9
9
9
9
9
9
9
9
9
9
9
9
9
9
9
9
9
9
9
9
9
9
9
9
9
9
9
9
9
9
9
9
9
9
9
9
9
9
9
9
9
9
9
9
9
9
9
9
9
9
9
9
9
9
9
9
9
9
9
9
9
9
9
9
9
9
9
9
9
9
9
9
9
9
9
9
9
9
9
9
9
9
9
9
9
9
9
9
9
9
9
9
9
9
9
9
9
9
9
9
9
9
9
9
9
9
9
9
9
9
9
9
9
9
9
9
9
9
9
9
9
9
9
9
9
9
9
9
9
9
9
9
9
9
9
9
9
9
9
9
9
9
9
9
9
9
9
9
9
9
9
9
9
9
9
9
9
9
9
9
9
9
9
9
9
9
9
9
9
9
9
9
9
9
9
9
9
9
9
9
9
9
9
9
9
9
9
9
9
9
9
9
9
9
9
9
9
9
9
9
9
9
9
9
9
9
9
9
9
9
9
9
9
9
9
9
9
9
9
9
9
9
9
9
9
9
9
9
9
9
9
9
9
9
9
9
9
9
9
9
9
9
9
9
9
9
9
9
9
9
9
9
9
9
9
9
9
9
9
9
9
9
9
9
9
9
9
9
9
9
9
9
9
9
9
9
9
9
9
9
9
9
9
9
9
9
9
9
9
9
9
9
9
9
9
9
9
9
9
9
9
9
9
9
9
9
9
9
9
9
9
9
9
9
9
9
9
9
9
9
9
9
9
9
9
9
9
9
9
9
9
9
9
9
9
9
9
9
9
9
9
9
9
9
9
9
9
9
9
9
9
9
9
9
9
9
9
9
9
9
9
9
9
9
9
9
9
9
9
9
9
9
9
9
9
9
9
9
9
9
9
9
9
9
9
9
9
9
9
9
9
9
9
9
9
9
9
9
9
9
9
9
9
9
9
9
9
9
9
9
9
9
9
9
9
9
9
9
9
9
9
9
9
9
9
9
9
9
9
9
9
9
9
9
9
9
9
9
9
9
9
9
9
9
9
9
9
9
9
9
9
9
9
9
9
9
9
9
9
9
9
9
9
9
9
9
9
9
9
9
9
9
9
9
9
9
9
9
9
9
9
9
9
9
9
9
9
9
9
9
9
9
9
9
9
9
9
9
9
9
9
9
9
9
9
9
9
9
9
9
9
9
9
9
9
9
9
9
9
9
9
9
9
9
9
9
9
9
9
9
9
9
9
9
9
9
9
9
9
9
9
9
9
9
9
9
9
9
9
9
9
9
9
9
9
9
9
9
9
9
9
9
9
9
9
9
9
9
9
9
9
9
9
9
9
9
9
9
9
9
9
9
9
9
9
9
9
9
9
9
9
9
9
9
9
9
9
9
9
9
9
9
9
9
9
9
9
9
9
9
9
9
9
9
9
9
9
9
9
9
9
9
9
9
9
9
9
9
9
9
9
9
9
9
9
9
9
9
9
9
9
9
9
9
9
9
9
9
9
9
9
9
9
9
9
9
9
9
9
9
9
9
9
9
9
9
9
9
9
9
9
9
9
9
9
9
9
9
9
9
9
9
9
9
9
9
9
9
9
9
9
9
9
9
9
9
9
9
9
9
9
9
9
9
9
9
9
9
9
9
9
9
9
9
9
9
9
9
9
9
9
9
9
9
9
9
9
9
9
9
9
9
9
9
9
9
9
9
9
9
9
9
9
9
9
9
9
9
9
9
9
9
9
9
9
9
9
9
9
9
9
9
9
9
9
9
9
9
9
9
9
9
9
9
9
9
9
9
9
9
9
9
9
9
9
9
9
9
9
9
9
9
9
9
9
9
9
9
9
9
9
9
9
9
9
9
9
9
9
9
9
9
9
9
9
9
9
9
9
9
9
9
9
9
9
9
9
9
9
9
9
9
9
9
9
9
9
9
9
9
9
9
9
9
9
9
9
9
9
9
9
9
9
9
9
9
9
9
9
9
9
9
9
9
9
9
9
9
9
9
9
9
9
9
9
9
9
9
9
9
9
9
9
9
9
9
9
9
9
9
9
9
9
9
9
9
9
9
9
9
9
9
9
9
9
9
9
9
9
9
9
9
9
9
9
9
9
9
9
9
9
9
9
9
9
9
9
9
9
9
9
9
9
9
9
9
9
9
9
9
9
9
9
9
9
9
9
9
9
9
9
9
9
9
9
9
9
9
9
9
9
9
9
9
9
9
9
9
9
9
9
9
9
9
9
9
9
9
9
9
9
9
9
9
9
9
9
9
9
9
9
9
9
9
9
9
9
9
9
9
9
9
9
9
9
9
9
9
9
9
9
9
9
9
9
9
9
9
9
9
9
9
9
9
9
9
9
9
9
9
9
9
9
9
9
9
9
9
9
9
9
9
9
9
9
9
9
9
9
9
9
9
9
9
9
9
9
9
9
9
9
9
9
9
9
9
9
9
9
9
9
9
9
9
9
9
9
9
9
9
9
9
9
9
9
9
9
9
9
9
9
9
9
9
9
9
9
9
9
9
9
9
9
9
9
9
9
9
9
9
9
9
9
9
9
9
9
9
9
9
9
9
9
9
9
9
9
9
9
9
9
9
9
9
9
9
9
9
9
9
9
9
9
9
9
9
9
9
9
9
9
9
9
9
9
9
9
9
9
9
9
9
9
9
9
9
9
9
9
9
9
9
9
9
9
9
9
9
9
9
9
9
9
9
9
9
9
9
9
9
9
9
9
9
9
9
9
9
9
9
9
9
9
9
9
9
9
9
9
9
9
9
9
9
9
9
9
9
9
9
9
9
9
9
9
9
9
9
9
9
9
9
9
9
9
9
9
9
9
9
9
9
9
9
9
9
9
9
9
9
9
9
9
9
9
9
9
9
9
9
9
9
9
9
9
9
9
9
9
9
9
9
9
9
9
9
9
9
9
9
9
9
9
9
9
9
9
9
9
9
9
9
9
9
9
9
9
9
9
9
9
9
9
9
9
9
9
9
9
9
9
9
9
9
9
9
9
9
9
9
9
9
9
9
9
9
9
9
9
9
9
9
9
9
9
9
9
9
9
9
9
9
9
9
9
9
9
9
9
9
9
9
9
9
9
9
9
9
9
9
9
9
9
9
9
9
9
9
9
9
9
9
9
9
9
9
9
9
9
9
9
9
9
9
9
9
9
9
9
9
9
9
9
9
9
9
9
9
9
9
9
9
9
9
9
9
9
9
9
9
9
9
9
9
9
9
9
9
9
9
9
9
9
9
9
9
9
9
9
9
9
9
9
9
9
9
9
9
POINT_DATA      5151
SCALARS p double 
LOOKUP_TABLE default
   70000000.0000000     
   70000000.0000000     
   70000000.0000000     
   70000000.0000000     
   70000000.0000000     
   70000000.0000000     
   70000000.0000000     
   70000000.0000000     
   70000000.0000000     
   70000000.0000000     
   70000000.0000000     
   70000000.0000000     
   70000000.0000000     
   70000000.0000000     
   70000000.0000000     
   70000000.0000000     
   70000000.0000000     
   70000000.0000000     
   70000000.0000000     
   70000000.0000000     
   70000000.0000000     
   70000000.0000000     
   70000000.0000000     
   70000000.0000000     
   70000000.0000000     
   70000000.0000000     
   70000000.0000000     
   70000000.0000000     
   70000000.0000000     
   70000000.0000000     
   70000000.0000000     
   70000000.0000000     
   70000000.0000000     
   70000000.0000000     
   70000000.0000000     
   70000000.0000000     
   70000000.0000000     
   70000000.0000000     
   70000000.0000000     
   70000000.0000000     
   70000000.0000000     
   70000000.0000000     
   70000000.0000000     
   70000000.0000000     
   70000000.0000000     
   70000000.0000000     
   70000000.0000000     
   70000000.0000000     
   70000000.0000000     
   70000000.0000000     
   70000000.0000000     
   69229888.4075989     
   69229835.5253309     
   69229687.1342000     
   69229451.7422650     
   69229134.8878832     
   69228745.7364258     
   69228315.3283039     
   69227877.6205987     
   69227445.6223139     
   69227024.8740228     
   69226619.9980439     
   69226234.6558554     
   69225873.1034361     
   69225531.2436835     
   69225192.1502966     
   69224842.0895768     
   69224474.2866611     
   69224080.9922126     
   69223655.4006767     
   69223196.2875787     
   69222706.2765647     
   69222187.0090837     
   69221638.4537470     
   69221059.1888957     
   69220446.5290686     
   69219796.5321104     
   69219103.9015502     
   69218361.7814115     
   69217561.4236856     
   69216691.6884347     
   69215738.3081230     
   69214682.8044115     
   69213500.8762341     
   69212159.9640312     
   69210625.6350282     
   69208894.8871316     
   69207007.7897981     
   69205029.3676458     
   69203044.6985181     
   69201162.0443115     
   69199514.1963944     
   69198166.9787021     
   69197094.7250338     
   69196267.3026082     
   69195660.8794869     
   69195249.3596768     
   69195006.2721918     
   69194900.8904604     
   69194894.5608220     
   69194937.3231024     
   69194962.5136730     
   68454814.6153259     
   68454754.2205109     
   68454583.2210947     
   68454317.1879428     
   68453971.7063109     
   68453561.9357873     
   68453099.6221664     
   68452594.9234129     
   68452058.5281749     
   68451498.9627084     
   68450921.6218132     
   68450328.9642765     
   68449720.1400009     
   68449092.9567761     
   68448445.6379873     
   68447775.8560835     
   68447080.6046924     
   68446356.9422103     
   68445601.9898719     
   68444812.1333006     
   68443983.3534026     
   68443111.9468507     
   68442194.1985487     
   68441225.9760737     
   68440202.4649165     
   68439117.9779808     
   68437965.8035272     
   68436738.0755019     
   68435425.6658496     
   68434018.1154609     
   68432503.6448471     
   68430869.3261460     
   68429101.5690838     
   68427187.2004957     
   68425112.7195981     
   68422859.9639167     
   68420411.3673750     
   68417778.6260751     
   68415025.7059103     
   68412261.7762518     
   68409618.2956488     
   68407252.0727273     
   68405279.5525854     
   68403703.0705299     
   68402480.3475968     
   68401574.2647389     
   68400940.1538014     
   68400530.1565361     
   68400296.2589398     
   68400188.9055583     
   68400160.5411405     
   67679121.1651046     
   67679068.7454368     
   67678920.5344175     
   67678686.9407960     
   67678377.1315850     
   67677999.3062740     
   67677561.4252870     
   67677070.5629661     
   67676532.2644449     
   67675951.1132607     
   67675330.8087740     
   67674674.0810584     
   67673982.9036902     
   67673258.2206795     
   67672499.8058659     
   67671706.8260126     
   67670878.0248131     
   67670011.5875189     
   67669105.2110149     
   67668156.3503883     
   67667162.1562633     
   67666119.3120342     
   67665024.1044508     
   67663872.4601971     
   67662659.9307972     
   67661381.6639582     
   67660032.3804984     
   67658606.3672322     
   67657097.4918899     
   67655499.2426618     
   67653804.7886859     
   67652007.0433901     
   67650098.6801974     
   67648071.9805354     
   67645919.0931623     
   67643633.4533304     
   67641208.7686033     
   67638634.6038261     
   67635896.3787618     
   67632995.3315760     
   67630002.9303277     
   67627061.6533989     
   67624347.8311689     
   67622037.5218235     
   67620199.1435061     
   67618791.0192612     
   67617759.6910528     
   67617051.7667542     
   67616608.7787989     
   67616376.5606368     
   67616306.2394954     
   66906442.3470156     
   66906404.7923081     
   66906294.3940755     
   66906115.1201802     
   66905871.2189854     
   66905566.8805967     
   66905205.8862960     
   66904791.6940233     
   66904327.5096420     
   66903816.0608913     
   66903259.5556922     
   66902659.6940984     
   66902017.6203360     
   66901334.0292398     
   66900609.2422254     
   66899843.0904558     
   66899034.9329099     
   66898183.7656618     
   66897288.2483038     
   66896346.6776979     
   66895357.0421243     
   66894317.0900054     
   66893224.3307104     
   66892076.0469972     
   66890869.3185041     
   66889601.0477187     
   66888267.9869182     
   66886866.7665273     
   66885393.9251871     
   66883845.9409929     
   66882219.2629850     
   66880510.3439791     
   66878715.6845022     
   66876831.9228257     
   66874855.8270865     
   66872783.9065115     
   66870612.6341313     
   66868339.7431662     
   66865964.4862901     
   66863483.1513285     
   66860881.1585856     
   66858155.6267570     
   66855366.3427755     
   66852646.0546054     
   66850179.4747611     
   66848139.1636580     
   66846584.7843368     
   66845486.5796759     
   66844784.3131258     
   66844407.4142802     
   66844292.3910027     
   66140459.9728239     
   66140435.8536974     
   66140363.7187467     
   66140243.9654032     
   66140077.2406185     
   66139864.3775603     
   66139606.3524501     
   66139304.1430427     
   66138958.6277510     
   66138570.5863677     
   66138140.6591679     
   66137669.3112252     
   66137156.8264421     
   66136603.2668014     
   66136008.4504422     
   66135371.9948009     
   66134693.3219438     
   66133971.6431934     
   66133205.9767687     
   66132395.1811917     
   66131537.9661728     
   66130632.9022771     
   66129678.4508414     
   66128672.9904572     
   66127614.8423924     
   66126502.2976101     
   66125333.6458573     
   66124107.2068494     
   66122821.3636358     
   66121474.5984316     
   66120065.5313094     
   66118592.9617070     
   66117055.9102537     
   66115453.6499150     
   66113785.7602575     
   66112052.3020528     
   66110253.8306555     
   66108391.0785599     
   66106464.8944303     
   66104477.5827682     
   66102435.6676426     
   66100344.3414394     
   66098201.3806726     
   66096005.6403678     
   66093764.9814664     
   66091559.5469616     
   66089543.8153617     
   66087877.0704138     
   66086702.1905962     
   66086053.6509018     
   66085852.1141931     
   65384489.6009847     
   65384478.5381282     
   65384443.8996444     
   65384383.9443422     
   65384297.1810137     
   65384182.3298361     
   65384038.2739315     
   65383864.0399031     
   65383658.7687725     
   65383421.6662395     
   65383151.9746580     
   65382848.9494456     
   65382511.8340963     
   65382139.8527392     
   65381732.2039963     
   65381288.0416237     
   65380806.4727149     
   65380286.5664172     
   65379727.3562736     
   65379127.8426808     
   65378487.0057659     
   65377803.8214036     
   65377077.2745099     
   65376306.3766365     
   65375490.1865997     
   65374627.8334721     
   65373718.5419900     
   65372761.6605944     
   65371756.6924028     
   65370703.3294789     
   65369601.4908861     
   65368451.3652934     
   65367253.4598114     
   65366008.6597781     
   65364718.2937398     
   65363384.1738492     
   65362008.6961093     
   65360595.0637373     
   65359147.4759254     
   65357670.9481398     
   65356170.6892530     
   65354653.8424253     
   65353131.8812813     
   65351619.3809265     
   65350132.0182633     
   65348680.2253575     
   65347268.4637976     
   65345926.4378018     
   65344730.2520372     
   65343843.9926700     
   65343505.7527156     
   64641448.2363979     
   64641449.6991240     
   64641451.5360917     
   64641450.4274588     
   64641443.3199163     
   64641427.4038159     
   64641400.0945018     
   64641359.0059744     
   64641301.9286875     
   64641226.8143326     
   64641131.7562334     
   64641014.9720958     
   64640874.7908304     
   64640709.6379451     
   64640518.0242305     
   64640298.5421280     
   64640049.8605457     
   64639770.7204624     
   64639459.9361490     
   64639116.3995594     
   64638739.0849936     
   64638327.0562374     
   64637879.4776411     
   64637395.6270031     
   64636874.9108243     
   64636316.8822029     
   64635721.2615190     
   64635087.9601215     
   64634417.1073195     
   64633709.0811032     
   64632964.5431539     
   64632184.4788467     
   64631370.2429752     
   64630523.6113506     
   64629646.8413287     
   64628742.7536879     
   64627814.8149028     
   64626867.2026342     
   64625904.9027931     
   64624933.9445284     
   64623961.8230321     
   64622997.3104239     
   64622050.0831662     
   64621131.3963734     
   64620255.1945392     
   64619441.1931121     
   64618716.8889098     
   64618110.7563624     
   64617652.0814898     
   64617368.2272255     
   64617274.4472454     
   63913867.0368825     
   63913880.3344942     
   63913916.7838605     
   63913971.8539529     
   63914041.2958171     
   63914121.1304821     
   63914207.6344333     
   63914297.3271114     
   63914386.9575217     
   63914473.4897476     
   63914554.0909084     
   63914626.1196467     
   63914687.1150539     
   63914734.7879452     
   63914767.0133803     
   63914781.8232723     
   63914777.4018863     
   63914752.0835376     
   63914704.3511866     
   63914632.8367699     
   63914536.3240601     
   63914413.7534167     
   63914264.2281081     
   63914087.0228947     
   63913881.5947481     
   63913647.5957532     
   63913384.8883101     
   63913093.5627729     
   63912773.9576900     
   63912426.6828302     
   63912052.6452024     
   63911653.0782955     
   63911229.5748126     
   63910784.1233950     
   63910319.1491717     
   63909837.5546523     
   63909342.7672043     
   63908838.7991515     
   63908330.3073734     
   63907822.6194242     
   63907321.7026961     
   63906834.3051213     
   63906368.1510645     
   63905931.8319985     
   63905534.5275349     
   63905184.9505180     
   63904890.3109322     
   63904657.3511504     
   63904491.0948779     
   63904393.8851583     
   63904364.2388172     
   63203907.5284833     
   63203931.6504158     
   63203999.8580753     
   63204106.6454889     
   63204246.8134066     
   63204415.4580781     
   63204607.9605777     
   63204819.9754880     
   63205047.4200204     
   63205286.4638296     
   63205533.5187546     
   63205785.2292965     
   63206038.4640000     
   63206290.3073371     
   63206538.0525272     
   63206779.1957605     
   63207011.4311307     
   63207232.6465803     
   63207440.9212805     
   63207634.5242389     
   63207811.9139747     
   63207971.7394767     
   63208112.8425373     
   63208234.2612723     
   63208335.2348763     
   63208415.2095835     
   63208473.8457724     
   63208511.0261236     
   63208526.8647032     
   63208521.7167859     
   63208496.1891626     
   63208451.1505643     
   63208387.7416852     
   63208307.3840172     
   63208211.7865716     
   63208102.9503203     
   63207983.1668728     
   63207855.0068805     
   63207721.2980200     
   63207585.0977931     
   63207449.6642447     
   63207318.3495218     
   63207194.4343715     
   63207080.9896981     
   63206980.7080772     
   63206895.8960592     
   63206828.3979217     
   63206778.8705464     
   63206746.6853002     
   63206729.7270611     
   63206724.7786468     
   62513379.9759079     
   62513413.5885008     
   62513509.7002594     
   62513662.0374639     
   62513864.6542594     
   62514111.9214571     
   62514398.5153532     
   62514719.4070340     
   62515069.8519425     
   62515445.3797295     
   62515841.7846890     
   62516255.1166218     
   62516681.6721691     
   62517117.9868053     
   62517560.8274368     
   62518007.1855212     
   62518454.2709468     
   62518899.5066070     
   62519340.5235773     
   62519775.1569552     
   62520201.4423871     
   62520617.6131865     
   62521022.0979690     
   62521413.5187783     
   62521790.6895814     
   62522152.6150006     
   62522498.4891235     
   62522827.6941854     
   62523139.7988729     
   62523434.5559368     
   62523711.8987363     
   62523971.9362553     
   62524214.9460485     
   62524441.3644971     
   62524651.7736368     
   62524846.8833504     
   62525027.5084372     
   62525194.5402802     
   62525348.9115303     
   62525491.5502875     
   62525623.3200161     
   62525744.9653984     
   62525857.0598212     
   62525959.9324745     
   62526053.5969135     
   62526137.6242515     
   62526211.0330375     
   62526272.3834787     
   62526319.7287486     
   62526350.6853241     
   62526362.3383974     
   61843763.0053436     
   61843804.5000415     
   61843923.8433252     
   61844114.1976833     
   61844369.0660179     
   61844682.2792063     
   61845047.9842478     
   61845460.6328329     
   61845914.9703946     
   61846406.0256367     
   61846929.1004591     
   61847479.7603350     
   61848053.8251350     
   61848647.3603475     
   61849256.6687139     
   61849878.2822977     
   61850508.9549101     
   61851145.6548916     
   61851785.5582406     
   61852426.0420280     
   61853064.6780355     
   61853699.2265677     
   61854327.6303644     
   61854948.0085049     
   61855558.6501999     
   61856158.0083414     
   61856744.6926572     
   61857317.4622981     
   61857875.2176624     
   61858416.9912369     
   61858941.9372173     
   61859449.3196491     
   61859938.4988169     
   61860408.9156034     
   61860860.0735436     
   61861291.5184541     
   61861702.8153559     
   61862093.5223906     
   61862463.1618805     
   61862811.1895352     
   61863136.9635514     
   61863439.7086082     
   61863718.4767518     
   61863972.1125850     
   61864199.2178757     
   61864398.1370264     
   61864566.9478680     
   61864703.4028944     
   61864804.9191471     
   61864868.5217891     
   61864890.8281680     
   61196223.8125331     
   61196271.4085908     
   61196408.8001713     
   61196628.7957470     
   61196924.5437705     
   61197289.5197480     
   61197717.5138716     
   61198202.6192005     
   61198739.2203227     
   61199321.9824565     
   61199945.8409770     
   61200605.9913178     
   61201297.8792188     
   61202017.1913013     
   61202759.8459343     
   61203521.9843505     
   61204299.9619934     
   61205090.3400513     
   61205889.8771307     
   61206695.5210254     
   61207504.4005332     
   61208313.8172529     
   61209121.2372987     
   61209924.2828591     
   61210720.7235191     
   61211508.4672590     
   61212285.5510369     
   61213050.1308557     
   61213800.4712154     
   61214534.9338486     
   61215251.9656412     
   61215950.0856478     
   61216627.8711251     
   61217283.9425297     
   61217916.9474586     
   61218525.5435081     
   61219108.3801344     
   61219664.0796915     
   61220191.2178197     
   61220688.3032161     
   61221153.7565944     
   61221585.8907441     
   61221982.8918710     
   61222342.8009957     
   61222663.4978091     
   61222942.6806750     
   61223177.8462801     
   61223366.2852518     
   61223505.0657492     
   61223591.0388394     
   61223620.8453061     
   60571638.8156751     
   60571690.6816312     
   60571840.7853286     
   60572081.7890374     
   60572406.6813786     
   60572808.7647635     
   60573281.6433525     
   60573819.2114753     
   60574415.6424742     
   60575065.3779328     
   60575763.1172450     
   60576503.8074951     
   60577282.6336136     
   60578095.0087718     
   60578936.5649849     
   60579803.1438905     
   60580690.7876666     
   60581595.7300531     
   60582514.3874425     
   60583443.3500003     
   60584379.3727741     
   60585319.3667509     
   60586260.3898185     
   60587199.6375877     
   60588134.4340279     
   60589062.2218740     
   60589980.5527576     
   60590887.0770242     
   60591779.5331956     
   60592655.7370503     
   60593513.5702930     
   60594350.9688068     
   60595165.9104824     
   60595956.4026444     
   60596720.4691021     
   60597456.1368915     
   60598161.4227746     
   60598834.3195748     
   60599472.7824510     
   60600074.7152865     
   60600637.9575011     
   60601160.2710020     
   60601639.3274311     
   60602072.6962109     
   60602457.8327652     
   60602792.0690392     
   60603072.6059892     
   60603296.5036599     
   60603460.6774896     
   60603561.8898753     
   60603596.7404604     
   59970614.8762911     
   59970669.2438232     
   59970826.9015657     
   59971080.5595959     
   59971423.2296081     
   59971848.2135726     
   59972349.0927643     
   59972919.7171313     
   59973554.1949727     
   59974246.8828951     
   59974992.3760226     
   59975785.4984298     
   59976621.2937726     
   59977495.0160908     
   59978402.1207557     
   59979338.2555371     
   59980299.2517654     
   59981281.1155618     
   59982280.0191130     
   59983292.2919641     
   59984314.4123055     
   59985342.9982303     
   59986374.7989374     
   59987406.6858587     
   59988435.6436909     
   59989458.7613116     
   59990473.2225663     
   59991476.2969128     
   59992465.3299171     
   59993437.7335972     
   59994390.9766207     
   59995322.5743654     
   59996230.0788615     
   59997111.0686435     
   59997963.1385441     
   59998783.8894723     
   59999570.9182251     
   60000321.8073927     
   60001034.1154244     
   60001705.3669101     
   60002333.0430898     
   60002914.5727706     
   60003447.3237257     
   60003928.5945660     
   60004355.6074388     
   60004725.5010752     
   60005035.3242796     
   60005282.0311832     
   60005462.4756580     
   60005573.4083048     
   60005611.4759909     
   59393511.2272259     
   59393566.4797500     
   59393726.9690492     
   59393985.6226366     
   59394335.6371267     
   59394770.4686525     
   59395283.8234960     
   59395869.6489150     
   59396522.1241543     
   59397235.6516242     
   59398004.8482324     
   59398824.5368520     
   59399689.7379118     
   59400595.6610924     
   59401537.6971134     
   59402511.4095960     
   59403512.5269872     
   59404536.9345304     
   59405580.6662690     
   59406639.8970702     
   59407710.9346558     
   59408790.2116306     
   59409874.2774961     
   59410959.7906440     
   59412043.5103198     
   59413122.2885558     
   59414193.0620674     
   59415252.8441176     
   59416298.7163502     
   59417327.8206011     
   59418337.3506976     
   59419324.5442593     
   59420286.6745199     
   59421221.0421911     
   59422124.9673938     
   59422995.7816850     
   59423830.8202141     
   59424627.4140405     
   59425382.8826476     
   59426094.5266955     
   59426759.6210680     
   59427375.4082327     
   59427939.0919538     
   59428447.8314232     
   59428898.7357503     
   59429288.8589882     
   59429615.1957362     
   59429874.6769764     
   59430064.1669891     
   59430180.4603891     
   59430220.2790097     
   58840462.0880503     
   58840516.8183601     
   58840676.0204409     
   58840932.9779848     
   58841281.2069039     
   58841714.4477417     
   58842226.6581557     
   58842812.0054715     
   58843464.8593044     
   58844179.7842478     
   58844951.5326218     
   58845775.0372788     
   58846645.4044611     
   58847557.9067038     
   58848507.9757790     
   58849491.1956739     
   58850503.2955994     
   58851540.1430219     
   58852597.7367160     
   58853672.1998312     
   58854759.7729708     
   58855856.8072808     
   58856959.7575453     
   58858065.1752891     
   58859169.7018888     
   58860270.0616936     
   58861363.0551593     
   58862445.5520030     
   58863514.4843831     
   58864566.8401164     
   58865599.6559400     
   58866610.0108347     
   58867595.0194210     
   58868551.8254465     
   58869477.5953817     
   58870369.5121442     
   58871224.7689723     
   58872040.5634689     
   58872814.0918421     
   58873542.5433629     
   58874223.0950599     
   58874852.9066804     
   58875429.1159370     
   58875948.8340549     
   58876409.1416682     
   58876807.0850474     
   58877139.6726680     
   58877403.8722439     
   58877596.6079858     
   58877714.7583549     
   58877755.1544868     
   58311399.7561674     
   58311452.7952405     
   58311607.2801231     
   58311856.9562521     
   58312195.7629665     
   58312617.8279052     
   58313117.4613670     
   58313689.1506426     
   58314327.5543228     
   58315027.4965879     
   58315783.9614843     
   58316592.0871887     
   58317447.1602652     
   58318344.6099146     
   58319280.0022200     
   58320249.0343877     
   58321247.5289874     
   58322271.4281905     
   58323316.7880093     
   58324379.7725391     
   58325456.6482041     
   58326543.7780111     
   58327637.6158127     
   58328734.7005854     
   58329831.6507253     
   58330925.1583687     
   58332011.9837418     
   58333088.9495488     
   58334152.9354036     
   58335200.8723170     
   58336229.7372471     
   58337236.5477251     
   58338218.3565673     
   58339172.2466857     
   58340095.3260116     
   58340984.7225443     
   58341837.5795401     
   58342651.0508566     
   58343422.2964662     
   58344148.4781534     
   58344826.7554114     
   58345454.2815525     
   58346028.2000445     
   58346545.6410907     
   58347003.7184553     
   58347399.5265571     
   58347730.1378417     
   58347992.6004079     
   58348183.9359719     
   58348301.1381056     
   58348341.1706837     
   57806077.8221541     
   57806128.2450762     
   57806275.2905129     
   57806513.2390338     
   57806836.5275725     
   57807239.7456492     
   57807717.6314799     
   57808265.0679860     
   57808877.0787136     
   57809548.8236723     
   57810275.5951037     
   57811052.8131855     
   57811876.0216807     
   57812740.8835368     
   57813643.1764414     
   57814578.7883415     
   57815543.7129305     
   57816534.0451092     
   57817545.9764257     
   57818575.7905002     
   57819619.8584393     
   57820674.6342460     
   57821736.6502311     
   57822802.5124321     
   57823868.8960456     
   57824932.5408807     
   57825990.2468401     
   57827038.8694360     
   57828075.3153497     
   57829096.5380432     
   57830099.5334299     
   57831081.3356164     
   57832039.0127220     
   57832969.6627880     
   57833870.4097852     
   57834738.3997309     
   57835570.7969254     
   57836364.7803179     
   57837117.5400124     
   57837826.2739249     
   57838488.1845999     
   57839100.4761969     
   57839660.3516562     
   57840165.0100515     
   57840611.6441395     
   57840997.4381116     
   57841319.5655537     
   57841575.1876292     
   57841761.4514691     
   57841875.4887891     
   57841914.4147623     
   57324094.0971108     
   57324141.2128654     
   57324278.7763754     
   57324501.6476381     
   57324804.8077747     
   57325183.3568343     
   57325632.5114391     
   57326147.6022820     
   57326724.0714915     
   57327357.4698739     
   57328043.4540462     
   57328777.7834666     
   57329556.3173755     
   57330375.0116547     
   57331229.9156131     
   57332117.1687082     
   57333032.9972105     
   57333973.7108185     
   57334935.6992326     
   57335915.4286947     
   57336909.4384997     
   57337914.3374880     
   57338926.8005251     
   57339943.5649746     
   57340961.4271743     
   57341977.2389198     
   57342987.9039655     
   57343990.3745490     
   57344981.6479468     
   57345958.7630698     
   57346918.7971058     
   57347858.8622169     
   57348776.1022999     
   57349667.6898184     
   57350530.8227139     
   57351362.7214040     
   57352160.6258765     
   57352921.7928863     
   57353643.4932636     
   57354323.0093403     
   57354957.6325029     
   57355544.6608773     
   57356081.3971538     
   57356565.1465577     
   57356993.2149714     
   57357362.9072134     
   57357671.5254794     
   57357916.3679472     
   57358094.7275544     
   57358203.8909496     
   57358241.1376085     
   56864912.8465104     
   56864956.1776184     
   56865082.8387636     
   56865288.2887208     
   56865568.0753768     
   56865917.8348454     
   56866333.2903987     
   56866810.2512244     
   56867344.6110268     
   56867932.3464785     
   56868569.5155389     
   56869252.2556471     
   56869976.7818023     
   56870739.3845388     
   56871536.4278083     
   56872364.3467762     
   56873219.6455425     
   56874098.8947941     
   56874998.7293991     
   56875915.8459487     
   56876847.0002568     
   56877789.0048237     
   56878738.7262721     
   56879693.0827624     
   56880649.0413957     
   56881603.6156112     
   56882553.8625852     
   56883496.8806391     
   56884429.8066640     
   56885349.8135690     
   56886254.1077593     
   56887139.9266530     
   56888004.5362420     
   56888845.2287041     
   56889659.3200746     
   56890444.1479821     
   56891197.0694562     
   56891915.4588134     
   56892596.7056271     
   56893238.2127880     
   56893837.3946600     
   56894391.6753383     
   56894898.4870138     
   56895355.2684485     
   56895759.4635677     
   56896108.5201721     
   56896399.8887735     
   56896631.0215586     
   56896799.3714823     
   56896902.3914932     
   56896937.5338970     
   56427885.9752983     
   56427925.2319703     
   56428040.1183193     
   56428226.6907787     
   56428481.0665926     
   56428799.4239758     
   56429178.0020780     
   56429613.1007676     
   56430101.0802445     
   56430638.3604944     
   56431221.4205959     
   56431846.7978902     
   56432511.0870238     
   56433210.9388751     
   56433943.0593726     
   56434704.2082150     
   56435491.1975026     
   56436300.8902867     
   56437130.1990477     
   56437976.0841081     
   56438835.5519894     
   56439705.6537199     
   56440583.4831023     
   56441466.1749467     
   56442350.9032774     
   56443234.8795203     
   56444115.3506778     
   56444989.5974987     
   56445854.9326479     
   56446708.6988858     
   56447548.2672597     
   56448371.0353181     
   56449174.4253494     
   56449955.8826552     
   56450712.8738620     
   56451442.8852762     
   56452143.4212910     
   56452812.0028474     
   56453446.1659568     
   56454043.4602880     
   56454601.4478265     
   56455117.7016068     
   56455589.8045253     
   56456015.3482356     
   56456391.9321311     
   56456717.1624176     
   56456988.6512799     
   56457204.0161438     
   56457360.8790374     
   56457456.8660534     
   56457489.6069136     
   56012272.8806464     
   56012307.9327907     
   56012410.6392779     
   56012577.6369634     
   56012805.5990828     
   56013091.2362104     
   56013431.2970259     
   56013822.5688976     
   56014261.8782964     
   56014746.0910480     
   56015272.1124341     
   56015836.8871530     
   56016437.3991473     
   56017070.6713102     
   56017733.7650764     
   56018423.7799083     
   56019137.8526854     
   56019873.1570044     
   56020626.9023980     
   56021396.3334810     
   56022178.7290299     
   56022971.4010044     
   56023771.6935172     
   56024576.9817591     
   56025384.6708867     
   56026192.1948789     
   56026997.0153688     
   56027796.6204566     
   56028588.5235114     
   56029370.2619663     
   56030139.3961126     
   56030893.5079003     
   56031630.1997492     
   56032347.0933756     
   56033041.8286414     
   56033712.0624295     
   56034355.4675502     
   56034969.7316839     
   56035552.5563643     
   56036101.6560067     
   56036614.7569845     
   56037089.5967592     
   56037523.9230662     
   56037915.4931607     
   56038262.0731264     
   56038561.4372498     
   56038811.3674635     
   56039009.6528601     
   56039154.0892790     
   56039242.4789680     
   56039272.6303224     
   55617258.7662004     
   55617289.6155335     
   55617380.1237906     
   55617527.4788652     
   55617728.8844117     
   55617981.5613882     
   55618282.7494155     
   55618629.7079624     
   55619019.7173653     
   55619450.0796921     
   55619918.1194575     
   55620421.1842000     
   55620956.6449272     
   55621521.8964383     
   55622114.3575324     
   55622731.4711078     
   55623370.7041627     
   55624029.5477032     
   55624705.5165653     
   55625396.1491589     
   55626099.0071402     
   55626811.6750192     
   55627531.7597078     
   55628256.8900171     
   55628984.7161076     
   55629712.9089000     
   55630439.1594509     
   55631161.1783016     
   55631876.6948021     
   55632583.4564191     
   55633279.2280308     
   55633961.7912148     
   55634628.9435339     
   55635278.4978239     
   55635908.2814888     
   55636516.1358078     
   55637099.9152572     
   55637657.4868535     
   55638186.7295186     
   55638685.5334745     
   55639151.7996674     
   55639583.4392269     
   55639978.3729630     
   55640334.5309031     
   55640649.8518727     
   55640922.2831214     
   55641149.7799975     
   55641330.3056726     
   55641461.8309182     
   55641542.3339359     
   55641569.8002435     
   55241971.2855154     
   55241998.0391940     
   55242076.6410409     
   55242204.7919339     
   55242380.1915009     
   55242600.5400648     
   55242863.5404177     
   55243166.8994338     
   55243508.3295263     
   55243885.5499586     
   55244296.2880136     
   55244738.2800319     
   55245209.2723231     
   55245707.0219583     
   55246229.2974511     
   55246773.8793324     
   55247338.5606271     
   55247921.1472379     
   55248519.4582428     
   55249131.3261129     
   55249754.5968559     
   55250387.1300913     
   55251026.7990637     
   55251671.4905984     
   55252319.1050066     
   55252967.5559432     
   55253614.7702252     
   55254258.6876134     
   55254897.2605635     
   55255528.4539506     
   55256150.2447728     
   55256760.6218380     
   55257357.5854369     
   55257939.1470090     
   55258503.3288030     
   55259048.1635376     
   55259571.6940650     
   55260071.9730417     
   55260547.0626091     
   55260995.0340877     
   55261413.9676889     
   55261801.9522448     
   55262157.0849615     
   55262477.4711970     
   55262761.2242666     
   55263006.4652769     
   55263211.3229929     
   55263373.9337373     
   55263492.4413256     
   55263564.9970373     
   55263589.7596252     
   54885495.4478370     
   54885518.2944378     
   54885585.5220009     
   54885695.3006130     
   54885845.7854203     
   54886035.1188243     
   54886261.4325239     
   54886522.8494097     
   54886817.4853162     
   54887143.4506392     
   54887498.8518232     
   54887881.7927251     
   54888290.3758601     
   54888722.7035365     
   54889176.8788835     
   54889651.0067784     
   54890143.1946793     
   54890651.5533680     
   54891174.1976089     
   54891709.2467284     
   54892254.8251215     
   54892809.0626893     
   54893370.0952124     
   54893936.0646656     
   54894505.1194797     
   54895075.4147516     
   54895645.1124116     
   54896212.3813488     
   54896775.3975008     
   54897332.3439112     
   54897881.4107588     
   54898420.7953634     
   54898948.7021703     
   54899463.3427192     
   54899962.9355992     
   54900445.7063941     
   54900909.8876223     
   54901353.7186718     
   54901775.4457364     
   54902173.3217536     
   54902545.6063481     
   54902890.5657828     
   54903206.4729208     
   54903491.6071991     
   54903744.2546173     
   54903962.7077430     
   54904145.2657352     
   54904290.2343884     
   54904395.9261975     
   54904460.6604460     
   54904482.7633177     
   54546886.7744647     
   54546905.9627274     
   54546962.5264533     
   54547055.0578749     
   54547182.1235785     
   54547342.2668306     
   54547534.0097666     
   54547755.8554481     
   54548006.2897921     
   54548283.7833791     
   54548586.7931429     
   54548913.7639482     
   54549263.1300598     
   54549633.3165096     
   54550022.7403645     
   54550429.8119008     
   54550852.9356893     
   54551290.5115965     
   54551740.9357051     
   54552202.6011589     
   54552673.8989369     
   54553153.2185598     
   54553638.9487346     
   54554129.4779396     
   54554623.1949551     
   54555118.4893441     
   54555613.7518852     
   54556107.3749634     
   54556597.7529205     
   54557083.2823714     
   54557562.3624865     
   54558033.3952458     
   54558494.7856681     
   54558944.9420169     
   54559382.2759872     
   54559805.2028759     
   54560212.1417388     
   54560601.5155365     
   54560971.7512725     
   54561321.2801244     
   54561648.5375734     
   54561951.9635311     
   54562230.0024679     
   54562481.1035444     
   54562703.7207473     
   54562896.3130320     
   54563057.3444731     
   54563185.2844245     
   54563278.6076905     
   54563335.7947084     
   54563355.3317452     
   54225182.7383323     
   54225198.5588050     
   54225245.2938210     
   54225321.9093664     
   54225427.3377084     
   54225560.4797560     
   54225720.2073006     
   54225905.3651408     
   54226114.7730951     
   54226347.2279056     
   54226601.5050379     
   54226876.3603790     
   54227170.5318397     
   54227482.7408620     
   54227811.6938389     
   54228156.0834469     
   54228514.5898977     
   54228885.8821118     
   54229268.6188165     
   54229661.4495743     
   54230063.0157433     
   54230471.9513743     
   54230886.8840476     
   54231306.4356528     
   54231729.2231160     
   54232153.8590759     
   54232578.9525141     
   54233003.1093413     
   54233424.9329430     
   54233843.0246880     
   54234255.9844023     
   54234662.4108116     
   54235060.9019541     
   54235450.0555685     
   54235828.4694578     
   54236194.7418317     
   54236547.4716315     
   54236885.2588379     
   54237206.7047653     
   54237510.4123440     
   54237794.9863930     
   54238059.0338845     
   54238301.1642028     
   54238519.9893984     
   54238714.1244401     
   54238882.1874649     
   54239022.8000299     
   54239134.5873632     
   54239216.1786199     
   54239266.2071406     
   54239283.3107141     
   53919412.5537081     
   53919425.3232529     
   53919463.1439886     
   53919525.3074687     
   53919611.0657352     
   53919719.6336419     
   53919850.1910733     
   53920001.8850632     
   53920173.8318168     
   53920365.1186361     
   53920574.8057558     
   53920801.9280884     
   53921045.4968843     
   53921304.5013093     
   53921577.9099415     
   53921864.6721914     
   53922163.7196484     
   53922473.9673561     
   53922794.3150193     
   53923123.6481468     
   53923460.8391309     
   53923804.7482686     
   53924154.2247257     
   53924508.1074479     
   53924865.2260210     
   53925224.4014826     
   53925584.4470887     
   53925944.1690381     
   53926302.3671556     
   53926657.8355386     
   53927009.3631681     
   53927355.7344871     
   53927695.7299486     
   53928028.1265355     
   53928351.6982546     
   53928665.2166071     
   53928967.4510370     
   53929257.1693602     
   53929533.1381756     
   53929794.1232604     
   53930038.8899508     
   53930266.2035107     
   53930474.8294893     
   53930663.5340685     
   53930831.0844035     
   53930976.2489557     
   53931097.7978198     
   53931194.5030480     
   53931265.1389687     
   53931308.4825049     
   53931323.3134891     
   53628605.4080694     
   53628615.4570686     
   53628645.3197068     
   53628694.5662875     
   53628762.7237544     
   53628849.2779222     
   53628953.6756201     
   53629075.3267493     
   53629213.6062570     
   53629367.8560285     
   53629537.3867008     
   53629721.4793980     
   53629919.3873926     
   53630130.3376936     
   53630353.5325648     
   53630588.1509744     
   53630833.3499796     
   53631088.2660469     
   53631352.0163126     
   53631623.6997828     
   53631902.3984791     
   53632187.1785282     
   53632477.0912006     
   53632771.1739003     
   53633068.4511055     
   53633367.9352662     
   53633668.6276574     
   53633969.5191922     
   53634269.5911960     
   53634567.8161448     
   53634863.1583676     
   53635154.5747180     
   53635441.0152140     
   53635721.4236497     
   53635994.7381796     
   53636259.8918784     
   53636515.8132774     
   53636761.4268791     
   53636995.6536516     
   53637217.4115045     
   53637425.6157483     
   53637619.1795378     
   53637797.0143007     
   53637958.0301546     
   53638101.1363105     
   53638225.2414674     
   53638329.2541956     
   53638412.0833130     
   53638472.6382522     
   53638509.8294224     
   53638522.5685635     
   53351797.2454447     
   53351804.9074811     
   53351827.7795968     
   53351865.6662467     
   53351918.3263056     
   53351985.4751705     
   53352066.7867892     
   53352161.8956163     
   53352270.3984990     
   53352391.8564942     
   53352525.7966165     
   53352671.7135219     
   53352829.0711256     
   53352997.3041582     
   53353175.8196598     
   53353363.9984162     
   53353561.1963355     
   53353766.7457711     
   53353979.9567892     
   53354200.1183846     
   53354426.4996458     
   53354658.3508724     
   53354894.9046441     
   53355135.3768463     
   53355378.9676510     
   53355624.8624573     
   53355872.2327918     
   53356120.2371704     
   53356368.0219249     
   53356614.7219938     
   53356859.4616811     
   53357101.3553833     
   53357339.5082863     
   53357573.0170345     
   53357800.9703735     
   53358022.4497668     
   53358236.5299891     
   53358442.2796972     
   53358638.7619797     
   53358825.0348870     
   53359000.1519426     
   53359163.1626374     
   53359313.1129074     
   53359449.0455961     
   53359570.0009036     
   53359675.0168218     
   53359763.1295574     
   53359833.3739445     
   53359884.7838450     
   53359916.3925410     
   53359927.2331163     
   53088036.2210414     
   53088041.8247889     
   53088058.6614266     
   53088086.7277639     
   53088125.9741521     
   53088176.3064335     
   53088237.5878283     
   53088309.6407636     
   53088392.2486424     
   53088485.1575548     
   53088588.0779331     
   53088700.6861500     
   53088822.6260632     
   53088953.5105064     
   53089092.9227272     
   53089240.4177750     
   53089395.5238389     
   53089557.7435369     
   53089726.5551585     
   53089901.4138609     
   53090081.7528217     
   53090266.9843478     
   53090456.5009428     
   53090649.6763344     
   53090845.8664629     
   53091044.4104318     
   53091244.6314224     
   53091445.8375738     
   53091647.3228293     
   53091848.3677506     
   53092048.2403017     
   53092246.1966021     
   53092441.4816529     
   53092633.3300358     
   53092820.9665856     
   53093003.6070390     
   53093180.4586593     
   53093350.7208396     
   53093513.5856837     
   53093668.2385683     
   53093813.8586851     
   53093949.6195651     
   53094074.6895859     
   53094188.2324633     
   53094289.4077258     
   53094377.3711771     
   53094451.2753427     
   53094510.2699050     
   53094553.5021248     
   53094580.1172527     
   53094589.2589282     
   52836386.9520104     
   52836390.8150575     
   52836402.5404475     
   52836422.2787173     
   52836450.1341533     
   52836486.1665716     
   52836530.3930511     
   52836582.7896156     
   52836643.2928699     
   52836711.8015863     
   52836788.1782454     
   52836872.2505295     
   52836963.8127712     
   52837062.6273564     
   52837168.4260836     
   52837280.9114799     
   52837399.7580749     
   52837524.6136324     
   52837655.1003423     
   52837790.8159734     
   52837931.3349862     
   52838076.2096094     
   52838224.9708798     
   52838377.1296461     
   52838532.1775385     
   52838689.5879056     
   52838848.8167177     
   52839009.3034396     
   52839170.4718728     
   52839331.7309691     
   52839492.4756145     
   52839652.0873877     
   52839809.9352909     
   52839965.3764567     
   52840117.7568293     
   52840266.4118238     
   52840410.6669623     
   52840549.8384892     
   52840683.2339651     
   52840810.1528418     
   52840929.8870188     
   52841041.7213803     
   52841144.9343166     
   52841238.7982284     
   52841322.5800153     
   52841395.5415493     
   52841456.9401341     
   52841506.0289508     
   52841542.0574898     
   52841564.2719712     
   52841571.9157523     
   52595933.6897687     
   52595936.1140985     
   52595943.6082178     
   52595956.4411265     
   52595974.8366401     
   52595998.9749976     
   52596028.9944306     
   52596064.9926941     
   52596107.0285568     
   52596155.1232542     
   52596209.2619025     
   52596269.3948747     
   52596335.4391391     
   52596407.2795607     
   52596484.7701654     
   52596567.7353693     
   52596655.9711705     
   52596749.2463084     
   52596847.3033859     
   52596949.8599603     
   52597056.6095999     
   52597167.2229084     
   52597281.3485184     
   52597398.6140531     
   52597518.6270591     
   52597640.9759085     
   52597765.2306738     
   52597890.9439739     
   52598017.6517940     
   52598144.8742787     
   52598272.1165002     
   52598398.8692012     
   52598524.6095145     
   52598648.8016594     
   52598770.8976156     
   52598890.3377755     
   52599006.5515761     
   52599118.9581100     
   52599226.9667181     
   52599329.9775626     
   52599427.3821823     
   52599518.5640311     
   52599602.8989989     
   52599679.7559172     
   52599748.4970489     
   52599808.4785628     
   52599859.0509948     
   52599899.5596945     
   52599929.3452584     
   52599947.7439511     
   52599954.0881136     
   52365782.5364441     
   52365783.8053081     
   52365787.8945225     
   52365795.1597028     
   52365805.9130098     
   52365820.4245862     
   52365838.9239627     
   52365861.6014326     
   52365888.6093969     
   52365920.0636772     
   52365956.0447985     
   52365996.5992413     
   52366041.7406637     
   52366091.4510914     
   52366145.6820803     
   52366204.3558467     
   52366267.3663700     
   52366334.5804650     
   52366405.8388262     
   52366480.9570434     
   52366559.7265899     
   52366641.9157826     
   52366727.2707154     
   52366815.5161666     
   52366906.3564801     
   52366999.4764205     
   52367094.5420051     
   52367191.2013095     
   52367289.0852516     
   52367387.8083508     
   52367486.9694654     
   52367586.1525083     
   52367684.9271404     
   52367782.8494445     
   52367879.4625778     
   52367974.2974053     
   52368066.8731141     
   52368156.6978095     
   52368243.2690925     
   52368326.0746206     
   52368404.5926514     
   52368478.2925698     
   52368546.6354001     
   52368609.0743017     
   52368665.0550516     
   52368714.0165109     
   52368755.3910784     
   52368788.6051313     
   52368813.0794517     
   52368828.2296414     
   52368833.4665247     
   52145062.8225417     
   52145063.1984813     
   52145064.6495571     
   52145067.5895189     
   52145072.3908900     
   52145079.3862370     
   52145088.8694178     
   52145101.0968038     
   52145116.2884800     
   52145134.6294202     
   52145156.2706378     
   52145181.3303132     
   52145209.8948954     
   52145242.0201811     
   52145277.7323681     
   52145317.0290848     
   52145359.8803966     
   52145406.2297870     
   52145455.9951159     
   52145509.0695541     
   52145565.3224948     
   52145624.6004416     
   52145686.7278742     
   52145751.5080923     
   52145818.7240361     
   52145888.1390860     
   52145959.4978413     
   52146032.5268770     
   52146106.9354810     
   52146182.4163706     
   52146258.6463893     
   52146335.2871848     
   52146411.9858675     
   52146488.3756510     
   52146564.0764741     
   52146638.6956060     
   52146711.8282338     
   52146783.0580332     
   52146851.9577235     
   52146918.0896059     
   52146981.0060875     
   52147040.2501896     
   52147095.3560411     
   52147145.8493586     
   52147191.2479121     
   52147231.0619778     
   52147264.7947771     
   52147291.9429043     
   52147311.9967403     
   52147324.4408560     
   52147328.7544034     
   51932927.7556073     
   51932927.4794019     
   51932926.9962397     
   51932926.7527625     
   51932927.1569722     
   51932928.5793447     
   51932931.3539252     
   51932935.7794064     
   51932942.1201891     
   51932950.6074232     
   51932961.4400312     
   51932974.7857121     
   51932990.7819268     
   51933009.5368639     
   51933031.1303864     
   51933055.6149593     
   51933083.0165575     
   51933113.3355544     
   51933146.5475919     
   51933182.6044296     
   51933221.4347773     
   51933262.9451058     
   51933307.0204409     
   51933353.5251378     
   51933402.3036371     
   51933453.1812025     
   51933505.9646405     
   51933560.4430028     
   51933616.3882698     
   51933673.5560180     
   51933731.6860703     
   51933790.5031286     
   51933849.7173910     
   51933909.0251525     
   51933968.1093895     
   51934026.6403297     
   51934084.2760057     
   51934140.6627946     
   51934195.4359428     
   51934248.2200764     
   51934298.6296982     
   51934346.2696703     
   51934390.7356845     
   51934431.6147190     
   51934468.4854831     
   51934500.9188490     
   51934528.4782722     
   51934550.7201999     
   51934567.1944685     
   51934577.4446890     
   51934581.0086231     
   51728554.4411000     
   51728553.7314416     
   51728551.9539545     
   51728549.5659857     
   51728546.9890744     
   51728544.6099203     
   51728542.7813379     
   51728541.8231989     
   51728542.0233611     
   51728543.6385839     
   51728546.8954287     
   51728551.9911469     
   51728559.0945514     
   51728568.3468745     
   51728579.8626102     
   51728593.7303419     
   51728610.0135542     
   51728628.7514294     
   51728649.9596293     
   51728673.6310602     
   51728699.7366235     
   51728728.2259504     
   51728759.0281208     
   51728792.0523673     
   51728827.1887636     
   51728864.3088979     
   51728903.2665304     
   51728943.8982371     
   51728986.0240373     
   51729029.4480075     
   51729073.9588806     
   51729119.3306298     
   51729165.3230398     
   51729211.6822630     
   51729258.1413625     
   51729304.4208411     
   51729350.2291578     
   51729395.2632304     
   51729439.2089261     
   51729481.7415387     
   51729522.5262542     
   51729561.2186039     
   51729597.4649060     
   51729630.9026951     
   51729661.1611414     
   51729687.8614575     
   51729710.6172952     
   51729729.0351320     
   51729742.7146463     
   51729751.2490834     
   51729754.2256113     
   51531143.3674017     
   51531142.4211241     
   51531139.9257532     
   51531136.3299913     
   51531132.0497200     
   51531127.4688340     
   51531122.9400667     
   51531118.7858074     
   51531115.2989085     
   51531112.7434835     
   51531111.3556942     
   51531111.3445278     
   51531112.8925624     
   51531116.1567228     
   51531121.2690229     
   51531128.3372976     
   51531137.4459229     
   51531148.6565232     
   51531162.0086671     
   51531177.5205501     
   51531195.1896660     
   51531214.9934649     
   51531236.8899985     
   51531260.8185538     
   51531286.7002733     
   51531314.4387633     
   51531343.9206891     
   51531375.0163579     
   51531407.5802900     
   51531441.4517762     
   51531476.4554242     
   51531512.4016925     
   51531549.0874115     
   51531586.2962944     
   51531623.7994342     
   51531661.3557910     
   51531698.7126663     
   51531735.6061673     
   51531771.7616588     
   51531806.8942053     
   51531840.7090013     
   51531872.9017915     
   51531903.1592809     
   51531931.1595340     
   51531956.5723642     
   51531979.0597135     
   51531998.2760226     
   51532013.8685912     
   51532025.4779293     
   51532032.7380999     
   51532035.2770517     
   51339917.4372960     
   51339916.4300070     
   51339913.7314337     
   51339909.7648843     
   51339904.9239150     
   51339899.5730445     
   51339894.0484628     
   51339888.6587343     
   51339883.6854943     
   51339879.3841396     
   51339875.9845105     
   51339873.6915670     
   51339872.6860555     
   51339873.1251681     
   51339875.1431931     
   51339878.8521568     
   51339884.3424561     
   51339891.6834814     
   51339900.9242312     
   51339912.0939156     
   51339925.2025510     
   51339940.2415442     
   51339957.1842671     
   51339975.9866207     
   51339996.5875892     
   51340018.9097836     
   51340042.8599757     
   51340068.3296208     
   51340095.1953709     
   51340123.3195774     
   51340152.5507832     
   51340182.7242053     
   51340213.6622069     
   51340245.1747590     
   51340277.0598929     
   51340309.1041417     
   51340341.0829733     
   51340372.7612124     
   51340403.8934538     
   51340434.2244658     
   51340463.4895842     
   51340491.4150974     
   51340517.7186221     
   51340542.1094704     
   51340564.2890077     
   51340583.9510025     
   51340600.7819667     
   51340614.4614892     
   51340624.6625595     
   51340631.0518849     
   51340633.2901985     
   51154120.6186809     
   51154119.7056702     
   51154117.2593534     
   51154113.6632477     
   51154109.2742176     
   51154104.4230820     
   51154099.4152189     
   51154094.5311662     
   51154090.0272189     
   51154086.1360215     
   51154083.0671560     
   51154081.0077244     
   51154080.1229259     
   51154080.5566275     
   51154082.4319294     
   51154085.8517231     
   51154090.8992424     
   51154097.6386086     
   51154106.1153671     
   51154116.3570170     
   51154128.3735336     
   51154142.1578818     
   51154157.6865232     
   51154174.9199134     
   51154193.8029924     
   51154214.2656661     
   51154236.2232797     
   51154259.5770825     
   51154284.2146844     
   51154310.0105037     
   51154336.8262072     
   51154364.5111404     
   51154392.9027506     
   51154421.8270008     
   51154451.0987752     
   51154480.5222770     
   51154509.8914168     
   51154538.9901937     
   51154567.5930675     
   51154595.4653233     
   51154622.3634281     
   51154648.0353787     
   51154672.2210427     
   51154694.6524914     
   51154715.0543249     
   51154733.1439898     
   51154748.6320896     
   51154761.2226878     
   51154770.6136042     
   51154776.4967032     
   51154778.5581761     
   50973016.2779842     
   50973015.5952998     
   50973013.8005198     
   50973011.2250851     
   50973008.1768748     
   50973004.9407192     
   50973001.7789119     
   50972998.9317202     
   50972996.6178930     
   50972995.0351666     
   50972994.3607665     
   50972994.7519069     
   50972996.3462853     
   50972999.2625741     
   50973003.6009064     
   50973009.4433582     
   50973016.8544250     
   50973025.8814930     
   50973036.5553053     
   50973048.8904221     
   50973062.8856746     
   50973078.5246134     
   50973095.7759501     
   50973114.5939934     
   50973134.9190773     
   50973156.6779837     
   50973179.7843582     
   50973204.1391184     
   50973229.6308560     
   50973256.1362316     
   50973283.5203630     
   50973311.6372052     
   50973340.3299255     
   50973369.4312692     
   50973398.7639202     
   50973428.1408533     
   50973457.3656800     
   50973486.2329876     
   50973514.5286705     
   50973542.0302559     
   50973568.5072210     
   50973593.7213051     
   50973617.4268139     
   50973639.3709176     
   50973659.2939422     
   50973676.9296546     
   50973692.0055414     
   50973704.2430807     
   50973713.3580086     
   50973719.0605793     
   50973721.0558191     
   50795885.2509413     
   50795884.9165447     
   50795884.1196931     
   50795883.1293449     
   50795882.1939546     
   50795881.5419034     
   50795881.3819312     
   50795881.9035662     
   50795883.2775546     
   50795885.6562884     
   50795889.1742319     
   50795893.9483452     
   50795900.0785061     
   50795907.6479280     
   50795916.7235759     
   50795927.3565785     
   50795939.5826358     
   50795953.4224245     
   50795968.8819972     
   50795985.9531792     
   50796004.6139592     
   50796024.8288761     
   50796046.5494003     
   50796069.7143110     
   50796094.2500668     
   50796120.0711722     
   50796147.0805380     
   50796175.1698371     
   50796204.2198528     
   50796234.1008238     
   50796264.6727818     
   50796295.7858840     
   50796327.2807395     
   50796358.9887303     
   50796390.7323257     
   50796422.3253916     
   50796453.5734936     
   50796484.2741942     
   50796514.2173440     
   50796543.1853676     
   50796570.9535433     
   50796597.2902769     
   50796621.9573707     
   50796644.7102854     
   50796665.2983976     
   50796683.4652515     
   50796698.9488048     
   50796711.4816696     
   50796720.7913475     
   50796726.6004600     
   50796728.6269736     
   50622023.6971819     
   50622023.8121090     
   50622024.3100091     
   50622025.3886144     
   50622027.2281649     
   50622029.9917685     
   50622033.8257612     
   50622038.8600675     
   50622045.2085606     
   50622052.9694218     
   50622062.2254985     
   50622073.0446619     
   50622085.4801619     
   50622099.5709809     
   50622115.3421846     
   50622132.8052711     
   50622151.9585167     
   50622172.7873193     
   50622195.2645382     
   50622219.3508303     
   50622244.9949839     
   50622272.1342474     
   50622300.6946550     
   50622330.5913481     
   50622361.7288928     
   50622394.0015927     
   50622427.2937974     
   50622461.4802073     
   50622496.4261728     
   50622531.9879894     
   50622568.0131881     
   50622604.3408208     
   50622640.8017414     
   50622677.2188814     
   50622713.4075211     
   50622749.1755557     
   50622784.3237569     
   50622818.6460289     
   50622851.9296599     
   50622883.9555693     
   50622914.4985486     
   50622943.3274984     
   50622970.2056612     
   50622994.8908478     
   50623017.1356599     
   50623036.6877087     
   50623053.2898270     
   50623066.6802783     
   50623076.5929606     
   50623082.7576064     
   50623084.8999771     
   50450740.7775880     
   50450741.4270558     
   50450743.4701358     
   50450747.0260583     
   50450752.1995237     
   50450759.0810006     
   50450767.7470244     
   50450778.2604966     
   50450790.6709841     
   50450805.0150175     
   50450821.3163900     
   50450839.5864543     
   50450859.8244191     
   50450882.0176437     
   50450906.1419314     
   50450932.1618207     
   50450960.0308747     
   50450989.6919680     
   50451021.0775716     
   50451054.1100342     
   50451088.7018618     
   50451124.7559936     
   50451162.1660755     
   50451200.8167293     
   50451240.5838199     
   50451281.3347178     
   50451322.9285590     
   50451365.2165006     
   50451408.0419731     
   50451451.2409287     
   50451494.6420856     
   50451538.0671687     
   50451581.3311465     
   50451624.2424628     
   50451666.6032663     
   50451708.2096343     
   50451748.8517934     
   50451788.3143356     
   50451826.3764310     
   50451862.8120349     
   50451897.3900930     
   50451929.8747403     
   50451960.0254975     
   50451987.5974628     
   50452012.3414993     
   50452034.0044192     
   50452052.3291635     
   50452067.0549779     
   50452077.9175853     
   50452084.6493537     
   50452086.9794605     
   50281356.1866556     
   50281357.4410667     
   50281361.2362463     
   50281367.6069441     
   50281376.5762965     
   50281388.1560708     
   50281402.3469100     
   50281419.1385787     
   50281438.5102077     
   50281460.4305396     
   50281484.8581732     
   50281511.7418072     
   50281541.0204832     
   50281572.6238280     
   50281606.4722936     
   50281642.4773963     
   50281680.5419543     
   50281720.5603229     
   50281762.4186276     
   50281805.9949963     
   50281851.1597875     
   50281897.7758171     
   50281945.6985823     
   50281994.7764834     
   50282044.8510420     
   50282095.7571169     
   50282147.3231169     
   50282199.3712106     
   50282251.7175333     
   50282304.1723902     
   50282356.5404573     
   50282408.6209782     
   50282460.2079580     
   50282511.0903538     
   50282561.0522619     
   50282609.8731014     
   50282657.3277948     
   50282703.1869445     
   50282747.2170071     
   50282789.1804624     
   50282828.8359808     
   50282865.9385864     
   50282900.2398165     
   50282931.4878783     
   50282959.4278017     
   50282983.8015893     
   50283004.3483625     
   50283020.8045046     
   50283032.9038005     
   50283040.3775736     
   50283042.9548190     
   50113197.5661917     
   50113199.4819997     
   50113205.1951764     
   50113214.6511650     
   50113227.7866767     
   50113244.5298877     
   50113264.8006371     
   50113288.5106240     
   50113315.5636045     
   50113345.8555891     
   50113379.2750386     
   50113415.7030593     
   50113455.0135981     
   50113497.0736352     
   50113541.7433766     
   50113588.8764451     
   50113638.3200690     
   50113689.9152698     
   50113743.4970486     
   50113798.8945693     
   50113855.9313408     
   50113914.4253970     
   50113974.1894742     
   50114035.0311867     
   50114096.7532000     
   50114159.1534010     
   50114222.0250669     
   50114285.1570301     
   50114348.3338417     
   50114411.3359320     
   50114473.9397679     
   50114535.9180080     
   50114597.0396551     
   50114657.0702053     
   50114715.7717951     
   50114772.9033450     
   50114828.2207002     
   50114881.4767693     
   50114932.4216593     
   50114980.8028080     
   50115026.3651136     
   50115068.8510613     
   50115108.0008474     
   50115143.5525001     
   50115175.2419977     
   50115202.8033843     
   50115225.9688818     
   50115244.4690005     
   50115258.0326454     
   50115266.3872213     
   50115269.2587343     
   49945597.8216041     
   49945600.4420074     
   49945608.2000528     
   49945620.9480878     
   49945638.5325896     
   49945660.7943202     
   49945687.5684811     
   49945718.6848674     
   49945753.9680215     
   49945793.2373852     
   49945836.3074519     
   49945882.9879173     
   49945933.0838286     
   49945986.3957332     
   49946042.7198259     
   49946101.8480938     
   49946163.5684609     
   49946227.6649303     
   49946293.9177249     
   49946362.1034267     
   49946431.9951134     
   49946503.3624943     
   49946575.9720430     
   49946649.5871290     
   49946723.9681471     
   49946798.8726444     
   49946874.0554451     
   49946949.2687735     
   49947024.2623746     
   49947098.7836327     
   49947172.5776869     
   49947245.3875455     
   49947316.9541970     
   49947387.0167194     
   49947455.3123873     
   49947521.5767757     
   49947585.5438628     
   49947646.9461290     
   49947705.5146547     
   49947760.9792149     
   49947813.0683722     
   49947861.5095669     
   49947906.0292044     
   49947946.3527415     
   49947982.2047689     
   49948013.3090924     
   49948039.3888115     
   49948060.1663956     
   49948075.3637581     
   49948084.7023279     
   49948087.9031194     
   49777892.3577972     
   49777895.7132403     
   49777905.6054385     
   49777921.7908041     
   49777944.0227414     
   49777972.0517628     
   49778005.6256031     
   49778044.4893339     
   49778088.3854758     
   49778137.0541094     
   49778190.2329851     
   49778247.6576320     
   49778309.0614641     
   49778374.1758864     
   49778442.7303982     
   49778514.4526959     
   49778589.0687731     
   49778666.3030198     
   49778745.8783198     
   49778827.5161459     
   49778910.9366536     
   49778995.8587732     
   49779082.0002999     
   49779169.0779816     
   49779256.8076060     
   49779344.9040846     
   49779433.0815354     
   49779521.0533636     
   49779608.5323404     
   49779695.2306799     
   49779780.8601138     
   49779865.1319646     
   49779947.7572165     
   49780028.4465845     
   49780106.9105815     
   49780182.8595837     
   49780256.0038932     
   49780326.0538001     
   49780392.7196411     
   49780455.7118577     
   49780514.7410508     
   49780569.5180348     
   49780619.7538894     
   49780665.1600091     
   49780705.4481510     
   49780740.3304809     
   49780769.5196175     
   49780792.7286748     
   49780809.6713024     
   49780820.0617240     
   49780823.6147747     
   49609416.2483090     
   49609420.3567711     
   49609432.4356425     
   49609452.1434559     
   49609479.1386209     
   49609513.0795021     
   49609553.6244955     
   49609600.4321031     
   49609653.1610060     
   49609711.4701346     
   49609775.0187379     
   49609843.4664504     
   49609916.4733574     
   49609993.7000582     
   49610074.8077276     
   49610159.4581753     
   49610247.3139043     
   49610338.0381664     
   49610431.2950164     
   49610526.7493648     
   49610624.0670283     
   49610722.9147785     
   49610822.9603892     
   49610923.8726819     
   49611025.3215689     
   49611126.9780962     
   49611228.5144828     
   49611329.6041598     
   49611429.9218073     
   49611529.1433893     
   49611626.9461881     
   49611723.0088352     
   49611817.0113426     
   49611908.6351313     
   49611997.5630584     
   49612083.4794428     
   49612166.0700893     
   49612245.0223113     
   49612320.0249515     
   49612390.7684017     
   49612456.9446205     
   49612518.2471500     
   49612574.3711308     
   49612625.0133154     
   49612669.8720804     
   49612708.6474372     
   49612741.0410409     
   49612766.7561984     
   49612785.4978748     
   49612796.9726981     
   49612800.8889627     
   49439501.3487569     
   49439506.2158153     
   49439520.4972887     
   49439543.7527561     
   49439575.5446047     
   49439615.4380705     
   49439663.0012755     
   49439717.8052633     
   49439779.4240316     
   49439847.4345617     
   49439921.4168465     
   49440000.9539152     
   49440085.6318569     
   49440175.0398404     
   49440268.7701334     
   49440366.4181185     
   49440467.5823078     
   49440571.8643553     
   49440678.8690672     
   49440788.2044110     
   49440899.4815218     
   49441012.3147080     
   49441126.3214544     
   49441241.1224241     
   49441356.3414589     
   49441471.6055776     
   49441586.5449738     
   49441700.7930111     
   49441813.9862176     
   49441925.7642789     
   49442035.7700298     
   49442143.6494443     
   49442249.0516249     
   49442351.6287904     
   49442451.0362621     
   49442546.9324499     
   49442638.9788355     
   49442726.8399566     
   49442810.1833879     
   49442888.6797227     
   49442962.0025522     
   49443029.8284442     
   49443091.8369213     
   49443147.7104369     
   49443197.1343513     
   49443239.7969059     
   49443275.3891971     
   49443303.6051486     
   49443324.1414833     
   49443336.6976939     
   49443340.9760122     
   49267473.3639659     
   49267478.9826242     
   49267495.4455260     
   49267522.2131004     
   49267558.7515884     
   49267604.5330426     
   49267659.0353243     
   49267721.7420972     
   49267792.1428169     
   49267869.7327186     
   49267954.0128012     
   49268044.4898082     
   49268140.6762066     
   49268242.0901629     
   49268348.2555166     
   49268458.7017514     
   49268572.9639648     
   49268690.5828344     
   49268811.1045835     
   49268934.0809440     
   49269059.0691179     
   49269185.6317367     
   49269313.3368202     
   49269441.7577325     
   49269570.4731372     
   49269699.0669519     
   49269827.1283003     
   49269954.2514635     
   49270080.0358308     
   49270204.0858485     
   49270326.0109684     
   49270445.4255947     
   49270561.9490307     
   49270675.2054244     
   49270784.8237127     
   49270890.4375659     
   49270991.6853303     
   49271088.2099715     
   49271179.6590153     
   49271265.6844895     
   49271345.9428644     
   49271420.0949925     
   49271487.8060480     
   49271548.7454657     
   49271602.5868792     
   49271649.0080586     
   49271687.6908475     
   49271718.3210998     
   49271740.5886157     
   49271754.1870775     
   49271758.8139841     
   49092648.8772754     
   49092655.2275493     
   49092673.8123913     
   49092703.9938042     
   49092745.1427021     
   49092796.6388669     
   49092857.8708999     
   49092928.2361703     
   49093007.1407587     
   49093093.9993981     
   49093188.2354109     
   49093289.2806423     
   49093396.5753916     
   49093509.5683400     
   49093627.7164763     
   49093750.4850194     
   49093877.3473393     
   49094007.7848756     
   49094141.2870538     
   49094277.3512004     
   49094415.4824560     
   49094555.1936865     
   49094696.0053936     
   49094837.4456234     
   49094979.0498746     
   49095120.3610043     
   49095260.9291347     
   49095400.3115569     
   49095538.0726359     
   49095673.7837136     
   49095807.0230114     
   49095937.3755327     
   49096064.4329650     
   49096187.7935806     
   49096307.0621386     
   49096421.8497850     
   49096531.7739538     
   49096636.4582667     
   49096735.5324341     
   49096828.6321547     
   49096915.3990159     
   49096995.4803933     
   49097068.5293510     
   49097134.2045408     
   49097192.1701030     
   49097242.0955650     
   49097283.6557424     
   49097316.5306374     
   49097340.4053396     
   49097354.9699248     
   49097359.9193553     
   48914332.3505214     
   48914339.3987803     
   48914360.0058388     
   48914393.4369900     
   48914438.9696582     
   48914495.8933056     
   48914563.5093330     
   48914641.1309774     
   48914728.0832039     
   48914823.7025946     
   48914927.3372329     
   48915038.3465854     
   48915156.1013796     
   48915279.9834794     
   48915409.3857573     
   48915543.7119645     
   48915682.3765992     
   48915824.8047714     
   48915970.4320680     
   48916118.7044146     
   48916269.0779360     
   48916421.0188168     
   48916574.0031591     
   48916727.5168405     
   48916881.0553710     
   48917034.1237490     
   48917186.2363170     
   48917336.9166168     
   48917485.6972446     
   48917632.1197057     
   48917775.7342692     
   48917916.0998232     
   48918052.7837288     
   48918185.3616762     
   48918313.4175389     
   48918436.5432302     
   48918554.3385586     
   48918666.4110844     
   48918772.3759765     
   48918871.8558699     
   48918964.4807231     
   48919049.8876768     
   48919127.7209130     
   48919197.6315143     
   48919259.2773239     
   48919312.3228067     
   48919356.4389101     
   48919391.3029264     
   48919416.5983545     
   48919432.0147637     
   48919437.2476564     
   48731813.1040567     
   48731820.8021206     
   48731843.2888071     
   48731879.7355186     
   48731929.3291501     
   48731991.2719376     
   48732064.7813012     
   48732149.0896833     
   48732243.4443821     
   48732347.1073814     
   48732459.3551761     
   48732579.4785940     
   48732706.7826154     
   48732840.5861887     
   48732980.2220441     
   48733125.0365049     
   48733274.3892971     
   48733427.6533564     
   48733584.2146348     
   48733743.4719049     
   48733904.8365642     
   48734067.7324378     
   48734231.5955808     
   48734395.8740805     
   48734560.0278579     
   48734723.5284693     
   48734885.8589081     
   48735046.5134071     
   48735204.9972401     
   48735360.8265255     
   48735513.5280294     
   48735662.6389696     
   48735807.7068206     
   48735948.2891197     
   48736083.9532736     
   48736214.2763665     
   48736338.8449687     
   48736457.2549470     
   48736569.1112761     
   48736674.0278509     
   48736771.6273005     
   48736861.5408033     
   48736943.4079033     
   48737016.8763282     
   48737081.6018079     
   48737137.2478951     
   48737183.4857872     
   48737219.9941487     
   48737246.4589355     
   48737262.5732207     
   48737268.0370205     
   48544362.2879365     
   48544370.5719336     
   48544394.7494723     
   48544433.9021296     
   48544487.1304951     
   48544553.5539511     
   48544632.3104487     
   48544722.5562778     
   48544823.4658334     
   48544934.2313764     
   48545054.0627927     
   48545182.1873473     
   48545317.8494367     
   48545460.3103378     
   48545608.8479553     
   48545762.7565672     
   48545921.3465689     
   48546083.9442152     
   48546249.8913626     
   48546418.5452105     
   48546589.2780416     
   48546761.4769630     
   48546934.5436463     
   48547107.8940695     
   48547280.9582583     
   48547453.1800281     
   48547624.0167275     
   48547792.9389829     
   48547959.4304434     
   48548122.9875283     
   48548283.1191751     
   48548439.3465895     
   48548591.2029972     
   48548738.2333971     
   48548879.9943171     
   48549016.0535710     
   48549145.9900178     
   48549269.3933233     
   48549385.8637235     
   48549495.0117903     
   48549596.4581989     
   48549689.8334984     
   48549774.7778833     
   48549850.9409680     
   48549917.9815637     
   48549975.5674565     
   48550023.3751884     
   48550061.0898404     
   48550088.4048168     
   48550105.0216330     
   48550110.6497035     
   48351229.8580934     
   48351238.6470868     
   48351264.2765286     
   48351305.7436594     
   48351362.0684235     
   48351432.2931699     
   48351515.4823485     
   48351610.7222019     
   48351717.1204527     
   48351833.8059871     
   48351959.9285353     
   48352094.6583496     
   48352237.1858797     
   48352386.7214465     
   48352542.4949140     
   48352703.7553607     
   48352869.7707502     
   48353039.8276007     
   48353213.2306559     
   48353389.3025546     
   48353567.3835019     
   48353746.8309411     
   48353927.0192264     
   48354107.3392973     
   48354287.1983543     
   48354466.0195363     
   48354643.2416008     
   48354818.3186049     
   48354990.7195895     
   48355159.9282664     
   48355325.4427065     
   48355486.7750324     
   48355643.4511126     
   48355795.0102589     
   48355941.0049277     
   48356081.0004228     
   48356214.5746027     
   48356341.3175902     
   48356460.8314858     
   48356572.7300839     
   48356676.6385922     
   48356772.1933549     
   48356859.0415787     
   48356936.8410617     
   48357005.2599265     
   48357063.9763553     
   48357112.6783289     
   48357151.0633687     
   48357178.8382811     
   48357195.7189057     
   48357201.4298659     
   48151641.5749992     
   48151650.7694001     
   48151677.5570176     
   48151720.8578834     
   48151779.6186008     
   48151852.8119529     
   48151939.4365066     
   48152038.5162128     
   48152149.1000026     
   48152270.2613816     
   48152401.0980208     
   48152540.7313467     
   48152688.3061299     
   48152842.9900723     
   48153003.9733950     
   48153170.4684254     
   48153341.7091851     
   48153516.9509790     
   48153695.4699850     
   48153876.5628456     
   48154059.5462614     
   48154243.7565869     
   48154428.5494284     
   48154613.2992447     
   48154797.3989511     
   48154980.2595259     
   48155161.3096209     
   48155339.9951752     
   48155515.7790325     
   48155688.1405627     
   48155856.5752872     
   48156020.5945078     
   48156179.7249413     
   48156333.5083567     
   48156481.5012178     
   48156623.2743300     
   48156758.4124914     
   48156886.5141484     
   48157007.1910564     
   48157120.0679436     
   48157224.7821816     
   48157320.9834580     
   48157408.3334553     
   48157486.5055335     
   48157555.1844171     
   48157614.0658865     
   48157662.8564741     
   48157701.2731638     
   48157729.0430954     
   48157745.9032724     
   48157751.6002742     
   47944796.0469914     
   47944805.5267790     
   47944833.1189129     
   47944877.6752290     
   47944938.0781771     
   47945013.2403218     
   47945102.1038383     
   47945203.6400074     
   47945316.8487068     
   47945440.7579021     
   47945574.4231362     
   47945716.9270188     
   47945867.3787157     
   47946024.9134397     
   47946188.6919418     
   47946357.9000046     
   47946531.7479379     
   47946709.4700765     
   47946890.3242808     
   47947073.5914416     
   47947258.5749874     
   47947444.6003958     
   47947631.0147101     
   47947817.1860585     
   47948002.5031799     
   47948186.3749534     
   47948368.2299333     
   47948547.5158890     
   47948723.6993515     
   47948896.2651637     
   47949064.7160379     
   47949228.5721183     
   47949387.3705497     
   47949540.6650523     
   47949688.0255020     
   47949829.0375171     
   47949963.3020509     
   47950090.4349912     
   47950210.0667642     
   47950321.8419462     
   47950425.4188804     
   47950520.4692996     
   47950606.6779554     
   47950683.7422530     
   47950751.3718916     
   47950809.2885111     
   47950857.2253433     
   47950894.9268701     
   47950922.1484858     
   47950938.6561656     
   47950944.2261386     
   47729861.8461835     
   47729871.4689667     
   47729899.4464181     
   47729944.5733577     
   47730005.6794249     
   47730081.6284529     
   47730171.3178418     
   47730273.6779311     
   47730387.6713720     
   47730512.2924994     
   47730646.5667069     
   47730789.5498213     
   47730940.3274811     
   47731098.0145171     
   47731261.7543365     
   47731430.7183110     
   47731604.1051690     
   47731781.1403927     
   47731961.0756202     
   47732143.1880528     
   47732326.7798689     
   47732511.1776424     
   47732695.7317699     
   47732879.8159017     
   47733062.8263822     
   47733244.1816957     
   47733423.3219199     
   47733599.7081872     
   47733772.8221531     
   47733942.1654725     
   47734107.2592833     
   47734267.6436988     
   47734422.8773067     
   47734572.5366775     
   47734716.2158794     
   47734853.5260024     
   47734984.0946896     
   47735107.5656768     
   47735223.5983397     
   47735331.8672493     
   47735432.0617351     
   47735523.8854556     
   47735607.0559768     
   47735681.3043578     
   47735746.3747446     
   47735802.0239701     
   47735848.0211624     
   47735884.1473589     
   47735910.1951285     
   47735925.9681992     
   47735931.2810936     
   47505974.7317312     
   47505984.3306920     
   47506012.2027867     
   47506057.0994801     
   47506117.8113984     
   47506193.1675594     
   47506282.0346048     
   47506383.3160336     
   47506495.9514380     
   47506618.9157427     
   47506751.2184478     
   47506891.9028767     
   47507040.0454285     
   47507194.7548360     
   47507355.1714308     
   47507520.4664134     
   47507689.8411323     
   47507862.5263684     
   47508037.7816294     
   47508214.8944509     
   47508393.1797068     
   47508571.9789279     
   47508750.6596300     
   47508928.6146518     
   47509105.2615007     
   47509280.0417103     
   47509452.4202061     
   47509621.8846818     
   47509787.9449862     
   47509950.1325193     
   47510107.9996388     
   47510261.1190778     
   47510409.0833714     
   47510551.5042944     
   47510688.0123094     
   47510818.2560242     
   47510941.9016603     
   47511058.6325311     
   47511168.1485301     
   47511270.1656292     
   47511364.4153863     
   47511450.6444630     
   47511528.6141522     
   47511598.0999139     
   47511658.8909215     
   47511710.7896164     
   47511753.6112715     
   47511787.1835639     
   47511811.3461552     
   47511825.9502814     
   47511830.8583490     
   47272235.0231992     
   47272244.4049767     
   47272271.6034713     
   47272315.3432729     
   47272374.3925720     
   47272447.5622269     
   47272533.7048349     
   47272631.7138093     
   47272740.5224617     
   47272859.1030921     
   47272986.4660849     
   47273121.6590142     
   47273263.7657568     
   47273411.9056148     
   47273565.2324480     
   47273722.9338155     
   47273884.2301289     
   47274048.3738158     
   47274214.6484949     
   47274382.3681619     
   47274550.8763886     
   47274719.5455327     
   47274887.7759609     
   47275054.9952844     
   47275220.6576063     
   47275384.2427829     
   47275545.2556974     
   47275703.2255462     
   47275857.7051390     
   47276008.2702114     
   47276154.5187511     
   47276296.0703363     
   47276432.5654880     
   47276563.6650350     
   47276689.0494915     
   47276808.4184477     
   47276921.4899730     
   47277028.0000318     
   47277127.7019118     
   47277220.3656642     
   47277305.7775564     
   47277383.7395360     
   47277454.0687071     
   47277516.5968176     
   47277571.1697579     
   47277617.6470708     
   47277655.9014716     
   47277685.8183797     
   47277707.2954591     
   47277720.2421704     
   47277724.5793316     
   47027705.1759345     
   47027714.1185196     
   47027739.9915585     
   47027781.5124296     
   47027837.4465915     
   47027906.6064658     
   47027987.8503288     
   47028080.0812126     
   47028182.2458174     
   47028293.3334339     
   47028412.3748784     
   47028538.4414399     
   47028670.6438402     
   47028808.1312074     
   47028950.0900637     
   47029095.7433267     
   47029244.3493267     
   47029395.2008380     
   47029547.6241262     
   47029700.9780108     
   47029854.6529437     
   47030008.0701041     
   47030160.6805095     
   47030311.9641422     
   47030461.4290939     
   47030608.6107247     
   47030753.0708407     
   47030894.3968865     
   47031032.2011553     
   47031166.1200142     
   47031295.8131475     
   47031420.9628149     
   47031541.2731262     
   47031656.4693328     
   47031766.2971336     
   47031870.5219982     
   47031968.9285044     
   47032061.3196913     
   47032147.5164280     
   47032227.3567959     
   47032300.6954871     
   47032367.4032161     
   47032427.3661454     
   47032480.4853257     
   47032526.6761488     
   47032565.8678138     
   47032598.0028066     
   47032623.0363912     
   47032640.9361137     
   47032651.6813179     
   47032655.2626731     
   46771407.6206507     
   46771415.8713832     
   46771439.6777746     
   46771477.7732173     
   46771528.9436258     
   46771592.0261145     
   46771665.9076901     
   46771749.5239586     
   46771841.8578495     
   46771941.9383556     
   46772048.8392904     
   46772161.6780631     
   46772279.6144727     
   46772401.8495199     
   46772527.6242383     
   46772656.2185457     
   46772786.9501144     
   46772919.1732626     
   46773052.2778650     
   46773185.6882842     
   46773318.8623231     
   46773451.2901977     
   46773582.4935305     
   46773712.0243646     
   46773839.4641993     
   46773964.4230454     
   46774086.5385019     
   46774205.4748530     
   46774320.9221855     
   46774432.5955263     
   46774540.2340008     
   46774643.6000100     
   46774742.4784282     
   46774836.6758201     
   46774926.0196764     
   46775010.3576691     
   46775089.5569250     
   46775163.5033174     
   46775232.1007763     
   46775295.2706159     
   46775352.9508789     
   46775405.0956990     
   46775451.6746788     
   46775492.6722845     
   46775528.0872560     
   46775557.9320331     
   46775582.2321961     
   46775601.0259211     
   46775614.3634498     
   46775622.3065731     
   46775624.9281277     
   46502322.9408894     
   46502330.2146678     
   46502351.1188060     
   46502384.4298825     
   46502428.9813011     
   46502483.6617436     
   46502547.4136438     
   46502619.2316826     
   46502698.1613075     
   46502783.2972742     
   46502873.7822123     
   46502968.8052155     
   46503067.6004566     
   46503169.4458271     
   46503273.6616029     
   46503379.6091345     
   46503486.6895641     
   46503594.3425681     
   46503702.0451251     
   46503809.3103113     
   46503915.6861205     
   46504020.7543111     
   46504124.1292790     
   46504225.4569558     
   46504324.4137331     
   46504420.7054129     
   46504514.0661821     
   46504604.2576133     
   46504691.0676901     
   46504774.3098563     
   46504853.8220909     
   46504929.4660052     
   46505001.1259652     
   46505068.7082358     
   46505132.1401491     
   46505191.3692942     
   46505246.3627293     
   46505297.1062156     
   46505343.6034720     
   46505385.8754511     
   46505423.9596342     
   46505457.9093477     
   46505487.7930971     
   46505513.6939212     
   46505535.7087638     
   46505553.9478632     
   46505568.5341591     
   46505579.6027169     
   46505587.3001673     
   46505591.7841623     
   46505593.2228464     
   46219388.4745454     
   46219394.4523857     
   46219411.5202160     
   46219438.5292987     
   46219474.3917589     
   46219518.0787923     
   46219568.6189034     
   46219625.0961731     
   46219686.6485581     
   46219752.4662203     
   46219821.7898900     
   46219893.9092585     
   46219968.1614052     
   46220043.9292561     
   46220120.6400750     
   46220197.7639876     
   46220274.8125379     
   46220351.3372784     
   46220426.9283913     
   46220501.2133436     
   46220573.8555738     
   46220644.5532110     
   46220713.0378262     
   46220779.0732146     
   46220842.4542095     
   46220903.0055279     
   46220960.5806455     
   46221015.0607026     
   46221066.3534399     
   46221114.3921633     
   46221159.1347376     
   46221200.5626092     
   46221238.6798552     
   46221273.5122615     
   46221305.1064266     
   46221333.5288921     
   46221358.8652984     
   46221381.2195661     
   46221400.7131012     
   46221417.4840246     
   46221431.6864249     
   46221443.4896335     
   46221453.0775220     
   46221460.6478213     
   46221466.4114607     
   46221470.5919280     
   46221473.4246491     
   46221475.1563860     
   46221476.0446536     
   46221476.3571544     
   46221476.3712300     
   45921497.4391309     
   45921501.7672347     
   45921513.9637346     
   45921532.9907580     
   45921557.8749086     
   45921587.7052138     
   45921621.6311115     
   45921658.8604760     
   45921698.6576861     
   45921740.3417324     
   45921783.2843658     
   45921826.9082882     
   45921870.6853822     
   45921914.1349841     
   45921956.8221961     
   45921998.3562404     
   45922038.3888535     
   45922076.6127215     
   45922112.7599548     
   45922146.6006033     
   45922177.9412107     
   45922206.6234079     
   45922232.5225451     
   45922255.5463615     
   45922275.6336937     
   45922292.7532196     
   45922306.9022394     
   45922318.1054931     
   45922326.4140119     
   45922331.9040046     
   45922334.6757784     
   45922334.8526916     
   45922332.5801401     
   45922328.0245741     
   45922321.3725471     
   45922312.8297942     
   45922302.6203401     
   45922290.9856359     
   45922278.1837234     
   45922264.4884272     
   45922250.1885725     
   45922235.5872289     
   45922221.0009788     
   45922206.7592100     
   45922193.2034315     
   45922180.6866120     
   45922169.5725400     
   45922160.2352048     
   45922153.0581987     
   45922148.4341372     
   45922146.7641000     
   45607498.6947225     
   45607500.9842456     
   45607507.1729786     
   45607516.3750944     
   45607527.7722429     
   45607540.6112240     
   45607554.2017114     
   45607567.9140290     
   45607581.1769776     
   45607593.4757143     
   45607604.3496831     
   45607613.3905964     
   45607620.2404684     
   45607624.5896991     
   45607626.1752091     
   45607624.7786238     
   45607620.2245084     
   45607612.3786515     
   45607601.1463969     
   45607586.4710244     
   45607568.3321770     
   45607546.7443356     
   45607521.7553386     
   45607493.4449478     
   45607461.9234577     
   45607427.3303488     
   45607389.8329837     
   45607349.6253443     
   45607306.9268107     
   45607261.9809799     
   45607215.0545229     
   45607166.4360807     
   45607116.4351972     
   45607065.3812879     
   45607013.6226445     
   45606961.5254733     
   45606909.4729669     
   45606857.8644083     
   45606807.1143066     
   45606757.6515621     
   45606709.9186624     
   45606664.3709050     
   45606621.4756490     
   45606581.7115928     
   45606545.5680769     
   45606513.5444122     
   45606486.1492316     
   45606463.8998646     
   45606447.3217344     
   45606436.9477751     
   45606433.3178706     
   45276197.2733259     
   45276197.1010677     
   45276196.0464534     
   45276193.4221350     
   45276188.6104017     
   45276181.0605716     
   45276170.2864473     
   45276155.8638374     
   45276137.4281407     
   45276114.6719965     
   45276087.3429967     
   45276055.2414625     
   45276018.2182833     
   45275976.1728171     
   45275929.0508532     
   45275876.8426347     
   45275819.5809408     
   45275757.3392287     
   45275690.2298326     
   45275618.4022203     
   45275542.0413051     
   45275461.3658138     
   45275376.6267074     
   45275288.1056555     
   45275196.1135619     
   45275100.9891405     
   45275003.0975412     
   45274902.8290232     
   45274800.5976760     
   45274696.8401852     
   45274592.0146432     
   45274486.5994037     
   45274381.0919772     
   45274276.0079678     
   45274171.8800492     
   45274069.2569797     
   45273968.7026533     
   45273870.7951871     
   45273776.1260435     
   45273685.2991852     
   45273598.9302630     
   45273517.6458346     
   45273442.0826128     
   45273372.8867428     
   45273310.7131073     
   45273256.2246578     
   45273210.0917718     
   45273172.9916334     
   45273145.6076390     
   45273128.6288235     
   45273122.7493094     
   44926355.8183786     
   44926352.7286426     
   44926343.1016792     
   44926326.5004630     
   44926302.5586629     
   44926270.9777505     
   44926231.5241899     
   44926184.0267061     
   44926128.3736336     
   44926064.5103420     
   44925992.4367400     
   44925912.2048553     
   44925823.9164899     
   44925727.7209505     
   44925623.8128511     
   44925512.4299888     
   44925393.8512892     
   44925268.3948226     
   44925136.4158872     
   44924998.3051599     
   44924854.4869119     
   44924705.4172888     
   44924551.5826522     
   44924393.4979832     
   44924231.7053445     
   44924066.7724007     
   44923899.2909946     
   44923729.8757786     
   44923559.1628983     
   44923387.8087289     
   44923216.4886605     
   44923045.8959317     
   44922876.7405109     
   44922709.7480217     
   44922545.6587127     
   44922385.2264692     
   44922229.2178651     
   44922078.4112542     
   44921933.5958992     
   44921795.5711367     
   44921665.1455763     
   44921543.1363339     
   44921430.3682961     
   44921327.6734154     
   44921235.8900345     
   44921155.8622388     
   44921088.4392345     
   44921034.4747537     
   44920994.8264820     
   44920970.3555103     
   44920961.9258079     
   44556697.0927972     
   44556690.6007076     
   44556670.9889674     
   44556638.1281628     
   44556591.9592215     
   44556532.4902484     
   44556459.7934587     
   44556374.0022079     
   44556275.3081165     
   44556163.9582895     
   44556040.2526283     
   44555904.5412331     
   44555757.2218956     
   44555598.7376798     
   44555429.5745883     
   44555250.2593143     
   44555061.3570750     
   44554863.4695276     
   44554657.2327625     
   44554443.3153756     
   44554222.4166146     
   44553995.2645987     
   44553762.6146102     
   44553525.2474548     
   44553283.9678897     
   44553039.6031162     
   44552793.0013367     
   44552545.0303717     
   44552296.5763368     
   44552048.5423770     
   44551801.8474551     
   44551557.4251952     
   44551316.2227752     
   44551079.1998707     
   44550847.3276447     
   44550621.5877839     
   44550402.9715778     
   44550192.4790401     
   44549991.1180700     
   44549799.9036513     
   44549619.8570888     
   44549452.0052786     
   44549297.3800122     
   44549157.0173121     
   44549031.9567966     
   44548923.2410745     
   44548831.9151655     
   44548759.0259468     
   44548705.6216238     
   44548672.7512238     
   44548661.4641110     
   44165907.7278498     
   44165897.3244345     
   44165866.2472434     
   44165814.7370747     
   44165743.1029607     
   44165651.7187503     
   44165541.0198088     
   44165411.4998330     
   44165263.7077799     
   44165098.2449058     
   44164915.7619164     
   44164716.9562225     
   44164502.5693018     
   44164273.3841624     
   44164030.2229077     
   44163773.9443983     
   44163505.4420105     
   44163225.6414866     
   44162935.4988768     
   44162635.9985690     
   44162328.1514035     
   44162012.9928714     
   44161691.5813930     
   44161364.9966741     
   44161034.3381374     
   44160700.7234268     
   44160365.2869816     
   44160029.1786786     
   44159693.5625388     
   44159359.6154968     
   44159028.5262304     
   44158701.4940477     
   44158379.7278297     
   44158064.4450248     
   44157756.8706950     
   44157458.2366094     
   44157169.7803844     
   44156892.7446664     
   44156628.3763577     
   44156377.9258806     
   44156142.6464796     
   44155923.7935585     
   44155722.6240522     
   44155540.3958283     
   44155378.3671206     
   44155237.7959888     
   44155119.9398063     
   44155026.0547711     
   44154957.3954418     
   44154915.2142934     
   44154900.7612950     
   43752643.3974234     
   43752628.5568013     
   43752584.4865786     
   43752511.8653366     
   43752411.4356404     
   43752284.0004034     
   43752130.4193913     
   43751951.6058608     
   43751748.5233326     
   43751522.1824937     
   43751273.6382275     
   43751003.9867684     
   43750714.3629771     
   43750405.9377358     
   43750079.9154566     
   43749737.5317037     
   43749380.0509233     
   43749008.7642799     
   43748624.9875942     
   43748230.0593814     
   43747825.3389838     
   43747412.2047973     
   43746992.0525868     
   43746566.2938876     
   43746136.3544899     
   43745703.6730029     
   43745269.6994957     
   43744835.8942111     
   43744403.7263501     
   43743974.6729232     
   43743550.2176663     
   43743131.8500176     
   43742721.0641525     
   43742319.3580746     
   43741928.2327588     
   43741549.1913441     
   43741183.7383743     
   43740833.3790826     
   43740499.6187188     
   43740183.9619153     
   43739887.9120914     
   43739612.9708916     
   43739360.6376568     
   43739132.4089260     
   43738929.7779667     
   43738754.2343309     
   43738607.2634371     
   43738490.3461728     
   43738404.9585203     
   43738352.5711999     
   43738334.6493320     
   43315535.6121554     
   43315515.8011844     
   43315457.1919765     
   43315360.9728362     
   43315228.3892307     
   43315060.7399907     
   43314859.3736718     
   43314625.6850754     
   43314361.1119224     
   43314067.1316781     
   43313745.2585233     
   43313397.0404684     
   43313024.0566059     
   43312627.9144976     
   43312210.2476924     
   43311772.7133707     
   43311316.9901111     
   43310844.7757759     
   43310357.7855098     
   43309857.7498499     
   43309346.4129410     
   43308825.5308532     
   43308296.8699967     
   43307762.2056318     
   43307223.3204675     
   43306682.0033470     
   43306140.0480148     
   43305599.2519621     
   43305061.4153473     
   43304528.3399860     
   43304001.8284098     
   43303483.6829876     
   43302975.7051070     
   43302479.6944130     
   43301997.4480996     
   43301530.7602519     
   43301081.4212349     
   43300651.2171262     
   43300241.9291899     
   43299855.3333888     
   43299493.1999315     
   43299157.2928524     
   43298849.3696220     
   43298571.1807845     
   43298324.4696215     
   43298110.9718376     
   43297932.4152684     
   43297790.5196061     
   43297686.9961427     
   43297623.5475286     
   43297601.8675442     
   42853200.3343736     
   42853175.0251243     
   42853100.3493865     
   42852978.0805792     
   42852810.0394302     
   42852598.0900857     
   42852344.1364075     
   42852050.1184511     
   42851718.0091202     
   42851349.8109931     
   42850947.5533154     
   42850513.2891544     
   42850049.0927098     
   42849557.0567754     
   42849039.2903474     
   42848497.9163736     
   42847935.0696381     
   42847352.8947770     
   42846753.5444198     
   42846139.1774511     
   42845511.9573876     
   42844874.0508665     
   42844227.6262381     
   42843574.8522600     
   42842917.8968871     
   42842258.9261518     
   42841600.1031316     
   42840943.5869979     
   42840291.5321424     
   42839646.0873756     
   42839009.3951950     
   42838383.5911167     
   42837770.8030675     
   42837173.1508331     
   42836592.7455591     
   42836031.6892995     
   42835492.0746114     
   42834975.9841900     
   42834485.4905418     
   42834022.6556930     
   42833589.5309286     
   42833188.1565605     
   42832820.5617212     
   42832488.7641804     
   42832194.7701808     
   42831940.5742934     
   42831728.1592866     
   42831559.4960092     
   42831436.5432840     
   42831361.2478109     
   42831335.5440768     
   42364248.6166999     
   42364217.3021159     
   42364125.0967772     
   42363974.4367682     
   42363767.7921006     
   42363507.6628333     
   42363196.5754050     
   42362837.0791718     
   42362431.7431448     
   42361983.1529217     
   42361493.9078038     
   42360966.6180945     
   42360403.9025722     
   42359808.3861294     
   42359182.6975748     
   42358529.4675890     
   42357851.3268299     
   42357150.9041791     
   42356430.8251253     
   42355693.7102771     
   42354942.1739997     
   42354178.8231689     
   42353406.2560370     
   42352627.0612044     
   42351843.8166913     
   42351059.0891037     
   42350275.4328881     
   42349495.3896696     
   42348721.4876679     
   42347956.2411860     
   42347202.1501673     
   42346461.6998144     
   42345737.3602666     
   42345031.5863310     
   42344346.8172617     
   42343685.4765842     
   42343049.9719598     
   42342442.6950862     
   42341866.0216309     
   42341322.3111931     
   42340813.9072903     
   42340343.1373674     
   42339912.3128240     
   42339523.7290568     
   42339179.6655152     
   42338882.3857660     
   42338634.1375660     
   42338437.1529391     
   42338293.6482559     
   42338205.8243140     
   42338175.8664169     
   41847299.4632057     
   41847261.6762855     
   41847150.5990557     
   41846969.4082418     
   41846721.2970756     
   41846409.4715543     
   41846037.1469378     
   41845607.5444767     
   41845123.8883633     
   41844589.4028972     
   41844007.3098584     
   41843380.8260783     
   41842713.1612030     
   41842007.5156389     
   41841267.0786739     
   41840495.0267665     
   41839694.5219946     
   41838868.7106559     
   41838020.7220146     
   41837153.6671835     
   41836270.6381373     
   41835374.7068479     
   41834468.9245359     
   41833556.3210302     
   41832639.9042297     
   41831722.6596601     
   41830807.5501192     
   41829897.5154044     
   41828995.4721165     
   41828104.3135330     
   41827226.9095458     
   41826366.1066574     
   41825524.7280298     
   41824705.5735809     
   41823911.4201236     
   41823145.0215422     
   41822409.1090017     
   41821706.3911847     
   41821039.5545533     
   41820411.2636294     
   41819824.1612912     
   41819280.8690819     
   41818783.9875264     
   41818336.0964531     
   41817939.7553176     
   41817597.5035253     
   41817311.8607500     
   41817085.3272462     
   41816920.3841528     
   41816819.4937858     
   41816785.0999177     
   41300995.1007275     
   41300950.4375135     
   41300819.3342361     
   41300605.7844208     
   41300313.7761195     
   41299947.2884717     
   41299510.2885294     
   41299006.7283380     
   41298440.5422619     
   41297815.6445464     
   41297135.9271042     
   41296405.2575193     
   41295627.4772567     
   41294806.4000687     
   41293945.8105897     
   41293049.4631084     
   41292121.0805091     
   41291164.3533724     
   41290182.9392278     
   41289180.4619469     
   41288160.5112713     
   41287126.6424639     
   41286082.3760783     
   41285031.1978349     
   41283976.5585987     
   41282921.8744489     
   41281870.5268341     
   41280825.8628048     
   41279791.1953165     
   41278769.8035966     
   41277764.9335680     
   41276779.7983236     
   41275817.5786437     
   41274881.4235533     
   41273974.4509101     
   41273099.7480205     
   41272260.3722760     
   41271459.3518068     
   41270699.6861467     
   41269984.3469044     
   41269316.2784382     
   41268698.3985284     
   41268133.5990449     
   41267624.7466053     
   41267174.6832210     
   41266786.2269272     
   41266462.1723951     
   41266205.2915223     
   41266018.3339999     
   41265904.0278546     
   41265865.0799617     
   40724018.8278476     
   40723966.9744229     
   40723814.9580230     
   40723567.6604960     
   40723229.9311716     
   40722806.5839248     
   40722302.3945299     
   40721722.0982921     
   40721070.3879454     
   40720351.9118047     
   40719571.2721600     
   40718733.0239019     
   40717841.6733655     
   40716901.6773830     
   40715917.4425321     
   40714893.3245702     
   40713833.6280431     
   40712742.6060576     
   40711624.4602068     
   40710483.3406392     
   40709323.3462600     
   40708148.5250555     
   40706962.8745312     
   40705770.3422534     
   40704574.8264855     
   40703380.1769106     
   40702190.1954311     
   40701008.6370366     
   40699839.2107334     
   40698685.5805267     
   40697551.3664470     
   40696440.1456162     
   40695355.4533434     
   40694300.7842454     
   40693279.5933850     
   40692295.2974211     
   40691351.2757642     
   40690450.8717322     
   40689597.3937015     
   40688794.1162471     
   40688044.2812691     
   40687351.0990984     
   40686717.7495802     
   40686147.3831300     
   40685643.1217581     
   40685208.0600607     
   40684845.2661733     
   40684557.7826850     
   40684348.6275100     
   40684220.7947143     
   40684177.2552973     
   40115115.5785090     
   40115056.3420736     
   40114882.8832648     
   40114601.0356752     
   40114216.5678012     
   40113735.1808535     
   40113162.5068824     
   40112504.1071987     
   40111765.4710801     
   40110952.0147455     
   40110069.0805859     
   40109121.9366354     
   40108115.7762709     
   40107055.7181256     
   40105946.8062041     
   40104794.0101848     
   40103602.2258981     
   40102376.2759681     
   40101120.9106038     
   40099840.8085299     
   40098540.5780449     
   40097224.7581944     
   40095897.8200501     
   40094564.1680825     
   40093228.1416174     
   40091894.0163667     
   40090566.0060221     
   40089248.2639049     
   40087944.8846600     
   40086659.9059876     
   40085397.3104027     
   40084161.0270155     
   40082954.9333235     
   40081782.8570097     
   40080648.5777384     
   40079555.8289425     
   40078508.2995955     
   40077509.6359633     
   40076563.4433278     
   40075673.2876802     
   40074842.6973753     
   40074075.1647452     
   40073374.1476662     
   40072743.0710756     
   40072185.3284345     
   40071704.2831330     
   40071303.2698359     
   40070985.5957640     
   40070754.5419110     
   40070613.3641930     
   40070565.2945276     
   39473115.2947207     
   39473048.6386362     
   39472853.6679994     
   39472537.2192978     
   39472106.0254145     
   39471566.7144798     
   39470925.8090540     
   39470189.7256217     
   39469364.7743837     
   39468457.1593269     
   39467472.9785569     
   39466418.2248772     
   39465298.7865985     
   39464120.4485626     
   39462888.8933658     
   39461609.7027665     
   39460288.3592625     
   39458930.2478236     
   39457540.6577666     
   39456124.7847571     
   39454687.7329270     
   39453234.5170943     
   39451770.0650719     
   39450299.2200550     
   39448826.7430746     
   39447357.3155056     
   39445895.5416202     
   39444445.9511742     
   39443013.0020180     
   39441601.0827219     
   39440214.5152062     
   39438857.5573687     
   39437534.4056990     
   39436249.1978739     
   39435006.0153250     
   39433808.8857713     
   39432661.7857105     
   39431568.6428627     
   39430533.3385591     
   39429559.7100719     
   39428651.5528791     
   39427812.6228589     
   39427046.6384106     
   39426357.2824962     
   39425748.2045999     
   39425223.0226026     
   39424785.3245669     
   39424438.6704311     
   39424186.5936102     
   39424032.6025003     
   39423980.1818872     
   38796959.1468403     
   38796885.2292745     
   38796669.2495653     
   38796319.0810386     
   38795842.4486990     
   38795246.9294653     
   38794539.9527486     
   38793728.8013496     
   38792820.6126578     
   38791822.3801312     
   38790740.9550374     
   38789583.0484384     
   38788355.2333993     
   38787063.9474039     
   38785715.4949591     
   38784316.0503717     
   38782871.6606805     
   38781388.2487278     
   38779871.6163552     
   38778327.4477074     
   38776761.3126310     
   38775178.6701530     
   38773584.8720258     
   38771985.1663258     
   38770384.7010922     
   38768788.5279952     
   38767201.6060200     
   38765628.8051577     
   38764074.9100902     
   38762544.6238606     
   38761042.5715178     
   38759573.3037275     
   38758141.3003390     
   38756750.9739014     
   38755406.6731189     
   38754112.6862399     
   38752873.2443708     
   38751692.5247097     
   38750574.6536916     
   38749523.7100417     
   38748543.7277290     
   38747638.6988169     
   38746812.5762055     
   38746069.2762619     
   38745412.6813334     
   38744846.6421423     
   38744374.9800583     
   38744001.4892452     
   38743729.9386813     
   38743564.0740515     
   38743507.6195086     
   38085728.5692304     
   38085647.7846951     
   38085411.9912160     
   38085030.1099630     
   38084510.8627491     
   38083862.7740507     
   38083094.1733686     
   38082213.1979074     
   38081227.7955488     
   38080145.7280979     
   38078974.5747780     
   38077721.7359551     
   38076394.4370689     
   38074999.7327514     
   38073544.5111135     
   38072035.4981793     
   38070479.2624518     
   38068882.2195898     
   38067250.6371816     
   38065590.6395964     
   38063908.2128993     
   38062209.2098142     
   38060499.3547197     
   38058784.2486638     
   38057069.3743849     
   38055360.1013248     
   38053661.6906231     
   38051979.3000789     
   38050317.9890719     
   38048682.7234284     
   38047078.3802252     
   38045509.7525201     
   38043981.5540007     
   38042498.4235412     
   38041064.9296623     
   38039685.5748824     
   38038364.7999568     
   38037106.9879945     
   38035916.4684500     
   38034797.5209807     
   38033754.3791670     
   38032791.2340888     
   38031912.2377545     
   38031121.5063781     
   38030423.1235007     
   38029821.1429530     
   38029319.5916572     
   38028922.4722635     
   38028633.7656224     
   38028457.4330885     
   38028397.4186568     
   37338676.9927529     
   37338590.0153744     
   37338336.4209184     
   37337926.1599167     
   37337368.9263271     
   37336674.1617930     
   37335851.0602299     
   37334908.5727124     
   37333855.4126352     
   37332700.0611213     
   37331450.7726531     
   37330115.5809031     
   37328702.3047394     
   37327218.5543847     
   37325671.7377071     
   37324069.0666211     
   37322417.5635801     
   37320724.0681404     
   37318995.2435783     
   37317237.5835440     
   37315457.4187334     
   37313660.9235638     
   37311854.1228375     
   37310042.8983781     
   37308232.9956268     
   37306430.0301844     
   37304639.4942878     
   37302866.7632075     
   37301117.1015564     
   37299395.6694982     
   37297707.5288456     
   37296057.6490386     
   37294450.9129949     
   37292892.1228220     
   37291386.0053847     
   37289937.2177196     
   37288550.3522903     
   37287229.9420755     
   37285980.4654850     
   37284806.3510976     
   37283711.9822154     
   37282701.7012298     
   37281779.8137948     
   37280950.5928035     
   37280218.2821650     
   37279587.1003771     
   37279061.2438939     
   37278644.8902842     
   37278342.2011810     
   37278157.3250192     
   37278094.3995610     
   36555264.0531593     
   36555171.8799446     
   36554903.4390935     
   36554469.6551884     
   36553881.1333061     
   36553148.1660302     
   36552280.7407563     
   36551288.5472590     
   36550180.9854921     
   36548967.1735920     
   36547655.9560576     
   36546255.9120795     
   36544775.3639942     
   36543222.3858372     
   36541604.8119742     
   36539930.2457866     
   36538206.0683906     
   36536439.4473705     
   36534637.3455064     
   36532806.5294791     
   36530953.5785346     
   36529084.8930919     
   36527206.7032802     
   36525325.0773887     
   36523445.9302180     
   36521575.0313189     
   36519718.0131063     
   36517880.3788382     
   36516067.5104477     
   36514284.6762190     
   36512537.0382974     
   36510829.6600249     
   36509167.5130923     
   36507555.4845012     
   36505998.3833273     
   36504500.9472790     
   36503067.8490445     
   36501703.7024216     
   36500413.0682235     
   36499200.4599578     
   36498070.3492705     
   36497027.1711536     
   36496075.3289101     
   36495219.1988732     
   36494463.1348769     
   36493811.4724741     
   36493268.5329001     
   36492838.6267791     
   36492526.0575720     
   36492335.1247644     
   36492270.1267925     
   35735191.9362195     
   35735095.9278413     
   35734816.6532314     
   35734365.9108062     
   35733755.1117467     
   35732995.2903288     
   35732097.1144856     
   35731070.8965666     
   35729926.6042627     
   35728673.8716633     
   35727322.0104180     
   35725880.0209724     
   35724356.6038526     
   35722760.1709726     
   35721098.8569396     
   35719380.5303362     
   35717612.8049561     
   35715803.0509759     
   35713958.4060412     
   35712085.7862525     
   35710191.8970320     
   35708283.2438578     
   35706366.1428505     
   35704446.7311990     
   35702530.9774136     
   35700624.6913948     
   35698733.5343077     
   35696863.0282509     
   35695018.5657132     
   35693205.4188071     
   35691428.7482731     
   35689693.6122470     
   35688004.9747827     
   35686367.7141256     
   35684786.6307295     
   35683266.4550112     
   35681811.8548389     
   35680427.4427486     
   35679117.7828828     
   35677887.3976493     
   35676740.7740935     
   35675682.3699823     
   35674716.6195940     
   35673847.9392119     
   35673080.7323176     
   35672419.3944814     
   35671868.3179463     
   35671431.8959045     
   35671114.5264621     
   35670920.6162922     
   35670854.5839744     
   34878443.3875573     
   34878345.3032691     
   34878060.3637292     
   34877601.0873939     
   34876979.5344541     
   34876207.3210936     
   34875295.6338833     
   34874255.2442726     
   34873096.5231440     
   34871829.4553955     
   34870463.6545212     
   34869008.3771602     
   34867472.5375848     
   34865864.7221043     
   34864193.2033595     
   34862465.9544856     
   34860690.6631232     
   34858874.7452594     
   34857025.3588807     
   34855149.4174229     
   34853253.6030027     
   34851344.3794197     
   34849428.0049158     
   34847510.5446815     
   34845597.8831014     
   34843695.7357275     
   34841809.6609768     
   34839945.0715419     
   34838107.2455128     
   34836301.3372019     
   34834532.3876681     
   34832805.3349359     
   34831125.0239052     
   34829496.2159480     
   34827923.5981887     
   34826411.7924643     
   34824965.3639620     
   34823588.8295296     
   34822286.6656576     
   34821063.3161273     
   34819923.1993244     
   34818870.7152119     
   34817910.2519617     
   34817046.1922396     
   34816282.9191415     
   34815624.8217760     
   34815076.3004916     
   34814641.7717444     
   34814325.6726022     
   34814132.4648847     
   34814066.6389328     
   33985320.7700041     
   33985222.7921783     
   33984938.5793594     
   33984481.1536137     
   33983863.0066567     
   33983096.1186819     
   33982191.9771820     
   33981161.5957224     
   33980015.5326312     
   33978763.9095698     
   33977416.4299533     
   33975982.3971899     
   33974470.7327143     
   33972889.9937880     
   33971248.3910469     
   33969553.8057740     
   33967813.8068808     
   33966035.6675809     
   33964226.3817427     
   33962392.6799092     
   33960541.0449737     
   33958677.7275055     
   33956808.7607153     
   33954939.9750583     
   33953077.0124676     
   33951225.3402168     
   33949390.2644080     
   33947576.9430856     
   33945790.3989728     
   33944035.5318328     
   33942317.1304527     
   33940639.8842530     
   33939008.3945201     
   33937427.1852656     
   33935900.7137105     
   33934433.3803954     
   33933029.5389168     
   33931693.5052891     
   33930429.5669308     
   33929241.9912752     
   33928135.0340015     
   33927112.9468867     
   33926179.9852730     
   33925340.4151489     
   33924598.5198396     
   33923958.6063026     
   33923425.0110231     
   33923002.1055051     
   33922694.3013523     
   33922506.0549330     
   33922441.8716250     
   33056485.3978149     
   33056390.1402686     
   33056114.2864809     
   33055671.0739289     
   33055073.1397870     
   33054332.5449748     
   33053460.7979984     
   33052468.8785436     
   33051367.2607817     
   33050165.9363546     
   33048874.4370080     
   33047501.8568444     
   33046056.8741713     
   33044547.7729235     
   33042982.4636397     
   33041368.5039787     
   33039713.1187626     
   33038023.2195354     
   33036305.4236304     
   33034566.0727419     
   33032811.2509962     
   33031046.8025222     
   33029278.3485229     
   33027511.3038494     
   33025750.8930811     
   33024002.1661194     
   33022270.0132981     
   33020559.1800200     
   33018874.2809258     
   33017219.8136045     
   33015600.1718512     
   33014019.6584833     
   33012482.4977200     
   33010992.8471338     
   33009554.8091810     
   33008172.4423152     
   33006849.7716919     
   33005590.7994643     
   33004399.5146763     
   33003279.9027526     
   33002235.9545867     
   33001271.6752257     
   33000391.0921498     
   32999598.2631420     
   32998897.2837449     
   32998292.2942960     
   32997787.4865369     
   32997387.1097850     
   32997095.4766626     
   32996916.9683691     
   32996856.0394865     
   32092996.2215690     
   32092906.7143310     
   32092648.0398050     
   32092233.2821480     
   32091674.8617232     
   32090984.5650125     
   32090173.5740418     
   32089252.4952865     
   32088231.3880190     
   32087119.7920656     
   32085926.7549425     
   32084660.8583476     
   32083330.2439863     
   32081942.6387154     
   32080505.3789930     
   32079025.4346245     
   32077509.4318012     
   32075963.6754288     
   32074394.1707488     
   32072806.6442582     
   32071206.5639350     
   32069599.1587801     
   32067989.4376900     
   32066382.2076745     
   32064782.0914368     
   32063193.5443338     
   32061620.8707375     
   32060068.2398151     
   32058539.7007518     
   32057039.1974336     
   32055570.5826122     
   32054137.6315715     
   32052744.0553140     
   32051393.5132851     
   32050089.6256509     
   32048835.9851450     
   32047636.1684950     
   32046493.7474414     
   32045412.2993543     
   32044395.4174563     
   32043446.7206528     
   32042569.8629722     
   32041768.5426117     
   32041046.5105874     
   32040407.5789786     
   32039855.6287600     
   32039394.6172077     
   32039028.5848667     
   32038761.6620624     
   32038598.0749394     
   32038542.1510193     
   31096346.7899497     
   31096266.4313769     
   31096034.7941832     
   31095664.3519979     
   31095166.8633837     
   31094553.4081772     
   31093834.4230096     
   31093019.7359510     
   31092118.6002379     
   31091139.7270526     
   31090091.3173306     
   31088981.0925752     
   31087816.3246647     
   31086603.8646423     
   31085350.1704854     
   31084061.3338567     
   31082743.1058433     
   31081400.9216970     
   31080039.9245917     
   31078664.9884194     
   31077280.7396510     
   31075891.5782892     
   31074501.6979471     
   31073115.1050861     
   31071735.6374509     
   31070366.9817392     
   31069012.6905478     
   31067676.1986323     
   31066360.8385236     
   31065069.8555398     
   31063806.4222319     
   31062573.6523026     
   31061374.6140305     
   31060212.3432366     
   31059089.8558203     
   31058010.1598936     
   31056976.2675369     
   31055991.2061959     
   31055058.0297363     
   31054179.8291670     
   31053359.7430402     
   31052600.9675309     
   31051906.7661944     
   31051280.4793961     
   31050725.5334022     
   31050245.4491177     
   31049843.8504524     
   31049524.4722933     
   31049291.1680594     
   31049147.9168026     
   31049098.8297976     
   30068499.2907431     
   30068431.7562997     
   30068237.7726847     
   30067928.6509499     
   30067514.9552435     
   30067006.5462203     
   30066412.6231174     
   30065741.7644676     
   30065001.9674349     
   30064200.6857396     
   30063344.8661462     
   30062440.9834974     
   30061495.0742860     
   30060512.7687680     
   30059499.3216245     
   30058459.6411904     
   30057398.3172745     
   30056319.6476026     
   30055227.6629233     
   30054126.1508227     
   30053018.6782981     
   30051908.6131497     
   30050799.1442489     
   30049693.3007501     
   30048593.9703116     
   30047503.9163959     
   30046425.7947202     
   30045362.1689256     
   30044315.5255385     
   30043288.2882890     
   30042282.8318565     
   30041301.4951031     
   30040346.5938575     
   30039420.4333025     
   30038525.3200209     
   30037663.5737410     
   30036837.5388266     
   30036049.5955410     
   30035302.1711153     
   30034597.7506392     
   30033938.8877888     
   30033328.2153967     
   30032768.4558634     
   30032262.4314022     
   30031813.0741016     
   30031423.4357847     
   30031096.6976304     
   30030836.1795203     
   30030645.3490640     
   30030527.8302876     
   30030487.4119734     
   29011914.4027881     
   29011863.4969830     
   29011718.0939853     
   29011487.6900012     
   29011181.0315608     
   29010806.1663345     
   29010370.4920903     
   29009880.8037830     
   29009343.3386484     
   29008763.8192469     
   29008147.4944389     
   29007499.1782865     
   29006823.2868835     
   29006123.8731254     
   29005404.6594458     
   29004669.0685588     
   29003920.2522594     
   29003161.1183468     
   29002394.3557460     
   29001622.4579132     
   29000847.7446164     
   29000072.3821935     
   28999298.4023928     
   28998527.7199052     
   28997762.1487051     
   28997003.4173114     
   28996253.1830880     
   28995513.0456977     
   28994784.5598224     
   28994069.2472617     
   28993368.6085144     
   28992684.1339449     
   28992017.3146296     
   28991369.6529704     
   28990742.6731574     
   28990137.9315512     
   28989557.0270494     
   28989001.6114895     
   28988473.4001337     
   28987974.1822671     
   28987505.8319331     
   28987070.3188145     
   28986669.7192618     
   28986306.2274527     
   28985982.1666600     
   28985700.0005966     
   28985462.3447985     
   28985271.9780007     
   28985131.8534177     
   28985045.1097602     
   28985015.0818632     
   27929575.7223296     
   27929545.1612812     
   27929458.9149034     
   27929323.9102109     
   27929146.3614296     
   27928931.8292934     
   27928685.2779328     
   27928411.1286894     
   27928113.3109836     
   27927795.3102893     
   27927460.2131891     
   27927110.7494760     
   27926749.3313003     
   27926378.0893945     
   27925998.9064383     
   27925613.4476486     
   27925223.1887006     
   27924829.4411017     
   27924433.3751527     
   27924036.0406509     
   27923638.3854919     
   27923241.2723448     
   27922845.4935761     
   27922451.7846038     
   27922060.8358671     
   27921673.3035920     
   27921289.8195357     
   27920910.9998846     
   27920537.4534803     
   27920169.7895354     
   27919808.6250003     
   27919454.5917282     
   27919108.3435805     
   27918770.5636022     
   27918441.9713877     
   27918123.3307435     
   27917815.4577452     
   27917519.2292675     
   27917235.5920575     
   27916965.5724018     
   27916710.2864293     
   27916470.9510698     
   27916248.8956778     
   27916045.5743086     
   27915862.5786095     
   27915701.6512621     
   27915564.6998864     
   27915453.8113315     
   27915371.2663613     
   27915319.5548747     
   27915301.3912967     
   26825007.7927004     
   26825000.8856737     
   26824983.0824878     
   26824957.8740434     
   26824928.1323177     
   26824896.1804327     
   26824863.8565107     
   26824832.5743014     
   26824803.3801689     
   26824777.0058904     
   26824753.9170411     
   26824734.3569598     
   26824718.3863886     
   26824705.9189140     
   26824696.7523585     
   26824690.5962963     
   26824687.0958924     
   26824685.8522949     
   26824686.4398363     
   26824688.4203190     
   26824691.3546775     
   26824694.8123104     
   26824698.3783792     
   26824701.6593649     
   26824704.2871615     
   26824705.9219775     
   26824706.2543013     
   26824705.0061732     
   26824701.9319953     
   26824696.8190980     
   26824689.4882692     
   26824679.7944452     
   26824667.6277505     
   26824652.9150644     
   26824635.6222839     
   26824615.7574395     
   26824593.3748086     
   26824568.5801552     
   26824541.5372045     
   26824512.4754408     
   26824481.6992946     
   26824449.5987608     
   26824416.6614744     
   26824383.4862563     
   26824350.7981349     
   26824319.4648295     
   26824290.5146094     
   26824265.1552665     
   26824244.7936339     
   26824231.0550355     
   26824225.8042718     
   25702287.4244139     
   25702306.6701081     
   25702363.9933649     
   25702458.4731400     
   25702588.7435017     
   25702753.0660736     
   25702949.4096441     
   25703175.5226790     
   25703428.9971587     
   25703707.3246800     
   25704007.9456619     
   25704328.2920692     
   25704665.8238315     
   25705018.0591121     
   25705382.5986625     
   25705757.1446190     
   25706139.5141993     
   25706527.6488294     
   25706919.6192638     
   25707313.6272685     
   25707708.0044131     
   25708101.2084838     
   25708491.8179860     
   25708878.5251555     
   25709260.1278524     
   25709635.5206672     
   25710003.6855299     
   25710363.6820829     
   25710714.6380515     
   25711055.7398268     
   25711386.2234654     
   25711705.3663045     
   25712012.4793894     
   25712306.9009164     
   25712587.9909027     
   25712855.1273015     
   25713107.7037919     
   25713345.1294756     
   25713566.8307081     
   25713772.2552752     
   25713960.8790894     
   25714132.2155275     
   25714285.8274559     
   25714421.3419181     
   25714538.4674083     
   25714637.0137015     
   25714716.9144128     
   25714778.2528446     
   25714821.2919407     
   25714846.5077945     
   25714854.6179794     
   24566050.0492858     
   24566096.3710896     
   24566230.9386432     
   24566447.2710867     
   24566738.6951028     
   24567098.5010269     
   24567520.0302807     
   24567996.7444732     
   24568522.2879715     
   24569090.5437707     
   24569695.6802315     
   24570332.1870089     
   24570994.8997662     
   24571679.0142857     
   24572380.0911975     
   24573094.0528205     
   24573817.1736450     
   24574546.0658894     
   24575277.6613897     
   24576009.1908873     
   24576738.1615849     
   24577462.3336638     
   24578179.6962996     
   24578888.4435844     
   24579586.9506560     
   24580273.7502534     
   24580947.5098504     
   24581607.0094746     
   24582251.1202892     
   24582878.7839937     
   24583488.9931003     
   24584080.7721458     
   24584653.1599225     
   24585205.1928410     
   24585735.8895845     
   24586244.2372692     
   24586729.1794009     
   24587189.6059940     
   24587624.3463158     
   24588032.1648022     
   24588411.7607705     
   24588761.7725863     
   24589080.7868942     
   24589367.3533387     
   24589620.0048127     
   24589837.2826245     
   24590017.7651466     
   24590160.0979270     
   24590263.0244141     
   24590325.4235156     
   24590346.3839702     
   23421496.0994396     
   23421568.4262161     
   23421774.9339720     
   23422102.1037222     
   23422536.9873466     
   23423067.0875399     
   23423680.4367771     
   23424365.7175216     
   23425112.3627699     
   23425910.6193662     
   23426751.5744902     
   23427627.1520317     
   23428530.0867773     
   23429453.8835459     
   23430392.7670014     
   23431341.6264575     
   23432295.9587624     
   23433251.8113873     
   23434205.7271023     
   23435154.6910885     
   23436096.0809423     
   23437027.6197618     
   23437947.3323152     
   23438853.5041694     
   23439744.6435764     
   23440619.4458657     
   23441476.7600655     
   23442315.5574625     
   23443134.9018079     
   23443933.9208867     
   23444711.7791768     
   23445467.6513477     
   23446200.6963700     
   23446910.0320490     
   23447594.7098403     
   23448253.6898781     
   23448885.8162388     
   23449489.7926055     
   23450064.1586795     
   23450607.2679571     
   23451117.2678430     
   23451592.0835560     
   23452029.4078907     
   23452426.6996300     
   23452781.1941383     
   23453089.9301128     
   23453349.7958825     
   23453557.5953173     
   23453710.1236472     
   23453804.2193663     
   23453836.7033463     
   22274421.4851995     
   22274511.9957893     
   22274769.4002704     
   22275172.3601004     
   22275699.6585619     
   22276331.4661411     
   22277049.8703192     
   22277839.0162817     
   22278685.0500730     
   22279575.9691154     
   22280501.4367227     
   22281452.5903687     
   22282421.8585917     
   22283402.7932402     
   22284389.9193583     
   22285378.6027004     
   22286364.9337401     
   22287345.6265470     
   22288317.9307723     
   22289279.5550218     
   22290228.6000226     
   22291163.5001485     
   22292082.9720306     
   22292985.9691357     
   22293871.6413283     
   22294739.2985539     
   22295588.3778764     
   22296418.4131841     
   22297229.0069404     
   22298019.8033999     
   22298790.4627430     
   22299540.6355938     
   22300269.9373908     
   22300977.9220636     
   22301664.0544444     
   22302327.6808063     
   22302967.9968699     
   22303584.0125729     
   22304174.5128518     
   22304738.0136738     
   22305272.7126132     
   22305776.4334687     
   22306246.5649092     
   22306679.9941519     
   22307073.0386952     
   22307421.3829637     
   22307720.0338908     
   22307963.3227175     
   22308145.0046063     
   22308258.5520590     
   22308297.8185421     
   21131303.1790422     
   21131405.1323820     
   21131673.2211350     
   21132066.9245632     
   21132555.7678605     
   21133116.4872269     
   21133731.0904357     
   21134385.5069753     
   21135068.6315985     
   21135771.6345720     
   21136487.4557958     
   21137210.4278381     
   21137935.9908531     
   21138660.4740109     
   21139380.9257852     
   21140094.9806203     
   21140800.7530258     
   21141496.7525886     
   21142181.8151024     
   21142855.0462312     
   21143515.7749965     
   21144163.5150165     
   21144797.9318901     
   21145418.8154642     
   21146026.0559823     
   21146619.6233005     
   21147199.5485013     
   21147765.9073391     
   21148318.8050245     
   21148858.3619040     
   21149384.6996161     
   21149897.9273114     
   21150398.1275060     
   21150885.3410983     
   21151359.5510076     
   21151820.6637856     
   21152268.4883969     
   21152702.7111373     
   21153122.8653365     
   21153528.2940305     
   21153918.1031152     
   21154291.1015094     
   21154645.7233926     
   21154979.9253772     
   21155291.0481018     
   21155575.6265015     
   21155829.1247962     
   21156045.5592127     
   21156216.9506929     
   21156332.5168505     
   21156377.4609145     
   20000000.0000000     
   20000000.0000000     
   20000000.0000000     
   20000000.0000000     
   20000000.0000000     
   20000000.0000000     
   20000000.0000000     
   20000000.0000000     
   20000000.0000000     
   20000000.0000000     
   20000000.0000000     
   20000000.0000000     
   20000000.0000000     
   20000000.0000000     
   20000000.0000000     
   20000000.0000000     
   20000000.0000000     
   20000000.0000000     
   20000000.0000000     
   20000000.0000000     
   20000000.0000000     
   20000000.0000000     
   20000000.0000000     
   20000000.0000000     
   20000000.0000000     
   20000000.0000000     
   20000000.0000000     
   20000000.0000000     
   20000000.0000000     
   20000000.0000000     
   20000000.0000000     
   20000000.0000000     
   20000000.0000000     
   20000000.0000000     
   20000000.0000000     
   20000000.0000000     
   20000000.0000000     
   20000000.0000000     
   20000000.0000000     
   20000000.0000000     
   20000000.0000000     
   20000000.0000000     
   20000000.0000000     
   20000000.0000000     
   20000000.0000000     
   20000000.0000000     
   20000000.0000000     
   20000000.0000000     
   20000000.0000000     
   20000000.0000000     
   20000000.0000000     
VECTORS u double 
    0.00000E+00         0.71301E-01         0.00000E+00
    0.00000E+00         0.69815E-01         0.00000E+00
    0.00000E+00         0.68345E-01         0.00000E+00
    0.00000E+00         0.66895E-01         0.00000E+00
    0.00000E+00         0.65466E-01         0.00000E+00
    0.00000E+00         0.64060E-01         0.00000E+00
    0.00000E+00         0.62671E-01         0.00000E+00
    0.00000E+00         0.61275E-01         0.00000E+00
    0.00000E+00         0.59878E-01         0.00000E+00
    0.00000E+00         0.58488E-01         0.00000E+00
    0.00000E+00         0.57105E-01         0.00000E+00
    0.00000E+00         0.55730E-01         0.00000E+00
    0.00000E+00         0.54363E-01         0.00000E+00
    0.00000E+00         0.53004E-01         0.00000E+00
    0.00000E+00         0.51651E-01         0.00000E+00
    0.00000E+00         0.50306E-01         0.00000E+00
    0.00000E+00         0.48967E-01         0.00000E+00
    0.00000E+00         0.47633E-01         0.00000E+00
    0.00000E+00         0.46304E-01         0.00000E+00
    0.00000E+00         0.44978E-01         0.00000E+00
    0.00000E+00         0.43652E-01         0.00000E+00
    0.00000E+00         0.42325E-01         0.00000E+00
    0.00000E+00         0.40999E-01         0.00000E+00
    0.00000E+00         0.39673E-01         0.00000E+00
    0.00000E+00         0.38347E-01         0.00000E+00
    0.00000E+00         0.37021E-01         0.00000E+00
    0.00000E+00         0.35695E-01         0.00000E+00
    0.00000E+00         0.34368E-01         0.00000E+00
    0.00000E+00         0.33040E-01         0.00000E+00
    0.00000E+00         0.31712E-01         0.00000E+00
    0.00000E+00         0.30382E-01         0.00000E+00
    0.00000E+00         0.29051E-01         0.00000E+00
    0.00000E+00         0.27718E-01         0.00000E+00
    0.00000E+00         0.26382E-01         0.00000E+00
    0.00000E+00         0.25035E-01         0.00000E+00
    0.00000E+00         0.23672E-01         0.00000E+00
    0.00000E+00         0.22292E-01         0.00000E+00
    0.00000E+00         0.20893E-01         0.00000E+00
    0.00000E+00         0.19475E-01         0.00000E+00
    0.00000E+00         0.18036E-01         0.00000E+00
    0.00000E+00         0.16575E-01         0.00000E+00
    0.00000E+00         0.15090E-01         0.00000E+00
    0.00000E+00         0.13579E-01         0.00000E+00
    0.00000E+00         0.12039E-01         0.00000E+00
    0.00000E+00         0.10468E-01         0.00000E+00
    0.00000E+00         0.88600E-02         0.00000E+00
    0.00000E+00         0.72110E-02         0.00000E+00
    0.00000E+00         0.55134E-02         0.00000E+00
    0.00000E+00         0.37565E-02         0.00000E+00
    0.00000E+00         0.19257E-02         0.00000E+00
    0.00000E+00         0.00000E+00         0.00000E+00
    0.47859E-02         0.70113E-01         0.00000E+00
    0.44635E-02         0.68779E-01         0.00000E+00
    0.41865E-02         0.67441E-01         0.00000E+00
    0.39470E-02         0.66104E-01         0.00000E+00
    0.37390E-02         0.64770E-01         0.00000E+00
    0.35576E-02         0.63438E-01         0.00000E+00
    0.33988E-02         0.62098E-01         0.00000E+00
    0.32605E-02         0.60753E-01         0.00000E+00
    0.31410E-02         0.59407E-01         0.00000E+00
    0.30372E-02         0.58060E-01         0.00000E+00
    0.29454E-02         0.56714E-01         0.00000E+00
    0.28628E-02         0.55372E-01         0.00000E+00
    0.27873E-02         0.54032E-01         0.00000E+00
    0.27172E-02         0.52697E-01         0.00000E+00
    0.26516E-02         0.51366E-01         0.00000E+00
    0.25895E-02         0.50037E-01         0.00000E+00
    0.25301E-02         0.48711E-01         0.00000E+00
    0.24726E-02         0.47386E-01         0.00000E+00
    0.24165E-02         0.46063E-01         0.00000E+00
    0.23612E-02         0.44740E-01         0.00000E+00
    0.23065E-02         0.43418E-01         0.00000E+00
    0.22525E-02         0.42096E-01         0.00000E+00
    0.21989E-02         0.40775E-01         0.00000E+00
    0.21456E-02         0.39453E-01         0.00000E+00
    0.20923E-02         0.38132E-01         0.00000E+00
    0.20389E-02         0.36810E-01         0.00000E+00
    0.19851E-02         0.35488E-01         0.00000E+00
    0.19307E-02         0.34165E-01         0.00000E+00
    0.18753E-02         0.32841E-01         0.00000E+00
    0.18186E-02         0.31515E-01         0.00000E+00
    0.17603E-02         0.30189E-01         0.00000E+00
    0.17000E-02         0.28860E-01         0.00000E+00
    0.16370E-02         0.27530E-01         0.00000E+00
    0.15705E-02         0.26197E-01         0.00000E+00
    0.15009E-02         0.24861E-01         0.00000E+00
    0.14297E-02         0.23513E-01         0.00000E+00
    0.13589E-02         0.22148E-01         0.00000E+00
    0.12899E-02         0.20763E-01         0.00000E+00
    0.12226E-02         0.19357E-01         0.00000E+00
    0.11562E-02         0.17929E-01         0.00000E+00
    0.10896E-02         0.16477E-01         0.00000E+00
    0.10220E-02         0.14999E-01         0.00000E+00
    0.95199E-03         0.13494E-01         0.00000E+00
    0.87821E-03         0.11958E-01         0.00000E+00
    0.79885E-03         0.10390E-01         0.00000E+00
    0.71203E-03         0.87843E-02         0.00000E+00
    0.61464E-03         0.71370E-02         0.00000E+00
    0.50152E-03         0.54424E-02         0.00000E+00
    0.36671E-03         0.36934E-02         0.00000E+00
    0.20273E-03         0.18819E-02         0.00000E+00
    0.00000E+00         0.00000E+00         0.00000E+00
    0.81376E-02         0.68407E-01         0.00000E+00
    0.77954E-02         0.67151E-01         0.00000E+00
    0.74720E-02         0.65894E-01         0.00000E+00
    0.71709E-02         0.64633E-01         0.00000E+00
    0.68923E-02         0.63367E-01         0.00000E+00
    0.66345E-02         0.62096E-01         0.00000E+00
    0.63970E-02         0.60823E-01         0.00000E+00
    0.61786E-02         0.59546E-01         0.00000E+00
    0.59778E-02         0.58266E-01         0.00000E+00
    0.57929E-02         0.56983E-01         0.00000E+00
    0.56221E-02         0.55696E-01         0.00000E+00
    0.54636E-02         0.54406E-01         0.00000E+00
    0.53157E-02         0.53115E-01         0.00000E+00
    0.51765E-02         0.51820E-01         0.00000E+00
    0.50445E-02         0.50525E-01         0.00000E+00
    0.49183E-02         0.49227E-01         0.00000E+00
    0.47970E-02         0.47929E-01         0.00000E+00
    0.46797E-02         0.46629E-01         0.00000E+00
    0.45655E-02         0.45328E-01         0.00000E+00
    0.44538E-02         0.44026E-01         0.00000E+00
    0.43441E-02         0.42724E-01         0.00000E+00
    0.42359E-02         0.41420E-01         0.00000E+00
    0.41288E-02         0.40116E-01         0.00000E+00
    0.40223E-02         0.38811E-01         0.00000E+00
    0.39160E-02         0.37505E-01         0.00000E+00
    0.38095E-02         0.36197E-01         0.00000E+00
    0.37023E-02         0.34888E-01         0.00000E+00
    0.35941E-02         0.33578E-01         0.00000E+00
    0.34843E-02         0.32266E-01         0.00000E+00
    0.33724E-02         0.30952E-01         0.00000E+00
    0.32580E-02         0.29636E-01         0.00000E+00
    0.31404E-02         0.28318E-01         0.00000E+00
    0.30190E-02         0.26998E-01         0.00000E+00
    0.28933E-02         0.25675E-01         0.00000E+00
    0.27624E-02         0.24349E-01         0.00000E+00
    0.26259E-02         0.23021E-01         0.00000E+00
    0.24850E-02         0.21690E-01         0.00000E+00
    0.23415E-02         0.20345E-01         0.00000E+00
    0.21977E-02         0.18979E-01         0.00000E+00
    0.20557E-02         0.17585E-01         0.00000E+00
    0.19155E-02         0.16163E-01         0.00000E+00
    0.17748E-02         0.14711E-01         0.00000E+00
    0.16310E-02         0.13228E-01         0.00000E+00
    0.14814E-02         0.11711E-01         0.00000E+00
    0.13232E-02         0.10158E-01         0.00000E+00
    0.11536E-02         0.85688E-02         0.00000E+00
    0.96959E-03         0.69391E-02         0.00000E+00
    0.76576E-03         0.52672E-02         0.00000E+00
    0.53748E-03         0.35524E-02         0.00000E+00
    0.28142E-03         0.17955E-02         0.00000E+00
    0.00000E+00         0.00000E+00         0.00000E+00
    0.11168E-01         0.66528E-01         0.00000E+00
    0.10772E-01         0.65308E-01         0.00000E+00
    0.10397E-01         0.64086E-01         0.00000E+00
    0.10040E-01         0.62863E-01         0.00000E+00
    0.97027E-02         0.61637E-01         0.00000E+00
    0.93841E-02         0.60410E-01         0.00000E+00
    0.90838E-02         0.59180E-01         0.00000E+00
    0.88004E-02         0.57946E-01         0.00000E+00
    0.85331E-02         0.56710E-01         0.00000E+00
    0.82807E-02         0.55471E-01         0.00000E+00
    0.80419E-02         0.54228E-01         0.00000E+00
    0.78156E-02         0.52983E-01         0.00000E+00
    0.76004E-02         0.51734E-01         0.00000E+00
    0.73951E-02         0.50482E-01         0.00000E+00
    0.71986E-02         0.49226E-01         0.00000E+00
    0.70098E-02         0.47968E-01         0.00000E+00
    0.68274E-02         0.46707E-01         0.00000E+00
    0.66507E-02         0.45443E-01         0.00000E+00
    0.64786E-02         0.44177E-01         0.00000E+00
    0.63105E-02         0.42908E-01         0.00000E+00
    0.61455E-02         0.41636E-01         0.00000E+00
    0.59829E-02         0.40362E-01         0.00000E+00
    0.58220E-02         0.39086E-01         0.00000E+00
    0.56624E-02         0.37807E-01         0.00000E+00
    0.55033E-02         0.36526E-01         0.00000E+00
    0.53441E-02         0.35243E-01         0.00000E+00
    0.51844E-02         0.33956E-01         0.00000E+00
    0.50236E-02         0.32668E-01         0.00000E+00
    0.48611E-02         0.31376E-01         0.00000E+00
    0.46963E-02         0.30082E-01         0.00000E+00
    0.45286E-02         0.28785E-01         0.00000E+00
    0.43574E-02         0.27485E-01         0.00000E+00
    0.41822E-02         0.26181E-01         0.00000E+00
    0.40021E-02         0.24875E-01         0.00000E+00
    0.38168E-02         0.23565E-01         0.00000E+00
    0.36252E-02         0.22252E-01         0.00000E+00
    0.34261E-02         0.20935E-01         0.00000E+00
    0.32189E-02         0.19615E-01         0.00000E+00
    0.30046E-02         0.18292E-01         0.00000E+00
    0.27853E-02         0.16959E-01         0.00000E+00
    0.25634E-02         0.15597E-01         0.00000E+00
    0.23409E-02         0.14201E-01         0.00000E+00
    0.21183E-02         0.12768E-01         0.00000E+00
    0.18937E-02         0.11298E-01         0.00000E+00
    0.16630E-02         0.97896E-02         0.00000E+00
    0.14226E-02         0.82437E-02         0.00000E+00
    0.11705E-02         0.66614E-02         0.00000E+00
    0.90494E-03         0.50442E-02         0.00000E+00
    0.62344E-03         0.33938E-02         0.00000E+00
    0.32298E-03         0.17121E-02         0.00000E+00
    0.00000E+00         0.00000E+00         0.00000E+00
    0.13834E-01         0.64350E-01         0.00000E+00
    0.13385E-01         0.63172E-01         0.00000E+00
    0.12958E-01         0.61992E-01         0.00000E+00
    0.12551E-01         0.60809E-01         0.00000E+00
    0.12164E-01         0.59624E-01         0.00000E+00
    0.11794E-01         0.58436E-01         0.00000E+00
    0.11442E-01         0.57246E-01         0.00000E+00
    0.11105E-01         0.56053E-01         0.00000E+00
    0.10784E-01         0.54858E-01         0.00000E+00
    0.10476E-01         0.53659E-01         0.00000E+00
    0.10181E-01         0.52458E-01         0.00000E+00
    0.98985E-02         0.51253E-01         0.00000E+00
    0.96266E-02         0.50045E-01         0.00000E+00
    0.93646E-02         0.48834E-01         0.00000E+00
    0.91115E-02         0.47619E-01         0.00000E+00
    0.88664E-02         0.46401E-01         0.00000E+00
    0.86284E-02         0.45180E-01         0.00000E+00
    0.83966E-02         0.43955E-01         0.00000E+00
    0.81702E-02         0.42726E-01         0.00000E+00
    0.79482E-02         0.41494E-01         0.00000E+00
    0.77300E-02         0.40259E-01         0.00000E+00
    0.75147E-02         0.39021E-01         0.00000E+00
    0.73017E-02         0.37778E-01         0.00000E+00
    0.70903E-02         0.36533E-01         0.00000E+00
    0.68799E-02         0.35284E-01         0.00000E+00
    0.66697E-02         0.34031E-01         0.00000E+00
    0.64592E-02         0.32775E-01         0.00000E+00
    0.62477E-02         0.31515E-01         0.00000E+00
    0.60346E-02         0.30251E-01         0.00000E+00
    0.58193E-02         0.28983E-01         0.00000E+00
    0.56011E-02         0.27712E-01         0.00000E+00
    0.53796E-02         0.26437E-01         0.00000E+00
    0.51539E-02         0.25157E-01         0.00000E+00
    0.49235E-02         0.23874E-01         0.00000E+00
    0.46876E-02         0.22586E-01         0.00000E+00
    0.44455E-02         0.21294E-01         0.00000E+00
    0.41966E-02         0.19997E-01         0.00000E+00
    0.39399E-02         0.18696E-01         0.00000E+00
    0.36740E-02         0.17390E-01         0.00000E+00
    0.33973E-02         0.16081E-01         0.00000E+00
    0.31106E-02         0.14769E-01         0.00000E+00
    0.28166E-02         0.13448E-01         0.00000E+00
    0.25173E-02         0.12101E-01         0.00000E+00
    0.22152E-02         0.10717E-01         0.00000E+00
    0.19126E-02         0.92919E-02         0.00000E+00
    0.16101E-02         0.78287E-02         0.00000E+00
    0.13046E-02         0.63272E-02         0.00000E+00
    0.99308E-03         0.47902E-02         0.00000E+00
    0.67246E-03         0.32209E-02         0.00000E+00
    0.34164E-03         0.16229E-02         0.00000E+00
    0.00000E+00         0.00000E+00         0.00000E+00
    0.16114E-01         0.61951E-01         0.00000E+00
    0.15628E-01         0.60814E-01         0.00000E+00
    0.15163E-01         0.59674E-01         0.00000E+00
    0.14717E-01         0.58533E-01         0.00000E+00
    0.14289E-01         0.57389E-01         0.00000E+00
    0.13878E-01         0.56244E-01         0.00000E+00
    0.13483E-01         0.55095E-01         0.00000E+00
    0.13103E-01         0.53944E-01         0.00000E+00
    0.12737E-01         0.52791E-01         0.00000E+00
    0.12384E-01         0.51634E-01         0.00000E+00
    0.12044E-01         0.50475E-01         0.00000E+00
    0.11714E-01         0.49312E-01         0.00000E+00
    0.11395E-01         0.48146E-01         0.00000E+00
    0.11085E-01         0.46977E-01         0.00000E+00
    0.10783E-01         0.45804E-01         0.00000E+00
    0.10490E-01         0.44627E-01         0.00000E+00
    0.10203E-01         0.43447E-01         0.00000E+00
    0.99224E-02         0.42263E-01         0.00000E+00
    0.96470E-02         0.41075E-01         0.00000E+00
    0.93763E-02         0.39884E-01         0.00000E+00
    0.91094E-02         0.38688E-01         0.00000E+00
    0.88456E-02         0.37489E-01         0.00000E+00
    0.85842E-02         0.36285E-01         0.00000E+00
    0.83245E-02         0.35078E-01         0.00000E+00
    0.80659E-02         0.33866E-01         0.00000E+00
    0.78077E-02         0.32650E-01         0.00000E+00
    0.75494E-02         0.31430E-01         0.00000E+00
    0.72901E-02         0.30205E-01         0.00000E+00
    0.70295E-02         0.28976E-01         0.00000E+00
    0.67668E-02         0.27742E-01         0.00000E+00
    0.65014E-02         0.26504E-01         0.00000E+00
    0.62328E-02         0.25261E-01         0.00000E+00
    0.59603E-02         0.24013E-01         0.00000E+00
    0.56833E-02         0.22760E-01         0.00000E+00
    0.54012E-02         0.21502E-01         0.00000E+00
    0.51133E-02         0.20240E-01         0.00000E+00
    0.48190E-02         0.18971E-01         0.00000E+00
    0.45176E-02         0.17698E-01         0.00000E+00
    0.42087E-02         0.16420E-01         0.00000E+00
    0.38915E-02         0.15136E-01         0.00000E+00
    0.35647E-02         0.13846E-01         0.00000E+00
    0.32267E-02         0.12552E-01         0.00000E+00
    0.28780E-02         0.11255E-01         0.00000E+00
    0.25212E-02         0.99524E-02         0.00000E+00
    0.21605E-02         0.86386E-02         0.00000E+00
    0.17962E-02         0.72921E-02         0.00000E+00
    0.14324E-02         0.59090E-02         0.00000E+00
    0.10710E-02         0.44847E-02         0.00000E+00
    0.71376E-03         0.30216E-02         0.00000E+00
    0.35826E-03         0.15254E-02         0.00000E+00
    0.00000E+00         0.00000E+00         0.00000E+00
    0.18025E-01         0.59407E-01         0.00000E+00
    0.17515E-01         0.58310E-01         0.00000E+00
    0.17024E-01         0.57211E-01         0.00000E+00
    0.16551E-01         0.56112E-01         0.00000E+00
    0.16093E-01         0.55010E-01         0.00000E+00
    0.15652E-01         0.53907E-01         0.00000E+00
    0.15224E-01         0.52801E-01         0.00000E+00
    0.14810E-01         0.51693E-01         0.00000E+00
    0.14410E-01         0.50583E-01         0.00000E+00
    0.14020E-01         0.49469E-01         0.00000E+00
    0.13642E-01         0.48353E-01         0.00000E+00
    0.13275E-01         0.47234E-01         0.00000E+00
    0.12916E-01         0.46111E-01         0.00000E+00
    0.12566E-01         0.44985E-01         0.00000E+00
    0.12225E-01         0.43856E-01         0.00000E+00
    0.11890E-01         0.42723E-01         0.00000E+00
    0.11561E-01         0.41587E-01         0.00000E+00
    0.11239E-01         0.40446E-01         0.00000E+00
    0.10921E-01         0.39302E-01         0.00000E+00
    0.10607E-01         0.38154E-01         0.00000E+00
    0.10297E-01         0.37001E-01         0.00000E+00
    0.99905E-02         0.35845E-01         0.00000E+00
    0.96858E-02         0.34684E-01         0.00000E+00
    0.93827E-02         0.33519E-01         0.00000E+00
    0.90806E-02         0.32350E-01         0.00000E+00
    0.87790E-02         0.31176E-01         0.00000E+00
    0.84771E-02         0.29997E-01         0.00000E+00
    0.81745E-02         0.28814E-01         0.00000E+00
    0.78705E-02         0.27627E-01         0.00000E+00
    0.75646E-02         0.26434E-01         0.00000E+00
    0.72562E-02         0.25237E-01         0.00000E+00
    0.69448E-02         0.24034E-01         0.00000E+00
    0.66297E-02         0.22827E-01         0.00000E+00
    0.63106E-02         0.21614E-01         0.00000E+00
    0.59868E-02         0.20397E-01         0.00000E+00
    0.56579E-02         0.19174E-01         0.00000E+00
    0.53234E-02         0.17946E-01         0.00000E+00
    0.49828E-02         0.16712E-01         0.00000E+00
    0.46355E-02         0.15473E-01         0.00000E+00
    0.42813E-02         0.14228E-01         0.00000E+00
    0.39199E-02         0.12978E-01         0.00000E+00
    0.35513E-02         0.11722E-01         0.00000E+00
    0.31749E-02         0.10460E-01         0.00000E+00
    0.27899E-02         0.91930E-02         0.00000E+00
    0.23954E-02         0.79211E-02         0.00000E+00
    0.19933E-02         0.66464E-02         0.00000E+00
    0.15877E-02         0.53673E-02         0.00000E+00
    0.11821E-02         0.40743E-02         0.00000E+00
    0.78111E-03         0.27582E-02         0.00000E+00
    0.38450E-03         0.13997E-02         0.00000E+00
    0.00000E+00         0.00000E+00         0.00000E+00
    0.19593E-01         0.56781E-01         0.00000E+00
    0.19071E-01         0.55725E-01         0.00000E+00
    0.18565E-01         0.54668E-01         0.00000E+00
    0.18075E-01         0.53610E-01         0.00000E+00
    0.17598E-01         0.52551E-01         0.00000E+00
    0.17135E-01         0.51490E-01         0.00000E+00
    0.16685E-01         0.50428E-01         0.00000E+00
    0.16246E-01         0.49363E-01         0.00000E+00
    0.15819E-01         0.48297E-01         0.00000E+00
    0.15402E-01         0.47227E-01         0.00000E+00
    0.14995E-01         0.46155E-01         0.00000E+00
    0.14597E-01         0.45081E-01         0.00000E+00
    0.14208E-01         0.44003E-01         0.00000E+00
    0.13826E-01         0.42922E-01         0.00000E+00
    0.13451E-01         0.41838E-01         0.00000E+00
    0.13082E-01         0.40750E-01         0.00000E+00
    0.12719E-01         0.39659E-01         0.00000E+00
    0.12361E-01         0.38565E-01         0.00000E+00
    0.12007E-01         0.37466E-01         0.00000E+00
    0.11658E-01         0.36364E-01         0.00000E+00
    0.11311E-01         0.35258E-01         0.00000E+00
    0.10967E-01         0.34148E-01         0.00000E+00
    0.10625E-01         0.33033E-01         0.00000E+00
    0.10284E-01         0.31915E-01         0.00000E+00
    0.99442E-02         0.30792E-01         0.00000E+00
    0.96046E-02         0.29665E-01         0.00000E+00
    0.92648E-02         0.28534E-01         0.00000E+00
    0.89242E-02         0.27398E-01         0.00000E+00
    0.85823E-02         0.26258E-01         0.00000E+00
    0.82385E-02         0.25113E-01         0.00000E+00
    0.78925E-02         0.23963E-01         0.00000E+00
    0.75436E-02         0.22809E-01         0.00000E+00
    0.71915E-02         0.21651E-01         0.00000E+00
    0.68357E-02         0.20487E-01         0.00000E+00
    0.64758E-02         0.19319E-01         0.00000E+00
    0.61113E-02         0.18146E-01         0.00000E+00
    0.57419E-02         0.16969E-01         0.00000E+00
    0.53672E-02         0.15786E-01         0.00000E+00
    0.49870E-02         0.14599E-01         0.00000E+00
    0.46010E-02         0.13408E-01         0.00000E+00
    0.42090E-02         0.12211E-01         0.00000E+00
    0.38107E-02         0.11010E-01         0.00000E+00
    0.34064E-02         0.98041E-02         0.00000E+00
    0.29961E-02         0.85937E-02         0.00000E+00
    0.25804E-02         0.73784E-02         0.00000E+00
    0.21591E-02         0.61580E-02         0.00000E+00
    0.17319E-02         0.49325E-02         0.00000E+00
    0.12993E-02         0.37038E-02         0.00000E+00
    0.86250E-03         0.24718E-02         0.00000E+00
    0.42674E-03         0.12375E-02         0.00000E+00
    0.00000E+00         0.00000E+00         0.00000E+00
    0.20851E-01         0.54124E-01         0.00000E+00
    0.20326E-01         0.53109E-01         0.00000E+00
    0.19814E-01         0.52094E-01         0.00000E+00
    0.19315E-01         0.51079E-01         0.00000E+00
    0.18828E-01         0.50062E-01         0.00000E+00
    0.18352E-01         0.49045E-01         0.00000E+00
    0.17886E-01         0.48026E-01         0.00000E+00
    0.17431E-01         0.47005E-01         0.00000E+00
    0.16986E-01         0.45982E-01         0.00000E+00
    0.16549E-01         0.44958E-01         0.00000E+00
    0.16121E-01         0.43931E-01         0.00000E+00
    0.15700E-01         0.42901E-01         0.00000E+00
    0.15287E-01         0.41869E-01         0.00000E+00
    0.14880E-01         0.40834E-01         0.00000E+00
    0.14479E-01         0.39796E-01         0.00000E+00
    0.14083E-01         0.38755E-01         0.00000E+00
    0.13692E-01         0.37711E-01         0.00000E+00
    0.13306E-01         0.36664E-01         0.00000E+00
    0.12923E-01         0.35613E-01         0.00000E+00
    0.12544E-01         0.34559E-01         0.00000E+00
    0.12167E-01         0.33501E-01         0.00000E+00
    0.11792E-01         0.32439E-01         0.00000E+00
    0.11419E-01         0.31374E-01         0.00000E+00
    0.11047E-01         0.30305E-01         0.00000E+00
    0.10675E-01         0.29232E-01         0.00000E+00
    0.10304E-01         0.28155E-01         0.00000E+00
    0.99321E-02         0.27074E-01         0.00000E+00
    0.95596E-02         0.25989E-01         0.00000E+00
    0.91858E-02         0.24901E-01         0.00000E+00
    0.88103E-02         0.23808E-01         0.00000E+00
    0.84326E-02         0.22711E-01         0.00000E+00
    0.80524E-02         0.21610E-01         0.00000E+00
    0.76693E-02         0.20506E-01         0.00000E+00
    0.72828E-02         0.19397E-01         0.00000E+00
    0.68927E-02         0.18284E-01         0.00000E+00
    0.64986E-02         0.17168E-01         0.00000E+00
    0.61002E-02         0.16047E-01         0.00000E+00
    0.56972E-02         0.14923E-01         0.00000E+00
    0.52895E-02         0.13795E-01         0.00000E+00
    0.48767E-02         0.12663E-01         0.00000E+00
    0.44589E-02         0.11528E-01         0.00000E+00
    0.40359E-02         0.10389E-01         0.00000E+00
    0.36075E-02         0.92472E-02         0.00000E+00
    0.31739E-02         0.81019E-02         0.00000E+00
    0.27350E-02         0.69535E-02         0.00000E+00
    0.22910E-02         0.58022E-02         0.00000E+00
    0.18423E-02         0.46482E-02         0.00000E+00
    0.13892E-02         0.34911E-02         0.00000E+00
    0.93201E-03         0.23311E-02         0.00000E+00
    0.46979E-03         0.11676E-02         0.00000E+00
    0.00000E+00         0.00000E+00         0.00000E+00
    0.21833E-01         0.51475E-01         0.00000E+00
    0.21311E-01         0.50502E-01         0.00000E+00
    0.20800E-01         0.49529E-01         0.00000E+00
    0.20300E-01         0.48556E-01         0.00000E+00
    0.19808E-01         0.47583E-01         0.00000E+00
    0.19327E-01         0.46608E-01         0.00000E+00
    0.18854E-01         0.45633E-01         0.00000E+00
    0.18389E-01         0.44656E-01         0.00000E+00
    0.17932E-01         0.43678E-01         0.00000E+00
    0.17482E-01         0.42698E-01         0.00000E+00
    0.17039E-01         0.41716E-01         0.00000E+00
    0.16603E-01         0.40732E-01         0.00000E+00
    0.16172E-01         0.39745E-01         0.00000E+00
    0.15747E-01         0.38757E-01         0.00000E+00
    0.15326E-01         0.37766E-01         0.00000E+00
    0.14911E-01         0.36772E-01         0.00000E+00
    0.14499E-01         0.35775E-01         0.00000E+00
    0.14090E-01         0.34776E-01         0.00000E+00
    0.13684E-01         0.33773E-01         0.00000E+00
    0.13281E-01         0.32768E-01         0.00000E+00
    0.12881E-01         0.31759E-01         0.00000E+00
    0.12481E-01         0.30747E-01         0.00000E+00
    0.12083E-01         0.29732E-01         0.00000E+00
    0.11686E-01         0.28714E-01         0.00000E+00
    0.11289E-01         0.27692E-01         0.00000E+00
    0.10892E-01         0.26667E-01         0.00000E+00
    0.10494E-01         0.25638E-01         0.00000E+00
    0.10096E-01         0.24607E-01         0.00000E+00
    0.96962E-02         0.23571E-01         0.00000E+00
    0.92948E-02         0.22532E-01         0.00000E+00
    0.88914E-02         0.21490E-01         0.00000E+00
    0.84856E-02         0.20445E-01         0.00000E+00
    0.80772E-02         0.19396E-01         0.00000E+00
    0.76657E-02         0.18344E-01         0.00000E+00
    0.72510E-02         0.17288E-01         0.00000E+00
    0.68326E-02         0.16229E-01         0.00000E+00
    0.64105E-02         0.15167E-01         0.00000E+00
    0.59842E-02         0.14102E-01         0.00000E+00
    0.55537E-02         0.13034E-01         0.00000E+00
    0.51188E-02         0.11963E-01         0.00000E+00
    0.46792E-02         0.10889E-01         0.00000E+00
    0.42349E-02         0.98127E-02         0.00000E+00
    0.37857E-02         0.87332E-02         0.00000E+00
    0.33315E-02         0.76510E-02         0.00000E+00
    0.28722E-02         0.65662E-02         0.00000E+00
    0.24078E-02         0.54786E-02         0.00000E+00
    0.19379E-02         0.43884E-02         0.00000E+00
    0.14625E-02         0.32955E-02         0.00000E+00
    0.98115E-03         0.21997E-02         0.00000E+00
    0.49356E-03         0.11012E-02         0.00000E+00
    0.00000E+00         0.00000E+00         0.00000E+00
    0.22572E-01         0.48863E-01         0.00000E+00
    0.22059E-01         0.47932E-01         0.00000E+00
    0.21554E-01         0.47001E-01         0.00000E+00
    0.21057E-01         0.46070E-01         0.00000E+00
    0.20568E-01         0.45139E-01         0.00000E+00
    0.20085E-01         0.44208E-01         0.00000E+00
    0.19610E-01         0.43276E-01         0.00000E+00
    0.19141E-01         0.42343E-01         0.00000E+00
    0.18679E-01         0.41409E-01         0.00000E+00
    0.18222E-01         0.40473E-01         0.00000E+00
    0.17770E-01         0.39536E-01         0.00000E+00
    0.17324E-01         0.38597E-01         0.00000E+00
    0.16882E-01         0.37657E-01         0.00000E+00
    0.16444E-01         0.36714E-01         0.00000E+00
    0.16010E-01         0.35770E-01         0.00000E+00
    0.15580E-01         0.34823E-01         0.00000E+00
    0.15153E-01         0.33873E-01         0.00000E+00
    0.14728E-01         0.32922E-01         0.00000E+00
    0.14306E-01         0.31968E-01         0.00000E+00
    0.13885E-01         0.31011E-01         0.00000E+00
    0.13466E-01         0.30052E-01         0.00000E+00
    0.13048E-01         0.29090E-01         0.00000E+00
    0.12631E-01         0.28125E-01         0.00000E+00
    0.12214E-01         0.27157E-01         0.00000E+00
    0.11797E-01         0.26187E-01         0.00000E+00
    0.11380E-01         0.25214E-01         0.00000E+00
    0.10962E-01         0.24237E-01         0.00000E+00
    0.10543E-01         0.23258E-01         0.00000E+00
    0.10123E-01         0.22276E-01         0.00000E+00
    0.97007E-02         0.21292E-01         0.00000E+00
    0.92767E-02         0.20304E-01         0.00000E+00
    0.88505E-02         0.19313E-01         0.00000E+00
    0.84217E-02         0.18320E-01         0.00000E+00
    0.79901E-02         0.17324E-01         0.00000E+00
    0.75553E-02         0.16325E-01         0.00000E+00
    0.71172E-02         0.15323E-01         0.00000E+00
    0.66755E-02         0.14319E-01         0.00000E+00
    0.62300E-02         0.13312E-01         0.00000E+00
    0.57804E-02         0.12302E-01         0.00000E+00
    0.53266E-02         0.11290E-01         0.00000E+00
    0.48684E-02         0.10276E-01         0.00000E+00
    0.44055E-02         0.92588E-02         0.00000E+00
    0.39379E-02         0.82394E-02         0.00000E+00
    0.34652E-02         0.72176E-02         0.00000E+00
    0.29874E-02         0.61934E-02         0.00000E+00
    0.25042E-02         0.51669E-02         0.00000E+00
    0.20154E-02         0.41381E-02         0.00000E+00
    0.15207E-02         0.31069E-02         0.00000E+00
    0.10201E-02         0.20735E-02         0.00000E+00
    0.51334E-03         0.10379E-02         0.00000E+00
    0.00000E+00         0.00000E+00         0.00000E+00
    0.23100E-01         0.46307E-01         0.00000E+00
    0.22598E-01         0.45418E-01         0.00000E+00
    0.22103E-01         0.44529E-01         0.00000E+00
    0.21614E-01         0.43641E-01         0.00000E+00
    0.21130E-01         0.42752E-01         0.00000E+00
    0.20652E-01         0.41863E-01         0.00000E+00
    0.20179E-01         0.40974E-01         0.00000E+00
    0.19711E-01         0.40084E-01         0.00000E+00
    0.19248E-01         0.39194E-01         0.00000E+00
    0.18788E-01         0.38302E-01         0.00000E+00
    0.18333E-01         0.37409E-01         0.00000E+00
    0.17882E-01         0.36515E-01         0.00000E+00
    0.17434E-01         0.35620E-01         0.00000E+00
    0.16989E-01         0.34723E-01         0.00000E+00
    0.16546E-01         0.33824E-01         0.00000E+00
    0.16107E-01         0.32923E-01         0.00000E+00
    0.15669E-01         0.32021E-01         0.00000E+00
    0.15233E-01         0.31117E-01         0.00000E+00
    0.14799E-01         0.30210E-01         0.00000E+00
    0.14366E-01         0.29302E-01         0.00000E+00
    0.13934E-01         0.28391E-01         0.00000E+00
    0.13502E-01         0.27478E-01         0.00000E+00
    0.13071E-01         0.26563E-01         0.00000E+00
    0.12640E-01         0.25645E-01         0.00000E+00
    0.12208E-01         0.24725E-01         0.00000E+00
    0.11775E-01         0.23803E-01         0.00000E+00
    0.11342E-01         0.22878E-01         0.00000E+00
    0.10907E-01         0.21951E-01         0.00000E+00
    0.10471E-01         0.21021E-01         0.00000E+00
    0.10033E-01         0.20089E-01         0.00000E+00
    0.95933E-02         0.19155E-01         0.00000E+00
    0.91510E-02         0.18218E-01         0.00000E+00
    0.87061E-02         0.17279E-01         0.00000E+00
    0.82583E-02         0.16337E-01         0.00000E+00
    0.78075E-02         0.15393E-01         0.00000E+00
    0.73534E-02         0.14447E-01         0.00000E+00
    0.68957E-02         0.13498E-01         0.00000E+00
    0.64343E-02         0.12548E-01         0.00000E+00
    0.59689E-02         0.11595E-01         0.00000E+00
    0.54993E-02         0.10640E-01         0.00000E+00
    0.50254E-02         0.96825E-02         0.00000E+00
    0.45468E-02         0.87232E-02         0.00000E+00
    0.40635E-02         0.77618E-02         0.00000E+00
    0.35752E-02         0.67983E-02         0.00000E+00
    0.30816E-02         0.58329E-02         0.00000E+00
    0.25827E-02         0.48655E-02         0.00000E+00
    0.20782E-02         0.38961E-02         0.00000E+00
    0.15679E-02         0.29248E-02         0.00000E+00
    0.10515E-02         0.19517E-02         0.00000E+00
    0.52898E-03         0.97674E-03         0.00000E+00
    0.00000E+00         0.00000E+00         0.00000E+00
    0.23444E-01         0.43822E-01         0.00000E+00
    0.22957E-01         0.42974E-01         0.00000E+00
    0.22474E-01         0.42127E-01         0.00000E+00
    0.21995E-01         0.41280E-01         0.00000E+00
    0.21521E-01         0.40433E-01         0.00000E+00
    0.21050E-01         0.39587E-01         0.00000E+00
    0.20583E-01         0.38740E-01         0.00000E+00
    0.20119E-01         0.37892E-01         0.00000E+00
    0.19658E-01         0.37045E-01         0.00000E+00
    0.19200E-01         0.36196E-01         0.00000E+00
    0.18746E-01         0.35347E-01         0.00000E+00
    0.18293E-01         0.34497E-01         0.00000E+00
    0.17843E-01         0.33645E-01         0.00000E+00
    0.17395E-01         0.32793E-01         0.00000E+00
    0.16949E-01         0.31939E-01         0.00000E+00
    0.16504E-01         0.31084E-01         0.00000E+00
    0.16061E-01         0.30227E-01         0.00000E+00
    0.15618E-01         0.29369E-01         0.00000E+00
    0.15177E-01         0.28509E-01         0.00000E+00
    0.14736E-01         0.27647E-01         0.00000E+00
    0.14295E-01         0.26784E-01         0.00000E+00
    0.13854E-01         0.25919E-01         0.00000E+00
    0.13413E-01         0.25052E-01         0.00000E+00
    0.12971E-01         0.24183E-01         0.00000E+00
    0.12529E-01         0.23312E-01         0.00000E+00
    0.12086E-01         0.22439E-01         0.00000E+00
    0.11641E-01         0.21564E-01         0.00000E+00
    0.11195E-01         0.20687E-01         0.00000E+00
    0.10747E-01         0.19809E-01         0.00000E+00
    0.10297E-01         0.18928E-01         0.00000E+00
    0.98449E-02         0.18045E-01         0.00000E+00
    0.93902E-02         0.17160E-01         0.00000E+00
    0.89329E-02         0.16273E-01         0.00000E+00
    0.84727E-02         0.15385E-01         0.00000E+00
    0.80093E-02         0.14494E-01         0.00000E+00
    0.75425E-02         0.13601E-01         0.00000E+00
    0.70722E-02         0.12707E-01         0.00000E+00
    0.65981E-02         0.11810E-01         0.00000E+00
    0.61201E-02         0.10912E-01         0.00000E+00
    0.56378E-02         0.10012E-01         0.00000E+00
    0.51511E-02         0.91098E-02         0.00000E+00
    0.46599E-02         0.82061E-02         0.00000E+00
    0.41639E-02         0.73007E-02         0.00000E+00
    0.36629E-02         0.63936E-02         0.00000E+00
    0.31567E-02         0.54849E-02         0.00000E+00
    0.26451E-02         0.45745E-02         0.00000E+00
    0.21280E-02         0.36626E-02         0.00000E+00
    0.16052E-02         0.27491E-02         0.00000E+00
    0.10763E-02         0.18342E-02         0.00000E+00
    0.54133E-03         0.91779E-03         0.00000E+00
    0.00000E+00         0.00000E+00         0.00000E+00
    0.23630E-01         0.41417E-01         0.00000E+00
    0.23159E-01         0.40610E-01         0.00000E+00
    0.22690E-01         0.39803E-01         0.00000E+00
    0.22224E-01         0.38997E-01         0.00000E+00
    0.21761E-01         0.38192E-01         0.00000E+00
    0.21299E-01         0.37386E-01         0.00000E+00
    0.20840E-01         0.36581E-01         0.00000E+00
    0.20384E-01         0.35775E-01         0.00000E+00
    0.19929E-01         0.34969E-01         0.00000E+00
    0.19476E-01         0.34163E-01         0.00000E+00
    0.19024E-01         0.33356E-01         0.00000E+00
    0.18574E-01         0.32549E-01         0.00000E+00
    0.18126E-01         0.31741E-01         0.00000E+00
    0.17678E-01         0.30931E-01         0.00000E+00
    0.17231E-01         0.30121E-01         0.00000E+00
    0.16785E-01         0.29310E-01         0.00000E+00
    0.16340E-01         0.28498E-01         0.00000E+00
    0.15894E-01         0.27685E-01         0.00000E+00
    0.15449E-01         0.26870E-01         0.00000E+00
    0.15004E-01         0.26054E-01         0.00000E+00
    0.14558E-01         0.25236E-01         0.00000E+00
    0.14112E-01         0.24417E-01         0.00000E+00
    0.13665E-01         0.23597E-01         0.00000E+00
    0.13217E-01         0.22775E-01         0.00000E+00
    0.12768E-01         0.21952E-01         0.00000E+00
    0.12317E-01         0.21127E-01         0.00000E+00
    0.11865E-01         0.20300E-01         0.00000E+00
    0.11411E-01         0.19472E-01         0.00000E+00
    0.10954E-01         0.18642E-01         0.00000E+00
    0.10496E-01         0.17810E-01         0.00000E+00
    0.10035E-01         0.16977E-01         0.00000E+00
    0.95716E-02         0.16143E-01         0.00000E+00
    0.91052E-02         0.15306E-01         0.00000E+00
    0.86358E-02         0.14468E-01         0.00000E+00
    0.81630E-02         0.13629E-01         0.00000E+00
    0.76868E-02         0.12787E-01         0.00000E+00
    0.72070E-02         0.11945E-01         0.00000E+00
    0.67233E-02         0.11101E-01         0.00000E+00
    0.62356E-02         0.10255E-01         0.00000E+00
    0.57436E-02         0.94075E-02         0.00000E+00
    0.52473E-02         0.85588E-02         0.00000E+00
    0.47463E-02         0.77087E-02         0.00000E+00
    0.42405E-02         0.68572E-02         0.00000E+00
    0.37298E-02         0.60043E-02         0.00000E+00
    0.32139E-02         0.51502E-02         0.00000E+00
    0.26927E-02         0.42947E-02         0.00000E+00
    0.21659E-02         0.34380E-02         0.00000E+00
    0.16334E-02         0.25802E-02         0.00000E+00
    0.10951E-02         0.17212E-02         0.00000E+00
    0.55067E-03         0.86111E-03         0.00000E+00
    0.00000E+00         0.00000E+00         0.00000E+00
    0.23680E-01         0.39096E-01         0.00000E+00
    0.23225E-01         0.38329E-01         0.00000E+00
    0.22772E-01         0.37563E-01         0.00000E+00
    0.22320E-01         0.36797E-01         0.00000E+00
    0.21869E-01         0.36032E-01         0.00000E+00
    0.21420E-01         0.35267E-01         0.00000E+00
    0.20971E-01         0.34502E-01         0.00000E+00
    0.20524E-01         0.33737E-01         0.00000E+00
    0.20077E-01         0.32972E-01         0.00000E+00
    0.19631E-01         0.32207E-01         0.00000E+00
    0.19185E-01         0.31441E-01         0.00000E+00
    0.18740E-01         0.30675E-01         0.00000E+00
    0.18296E-01         0.29909E-01         0.00000E+00
    0.17852E-01         0.29142E-01         0.00000E+00
    0.17407E-01         0.28375E-01         0.00000E+00
    0.16963E-01         0.27606E-01         0.00000E+00
    0.16518E-01         0.26837E-01         0.00000E+00
    0.16073E-01         0.26067E-01         0.00000E+00
    0.15627E-01         0.25296E-01         0.00000E+00
    0.15181E-01         0.24524E-01         0.00000E+00
    0.14733E-01         0.23751E-01         0.00000E+00
    0.14285E-01         0.22976E-01         0.00000E+00
    0.13835E-01         0.22201E-01         0.00000E+00
    0.13383E-01         0.21424E-01         0.00000E+00
    0.12930E-01         0.20647E-01         0.00000E+00
    0.12476E-01         0.19868E-01         0.00000E+00
    0.12019E-01         0.19087E-01         0.00000E+00
    0.11560E-01         0.18306E-01         0.00000E+00
    0.11099E-01         0.17523E-01         0.00000E+00
    0.10635E-01         0.16739E-01         0.00000E+00
    0.10168E-01         0.15954E-01         0.00000E+00
    0.96991E-02         0.15167E-01         0.00000E+00
    0.92266E-02         0.14379E-01         0.00000E+00
    0.87509E-02         0.13590E-01         0.00000E+00
    0.82718E-02         0.12799E-01         0.00000E+00
    0.77891E-02         0.12007E-01         0.00000E+00
    0.73026E-02         0.11214E-01         0.00000E+00
    0.68122E-02         0.10420E-01         0.00000E+00
    0.63177E-02         0.96248E-02         0.00000E+00
    0.58188E-02         0.88283E-02         0.00000E+00
    0.53155E-02         0.80306E-02         0.00000E+00
    0.48076E-02         0.72318E-02         0.00000E+00
    0.42949E-02         0.64320E-02         0.00000E+00
    0.37772E-02         0.56311E-02         0.00000E+00
    0.32544E-02         0.48293E-02         0.00000E+00
    0.27263E-02         0.40265E-02         0.00000E+00
    0.21927E-02         0.32228E-02         0.00000E+00
    0.16534E-02         0.24183E-02         0.00000E+00
    0.11083E-02         0.16129E-02         0.00000E+00
    0.55722E-03         0.80681E-03         0.00000E+00
    0.00000E+00         0.00000E+00         0.00000E+00
    0.23613E-01         0.36865E-01         0.00000E+00
    0.23176E-01         0.36137E-01         0.00000E+00
    0.22738E-01         0.35409E-01         0.00000E+00
    0.22302E-01         0.34683E-01         0.00000E+00
    0.21865E-01         0.33956E-01         0.00000E+00
    0.21428E-01         0.33231E-01         0.00000E+00
    0.20991E-01         0.32505E-01         0.00000E+00
    0.20554E-01         0.31780E-01         0.00000E+00
    0.20118E-01         0.31055E-01         0.00000E+00
    0.19680E-01         0.30330E-01         0.00000E+00
    0.19243E-01         0.29604E-01         0.00000E+00
    0.18805E-01         0.28879E-01         0.00000E+00
    0.18367E-01         0.28153E-01         0.00000E+00
    0.17928E-01         0.27427E-01         0.00000E+00
    0.17488E-01         0.26700E-01         0.00000E+00
    0.17048E-01         0.25973E-01         0.00000E+00
    0.16606E-01         0.25246E-01         0.00000E+00
    0.16164E-01         0.24517E-01         0.00000E+00
    0.15720E-01         0.23788E-01         0.00000E+00
    0.15275E-01         0.23059E-01         0.00000E+00
    0.14829E-01         0.22328E-01         0.00000E+00
    0.14380E-01         0.21597E-01         0.00000E+00
    0.13930E-01         0.20865E-01         0.00000E+00
    0.13479E-01         0.20132E-01         0.00000E+00
    0.13025E-01         0.19398E-01         0.00000E+00
    0.12568E-01         0.18663E-01         0.00000E+00
    0.12110E-01         0.17927E-01         0.00000E+00
    0.11649E-01         0.17191E-01         0.00000E+00
    0.11185E-01         0.16453E-01         0.00000E+00
    0.10719E-01         0.15714E-01         0.00000E+00
    0.10249E-01         0.14975E-01         0.00000E+00
    0.97769E-02         0.14234E-01         0.00000E+00
    0.93010E-02         0.13492E-01         0.00000E+00
    0.88218E-02         0.12750E-01         0.00000E+00
    0.83389E-02         0.12006E-01         0.00000E+00
    0.78524E-02         0.11262E-01         0.00000E+00
    0.73619E-02         0.10516E-01         0.00000E+00
    0.68674E-02         0.97699E-02         0.00000E+00
    0.63687E-02         0.90227E-02         0.00000E+00
    0.58656E-02         0.82747E-02         0.00000E+00
    0.53580E-02         0.75258E-02         0.00000E+00
    0.48457E-02         0.67761E-02         0.00000E+00
    0.43287E-02         0.60257E-02         0.00000E+00
    0.38066E-02         0.52746E-02         0.00000E+00
    0.32794E-02         0.45227E-02         0.00000E+00
    0.27470E-02         0.37703E-02         0.00000E+00
    0.22091E-02         0.30172E-02         0.00000E+00
    0.16656E-02         0.22636E-02         0.00000E+00
    0.11163E-02         0.15095E-02         0.00000E+00
    0.56120E-03         0.75495E-03         0.00000E+00
    0.00000E+00         0.00000E+00         0.00000E+00
    0.23447E-01         0.34723E-01         0.00000E+00
    0.23027E-01         0.34033E-01         0.00000E+00
    0.22606E-01         0.33344E-01         0.00000E+00
    0.22185E-01         0.32655E-01         0.00000E+00
    0.21763E-01         0.31967E-01         0.00000E+00
    0.21340E-01         0.31279E-01         0.00000E+00
    0.20916E-01         0.30592E-01         0.00000E+00
    0.20491E-01         0.29905E-01         0.00000E+00
    0.20065E-01         0.29219E-01         0.00000E+00
    0.19638E-01         0.28532E-01         0.00000E+00
    0.19210E-01         0.27846E-01         0.00000E+00
    0.18781E-01         0.27159E-01         0.00000E+00
    0.18351E-01         0.26473E-01         0.00000E+00
    0.17919E-01         0.25786E-01         0.00000E+00
    0.17486E-01         0.25099E-01         0.00000E+00
    0.17052E-01         0.24412E-01         0.00000E+00
    0.16616E-01         0.23724E-01         0.00000E+00
    0.16178E-01         0.23036E-01         0.00000E+00
    0.15738E-01         0.22348E-01         0.00000E+00
    0.15297E-01         0.21659E-01         0.00000E+00
    0.14853E-01         0.20969E-01         0.00000E+00
    0.14408E-01         0.20279E-01         0.00000E+00
    0.13960E-01         0.19589E-01         0.00000E+00
    0.13510E-01         0.18898E-01         0.00000E+00
    0.13057E-01         0.18206E-01         0.00000E+00
    0.12602E-01         0.17513E-01         0.00000E+00
    0.12144E-01         0.16820E-01         0.00000E+00
    0.11683E-01         0.16126E-01         0.00000E+00
    0.11220E-01         0.15432E-01         0.00000E+00
    0.10753E-01         0.14737E-01         0.00000E+00
    0.10283E-01         0.14041E-01         0.00000E+00
    0.98094E-02         0.13344E-01         0.00000E+00
    0.93326E-02         0.12647E-01         0.00000E+00
    0.88522E-02         0.11949E-01         0.00000E+00
    0.83680E-02         0.11250E-01         0.00000E+00
    0.78800E-02         0.10551E-01         0.00000E+00
    0.73879E-02         0.98507E-02         0.00000E+00
    0.68917E-02         0.91500E-02         0.00000E+00
    0.63911E-02         0.84488E-02         0.00000E+00
    0.58862E-02         0.77471E-02         0.00000E+00
    0.53767E-02         0.70447E-02         0.00000E+00
    0.48625E-02         0.63419E-02         0.00000E+00
    0.43434E-02         0.56386E-02         0.00000E+00
    0.38194E-02         0.49349E-02         0.00000E+00
    0.32902E-02         0.42307E-02         0.00000E+00
    0.27558E-02         0.35262E-02         0.00000E+00
    0.22160E-02         0.28214E-02         0.00000E+00
    0.16707E-02         0.21163E-02         0.00000E+00
    0.11196E-02         0.14110E-02         0.00000E+00
    0.56280E-03         0.70557E-03         0.00000E+00
    0.00000E+00         0.00000E+00         0.00000E+00
    0.23197E-01         0.32672E-01         0.00000E+00
    0.22795E-01         0.32018E-01         0.00000E+00
    0.22391E-01         0.31366E-01         0.00000E+00
    0.21985E-01         0.30714E-01         0.00000E+00
    0.21578E-01         0.30063E-01         0.00000E+00
    0.21170E-01         0.29413E-01         0.00000E+00
    0.20759E-01         0.28762E-01         0.00000E+00
    0.20347E-01         0.28113E-01         0.00000E+00
    0.19933E-01         0.27463E-01         0.00000E+00
    0.19518E-01         0.26814E-01         0.00000E+00
    0.19100E-01         0.26165E-01         0.00000E+00
    0.18681E-01         0.25517E-01         0.00000E+00
    0.18260E-01         0.24868E-01         0.00000E+00
    0.17837E-01         0.24219E-01         0.00000E+00
    0.17412E-01         0.23570E-01         0.00000E+00
    0.16985E-01         0.22921E-01         0.00000E+00
    0.16555E-01         0.22272E-01         0.00000E+00
    0.16124E-01         0.21623E-01         0.00000E+00
    0.15690E-01         0.20974E-01         0.00000E+00
    0.15254E-01         0.20324E-01         0.00000E+00
    0.14815E-01         0.19674E-01         0.00000E+00
    0.14374E-01         0.19023E-01         0.00000E+00
    0.13930E-01         0.18373E-01         0.00000E+00
    0.13484E-01         0.17721E-01         0.00000E+00
    0.13034E-01         0.17070E-01         0.00000E+00
    0.12582E-01         0.16418E-01         0.00000E+00
    0.12127E-01         0.15766E-01         0.00000E+00
    0.11669E-01         0.15113E-01         0.00000E+00
    0.11207E-01         0.14460E-01         0.00000E+00
    0.10742E-01         0.13806E-01         0.00000E+00
    0.10273E-01         0.13152E-01         0.00000E+00
    0.98014E-02         0.12497E-01         0.00000E+00
    0.93257E-02         0.11842E-01         0.00000E+00
    0.88462E-02         0.11186E-01         0.00000E+00
    0.83628E-02         0.10531E-01         0.00000E+00
    0.78753E-02         0.98742E-02         0.00000E+00
    0.73838E-02         0.92175E-02         0.00000E+00
    0.68880E-02         0.85605E-02         0.00000E+00
    0.63878E-02         0.79031E-02         0.00000E+00
    0.58831E-02         0.72454E-02         0.00000E+00
    0.53738E-02         0.65874E-02         0.00000E+00
    0.48598E-02         0.59291E-02         0.00000E+00
    0.43409E-02         0.52706E-02         0.00000E+00
    0.38170E-02         0.46120E-02         0.00000E+00
    0.32880E-02         0.39532E-02         0.00000E+00
    0.27538E-02         0.32943E-02         0.00000E+00
    0.22143E-02         0.26353E-02         0.00000E+00
    0.16692E-02         0.19764E-02         0.00000E+00
    0.11186E-02         0.13175E-02         0.00000E+00
    0.56222E-03         0.65867E-03         0.00000E+00
    0.00000E+00         0.00000E+00         0.00000E+00
    0.22877E-01         0.30710E-01         0.00000E+00
    0.22492E-01         0.30092E-01         0.00000E+00
    0.22105E-01         0.29475E-01         0.00000E+00
    0.21716E-01         0.28859E-01         0.00000E+00
    0.21324E-01         0.28244E-01         0.00000E+00
    0.20930E-01         0.27629E-01         0.00000E+00
    0.20533E-01         0.27015E-01         0.00000E+00
    0.20134E-01         0.26401E-01         0.00000E+00
    0.19733E-01         0.25788E-01         0.00000E+00
    0.19329E-01         0.25175E-01         0.00000E+00
    0.18923E-01         0.24562E-01         0.00000E+00
    0.18515E-01         0.23950E-01         0.00000E+00
    0.18104E-01         0.23337E-01         0.00000E+00
    0.17691E-01         0.22725E-01         0.00000E+00
    0.17275E-01         0.22113E-01         0.00000E+00
    0.16856E-01         0.21501E-01         0.00000E+00
    0.16435E-01         0.20889E-01         0.00000E+00
    0.16011E-01         0.20277E-01         0.00000E+00
    0.15585E-01         0.19665E-01         0.00000E+00
    0.15155E-01         0.19053E-01         0.00000E+00
    0.14723E-01         0.18440E-01         0.00000E+00
    0.14288E-01         0.17828E-01         0.00000E+00
    0.13850E-01         0.17215E-01         0.00000E+00
    0.13408E-01         0.16602E-01         0.00000E+00
    0.12964E-01         0.15989E-01         0.00000E+00
    0.12516E-01         0.15376E-01         0.00000E+00
    0.12065E-01         0.14763E-01         0.00000E+00
    0.11611E-01         0.14149E-01         0.00000E+00
    0.11153E-01         0.13535E-01         0.00000E+00
    0.10691E-01         0.12921E-01         0.00000E+00
    0.10226E-01         0.12307E-01         0.00000E+00
    0.97572E-02         0.11692E-01         0.00000E+00
    0.92844E-02         0.11077E-01         0.00000E+00
    0.88077E-02         0.10462E-01         0.00000E+00
    0.83269E-02         0.98472E-02         0.00000E+00
    0.78420E-02         0.92319E-02         0.00000E+00
    0.73528E-02         0.86164E-02         0.00000E+00
    0.68593E-02         0.80008E-02         0.00000E+00
    0.63613E-02         0.73850E-02         0.00000E+00
    0.58588E-02         0.67692E-02         0.00000E+00
    0.53516E-02         0.61533E-02         0.00000E+00
    0.48396E-02         0.55374E-02         0.00000E+00
    0.43228E-02         0.49216E-02         0.00000E+00
    0.38010E-02         0.43057E-02         0.00000E+00
    0.32742E-02         0.36900E-02         0.00000E+00
    0.27421E-02         0.30744E-02         0.00000E+00
    0.22047E-02         0.24589E-02         0.00000E+00
    0.16619E-02         0.18437E-02         0.00000E+00
    0.11136E-02         0.12288E-02         0.00000E+00
    0.55969E-03         0.61422E-03         0.00000E+00
    0.00000E+00         0.00000E+00         0.00000E+00
    0.22499E-01         0.28836E-01         0.00000E+00
    0.22132E-01         0.28253E-01         0.00000E+00
    0.21761E-01         0.27671E-01         0.00000E+00
    0.21388E-01         0.27089E-01         0.00000E+00
    0.21011E-01         0.26508E-01         0.00000E+00
    0.20632E-01         0.25928E-01         0.00000E+00
    0.20249E-01         0.25348E-01         0.00000E+00
    0.19864E-01         0.24769E-01         0.00000E+00
    0.19476E-01         0.24190E-01         0.00000E+00
    0.19084E-01         0.23612E-01         0.00000E+00
    0.18690E-01         0.23034E-01         0.00000E+00
    0.18293E-01         0.22457E-01         0.00000E+00
    0.17893E-01         0.21879E-01         0.00000E+00
    0.17490E-01         0.21302E-01         0.00000E+00
    0.17084E-01         0.20726E-01         0.00000E+00
    0.16675E-01         0.20149E-01         0.00000E+00
    0.16263E-01         0.19572E-01         0.00000E+00
    0.15848E-01         0.18996E-01         0.00000E+00
    0.15430E-01         0.18420E-01         0.00000E+00
    0.15008E-01         0.17843E-01         0.00000E+00
    0.14584E-01         0.17267E-01         0.00000E+00
    0.14156E-01         0.16691E-01         0.00000E+00
    0.13724E-01         0.16115E-01         0.00000E+00
    0.13289E-01         0.15539E-01         0.00000E+00
    0.12851E-01         0.14963E-01         0.00000E+00
    0.12410E-01         0.14386E-01         0.00000E+00
    0.11964E-01         0.13810E-01         0.00000E+00
    0.11515E-01         0.13234E-01         0.00000E+00
    0.11063E-01         0.12658E-01         0.00000E+00
    0.10606E-01         0.12081E-01         0.00000E+00
    0.10146E-01         0.11505E-01         0.00000E+00
    0.96814E-02         0.10928E-01         0.00000E+00
    0.92131E-02         0.10352E-01         0.00000E+00
    0.87407E-02         0.97756E-02         0.00000E+00
    0.82642E-02         0.91992E-02         0.00000E+00
    0.77833E-02         0.86228E-02         0.00000E+00
    0.72982E-02         0.80465E-02         0.00000E+00
    0.68086E-02         0.74702E-02         0.00000E+00
    0.63144E-02         0.68941E-02         0.00000E+00
    0.58157E-02         0.63180E-02         0.00000E+00
    0.53123E-02         0.57421E-02         0.00000E+00
    0.48041E-02         0.51664E-02         0.00000E+00
    0.42910E-02         0.45910E-02         0.00000E+00
    0.37730E-02         0.40157E-02         0.00000E+00
    0.32499E-02         0.34408E-02         0.00000E+00
    0.27217E-02         0.28662E-02         0.00000E+00
    0.21882E-02         0.22920E-02         0.00000E+00
    0.16494E-02         0.17182E-02         0.00000E+00
    0.11052E-02         0.11449E-02         0.00000E+00
    0.55541E-03         0.57218E-03         0.00000E+00
    0.00000E+00         0.00000E+00         0.00000E+00
    0.22075E-01         0.27049E-01         0.00000E+00
    0.21724E-01         0.26499E-01         0.00000E+00
    0.21370E-01         0.25950E-01         0.00000E+00
    0.21012E-01         0.25401E-01         0.00000E+00
    0.20651E-01         0.24854E-01         0.00000E+00
    0.20286E-01         0.24307E-01         0.00000E+00
    0.19918E-01         0.23760E-01         0.00000E+00
    0.19546E-01         0.23214E-01         0.00000E+00
    0.19171E-01         0.22669E-01         0.00000E+00
    0.18792E-01         0.22124E-01         0.00000E+00
    0.18411E-01         0.21580E-01         0.00000E+00
    0.18025E-01         0.21036E-01         0.00000E+00
    0.17637E-01         0.20492E-01         0.00000E+00
    0.17245E-01         0.19949E-01         0.00000E+00
    0.16849E-01         0.19406E-01         0.00000E+00
    0.16451E-01         0.18863E-01         0.00000E+00
    0.16048E-01         0.18321E-01         0.00000E+00
    0.15643E-01         0.17779E-01         0.00000E+00
    0.15233E-01         0.17237E-01         0.00000E+00
    0.14821E-01         0.16695E-01         0.00000E+00
    0.14404E-01         0.16153E-01         0.00000E+00
    0.13985E-01         0.15612E-01         0.00000E+00
    0.13561E-01         0.15070E-01         0.00000E+00
    0.13134E-01         0.14529E-01         0.00000E+00
    0.12703E-01         0.13988E-01         0.00000E+00
    0.12268E-01         0.13447E-01         0.00000E+00
    0.11830E-01         0.12907E-01         0.00000E+00
    0.11388E-01         0.12366E-01         0.00000E+00
    0.10941E-01         0.11825E-01         0.00000E+00
    0.10491E-01         0.11285E-01         0.00000E+00
    0.10037E-01         0.10745E-01         0.00000E+00
    0.95784E-02         0.10205E-01         0.00000E+00
    0.91159E-02         0.96648E-02         0.00000E+00
    0.86492E-02         0.91250E-02         0.00000E+00
    0.81782E-02         0.85854E-02         0.00000E+00
    0.77028E-02         0.80461E-02         0.00000E+00
    0.72230E-02         0.75069E-02         0.00000E+00
    0.67387E-02         0.69680E-02         0.00000E+00
    0.62498E-02         0.64294E-02         0.00000E+00
    0.57563E-02         0.58911E-02         0.00000E+00
    0.52581E-02         0.53531E-02         0.00000E+00
    0.47552E-02         0.48155E-02         0.00000E+00
    0.42473E-02         0.42783E-02         0.00000E+00
    0.37345E-02         0.37415E-02         0.00000E+00
    0.32167E-02         0.32052E-02         0.00000E+00
    0.26938E-02         0.26695E-02         0.00000E+00
    0.21657E-02         0.21342E-02         0.00000E+00
    0.16324E-02         0.15996E-02         0.00000E+00
    0.10937E-02         0.10657E-02         0.00000E+00
    0.54961E-03         0.53247E-03         0.00000E+00
    0.00000E+00         0.00000E+00         0.00000E+00
    0.21614E-01         0.25345E-01         0.00000E+00
    0.21279E-01         0.24827E-01         0.00000E+00
    0.20941E-01         0.24310E-01         0.00000E+00
    0.20598E-01         0.23794E-01         0.00000E+00
    0.20252E-01         0.23278E-01         0.00000E+00
    0.19902E-01         0.22763E-01         0.00000E+00
    0.19547E-01         0.22248E-01         0.00000E+00
    0.19189E-01         0.21735E-01         0.00000E+00
    0.18828E-01         0.21221E-01         0.00000E+00
    0.18462E-01         0.20709E-01         0.00000E+00
    0.18093E-01         0.20196E-01         0.00000E+00
    0.17720E-01         0.19685E-01         0.00000E+00
    0.17343E-01         0.19173E-01         0.00000E+00
    0.16962E-01         0.18662E-01         0.00000E+00
    0.16578E-01         0.18152E-01         0.00000E+00
    0.16190E-01         0.17642E-01         0.00000E+00
    0.15798E-01         0.17132E-01         0.00000E+00
    0.15402E-01         0.16622E-01         0.00000E+00
    0.15002E-01         0.16113E-01         0.00000E+00
    0.14599E-01         0.15604E-01         0.00000E+00
    0.14192E-01         0.15096E-01         0.00000E+00
    0.13781E-01         0.14588E-01         0.00000E+00
    0.13366E-01         0.14080E-01         0.00000E+00
    0.12947E-01         0.13572E-01         0.00000E+00
    0.12525E-01         0.13064E-01         0.00000E+00
    0.12098E-01         0.12557E-01         0.00000E+00
    0.11667E-01         0.12050E-01         0.00000E+00
    0.11233E-01         0.11543E-01         0.00000E+00
    0.10794E-01         0.11037E-01         0.00000E+00
    0.10351E-01         0.10531E-01         0.00000E+00
    0.99037E-02         0.10025E-01         0.00000E+00
    0.94523E-02         0.95195E-02         0.00000E+00
    0.89967E-02         0.90142E-02         0.00000E+00
    0.85367E-02         0.85093E-02         0.00000E+00
    0.80724E-02         0.80047E-02         0.00000E+00
    0.76036E-02         0.75005E-02         0.00000E+00
    0.71303E-02         0.69966E-02         0.00000E+00
    0.66525E-02         0.64932E-02         0.00000E+00
    0.61701E-02         0.59901E-02         0.00000E+00
    0.56831E-02         0.54876E-02         0.00000E+00
    0.51913E-02         0.49855E-02         0.00000E+00
    0.46947E-02         0.44840E-02         0.00000E+00
    0.41933E-02         0.39830E-02         0.00000E+00
    0.36870E-02         0.34826E-02         0.00000E+00
    0.31758E-02         0.29828E-02         0.00000E+00
    0.26595E-02         0.24837E-02         0.00000E+00
    0.21380E-02         0.19854E-02         0.00000E+00
    0.16115E-02         0.14877E-02         0.00000E+00
    0.10796E-02         0.99095E-03         0.00000E+00
    0.54251E-03         0.49502E-03         0.00000E+00
    0.00000E+00         0.00000E+00         0.00000E+00
    0.21125E-01         0.23722E-01         0.00000E+00
    0.20806E-01         0.23235E-01         0.00000E+00
    0.20483E-01         0.22749E-01         0.00000E+00
    0.20155E-01         0.22263E-01         0.00000E+00
    0.19823E-01         0.21778E-01         0.00000E+00
    0.19487E-01         0.21294E-01         0.00000E+00
    0.19147E-01         0.20810E-01         0.00000E+00
    0.18803E-01         0.20327E-01         0.00000E+00
    0.18454E-01         0.19845E-01         0.00000E+00
    0.18101E-01         0.19363E-01         0.00000E+00
    0.17744E-01         0.18881E-01         0.00000E+00
    0.17383E-01         0.18401E-01         0.00000E+00
    0.17018E-01         0.17920E-01         0.00000E+00
    0.16649E-01         0.17440E-01         0.00000E+00
    0.16276E-01         0.16961E-01         0.00000E+00
    0.15899E-01         0.16482E-01         0.00000E+00
    0.15518E-01         0.16003E-01         0.00000E+00
    0.15133E-01         0.15525E-01         0.00000E+00
    0.14743E-01         0.15047E-01         0.00000E+00
    0.14350E-01         0.14570E-01         0.00000E+00
    0.13953E-01         0.14093E-01         0.00000E+00
    0.13551E-01         0.13616E-01         0.00000E+00
    0.13145E-01         0.13140E-01         0.00000E+00
    0.12736E-01         0.12664E-01         0.00000E+00
    0.12322E-01         0.12189E-01         0.00000E+00
    0.11904E-01         0.11714E-01         0.00000E+00
    0.11482E-01         0.11239E-01         0.00000E+00
    0.11055E-01         0.10765E-01         0.00000E+00
    0.10625E-01         0.10291E-01         0.00000E+00
    0.10190E-01         0.98171E-02         0.00000E+00
    0.97505E-02         0.93439E-02         0.00000E+00
    0.93070E-02         0.88712E-02         0.00000E+00
    0.88591E-02         0.83989E-02         0.00000E+00
    0.84068E-02         0.79270E-02         0.00000E+00
    0.79501E-02         0.74556E-02         0.00000E+00
    0.74889E-02         0.69847E-02         0.00000E+00
    0.70231E-02         0.65143E-02         0.00000E+00
    0.65528E-02         0.60445E-02         0.00000E+00
    0.60778E-02         0.55752E-02         0.00000E+00
    0.55982E-02         0.51065E-02         0.00000E+00
    0.51138E-02         0.46384E-02         0.00000E+00
    0.46247E-02         0.41710E-02         0.00000E+00
    0.41308E-02         0.37043E-02         0.00000E+00
    0.36321E-02         0.32382E-02         0.00000E+00
    0.31284E-02         0.27730E-02         0.00000E+00
    0.26197E-02         0.23086E-02         0.00000E+00
    0.21060E-02         0.18450E-02         0.00000E+00
    0.15873E-02         0.13823E-02         0.00000E+00
    0.10634E-02         0.92051E-03         0.00000E+00
    0.53432E-03         0.45973E-03         0.00000E+00
    0.00000E+00         0.00000E+00         0.00000E+00
    0.20616E-01         0.22178E-01         0.00000E+00
    0.20312E-01         0.21720E-01         0.00000E+00
    0.20004E-01         0.21264E-01         0.00000E+00
    0.19691E-01         0.20807E-01         0.00000E+00
    0.19373E-01         0.20352E-01         0.00000E+00
    0.19051E-01         0.19897E-01         0.00000E+00
    0.18724E-01         0.19443E-01         0.00000E+00
    0.18393E-01         0.18989E-01         0.00000E+00
    0.18057E-01         0.18537E-01         0.00000E+00
    0.17717E-01         0.18084E-01         0.00000E+00
    0.17373E-01         0.17632E-01         0.00000E+00
    0.17024E-01         0.17181E-01         0.00000E+00
    0.16671E-01         0.16730E-01         0.00000E+00
    0.16313E-01         0.16280E-01         0.00000E+00
    0.15952E-01         0.15830E-01         0.00000E+00
    0.15586E-01         0.15381E-01         0.00000E+00
    0.15215E-01         0.14933E-01         0.00000E+00
    0.14841E-01         0.14484E-01         0.00000E+00
    0.14462E-01         0.14037E-01         0.00000E+00
    0.14079E-01         0.13589E-01         0.00000E+00
    0.13691E-01         0.13142E-01         0.00000E+00
    0.13300E-01         0.12696E-01         0.00000E+00
    0.12904E-01         0.12250E-01         0.00000E+00
    0.12504E-01         0.11805E-01         0.00000E+00
    0.12099E-01         0.11360E-01         0.00000E+00
    0.11690E-01         0.10915E-01         0.00000E+00
    0.11277E-01         0.10471E-01         0.00000E+00
    0.10860E-01         0.10028E-01         0.00000E+00
    0.10438E-01         0.95845E-02         0.00000E+00
    0.10012E-01         0.91419E-02         0.00000E+00
    0.95812E-02         0.86998E-02         0.00000E+00
    0.91462E-02         0.82582E-02         0.00000E+00
    0.87068E-02         0.78172E-02         0.00000E+00
    0.82629E-02         0.73767E-02         0.00000E+00
    0.78144E-02         0.69368E-02         0.00000E+00
    0.73615E-02         0.64975E-02         0.00000E+00
    0.69040E-02         0.60589E-02         0.00000E+00
    0.64419E-02         0.56209E-02         0.00000E+00
    0.59752E-02         0.51835E-02         0.00000E+00
    0.55038E-02         0.47469E-02         0.00000E+00
    0.50277E-02         0.43109E-02         0.00000E+00
    0.45469E-02         0.38758E-02         0.00000E+00
    0.40613E-02         0.34414E-02         0.00000E+00
    0.35709E-02         0.30079E-02         0.00000E+00
    0.30757E-02         0.25752E-02         0.00000E+00
    0.25756E-02         0.21435E-02         0.00000E+00
    0.20705E-02         0.17127E-02         0.00000E+00
    0.15604E-02         0.12829E-02         0.00000E+00
    0.10454E-02         0.85418E-03         0.00000E+00
    0.52524E-03         0.42652E-03         0.00000E+00
    0.00000E+00         0.00000E+00         0.00000E+00
    0.20093E-01         0.20709E-01         0.00000E+00
    0.19804E-01         0.20279E-01         0.00000E+00
    0.19510E-01         0.19851E-01         0.00000E+00
    0.19211E-01         0.19423E-01         0.00000E+00
    0.18907E-01         0.18996E-01         0.00000E+00
    0.18599E-01         0.18569E-01         0.00000E+00
    0.18285E-01         0.18144E-01         0.00000E+00
    0.17967E-01         0.17718E-01         0.00000E+00
    0.17644E-01         0.17294E-01         0.00000E+00
    0.17316E-01         0.16870E-01         0.00000E+00
    0.16984E-01         0.16446E-01         0.00000E+00
    0.16648E-01         0.16023E-01         0.00000E+00
    0.16306E-01         0.15601E-01         0.00000E+00
    0.15960E-01         0.15179E-01         0.00000E+00
    0.15610E-01         0.14758E-01         0.00000E+00
    0.15255E-01         0.14337E-01         0.00000E+00
    0.14896E-01         0.13917E-01         0.00000E+00
    0.14532E-01         0.13497E-01         0.00000E+00
    0.14164E-01         0.13078E-01         0.00000E+00
    0.13791E-01         0.12660E-01         0.00000E+00
    0.13414E-01         0.12242E-01         0.00000E+00
    0.13033E-01         0.11824E-01         0.00000E+00
    0.12647E-01         0.11407E-01         0.00000E+00
    0.12256E-01         0.10991E-01         0.00000E+00
    0.11861E-01         0.10575E-01         0.00000E+00
    0.11462E-01         0.10159E-01         0.00000E+00
    0.11058E-01         0.97446E-02         0.00000E+00
    0.10650E-01         0.93303E-02         0.00000E+00
    0.10238E-01         0.89165E-02         0.00000E+00
    0.98208E-02         0.85034E-02         0.00000E+00
    0.93993E-02         0.80908E-02         0.00000E+00
    0.89733E-02         0.76789E-02         0.00000E+00
    0.85429E-02         0.72676E-02         0.00000E+00
    0.81079E-02         0.68569E-02         0.00000E+00
    0.76684E-02         0.64469E-02         0.00000E+00
    0.72243E-02         0.60376E-02         0.00000E+00
    0.67756E-02         0.56290E-02         0.00000E+00
    0.63224E-02         0.52211E-02         0.00000E+00
    0.58645E-02         0.48140E-02         0.00000E+00
    0.54020E-02         0.44076E-02         0.00000E+00
    0.49348E-02         0.40021E-02         0.00000E+00
    0.44630E-02         0.35975E-02         0.00000E+00
    0.39864E-02         0.31937E-02         0.00000E+00
    0.35050E-02         0.27908E-02         0.00000E+00
    0.30189E-02         0.23889E-02         0.00000E+00
    0.25280E-02         0.19881E-02         0.00000E+00
    0.20322E-02         0.15882E-02         0.00000E+00
    0.15315E-02         0.11894E-02         0.00000E+00
    0.10260E-02         0.79176E-03         0.00000E+00
    0.51546E-03         0.39527E-03         0.00000E+00
    0.00000E+00         0.00000E+00         0.00000E+00
    0.19564E-01         0.19311E-01         0.00000E+00
    0.19289E-01         0.18909E-01         0.00000E+00
    0.19009E-01         0.18508E-01         0.00000E+00
    0.18723E-01         0.18107E-01         0.00000E+00
    0.18433E-01         0.17707E-01         0.00000E+00
    0.18137E-01         0.17308E-01         0.00000E+00
    0.17836E-01         0.16909E-01         0.00000E+00
    0.17531E-01         0.16511E-01         0.00000E+00
    0.17220E-01         0.16113E-01         0.00000E+00
    0.16905E-01         0.15716E-01         0.00000E+00
    0.16585E-01         0.15320E-01         0.00000E+00
    0.16260E-01         0.14924E-01         0.00000E+00
    0.15930E-01         0.14529E-01         0.00000E+00
    0.15596E-01         0.14135E-01         0.00000E+00
    0.15257E-01         0.13741E-01         0.00000E+00
    0.14913E-01         0.13347E-01         0.00000E+00
    0.14564E-01         0.12954E-01         0.00000E+00
    0.14211E-01         0.12562E-01         0.00000E+00
    0.13854E-01         0.12170E-01         0.00000E+00
    0.13492E-01         0.11779E-01         0.00000E+00
    0.13125E-01         0.11388E-01         0.00000E+00
    0.12754E-01         0.10998E-01         0.00000E+00
    0.12378E-01         0.10609E-01         0.00000E+00
    0.11997E-01         0.10220E-01         0.00000E+00
    0.11612E-01         0.98319E-02         0.00000E+00
    0.11223E-01         0.94443E-02         0.00000E+00
    0.10829E-01         0.90572E-02         0.00000E+00
    0.10431E-01         0.86708E-02         0.00000E+00
    0.10028E-01         0.82850E-02         0.00000E+00
    0.96201E-02         0.78998E-02         0.00000E+00
    0.92080E-02         0.75153E-02         0.00000E+00
    0.87915E-02         0.71315E-02         0.00000E+00
    0.83704E-02         0.67484E-02         0.00000E+00
    0.79447E-02         0.63660E-02         0.00000E+00
    0.75145E-02         0.59843E-02         0.00000E+00
    0.70797E-02         0.56034E-02         0.00000E+00
    0.66403E-02         0.52233E-02         0.00000E+00
    0.61964E-02         0.48439E-02         0.00000E+00
    0.57478E-02         0.44654E-02         0.00000E+00
    0.52947E-02         0.40878E-02         0.00000E+00
    0.48369E-02         0.37110E-02         0.00000E+00
    0.43744E-02         0.33352E-02         0.00000E+00
    0.39073E-02         0.29603E-02         0.00000E+00
    0.34355E-02         0.25864E-02         0.00000E+00
    0.29590E-02         0.22135E-02         0.00000E+00
    0.24778E-02         0.18417E-02         0.00000E+00
    0.19918E-02         0.14710E-02         0.00000E+00
    0.15010E-02         0.11014E-02         0.00000E+00
    0.10055E-02         0.73304E-03         0.00000E+00
    0.50517E-03         0.36588E-03         0.00000E+00
    0.00000E+00         0.00000E+00         0.00000E+00
    0.19034E-01         0.17981E-01         0.00000E+00
    0.18772E-01         0.17606E-01         0.00000E+00
    0.18505E-01         0.17230E-01         0.00000E+00
    0.18232E-01         0.16856E-01         0.00000E+00
    0.17954E-01         0.16482E-01         0.00000E+00
    0.17671E-01         0.16108E-01         0.00000E+00
    0.17383E-01         0.15736E-01         0.00000E+00
    0.17089E-01         0.15363E-01         0.00000E+00
    0.16791E-01         0.14992E-01         0.00000E+00
    0.16487E-01         0.14621E-01         0.00000E+00
    0.16179E-01         0.14251E-01         0.00000E+00
    0.15866E-01         0.13881E-01         0.00000E+00
    0.15547E-01         0.13512E-01         0.00000E+00
    0.15224E-01         0.13143E-01         0.00000E+00
    0.14896E-01         0.12775E-01         0.00000E+00
    0.14563E-01         0.12408E-01         0.00000E+00
    0.14226E-01         0.12041E-01         0.00000E+00
    0.13883E-01         0.11675E-01         0.00000E+00
    0.13536E-01         0.11309E-01         0.00000E+00
    0.13185E-01         0.10944E-01         0.00000E+00
    0.12828E-01         0.10580E-01         0.00000E+00
    0.12467E-01         0.10216E-01         0.00000E+00
    0.12102E-01         0.98532E-02         0.00000E+00
    0.11731E-01         0.94907E-02         0.00000E+00
    0.11356E-01         0.91288E-02         0.00000E+00
    0.10977E-01         0.87676E-02         0.00000E+00
    0.10593E-01         0.84070E-02         0.00000E+00
    0.10204E-01         0.80471E-02         0.00000E+00
    0.98108E-02         0.76878E-02         0.00000E+00
    0.94129E-02         0.73293E-02         0.00000E+00
    0.90105E-02         0.69715E-02         0.00000E+00
    0.86035E-02         0.66144E-02         0.00000E+00
    0.81920E-02         0.62580E-02         0.00000E+00
    0.77759E-02         0.59024E-02         0.00000E+00
    0.73553E-02         0.55476E-02         0.00000E+00
    0.69301E-02         0.51936E-02         0.00000E+00
    0.65003E-02         0.48404E-02         0.00000E+00
    0.60659E-02         0.44881E-02         0.00000E+00
    0.56270E-02         0.41367E-02         0.00000E+00
    0.51835E-02         0.37862E-02         0.00000E+00
    0.47354E-02         0.34366E-02         0.00000E+00
    0.42827E-02         0.30880E-02         0.00000E+00
    0.38254E-02         0.27404E-02         0.00000E+00
    0.33635E-02         0.23938E-02         0.00000E+00
    0.28969E-02         0.20483E-02         0.00000E+00
    0.24258E-02         0.17040E-02         0.00000E+00
    0.19500E-02         0.13607E-02         0.00000E+00
    0.14695E-02         0.10187E-02         0.00000E+00
    0.98434E-03         0.67782E-03         0.00000E+00
    0.49452E-03         0.33826E-03         0.00000E+00
    0.00000E+00         0.00000E+00         0.00000E+00
    0.18508E-01         0.16717E-01         0.00000E+00
    0.18259E-01         0.16366E-01         0.00000E+00
    0.18004E-01         0.16016E-01         0.00000E+00
    0.17743E-01         0.15666E-01         0.00000E+00
    0.17478E-01         0.15317E-01         0.00000E+00
    0.17206E-01         0.14968E-01         0.00000E+00
    0.16930E-01         0.14621E-01         0.00000E+00
    0.16648E-01         0.14273E-01         0.00000E+00
    0.16361E-01         0.13927E-01         0.00000E+00
    0.16069E-01         0.13581E-01         0.00000E+00
    0.15772E-01         0.13235E-01         0.00000E+00
    0.15470E-01         0.12891E-01         0.00000E+00
    0.15162E-01         0.12546E-01         0.00000E+00
    0.14850E-01         0.12203E-01         0.00000E+00
    0.14533E-01         0.11860E-01         0.00000E+00
    0.14211E-01         0.11517E-01         0.00000E+00
    0.13884E-01         0.11175E-01         0.00000E+00
    0.13552E-01         0.10834E-01         0.00000E+00
    0.13216E-01         0.10494E-01         0.00000E+00
    0.12874E-01         0.10154E-01         0.00000E+00
    0.12528E-01         0.98142E-02         0.00000E+00
    0.12177E-01         0.94755E-02         0.00000E+00
    0.11822E-01         0.91374E-02         0.00000E+00
    0.11461E-01         0.88000E-02         0.00000E+00
    0.11096E-01         0.84633E-02         0.00000E+00
    0.10727E-01         0.81272E-02         0.00000E+00
    0.10353E-01         0.77918E-02         0.00000E+00
    0.99737E-02         0.74571E-02         0.00000E+00
    0.95902E-02         0.71232E-02         0.00000E+00
    0.92021E-02         0.67899E-02         0.00000E+00
    0.88094E-02         0.64574E-02         0.00000E+00
    0.84122E-02         0.61257E-02         0.00000E+00
    0.80103E-02         0.57947E-02         0.00000E+00
    0.76039E-02         0.54646E-02         0.00000E+00
    0.71930E-02         0.51353E-02         0.00000E+00
    0.67775E-02         0.48068E-02         0.00000E+00
    0.63575E-02         0.44792E-02         0.00000E+00
    0.59329E-02         0.41525E-02         0.00000E+00
    0.55037E-02         0.38267E-02         0.00000E+00
    0.50701E-02         0.35018E-02         0.00000E+00
    0.46319E-02         0.31780E-02         0.00000E+00
    0.41891E-02         0.28551E-02         0.00000E+00
    0.37418E-02         0.25333E-02         0.00000E+00
    0.32900E-02         0.22125E-02         0.00000E+00
    0.28337E-02         0.18928E-02         0.00000E+00
    0.23728E-02         0.15743E-02         0.00000E+00
    0.19073E-02         0.12569E-02         0.00000E+00
    0.14373E-02         0.94080E-03         0.00000E+00
    0.96276E-03         0.62589E-03         0.00000E+00
    0.48366E-03         0.31228E-03         0.00000E+00
    0.00000E+00         0.00000E+00         0.00000E+00
    0.17991E-01         0.15513E-01         0.00000E+00
    0.17753E-01         0.15186E-01         0.00000E+00
    0.17510E-01         0.14860E-01         0.00000E+00
    0.17261E-01         0.14534E-01         0.00000E+00
    0.17006E-01         0.14209E-01         0.00000E+00
    0.16747E-01         0.13885E-01         0.00000E+00
    0.16481E-01         0.13561E-01         0.00000E+00
    0.16211E-01         0.13237E-01         0.00000E+00
    0.15935E-01         0.12915E-01         0.00000E+00
    0.15654E-01         0.12592E-01         0.00000E+00
    0.15368E-01         0.12271E-01         0.00000E+00
    0.15076E-01         0.11950E-01         0.00000E+00
    0.14780E-01         0.11629E-01         0.00000E+00
    0.14478E-01         0.11310E-01         0.00000E+00
    0.14171E-01         0.10990E-01         0.00000E+00
    0.13860E-01         0.10672E-01         0.00000E+00
    0.13543E-01         0.10354E-01         0.00000E+00
    0.13221E-01         0.10037E-01         0.00000E+00
    0.12895E-01         0.97198E-02         0.00000E+00
    0.12564E-01         0.94037E-02         0.00000E+00
    0.12228E-01         0.90883E-02         0.00000E+00
    0.11887E-01         0.87735E-02         0.00000E+00
    0.11541E-01         0.84593E-02         0.00000E+00
    0.11191E-01         0.81459E-02         0.00000E+00
    0.10836E-01         0.78331E-02         0.00000E+00
    0.10476E-01         0.75210E-02         0.00000E+00
    0.10111E-01         0.72096E-02         0.00000E+00
    0.97424E-02         0.68989E-02         0.00000E+00
    0.93686E-02         0.65890E-02         0.00000E+00
    0.89902E-02         0.62798E-02         0.00000E+00
    0.86073E-02         0.59714E-02         0.00000E+00
    0.82197E-02         0.56638E-02         0.00000E+00
    0.78276E-02         0.53570E-02         0.00000E+00
    0.74309E-02         0.50510E-02         0.00000E+00
    0.70297E-02         0.47459E-02         0.00000E+00
    0.66239E-02         0.44416E-02         0.00000E+00
    0.62137E-02         0.41382E-02         0.00000E+00
    0.57989E-02         0.38357E-02         0.00000E+00
    0.53796E-02         0.35342E-02         0.00000E+00
    0.49558E-02         0.32337E-02         0.00000E+00
    0.45276E-02         0.29341E-02         0.00000E+00
    0.40949E-02         0.26356E-02         0.00000E+00
    0.36577E-02         0.23381E-02         0.00000E+00
    0.32160E-02         0.20417E-02         0.00000E+00
    0.27699E-02         0.17464E-02         0.00000E+00
    0.23194E-02         0.14522E-02         0.00000E+00
    0.18644E-02         0.11593E-02         0.00000E+00
    0.14049E-02         0.86753E-03         0.00000E+00
    0.94104E-03         0.57705E-03         0.00000E+00
    0.47273E-03         0.28786E-03         0.00000E+00
    0.00000E+00         0.00000E+00         0.00000E+00
    0.17485E-01         0.14367E-01         0.00000E+00
    0.17259E-01         0.14063E-01         0.00000E+00
    0.17026E-01         0.13760E-01         0.00000E+00
    0.16788E-01         0.13457E-01         0.00000E+00
    0.16545E-01         0.13155E-01         0.00000E+00
    0.16296E-01         0.12854E-01         0.00000E+00
    0.16041E-01         0.12553E-01         0.00000E+00
    0.15781E-01         0.12252E-01         0.00000E+00
    0.15516E-01         0.11952E-01         0.00000E+00
    0.15245E-01         0.11653E-01         0.00000E+00
    0.14970E-01         0.11354E-01         0.00000E+00
    0.14688E-01         0.11056E-01         0.00000E+00
    0.14402E-01         0.10758E-01         0.00000E+00
    0.14111E-01         0.10462E-01         0.00000E+00
    0.13814E-01         0.10165E-01         0.00000E+00
    0.13513E-01         0.98694E-02         0.00000E+00
    0.13206E-01         0.95742E-02         0.00000E+00
    0.12894E-01         0.92797E-02         0.00000E+00
    0.12578E-01         0.89857E-02         0.00000E+00
    0.12257E-01         0.86925E-02         0.00000E+00
    0.11930E-01         0.83998E-02         0.00000E+00
    0.11599E-01         0.81079E-02         0.00000E+00
    0.11263E-01         0.78166E-02         0.00000E+00
    0.10923E-01         0.75259E-02         0.00000E+00
    0.10577E-01         0.72360E-02         0.00000E+00
    0.10227E-01         0.69468E-02         0.00000E+00
    0.98721E-02         0.66583E-02         0.00000E+00
    0.95126E-02         0.63705E-02         0.00000E+00
    0.91484E-02         0.60834E-02         0.00000E+00
    0.87796E-02         0.57972E-02         0.00000E+00
    0.84062E-02         0.55117E-02         0.00000E+00
    0.80283E-02         0.52270E-02         0.00000E+00
    0.76458E-02         0.49431E-02         0.00000E+00
    0.72587E-02         0.46601E-02         0.00000E+00
    0.68671E-02         0.43779E-02         0.00000E+00
    0.64711E-02         0.40966E-02         0.00000E+00
    0.60705E-02         0.38162E-02         0.00000E+00
    0.56655E-02         0.35367E-02         0.00000E+00
    0.52560E-02         0.32582E-02         0.00000E+00
    0.48421E-02         0.29806E-02         0.00000E+00
    0.44237E-02         0.27040E-02         0.00000E+00
    0.40010E-02         0.24285E-02         0.00000E+00
    0.35738E-02         0.21540E-02         0.00000E+00
    0.31423E-02         0.18807E-02         0.00000E+00
    0.27064E-02         0.16084E-02         0.00000E+00
    0.22662E-02         0.13372E-02         0.00000E+00
    0.18216E-02         0.10673E-02         0.00000E+00
    0.13727E-02         0.79857E-03         0.00000E+00
    0.91942E-03         0.53108E-03         0.00000E+00
    0.46186E-03         0.26488E-03         0.00000E+00
    0.00000E+00         0.00000E+00         0.00000E+00
    0.16995E-01         0.13275E-01         0.00000E+00
    0.16779E-01         0.12993E-01         0.00000E+00
    0.16557E-01         0.12712E-01         0.00000E+00
    0.16329E-01         0.12432E-01         0.00000E+00
    0.16096E-01         0.12152E-01         0.00000E+00
    0.15857E-01         0.11872E-01         0.00000E+00
    0.15613E-01         0.11593E-01         0.00000E+00
    0.15363E-01         0.11314E-01         0.00000E+00
    0.15108E-01         0.11037E-01         0.00000E+00
    0.14847E-01         0.10759E-01         0.00000E+00
    0.14581E-01         0.10482E-01         0.00000E+00
    0.14310E-01         0.10206E-01         0.00000E+00
    0.14033E-01         0.99304E-02         0.00000E+00
    0.13752E-01         0.96553E-02         0.00000E+00
    0.13465E-01         0.93808E-02         0.00000E+00
    0.13173E-01         0.91068E-02         0.00000E+00
    0.12876E-01         0.88335E-02         0.00000E+00
    0.12574E-01         0.85608E-02         0.00000E+00
    0.12267E-01         0.82887E-02         0.00000E+00
    0.11955E-01         0.80173E-02         0.00000E+00
    0.11638E-01         0.77465E-02         0.00000E+00
    0.11317E-01         0.74763E-02         0.00000E+00
    0.10990E-01         0.72068E-02         0.00000E+00
    0.10659E-01         0.69380E-02         0.00000E+00
    0.10323E-01         0.66699E-02         0.00000E+00
    0.99822E-02         0.64025E-02         0.00000E+00
    0.96367E-02         0.61358E-02         0.00000E+00
    0.92866E-02         0.58698E-02         0.00000E+00
    0.89318E-02         0.56046E-02         0.00000E+00
    0.85724E-02         0.53401E-02         0.00000E+00
    0.82084E-02         0.50765E-02         0.00000E+00
    0.78398E-02         0.48136E-02         0.00000E+00
    0.74667E-02         0.45515E-02         0.00000E+00
    0.70891E-02         0.42903E-02         0.00000E+00
    0.67070E-02         0.40299E-02         0.00000E+00
    0.63204E-02         0.37704E-02         0.00000E+00
    0.59294E-02         0.35118E-02         0.00000E+00
    0.55340E-02         0.32542E-02         0.00000E+00
    0.51342E-02         0.29974E-02         0.00000E+00
    0.47300E-02         0.27417E-02         0.00000E+00
    0.43214E-02         0.24869E-02         0.00000E+00
    0.39085E-02         0.22331E-02         0.00000E+00
    0.34912E-02         0.19804E-02         0.00000E+00
    0.30697E-02         0.17288E-02         0.00000E+00
    0.26439E-02         0.14783E-02         0.00000E+00
    0.22138E-02         0.12289E-02         0.00000E+00
    0.17795E-02         0.98064E-03         0.00000E+00
    0.13409E-02         0.73360E-03         0.00000E+00
    0.89812E-03         0.48779E-03         0.00000E+00
    0.45115E-03         0.24325E-03         0.00000E+00
    0.00000E+00         0.00000E+00         0.00000E+00
    0.16524E-01         0.12234E-01         0.00000E+00
    0.16317E-01         0.11973E-01         0.00000E+00
    0.16105E-01         0.11713E-01         0.00000E+00
    0.15887E-01         0.11454E-01         0.00000E+00
    0.15663E-01         0.11195E-01         0.00000E+00
    0.15434E-01         0.10937E-01         0.00000E+00
    0.15199E-01         0.10679E-01         0.00000E+00
    0.14959E-01         0.10421E-01         0.00000E+00
    0.14713E-01         0.10164E-01         0.00000E+00
    0.14462E-01         0.99081E-02         0.00000E+00
    0.14205E-01         0.96523E-02         0.00000E+00
    0.13943E-01         0.93970E-02         0.00000E+00
    0.13676E-01         0.91423E-02         0.00000E+00
    0.13404E-01         0.88882E-02         0.00000E+00
    0.13126E-01         0.86346E-02         0.00000E+00
    0.12844E-01         0.83817E-02         0.00000E+00
    0.12556E-01         0.81293E-02         0.00000E+00
    0.12263E-01         0.78775E-02         0.00000E+00
    0.11965E-01         0.76263E-02         0.00000E+00
    0.11662E-01         0.73757E-02         0.00000E+00
    0.11355E-01         0.71258E-02         0.00000E+00
    0.11042E-01         0.68765E-02         0.00000E+00
    0.10725E-01         0.66279E-02         0.00000E+00
    0.10403E-01         0.63799E-02         0.00000E+00
    0.10076E-01         0.61327E-02         0.00000E+00
    0.97438E-02         0.58861E-02         0.00000E+00
    0.94074E-02         0.56402E-02         0.00000E+00
    0.90664E-02         0.53950E-02         0.00000E+00
    0.87206E-02         0.51506E-02         0.00000E+00
    0.83703E-02         0.49070E-02         0.00000E+00
    0.80154E-02         0.46641E-02         0.00000E+00
    0.76560E-02         0.44220E-02         0.00000E+00
    0.72921E-02         0.41807E-02         0.00000E+00
    0.69237E-02         0.39402E-02         0.00000E+00
    0.65508E-02         0.37006E-02         0.00000E+00
    0.61735E-02         0.34618E-02         0.00000E+00
    0.57918E-02         0.32239E-02         0.00000E+00
    0.54057E-02         0.29869E-02         0.00000E+00
    0.50153E-02         0.27509E-02         0.00000E+00
    0.46205E-02         0.25158E-02         0.00000E+00
    0.42215E-02         0.22817E-02         0.00000E+00
    0.38182E-02         0.20486E-02         0.00000E+00
    0.34106E-02         0.18165E-02         0.00000E+00
    0.29988E-02         0.15854E-02         0.00000E+00
    0.25828E-02         0.13555E-02         0.00000E+00
    0.21627E-02         0.11266E-02         0.00000E+00
    0.17383E-02         0.89890E-03         0.00000E+00
    0.13099E-02         0.67235E-03         0.00000E+00
    0.87733E-03         0.44699E-03         0.00000E+00
    0.44070E-03         0.22287E-03         0.00000E+00
    0.00000E+00         0.00000E+00         0.00000E+00
    0.16073E-01         0.11239E-01         0.00000E+00
    0.15876E-01         0.10999E-01         0.00000E+00
    0.15673E-01         0.10760E-01         0.00000E+00
    0.15464E-01         0.10521E-01         0.00000E+00
    0.15249E-01         0.10282E-01         0.00000E+00
    0.15029E-01         0.10044E-01         0.00000E+00
    0.14803E-01         0.98065E-02         0.00000E+00
    0.14572E-01         0.95694E-02         0.00000E+00
    0.14335E-01         0.93328E-02         0.00000E+00
    0.14092E-01         0.90967E-02         0.00000E+00
    0.13844E-01         0.88611E-02         0.00000E+00
    0.13591E-01         0.86260E-02         0.00000E+00
    0.13333E-01         0.83915E-02         0.00000E+00
    0.13069E-01         0.81575E-02         0.00000E+00
    0.12801E-01         0.79240E-02         0.00000E+00
    0.12527E-01         0.76911E-02         0.00000E+00
    0.12248E-01         0.74588E-02         0.00000E+00
    0.11963E-01         0.72271E-02         0.00000E+00
    0.11674E-01         0.69959E-02         0.00000E+00
    0.11380E-01         0.67654E-02         0.00000E+00
    0.11081E-01         0.65355E-02         0.00000E+00
    0.10777E-01         0.63062E-02         0.00000E+00
    0.10469E-01         0.60775E-02         0.00000E+00
    0.10155E-01         0.58495E-02         0.00000E+00
    0.98368E-02         0.56222E-02         0.00000E+00
    0.95138E-02         0.53955E-02         0.00000E+00
    0.91860E-02         0.51695E-02         0.00000E+00
    0.88537E-02         0.49442E-02         0.00000E+00
    0.85167E-02         0.47197E-02         0.00000E+00
    0.81751E-02         0.44959E-02         0.00000E+00
    0.78290E-02         0.42728E-02         0.00000E+00
    0.74784E-02         0.40505E-02         0.00000E+00
    0.71233E-02         0.38290E-02         0.00000E+00
    0.67637E-02         0.36083E-02         0.00000E+00
    0.63997E-02         0.33884E-02         0.00000E+00
    0.60314E-02         0.31694E-02         0.00000E+00
    0.56587E-02         0.29512E-02         0.00000E+00
    0.52816E-02         0.27339E-02         0.00000E+00
    0.49003E-02         0.25175E-02         0.00000E+00
    0.45147E-02         0.23021E-02         0.00000E+00
    0.41249E-02         0.20876E-02         0.00000E+00
    0.37308E-02         0.18740E-02         0.00000E+00
    0.33326E-02         0.16615E-02         0.00000E+00
    0.29302E-02         0.14499E-02         0.00000E+00
    0.25238E-02         0.12394E-02         0.00000E+00
    0.21132E-02         0.10300E-02         0.00000E+00
    0.16986E-02         0.82171E-03         0.00000E+00
    0.12799E-02         0.61452E-03         0.00000E+00
    0.85724E-03         0.40849E-03         0.00000E+00
    0.43059E-03         0.20364E-03         0.00000E+00
    0.00000E+00         0.00000E+00         0.00000E+00
    0.15646E-01         0.10288E-01         0.00000E+00
    0.15457E-01         0.10068E-01         0.00000E+00
    0.15263E-01         0.98483E-02         0.00000E+00
    0.15062E-01         0.96289E-02         0.00000E+00
    0.14856E-01         0.94100E-02         0.00000E+00
    0.14644E-01         0.91915E-02         0.00000E+00
    0.14426E-01         0.89734E-02         0.00000E+00
    0.14203E-01         0.87558E-02         0.00000E+00
    0.13974E-01         0.85387E-02         0.00000E+00
    0.13740E-01         0.83220E-02         0.00000E+00
    0.13501E-01         0.81058E-02         0.00000E+00
    0.13256E-01         0.78902E-02         0.00000E+00
    0.13006E-01         0.76750E-02         0.00000E+00
    0.12750E-01         0.74604E-02         0.00000E+00
    0.12490E-01         0.72463E-02         0.00000E+00
    0.12224E-01         0.70327E-02         0.00000E+00
    0.11953E-01         0.68196E-02         0.00000E+00
    0.11677E-01         0.66072E-02         0.00000E+00
    0.11397E-01         0.63953E-02         0.00000E+00
    0.11111E-01         0.61839E-02         0.00000E+00
    0.10820E-01         0.59732E-02         0.00000E+00
    0.10524E-01         0.57631E-02         0.00000E+00
    0.10224E-01         0.55535E-02         0.00000E+00
    0.99184E-02         0.53446E-02         0.00000E+00
    0.96084E-02         0.51364E-02         0.00000E+00
    0.92936E-02         0.49288E-02         0.00000E+00
    0.89742E-02         0.47219E-02         0.00000E+00
    0.86501E-02         0.45156E-02         0.00000E+00
    0.83215E-02         0.43101E-02         0.00000E+00
    0.79883E-02         0.41052E-02         0.00000E+00
    0.76505E-02         0.39011E-02         0.00000E+00
    0.73083E-02         0.36977E-02         0.00000E+00
    0.69616E-02         0.34951E-02         0.00000E+00
    0.66105E-02         0.32933E-02         0.00000E+00
    0.62550E-02         0.30922E-02         0.00000E+00
    0.58952E-02         0.28920E-02         0.00000E+00
    0.55311E-02         0.26926E-02         0.00000E+00
    0.51627E-02         0.24940E-02         0.00000E+00
    0.47901E-02         0.22963E-02         0.00000E+00
    0.44133E-02         0.20995E-02         0.00000E+00
    0.40323E-02         0.19036E-02         0.00000E+00
    0.36471E-02         0.17087E-02         0.00000E+00
    0.32579E-02         0.15147E-02         0.00000E+00
    0.28645E-02         0.13217E-02         0.00000E+00
    0.24672E-02         0.11297E-02         0.00000E+00
    0.20658E-02         0.93866E-03         0.00000E+00
    0.16605E-02         0.74872E-03         0.00000E+00
    0.12512E-02         0.55986E-03         0.00000E+00
    0.83799E-03         0.37210E-03         0.00000E+00
    0.42092E-03         0.18547E-03         0.00000E+00
    0.00000E+00         0.00000E+00         0.00000E+00
    0.15245E-01         0.93777E-02         0.00000E+00
    0.15063E-01         0.91765E-02         0.00000E+00
    0.14876E-01         0.89756E-02         0.00000E+00
    0.14683E-01         0.87752E-02         0.00000E+00
    0.14485E-01         0.85751E-02         0.00000E+00
    0.14281E-01         0.83755E-02         0.00000E+00
    0.14071E-01         0.81763E-02         0.00000E+00
    0.13855E-01         0.79775E-02         0.00000E+00
    0.13634E-01         0.77791E-02         0.00000E+00
    0.13408E-01         0.75812E-02         0.00000E+00
    0.13176E-01         0.73838E-02         0.00000E+00
    0.12939E-01         0.71868E-02         0.00000E+00
    0.12697E-01         0.69903E-02         0.00000E+00
    0.12449E-01         0.67943E-02         0.00000E+00
    0.12196E-01         0.65987E-02         0.00000E+00
    0.11938E-01         0.64037E-02         0.00000E+00
    0.11675E-01         0.62093E-02         0.00000E+00
    0.11407E-01         0.60153E-02         0.00000E+00
    0.11134E-01         0.58219E-02         0.00000E+00
    0.10855E-01         0.56290E-02         0.00000E+00
    0.10572E-01         0.54367E-02         0.00000E+00
    0.10284E-01         0.52450E-02         0.00000E+00
    0.99917E-02         0.50538E-02         0.00000E+00
    0.96942E-02         0.48633E-02         0.00000E+00
    0.93919E-02         0.46734E-02         0.00000E+00
    0.90850E-02         0.44840E-02         0.00000E+00
    0.87733E-02         0.42954E-02         0.00000E+00
    0.84571E-02         0.41073E-02         0.00000E+00
    0.81363E-02         0.39200E-02         0.00000E+00
    0.78110E-02         0.37333E-02         0.00000E+00
    0.74812E-02         0.35473E-02         0.00000E+00
    0.71469E-02         0.33620E-02         0.00000E+00
    0.68082E-02         0.31775E-02         0.00000E+00
    0.64651E-02         0.29936E-02         0.00000E+00
    0.61177E-02         0.28106E-02         0.00000E+00
    0.57660E-02         0.26283E-02         0.00000E+00
    0.54101E-02         0.24468E-02         0.00000E+00
    0.50499E-02         0.22661E-02         0.00000E+00
    0.46855E-02         0.20863E-02         0.00000E+00
    0.43170E-02         0.19072E-02         0.00000E+00
    0.39444E-02         0.17291E-02         0.00000E+00
    0.35677E-02         0.15518E-02         0.00000E+00
    0.31869E-02         0.13755E-02         0.00000E+00
    0.28022E-02         0.12001E-02         0.00000E+00
    0.24135E-02         0.10256E-02         0.00000E+00
    0.20208E-02         0.85208E-03         0.00000E+00
    0.16243E-02         0.67957E-03         0.00000E+00
    0.12239E-02         0.50809E-03         0.00000E+00
    0.81973E-03         0.33765E-03         0.00000E+00
    0.41174E-03         0.16828E-03         0.00000E+00
    0.00000E+00         0.00000E+00         0.00000E+00
    0.14870E-01         0.85039E-02         0.00000E+00
    0.14696E-01         0.83211E-02         0.00000E+00
    0.14516E-01         0.81385E-02         0.00000E+00
    0.14330E-01         0.79564E-02         0.00000E+00
    0.14138E-01         0.77746E-02         0.00000E+00
    0.13941E-01         0.75931E-02         0.00000E+00
    0.13738E-01         0.74121E-02         0.00000E+00
    0.13530E-01         0.72315E-02         0.00000E+00
    0.13316E-01         0.70512E-02         0.00000E+00
    0.13097E-01         0.68714E-02         0.00000E+00
    0.12872E-01         0.66920E-02         0.00000E+00
    0.12642E-01         0.65131E-02         0.00000E+00
    0.12407E-01         0.63346E-02         0.00000E+00
    0.12166E-01         0.61565E-02         0.00000E+00
    0.11921E-01         0.59790E-02         0.00000E+00
    0.11670E-01         0.58019E-02         0.00000E+00
    0.11414E-01         0.56252E-02         0.00000E+00
    0.11153E-01         0.54491E-02         0.00000E+00
    0.10887E-01         0.52735E-02         0.00000E+00
    0.10616E-01         0.50984E-02         0.00000E+00
    0.10340E-01         0.49239E-02         0.00000E+00
    0.10059E-01         0.47498E-02         0.00000E+00
    0.97739E-02         0.45764E-02         0.00000E+00
    0.94837E-02         0.44035E-02         0.00000E+00
    0.91887E-02         0.42311E-02         0.00000E+00
    0.88890E-02         0.40594E-02         0.00000E+00
    0.85847E-02         0.38882E-02         0.00000E+00
    0.82758E-02         0.37177E-02         0.00000E+00
    0.79624E-02         0.35478E-02         0.00000E+00
    0.76444E-02         0.33785E-02         0.00000E+00
    0.73220E-02         0.32099E-02         0.00000E+00
    0.69952E-02         0.30420E-02         0.00000E+00
    0.66640E-02         0.28747E-02         0.00000E+00
    0.63285E-02         0.27082E-02         0.00000E+00
    0.59886E-02         0.25423E-02         0.00000E+00
    0.56446E-02         0.23772E-02         0.00000E+00
    0.52963E-02         0.22128E-02         0.00000E+00
    0.49438E-02         0.20492E-02         0.00000E+00
    0.45872E-02         0.18864E-02         0.00000E+00
    0.42265E-02         0.17243E-02         0.00000E+00
    0.38617E-02         0.15631E-02         0.00000E+00
    0.34930E-02         0.14027E-02         0.00000E+00
    0.31202E-02         0.12432E-02         0.00000E+00
    0.27436E-02         0.10845E-02         0.00000E+00
    0.23630E-02         0.92673E-03         0.00000E+00
    0.19786E-02         0.76986E-03         0.00000E+00
    0.15903E-02         0.61394E-03         0.00000E+00
    0.11983E-02         0.45896E-03         0.00000E+00
    0.80256E-03         0.30497E-03         0.00000E+00
    0.40311E-03         0.15197E-03         0.00000E+00
    0.00000E+00         0.00000E+00         0.00000E+00
    0.14524E-01         0.76638E-02         0.00000E+00
    0.14356E-01         0.74987E-02         0.00000E+00
    0.14182E-01         0.73339E-02         0.00000E+00
    0.14003E-01         0.71694E-02         0.00000E+00
    0.13818E-01         0.70053E-02         0.00000E+00
    0.13627E-01         0.68415E-02         0.00000E+00
    0.13431E-01         0.66780E-02         0.00000E+00
    0.13229E-01         0.65150E-02         0.00000E+00
    0.13022E-01         0.63523E-02         0.00000E+00
    0.12809E-01         0.61899E-02         0.00000E+00
    0.12591E-01         0.60280E-02         0.00000E+00
    0.12367E-01         0.58665E-02         0.00000E+00
    0.12139E-01         0.57054E-02         0.00000E+00
    0.11905E-01         0.55447E-02         0.00000E+00
    0.11665E-01         0.53844E-02         0.00000E+00
    0.11421E-01         0.52246E-02         0.00000E+00
    0.11172E-01         0.50653E-02         0.00000E+00
    0.10917E-01         0.49064E-02         0.00000E+00
    0.10658E-01         0.47479E-02         0.00000E+00
    0.10394E-01         0.45900E-02         0.00000E+00
    0.10125E-01         0.44325E-02         0.00000E+00
    0.98505E-02         0.42756E-02         0.00000E+00
    0.95717E-02         0.41191E-02         0.00000E+00
    0.92881E-02         0.39632E-02         0.00000E+00
    0.89998E-02         0.38079E-02         0.00000E+00
    0.87069E-02         0.36530E-02         0.00000E+00
    0.84094E-02         0.34988E-02         0.00000E+00
    0.81073E-02         0.33451E-02         0.00000E+00
    0.78007E-02         0.31919E-02         0.00000E+00
    0.74896E-02         0.30394E-02         0.00000E+00
    0.71741E-02         0.28875E-02         0.00000E+00
    0.68542E-02         0.27362E-02         0.00000E+00
    0.65300E-02         0.25855E-02         0.00000E+00
    0.62014E-02         0.24355E-02         0.00000E+00
    0.58686E-02         0.22862E-02         0.00000E+00
    0.55316E-02         0.21375E-02         0.00000E+00
    0.51904E-02         0.19895E-02         0.00000E+00
    0.48451E-02         0.18423E-02         0.00000E+00
    0.44958E-02         0.16957E-02         0.00000E+00
    0.41423E-02         0.15499E-02         0.00000E+00
    0.37849E-02         0.14049E-02         0.00000E+00
    0.34235E-02         0.12606E-02         0.00000E+00
    0.30582E-02         0.11171E-02         0.00000E+00
    0.26890E-02         0.97446E-03         0.00000E+00
    0.23160E-02         0.83262E-03         0.00000E+00
    0.19393E-02         0.69162E-03         0.00000E+00
    0.15587E-02         0.55149E-03         0.00000E+00
    0.11745E-02         0.41224E-03         0.00000E+00
    0.78660E-03         0.27389E-03         0.00000E+00
    0.39509E-03         0.13647E-03         0.00000E+00
    0.00000E+00         0.00000E+00         0.00000E+00
    0.14207E-01         0.68542E-02         0.00000E+00
    0.14045E-01         0.67063E-02         0.00000E+00
    0.13877E-01         0.65587E-02         0.00000E+00
    0.13704E-01         0.64113E-02         0.00000E+00
    0.13524E-01         0.62643E-02         0.00000E+00
    0.13340E-01         0.61176E-02         0.00000E+00
    0.13149E-01         0.59712E-02         0.00000E+00
    0.12953E-01         0.58251E-02         0.00000E+00
    0.12752E-01         0.56794E-02         0.00000E+00
    0.12545E-01         0.55341E-02         0.00000E+00
    0.12333E-01         0.53890E-02         0.00000E+00
    0.12115E-01         0.52444E-02         0.00000E+00
    0.11892E-01         0.51001E-02         0.00000E+00
    0.11664E-01         0.49563E-02         0.00000E+00
    0.11431E-01         0.48128E-02         0.00000E+00
    0.11193E-01         0.46697E-02         0.00000E+00
    0.10950E-01         0.45270E-02         0.00000E+00
    0.10701E-01         0.43848E-02         0.00000E+00
    0.10448E-01         0.42430E-02         0.00000E+00
    0.10190E-01         0.41016E-02         0.00000E+00
    0.99266E-02         0.39607E-02         0.00000E+00
    0.96587E-02         0.38202E-02         0.00000E+00
    0.93860E-02         0.36802E-02         0.00000E+00
    0.91085E-02         0.35407E-02         0.00000E+00
    0.88264E-02         0.34017E-02         0.00000E+00
    0.85397E-02         0.32632E-02         0.00000E+00
    0.82484E-02         0.31252E-02         0.00000E+00
    0.79525E-02         0.29877E-02         0.00000E+00
    0.76522E-02         0.28508E-02         0.00000E+00
    0.73474E-02         0.27144E-02         0.00000E+00
    0.70382E-02         0.25785E-02         0.00000E+00
    0.67246E-02         0.24433E-02         0.00000E+00
    0.64068E-02         0.23086E-02         0.00000E+00
    0.60847E-02         0.21745E-02         0.00000E+00
    0.57583E-02         0.20410E-02         0.00000E+00
    0.54278E-02         0.19082E-02         0.00000E+00
    0.50932E-02         0.17760E-02         0.00000E+00
    0.47545E-02         0.16444E-02         0.00000E+00
    0.44117E-02         0.15135E-02         0.00000E+00
    0.40650E-02         0.13832E-02         0.00000E+00
    0.37143E-02         0.12537E-02         0.00000E+00
    0.33597E-02         0.11249E-02         0.00000E+00
    0.30012E-02         0.99677E-03         0.00000E+00
    0.26390E-02         0.86940E-03         0.00000E+00
    0.22729E-02         0.74279E-03         0.00000E+00
    0.19031E-02         0.61696E-03         0.00000E+00
    0.15297E-02         0.49191E-03         0.00000E+00
    0.11526E-02         0.36767E-03         0.00000E+00
    0.77194E-03         0.24427E-03         0.00000E+00
    0.38772E-03         0.12170E-03         0.00000E+00
    0.00000E+00         0.00000E+00         0.00000E+00
    0.13921E-01         0.60720E-02         0.00000E+00
    0.13764E-01         0.59408E-02         0.00000E+00
    0.13601E-01         0.58098E-02         0.00000E+00
    0.13433E-01         0.56792E-02         0.00000E+00
    0.13259E-01         0.55488E-02         0.00000E+00
    0.13079E-01         0.54187E-02         0.00000E+00
    0.12894E-01         0.52888E-02         0.00000E+00
    0.12704E-01         0.51593E-02         0.00000E+00
    0.12508E-01         0.50301E-02         0.00000E+00
    0.12306E-01         0.49012E-02         0.00000E+00
    0.12099E-01         0.47726E-02         0.00000E+00
    0.11887E-01         0.46443E-02         0.00000E+00
    0.11670E-01         0.45164E-02         0.00000E+00
    0.11447E-01         0.43888E-02         0.00000E+00
    0.11219E-01         0.42616E-02         0.00000E+00
    0.10986E-01         0.41348E-02         0.00000E+00
    0.10748E-01         0.40083E-02         0.00000E+00
    0.10506E-01         0.38822E-02         0.00000E+00
    0.10258E-01         0.37565E-02         0.00000E+00
    0.10005E-01         0.36312E-02         0.00000E+00
    0.97473E-02         0.35063E-02         0.00000E+00
    0.94849E-02         0.33818E-02         0.00000E+00
    0.92177E-02         0.32577E-02         0.00000E+00
    0.89459E-02         0.31341E-02         0.00000E+00
    0.86693E-02         0.30109E-02         0.00000E+00
    0.83882E-02         0.28882E-02         0.00000E+00
    0.81025E-02         0.27659E-02         0.00000E+00
    0.78123E-02         0.26441E-02         0.00000E+00
    0.75176E-02         0.25228E-02         0.00000E+00
    0.72185E-02         0.24020E-02         0.00000E+00
    0.69150E-02         0.22817E-02         0.00000E+00
    0.66073E-02         0.21619E-02         0.00000E+00
    0.62952E-02         0.20426E-02         0.00000E+00
    0.59789E-02         0.19239E-02         0.00000E+00
    0.56584E-02         0.18057E-02         0.00000E+00
    0.53338E-02         0.16881E-02         0.00000E+00
    0.50051E-02         0.15710E-02         0.00000E+00
    0.46723E-02         0.14546E-02         0.00000E+00
    0.43356E-02         0.13387E-02         0.00000E+00
    0.39949E-02         0.12234E-02         0.00000E+00
    0.36503E-02         0.11088E-02         0.00000E+00
    0.33019E-02         0.99481E-03         0.00000E+00
    0.29496E-02         0.88147E-03         0.00000E+00
    0.25936E-02         0.76880E-03         0.00000E+00
    0.22338E-02         0.65680E-03         0.00000E+00
    0.18704E-02         0.54550E-03         0.00000E+00
    0.15034E-02         0.43491E-03         0.00000E+00
    0.11328E-02         0.32505E-03         0.00000E+00
    0.75866E-03         0.21594E-03         0.00000E+00
    0.38104E-03         0.10758E-03         0.00000E+00
    0.00000E+00         0.00000E+00         0.00000E+00
    0.13666E-01         0.53141E-02         0.00000E+00
    0.13514E-01         0.51992E-02         0.00000E+00
    0.13356E-01         0.50845E-02         0.00000E+00
    0.13192E-01         0.49701E-02         0.00000E+00
    0.13023E-01         0.48559E-02         0.00000E+00
    0.12848E-01         0.47419E-02         0.00000E+00
    0.12668E-01         0.46282E-02         0.00000E+00
    0.12482E-01         0.45148E-02         0.00000E+00
    0.12290E-01         0.44016E-02         0.00000E+00
    0.12093E-01         0.42888E-02         0.00000E+00
    0.11891E-01         0.41761E-02         0.00000E+00
    0.11684E-01         0.40638E-02         0.00000E+00
    0.11471E-01         0.39518E-02         0.00000E+00
    0.11253E-01         0.38401E-02         0.00000E+00
    0.11030E-01         0.37287E-02         0.00000E+00
    0.10802E-01         0.36177E-02         0.00000E+00
    0.10569E-01         0.35069E-02         0.00000E+00
    0.10331E-01         0.33965E-02         0.00000E+00
    0.10088E-01         0.32865E-02         0.00000E+00
    0.98403E-02         0.31768E-02         0.00000E+00
    0.95876E-02         0.30674E-02         0.00000E+00
    0.93301E-02         0.29585E-02         0.00000E+00
    0.90678E-02         0.28499E-02         0.00000E+00
    0.88009E-02         0.27416E-02         0.00000E+00
    0.85294E-02         0.26338E-02         0.00000E+00
    0.82532E-02         0.25264E-02         0.00000E+00
    0.79725E-02         0.24194E-02         0.00000E+00
    0.76873E-02         0.23128E-02         0.00000E+00
    0.73977E-02         0.22066E-02         0.00000E+00
    0.71037E-02         0.21009E-02         0.00000E+00
    0.68053E-02         0.19956E-02         0.00000E+00
    0.65026E-02         0.18908E-02         0.00000E+00
    0.61957E-02         0.17864E-02         0.00000E+00
    0.58846E-02         0.16825E-02         0.00000E+00
    0.55693E-02         0.15791E-02         0.00000E+00
    0.52500E-02         0.14762E-02         0.00000E+00
    0.49266E-02         0.13738E-02         0.00000E+00
    0.45991E-02         0.12719E-02         0.00000E+00
    0.42677E-02         0.11706E-02         0.00000E+00
    0.39324E-02         0.10698E-02         0.00000E+00
    0.35933E-02         0.96951E-03         0.00000E+00
    0.32503E-02         0.86981E-03         0.00000E+00
    0.29036E-02         0.77069E-03         0.00000E+00
    0.25531E-02         0.67215E-03         0.00000E+00
    0.21990E-02         0.57422E-03         0.00000E+00
    0.18413E-02         0.47690E-03         0.00000E+00
    0.14800E-02         0.38021E-03         0.00000E+00
    0.11151E-02         0.28416E-03         0.00000E+00
    0.74682E-03         0.18876E-03         0.00000E+00
    0.37510E-03         0.94039E-04         0.00000E+00
    0.00000E+00         0.00000E+00         0.00000E+00
    0.13444E-01         0.45777E-02         0.00000E+00
    0.13296E-01         0.44787E-02         0.00000E+00
    0.13142E-01         0.43799E-02         0.00000E+00
    0.12982E-01         0.42813E-02         0.00000E+00
    0.12817E-01         0.41829E-02         0.00000E+00
    0.12646E-01         0.40847E-02         0.00000E+00
    0.12469E-01         0.39868E-02         0.00000E+00
    0.12288E-01         0.38891E-02         0.00000E+00
    0.12100E-01         0.37916E-02         0.00000E+00
    0.11908E-01         0.36943E-02         0.00000E+00
    0.11710E-01         0.35973E-02         0.00000E+00
    0.11506E-01         0.35006E-02         0.00000E+00
    0.11298E-01         0.34041E-02         0.00000E+00
    0.11084E-01         0.33078E-02         0.00000E+00
    0.10866E-01         0.32119E-02         0.00000E+00
    0.10642E-01         0.31162E-02         0.00000E+00
    0.10413E-01         0.30208E-02         0.00000E+00
    0.10179E-01         0.29257E-02         0.00000E+00
    0.99402E-02         0.28309E-02         0.00000E+00
    0.96966E-02         0.27364E-02         0.00000E+00
    0.94481E-02         0.26422E-02         0.00000E+00
    0.91949E-02         0.25484E-02         0.00000E+00
    0.89370E-02         0.24548E-02         0.00000E+00
    0.86744E-02         0.23616E-02         0.00000E+00
    0.84071E-02         0.22687E-02         0.00000E+00
    0.81353E-02         0.21762E-02         0.00000E+00
    0.78590E-02         0.20840E-02         0.00000E+00
    0.75782E-02         0.19922E-02         0.00000E+00
    0.72930E-02         0.19008E-02         0.00000E+00
    0.70034E-02         0.18097E-02         0.00000E+00
    0.67095E-02         0.17190E-02         0.00000E+00
    0.64113E-02         0.16287E-02         0.00000E+00
    0.61089E-02         0.15388E-02         0.00000E+00
    0.58023E-02         0.14493E-02         0.00000E+00
    0.54916E-02         0.13603E-02         0.00000E+00
    0.51768E-02         0.12716E-02         0.00000E+00
    0.48580E-02         0.11834E-02         0.00000E+00
    0.45352E-02         0.10956E-02         0.00000E+00
    0.42085E-02         0.10083E-02         0.00000E+00
    0.38779E-02         0.92150E-03         0.00000E+00
    0.35435E-02         0.83514E-03         0.00000E+00
    0.32053E-02         0.74925E-03         0.00000E+00
    0.28634E-02         0.66387E-03         0.00000E+00
    0.25178E-02         0.57899E-03         0.00000E+00
    0.21686E-02         0.49463E-03         0.00000E+00
    0.18158E-02         0.41080E-03         0.00000E+00
    0.14595E-02         0.32751E-03         0.00000E+00
    0.10997E-02         0.24477E-03         0.00000E+00
    0.73650E-03         0.16260E-03         0.00000E+00
    0.36991E-03         0.81006E-04         0.00000E+00
    0.00000E+00         0.00000E+00         0.00000E+00
    0.13254E-01         0.38598E-02         0.00000E+00
    0.13109E-01         0.37764E-02         0.00000E+00
    0.12959E-01         0.36931E-02         0.00000E+00
    0.12803E-01         0.36100E-02         0.00000E+00
    0.12641E-01         0.35271E-02         0.00000E+00
    0.12474E-01         0.34444E-02         0.00000E+00
    0.12301E-01         0.33619E-02         0.00000E+00
    0.12122E-01         0.32795E-02         0.00000E+00
    0.11939E-01         0.31974E-02         0.00000E+00
    0.11750E-01         0.31155E-02         0.00000E+00
    0.11555E-01         0.30337E-02         0.00000E+00
    0.11355E-01         0.29522E-02         0.00000E+00
    0.11151E-01         0.28709E-02         0.00000E+00
    0.10940E-01         0.27898E-02         0.00000E+00
    0.10725E-01         0.27089E-02         0.00000E+00
    0.10505E-01         0.26283E-02         0.00000E+00
    0.10280E-01         0.25479E-02         0.00000E+00
    0.10050E-01         0.24678E-02         0.00000E+00
    0.98144E-02         0.23879E-02         0.00000E+00
    0.95744E-02         0.23082E-02         0.00000E+00
    0.93296E-02         0.22289E-02         0.00000E+00
    0.90800E-02         0.21497E-02         0.00000E+00
    0.88257E-02         0.20709E-02         0.00000E+00
    0.85668E-02         0.19923E-02         0.00000E+00
    0.83033E-02         0.19140E-02         0.00000E+00
    0.80352E-02         0.18360E-02         0.00000E+00
    0.77626E-02         0.17583E-02         0.00000E+00
    0.74855E-02         0.16809E-02         0.00000E+00
    0.72041E-02         0.16038E-02         0.00000E+00
    0.69183E-02         0.15270E-02         0.00000E+00
    0.66281E-02         0.14506E-02         0.00000E+00
    0.63338E-02         0.13744E-02         0.00000E+00
    0.60352E-02         0.12986E-02         0.00000E+00
    0.57325E-02         0.12232E-02         0.00000E+00
    0.54256E-02         0.11480E-02         0.00000E+00
    0.51147E-02         0.10733E-02         0.00000E+00
    0.47998E-02         0.99886E-03         0.00000E+00
    0.44810E-02         0.92482E-03         0.00000E+00
    0.41583E-02         0.85117E-03         0.00000E+00
    0.38317E-02         0.77790E-03         0.00000E+00
    0.35013E-02         0.70502E-03         0.00000E+00
    0.31672E-02         0.63255E-03         0.00000E+00
    0.28294E-02         0.56049E-03         0.00000E+00
    0.24879E-02         0.48885E-03         0.00000E+00
    0.21428E-02         0.41764E-03         0.00000E+00
    0.17942E-02         0.34688E-03         0.00000E+00
    0.14422E-02         0.27656E-03         0.00000E+00
    0.10866E-02         0.20670E-03         0.00000E+00
    0.72774E-03         0.13732E-03         0.00000E+00
    0.36551E-03         0.68414E-04         0.00000E+00
    0.00000E+00         0.00000E+00         0.00000E+00
    0.13098E-01         0.31576E-02         0.00000E+00
    0.12956E-01         0.30895E-02         0.00000E+00
    0.12809E-01         0.30215E-02         0.00000E+00
    0.12655E-01         0.29537E-02         0.00000E+00
    0.12497E-01         0.28860E-02         0.00000E+00
    0.12332E-01         0.28184E-02         0.00000E+00
    0.12162E-01         0.27510E-02         0.00000E+00
    0.11987E-01         0.26838E-02         0.00000E+00
    0.11806E-01         0.26167E-02         0.00000E+00
    0.11620E-01         0.25498E-02         0.00000E+00
    0.11428E-01         0.24830E-02         0.00000E+00
    0.11232E-01         0.24165E-02         0.00000E+00
    0.11030E-01         0.23501E-02         0.00000E+00
    0.10822E-01         0.22838E-02         0.00000E+00
    0.10610E-01         0.22178E-02         0.00000E+00
    0.10393E-01         0.21519E-02         0.00000E+00
    0.10171E-01         0.20862E-02         0.00000E+00
    0.99434E-02         0.20208E-02         0.00000E+00
    0.97113E-02         0.19555E-02         0.00000E+00
    0.94743E-02         0.18904E-02         0.00000E+00
    0.92325E-02         0.18255E-02         0.00000E+00
    0.89860E-02         0.17609E-02         0.00000E+00
    0.87347E-02         0.16964E-02         0.00000E+00
    0.84788E-02         0.16322E-02         0.00000E+00
    0.82183E-02         0.15682E-02         0.00000E+00
    0.79533E-02         0.15044E-02         0.00000E+00
    0.76837E-02         0.14409E-02         0.00000E+00
    0.74098E-02         0.13776E-02         0.00000E+00
    0.71314E-02         0.13145E-02         0.00000E+00
    0.68487E-02         0.12517E-02         0.00000E+00
    0.65616E-02         0.11891E-02         0.00000E+00
    0.62704E-02         0.11268E-02         0.00000E+00
    0.59750E-02         0.10648E-02         0.00000E+00
    0.56754E-02         0.10030E-02         0.00000E+00
    0.53717E-02         0.94147E-03         0.00000E+00
    0.50640E-02         0.88025E-03         0.00000E+00
    0.47523E-02         0.81931E-03         0.00000E+00
    0.44367E-02         0.75866E-03         0.00000E+00
    0.41172E-02         0.69831E-03         0.00000E+00
    0.37939E-02         0.63827E-03         0.00000E+00
    0.34668E-02         0.57854E-03         0.00000E+00
    0.31360E-02         0.51912E-03         0.00000E+00
    0.28015E-02         0.46004E-03         0.00000E+00
    0.24634E-02         0.40128E-03         0.00000E+00
    0.21218E-02         0.34287E-03         0.00000E+00
    0.17766E-02         0.28481E-03         0.00000E+00
    0.14280E-02         0.22710E-03         0.00000E+00
    0.10760E-02         0.16975E-03         0.00000E+00
    0.72059E-03         0.11279E-03         0.00000E+00
    0.36192E-03         0.56197E-04         0.00000E+00
    0.00000E+00         0.00000E+00         0.00000E+00
    0.12976E-01         0.24684E-02         0.00000E+00
    0.12837E-01         0.24153E-02         0.00000E+00
    0.12691E-01         0.23624E-02         0.00000E+00
    0.12540E-01         0.23096E-02         0.00000E+00
    0.12384E-01         0.22569E-02         0.00000E+00
    0.12222E-01         0.22043E-02         0.00000E+00
    0.12054E-01         0.21518E-02         0.00000E+00
    0.11881E-01         0.20994E-02         0.00000E+00
    0.11703E-01         0.20472E-02         0.00000E+00
    0.11519E-01         0.19950E-02         0.00000E+00
    0.11330E-01         0.19430E-02         0.00000E+00
    0.11135E-01         0.18912E-02         0.00000E+00
    0.10936E-01         0.18394E-02         0.00000E+00
    0.10731E-01         0.17878E-02         0.00000E+00
    0.10521E-01         0.17364E-02         0.00000E+00
    0.10306E-01         0.16850E-02         0.00000E+00
    0.10086E-01         0.16338E-02         0.00000E+00
    0.98612E-02         0.15828E-02         0.00000E+00
    0.96315E-02         0.15319E-02         0.00000E+00
    0.93968E-02         0.14811E-02         0.00000E+00
    0.91574E-02         0.14305E-02         0.00000E+00
    0.89132E-02         0.13801E-02         0.00000E+00
    0.86643E-02         0.13298E-02         0.00000E+00
    0.84108E-02         0.12796E-02         0.00000E+00
    0.81527E-02         0.12297E-02         0.00000E+00
    0.78900E-02         0.11799E-02         0.00000E+00
    0.76229E-02         0.11302E-02         0.00000E+00
    0.73513E-02         0.10808E-02         0.00000E+00
    0.70753E-02         0.10315E-02         0.00000E+00
    0.67950E-02         0.98236E-03         0.00000E+00
    0.65104E-02         0.93343E-03         0.00000E+00
    0.62216E-02         0.88469E-03         0.00000E+00
    0.59285E-02         0.83614E-03         0.00000E+00
    0.56314E-02         0.78778E-03         0.00000E+00
    0.53302E-02         0.73962E-03         0.00000E+00
    0.50250E-02         0.69166E-03         0.00000E+00
    0.47158E-02         0.64391E-03         0.00000E+00
    0.44026E-02         0.59637E-03         0.00000E+00
    0.40857E-02         0.54904E-03         0.00000E+00
    0.37649E-02         0.50194E-03         0.00000E+00
    0.34403E-02         0.45507E-03         0.00000E+00
    0.31121E-02         0.40842E-03         0.00000E+00
    0.27802E-02         0.36201E-03         0.00000E+00
    0.24447E-02         0.31585E-03         0.00000E+00
    0.21056E-02         0.26993E-03         0.00000E+00
    0.17631E-02         0.22427E-03         0.00000E+00
    0.14171E-02         0.17887E-03         0.00000E+00
    0.10678E-02         0.13374E-03         0.00000E+00
    0.71510E-03         0.88874E-04         0.00000E+00
    0.35916E-03         0.44294E-04         0.00000E+00
    0.00000E+00         0.00000E+00         0.00000E+00
    0.12889E-01         0.17894E-02         0.00000E+00
    0.12751E-01         0.17512E-02         0.00000E+00
    0.12607E-01         0.17131E-02         0.00000E+00
    0.12458E-01         0.16752E-02         0.00000E+00
    0.12303E-01         0.16372E-02         0.00000E+00
    0.12143E-01         0.15994E-02         0.00000E+00
    0.11977E-01         0.15617E-02         0.00000E+00
    0.11806E-01         0.15240E-02         0.00000E+00
    0.11629E-01         0.14864E-02         0.00000E+00
    0.11447E-01         0.14489E-02         0.00000E+00
    0.11260E-01         0.14115E-02         0.00000E+00
    0.11067E-01         0.13741E-02         0.00000E+00
    0.10869E-01         0.13369E-02         0.00000E+00
    0.10666E-01         0.12997E-02         0.00000E+00
    0.10458E-01         0.12626E-02         0.00000E+00
    0.10245E-01         0.12257E-02         0.00000E+00
    0.10027E-01         0.11888E-02         0.00000E+00
    0.98034E-02         0.11520E-02         0.00000E+00
    0.95753E-02         0.11152E-02         0.00000E+00
    0.93424E-02         0.10786E-02         0.00000E+00
    0.91047E-02         0.10421E-02         0.00000E+00
    0.88622E-02         0.10057E-02         0.00000E+00
    0.86150E-02         0.96934E-03         0.00000E+00
    0.83632E-02         0.93311E-03         0.00000E+00
    0.81068E-02         0.89697E-03         0.00000E+00
    0.78458E-02         0.86094E-03         0.00000E+00
    0.75804E-02         0.82501E-03         0.00000E+00
    0.73105E-02         0.78919E-03         0.00000E+00
    0.70362E-02         0.75347E-03         0.00000E+00
    0.67576E-02         0.71786E-03         0.00000E+00
    0.64747E-02         0.68236E-03         0.00000E+00
    0.61876E-02         0.64697E-03         0.00000E+00
    0.58963E-02         0.61170E-03         0.00000E+00
    0.56008E-02         0.57655E-03         0.00000E+00
    0.53014E-02         0.54152E-03         0.00000E+00
    0.49978E-02         0.50661E-03         0.00000E+00
    0.46904E-02         0.47182E-03         0.00000E+00
    0.43790E-02         0.43717E-03         0.00000E+00
    0.40638E-02         0.40264E-03         0.00000E+00
    0.37447E-02         0.36826E-03         0.00000E+00
    0.34219E-02         0.33401E-03         0.00000E+00
    0.30954E-02         0.29990E-03         0.00000E+00
    0.27653E-02         0.26594E-03         0.00000E+00
    0.24316E-02         0.23213E-03         0.00000E+00
    0.20944E-02         0.19847E-03         0.00000E+00
    0.17537E-02         0.16497E-03         0.00000E+00
    0.14096E-02         0.13163E-03         0.00000E+00
    0.10621E-02         0.98463E-04         0.00000E+00
    0.71129E-03         0.65464E-04         0.00000E+00
    0.35724E-03         0.32641E-04         0.00000E+00
    0.00000E+00         0.00000E+00         0.00000E+00
    0.12836E-01         0.11179E-02         0.00000E+00
    0.12699E-01         0.10945E-02         0.00000E+00
    0.12557E-01         0.10712E-02         0.00000E+00
    0.12409E-01         0.10479E-02         0.00000E+00
    0.12256E-01         0.10247E-02         0.00000E+00
    0.12096E-01         0.10015E-02         0.00000E+00
    0.11932E-01         0.97832E-03         0.00000E+00
    0.11762E-01         0.95521E-03         0.00000E+00
    0.11586E-01         0.93215E-03         0.00000E+00
    0.11405E-01         0.90914E-03         0.00000E+00
    0.11219E-01         0.88617E-03         0.00000E+00
    0.11027E-01         0.86323E-03         0.00000E+00
    0.10831E-01         0.84034E-03         0.00000E+00
    0.10629E-01         0.81749E-03         0.00000E+00
    0.10422E-01         0.79468E-03         0.00000E+00
    0.10209E-01         0.77191E-03         0.00000E+00
    0.99924E-02         0.74917E-03         0.00000E+00
    0.97703E-02         0.72648E-03         0.00000E+00
    0.95433E-02         0.70382E-03         0.00000E+00
    0.93114E-02         0.68120E-03         0.00000E+00
    0.90747E-02         0.65861E-03         0.00000E+00
    0.88333E-02         0.63606E-03         0.00000E+00
    0.85872E-02         0.61355E-03         0.00000E+00
    0.83364E-02         0.59107E-03         0.00000E+00
    0.80810E-02         0.56863E-03         0.00000E+00
    0.78210E-02         0.54623E-03         0.00000E+00
    0.75566E-02         0.52386E-03         0.00000E+00
    0.72877E-02         0.50152E-03         0.00000E+00
    0.70144E-02         0.47923E-03         0.00000E+00
    0.67368E-02         0.45697E-03         0.00000E+00
    0.64548E-02         0.43474E-03         0.00000E+00
    0.61687E-02         0.41256E-03         0.00000E+00
    0.58784E-02         0.39042E-03         0.00000E+00
    0.55839E-02         0.36831E-03         0.00000E+00
    0.52854E-02         0.34624E-03         0.00000E+00
    0.49829E-02         0.32422E-03         0.00000E+00
    0.46764E-02         0.30224E-03         0.00000E+00
    0.43660E-02         0.28030E-03         0.00000E+00
    0.40517E-02         0.25841E-03         0.00000E+00
    0.37336E-02         0.23657E-03         0.00000E+00
    0.34118E-02         0.21477E-03         0.00000E+00
    0.30863E-02         0.19303E-03         0.00000E+00
    0.27572E-02         0.17134E-03         0.00000E+00
    0.24245E-02         0.14970E-03         0.00000E+00
    0.20882E-02         0.12813E-03         0.00000E+00
    0.17485E-02         0.10661E-03         0.00000E+00
    0.14054E-02         0.85149E-04         0.00000E+00
    0.10590E-02         0.63757E-04         0.00000E+00
    0.70920E-03         0.42433E-04         0.00000E+00
    0.35619E-03         0.21180E-04         0.00000E+00
    0.00000E+00         0.00000E+00         0.00000E+00
    0.12818E-01         0.45129E-03         0.00000E+00
    0.12682E-01         0.44260E-03         0.00000E+00
    0.12541E-01         0.43392E-03         0.00000E+00
    0.12394E-01         0.42527E-03         0.00000E+00
    0.12241E-01         0.41663E-03         0.00000E+00
    0.12082E-01         0.40800E-03         0.00000E+00
    0.11918E-01         0.39938E-03         0.00000E+00
    0.11748E-01         0.39077E-03         0.00000E+00
    0.11574E-01         0.38217E-03         0.00000E+00
    0.11393E-01         0.37356E-03         0.00000E+00
    0.11207E-01         0.36496E-03         0.00000E+00
    0.11016E-01         0.35635E-03         0.00000E+00
    0.10820E-01         0.34774E-03         0.00000E+00
    0.10619E-01         0.33912E-03         0.00000E+00
    0.10412E-01         0.33049E-03         0.00000E+00
    0.10201E-01         0.32185E-03         0.00000E+00
    0.99839E-02         0.31319E-03         0.00000E+00
    0.97623E-02         0.30452E-03         0.00000E+00
    0.95357E-02         0.29583E-03         0.00000E+00
    0.93042E-02         0.28712E-03         0.00000E+00
    0.90679E-02         0.27839E-03         0.00000E+00
    0.88268E-02         0.26963E-03         0.00000E+00
    0.85811E-02         0.26085E-03         0.00000E+00
    0.83306E-02         0.25204E-03         0.00000E+00
    0.80755E-02         0.24320E-03         0.00000E+00
    0.78159E-02         0.23433E-03         0.00000E+00
    0.75517E-02         0.22542E-03         0.00000E+00
    0.72831E-02         0.21649E-03         0.00000E+00
    0.70101E-02         0.20751E-03         0.00000E+00
    0.67328E-02         0.19851E-03         0.00000E+00
    0.64511E-02         0.18946E-03         0.00000E+00
    0.61652E-02         0.18038E-03         0.00000E+00
    0.58751E-02         0.17125E-03         0.00000E+00
    0.55809E-02         0.16209E-03         0.00000E+00
    0.52826E-02         0.15289E-03         0.00000E+00
    0.49802E-02         0.14364E-03         0.00000E+00
    0.46739E-02         0.13436E-03         0.00000E+00
    0.43637E-02         0.12503E-03         0.00000E+00
    0.40496E-02         0.11566E-03         0.00000E+00
    0.37318E-02         0.10624E-03         0.00000E+00
    0.34101E-02         0.96789E-04         0.00000E+00
    0.30848E-02         0.87292E-04         0.00000E+00
    0.27558E-02         0.77752E-04         0.00000E+00
    0.24233E-02         0.68171E-04         0.00000E+00
    0.20872E-02         0.58549E-04         0.00000E+00
    0.17477E-02         0.48887E-04         0.00000E+00
    0.14048E-02         0.39185E-04         0.00000E+00
    0.10585E-02         0.29444E-04         0.00000E+00
    0.70886E-03         0.19665E-04         0.00000E+00
    0.35602E-03         0.98503E-05         0.00000E+00
    0.00000E+00         0.00000E+00         0.00000E+00
    0.12836E-01        -0.21309E-03         0.00000E+00
    0.12701E-01        -0.20712E-03         0.00000E+00
    0.12559E-01        -0.20116E-03         0.00000E+00
    0.12412E-01        -0.19521E-03         0.00000E+00
    0.12259E-01        -0.18928E-03         0.00000E+00
    0.12101E-01        -0.18337E-03         0.00000E+00
    0.11937E-01        -0.17749E-03         0.00000E+00
    0.11767E-01        -0.17163E-03         0.00000E+00
    0.11592E-01        -0.16582E-03         0.00000E+00
    0.11412E-01        -0.16004E-03         0.00000E+00
    0.11226E-01        -0.15430E-03         0.00000E+00
    0.11035E-01        -0.14861E-03         0.00000E+00
    0.10838E-01        -0.14298E-03         0.00000E+00
    0.10637E-01        -0.13740E-03         0.00000E+00
    0.10430E-01        -0.13187E-03         0.00000E+00
    0.10218E-01        -0.12642E-03         0.00000E+00
    0.10002E-01        -0.12102E-03         0.00000E+00
    0.97797E-02        -0.11570E-03         0.00000E+00
    0.95528E-02        -0.11046E-03         0.00000E+00
    0.93211E-02        -0.10529E-03         0.00000E+00
    0.90845E-02        -0.10021E-03         0.00000E+00
    0.88431E-02        -0.95210E-04         0.00000E+00
    0.85970E-02        -0.90300E-04         0.00000E+00
    0.83462E-02        -0.85482E-04         0.00000E+00
    0.80907E-02        -0.80760E-04         0.00000E+00
    0.78307E-02        -0.76137E-04         0.00000E+00
    0.75661E-02        -0.71616E-04         0.00000E+00
    0.72971E-02        -0.67199E-04         0.00000E+00
    0.70236E-02        -0.62890E-04         0.00000E+00
    0.67458E-02        -0.58692E-04         0.00000E+00
    0.64637E-02        -0.54607E-04         0.00000E+00
    0.61772E-02        -0.50639E-04         0.00000E+00
    0.58866E-02        -0.46788E-04         0.00000E+00
    0.55919E-02        -0.43059E-04         0.00000E+00
    0.52930E-02        -0.39452E-04         0.00000E+00
    0.49901E-02        -0.35972E-04         0.00000E+00
    0.46832E-02        -0.32618E-04         0.00000E+00
    0.43724E-02        -0.29395E-04         0.00000E+00
    0.40577E-02        -0.26302E-04         0.00000E+00
    0.37392E-02        -0.23344E-04         0.00000E+00
    0.34170E-02        -0.20520E-04         0.00000E+00
    0.30910E-02        -0.17833E-04         0.00000E+00
    0.27614E-02        -0.15283E-04         0.00000E+00
    0.24282E-02        -0.12874E-04         0.00000E+00
    0.20914E-02        -0.10605E-04         0.00000E+00
    0.17512E-02        -0.84773E-05         0.00000E+00
    0.14076E-02        -0.64929E-05         0.00000E+00
    0.10606E-02        -0.46522E-05         0.00000E+00
    0.71029E-03        -0.29561E-05         0.00000E+00
    0.35674E-03        -0.14051E-05         0.00000E+00
    0.00000E+00         0.00000E+00         0.00000E+00
    0.12890E-01        -0.87789E-03         0.00000E+00
    0.12754E-01        -0.85723E-03         0.00000E+00
    0.12612E-01        -0.83661E-03         0.00000E+00
    0.12464E-01        -0.81604E-03         0.00000E+00
    0.12311E-01        -0.79551E-03         0.00000E+00
    0.12152E-01        -0.77504E-03         0.00000E+00
    0.11988E-01        -0.75463E-03         0.00000E+00
    0.11818E-01        -0.73429E-03         0.00000E+00
    0.11642E-01        -0.71403E-03         0.00000E+00
    0.11461E-01        -0.69384E-03         0.00000E+00
    0.11275E-01        -0.67375E-03         0.00000E+00
    0.11083E-01        -0.65374E-03         0.00000E+00
    0.10886E-01        -0.63383E-03         0.00000E+00
    0.10683E-01        -0.61403E-03         0.00000E+00
    0.10476E-01        -0.59434E-03         0.00000E+00
    0.10263E-01        -0.57476E-03         0.00000E+00
    0.10045E-01        -0.55531E-03         0.00000E+00
    0.98227E-02        -0.53598E-03         0.00000E+00
    0.95950E-02        -0.51678E-03         0.00000E+00
    0.93623E-02        -0.49772E-03         0.00000E+00
    0.91248E-02        -0.47881E-03         0.00000E+00
    0.88824E-02        -0.46004E-03         0.00000E+00
    0.86352E-02        -0.44142E-03         0.00000E+00
    0.83834E-02        -0.42296E-03         0.00000E+00
    0.81268E-02        -0.40467E-03         0.00000E+00
    0.78657E-02        -0.38654E-03         0.00000E+00
    0.76000E-02        -0.36858E-03         0.00000E+00
    0.73298E-02        -0.35080E-03         0.00000E+00
    0.70551E-02        -0.33321E-03         0.00000E+00
    0.67761E-02        -0.31579E-03         0.00000E+00
    0.64927E-02        -0.29857E-03         0.00000E+00
    0.62051E-02        -0.28155E-03         0.00000E+00
    0.59132E-02        -0.26472E-03         0.00000E+00
    0.56171E-02        -0.24809E-03         0.00000E+00
    0.53169E-02        -0.23167E-03         0.00000E+00
    0.50127E-02        -0.21547E-03         0.00000E+00
    0.47044E-02        -0.19947E-03         0.00000E+00
    0.43922E-02        -0.18370E-03         0.00000E+00
    0.40761E-02        -0.16815E-03         0.00000E+00
    0.37562E-02        -0.15282E-03         0.00000E+00
    0.34325E-02        -0.13772E-03         0.00000E+00
    0.31050E-02        -0.12285E-03         0.00000E+00
    0.27739E-02        -0.10822E-03         0.00000E+00
    0.24392E-02        -0.93829E-04         0.00000E+00
    0.21009E-02        -0.79678E-04         0.00000E+00
    0.17592E-02        -0.65772E-04         0.00000E+00
    0.14140E-02        -0.52112E-04         0.00000E+00
    0.10654E-02        -0.38703E-04         0.00000E+00
    0.71351E-03        -0.25546E-04         0.00000E+00
    0.35835E-03        -0.12644E-04         0.00000E+00
    0.00000E+00         0.00000E+00         0.00000E+00
    0.12980E-01        -0.15457E-02         0.00000E+00
    0.12843E-01        -0.15103E-02         0.00000E+00
    0.12700E-01        -0.14750E-02         0.00000E+00
    0.12552E-01        -0.14397E-02         0.00000E+00
    0.12397E-01        -0.14045E-02         0.00000E+00
    0.12237E-01        -0.13694E-02         0.00000E+00
    0.12072E-01        -0.13344E-02         0.00000E+00
    0.11900E-01        -0.12995E-02         0.00000E+00
    0.11723E-01        -0.12647E-02         0.00000E+00
    0.11541E-01        -0.12300E-02         0.00000E+00
    0.11354E-01        -0.11955E-02         0.00000E+00
    0.11160E-01        -0.11611E-02         0.00000E+00
    0.10962E-01        -0.11269E-02         0.00000E+00
    0.10758E-01        -0.10928E-02         0.00000E+00
    0.10549E-01        -0.10589E-02         0.00000E+00
    0.10335E-01        -0.10251E-02         0.00000E+00
    0.10116E-01        -0.99150E-03         0.00000E+00
    0.98917E-02        -0.95809E-03         0.00000E+00
    0.96624E-02        -0.92487E-03         0.00000E+00
    0.94281E-02        -0.89186E-03         0.00000E+00
    0.91889E-02        -0.85904E-03         0.00000E+00
    0.89448E-02        -0.82643E-03         0.00000E+00
    0.86960E-02        -0.79405E-03         0.00000E+00
    0.84423E-02        -0.76188E-03         0.00000E+00
    0.81840E-02        -0.72995E-03         0.00000E+00
    0.79211E-02        -0.69825E-03         0.00000E+00
    0.76535E-02        -0.66680E-03         0.00000E+00
    0.73814E-02        -0.63560E-03         0.00000E+00
    0.71048E-02        -0.60465E-03         0.00000E+00
    0.68238E-02        -0.57396E-03         0.00000E+00
    0.65385E-02        -0.54354E-03         0.00000E+00
    0.62488E-02        -0.51340E-03         0.00000E+00
    0.59548E-02        -0.48354E-03         0.00000E+00
    0.56567E-02        -0.45396E-03         0.00000E+00
    0.53544E-02        -0.42467E-03         0.00000E+00
    0.50480E-02        -0.39568E-03         0.00000E+00
    0.47376E-02        -0.36700E-03         0.00000E+00
    0.44232E-02        -0.33862E-03         0.00000E+00
    0.41048E-02        -0.31055E-03         0.00000E+00
    0.37826E-02        -0.28280E-03         0.00000E+00
    0.34566E-02        -0.25538E-03         0.00000E+00
    0.31269E-02        -0.22828E-03         0.00000E+00
    0.27935E-02        -0.20152E-03         0.00000E+00
    0.24564E-02        -0.17510E-03         0.00000E+00
    0.21157E-02        -0.14901E-03         0.00000E+00
    0.17716E-02        -0.12328E-03         0.00000E+00
    0.14239E-02        -0.97903E-04         0.00000E+00
    0.10729E-02        -0.72880E-04         0.00000E+00
    0.71853E-03        -0.48219E-04         0.00000E+00
    0.36088E-03        -0.23925E-04         0.00000E+00
    0.00000E+00         0.00000E+00         0.00000E+00
    0.13106E-01        -0.22193E-02         0.00000E+00
    0.12968E-01        -0.21690E-02         0.00000E+00
    0.12824E-01        -0.21188E-02         0.00000E+00
    0.12673E-01        -0.20687E-02         0.00000E+00
    0.12517E-01        -0.20187E-02         0.00000E+00
    0.12356E-01        -0.19688E-02         0.00000E+00
    0.12188E-01        -0.19191E-02         0.00000E+00
    0.12015E-01        -0.18695E-02         0.00000E+00
    0.11837E-01        -0.18201E-02         0.00000E+00
    0.11653E-01        -0.17708E-02         0.00000E+00
    0.11463E-01        -0.17218E-02         0.00000E+00
    0.11268E-01        -0.16729E-02         0.00000E+00
    0.11068E-01        -0.16241E-02         0.00000E+00
    0.10862E-01        -0.15756E-02         0.00000E+00
    0.10651E-01        -0.15273E-02         0.00000E+00
    0.10435E-01        -0.14793E-02         0.00000E+00
    0.10213E-01        -0.14314E-02         0.00000E+00
    0.99869E-02        -0.13838E-02         0.00000E+00
    0.97553E-02        -0.13365E-02         0.00000E+00
    0.95187E-02        -0.12894E-02         0.00000E+00
    0.92772E-02        -0.12425E-02         0.00000E+00
    0.90307E-02        -0.11960E-02         0.00000E+00
    0.87794E-02        -0.11497E-02         0.00000E+00
    0.85233E-02        -0.11037E-02         0.00000E+00
    0.82625E-02        -0.10580E-02         0.00000E+00
    0.79970E-02        -0.10127E-02         0.00000E+00
    0.77268E-02        -0.96759E-03         0.00000E+00
    0.74521E-02        -0.92285E-03         0.00000E+00
    0.71728E-02        -0.87844E-03         0.00000E+00
    0.68891E-02        -0.83436E-03         0.00000E+00
    0.66010E-02        -0.79064E-03         0.00000E+00
    0.63085E-02        -0.74726E-03         0.00000E+00
    0.60117E-02        -0.70425E-03         0.00000E+00
    0.57107E-02        -0.66161E-03         0.00000E+00
    0.54055E-02        -0.61935E-03         0.00000E+00
    0.50962E-02        -0.57746E-03         0.00000E+00
    0.47828E-02        -0.53597E-03         0.00000E+00
    0.44654E-02        -0.49488E-03         0.00000E+00
    0.41440E-02        -0.45419E-03         0.00000E+00
    0.38187E-02        -0.41392E-03         0.00000E+00
    0.34896E-02        -0.37406E-03         0.00000E+00
    0.31567E-02        -0.33463E-03         0.00000E+00
    0.28201E-02        -0.29563E-03         0.00000E+00
    0.24798E-02        -0.25707E-03         0.00000E+00
    0.21359E-02        -0.21896E-03         0.00000E+00
    0.17885E-02        -0.18130E-03         0.00000E+00
    0.14375E-02        -0.14409E-03         0.00000E+00
    0.10831E-02        -0.10736E-03         0.00000E+00
    0.72539E-03        -0.71092E-04         0.00000E+00
    0.36432E-03        -0.35304E-04         0.00000E+00
    0.00000E+00         0.00000E+00         0.00000E+00
    0.13269E-01        -0.29013E-02         0.00000E+00
    0.13129E-01        -0.28359E-02         0.00000E+00
    0.12983E-01        -0.27707E-02         0.00000E+00
    0.12830E-01        -0.27056E-02         0.00000E+00
    0.12672E-01        -0.26406E-02         0.00000E+00
    0.12508E-01        -0.25758E-02         0.00000E+00
    0.12339E-01        -0.25112E-02         0.00000E+00
    0.12163E-01        -0.24467E-02         0.00000E+00
    0.11982E-01        -0.23825E-02         0.00000E+00
    0.11796E-01        -0.23185E-02         0.00000E+00
    0.11604E-01        -0.22546E-02         0.00000E+00
    0.11406E-01        -0.21911E-02         0.00000E+00
    0.11203E-01        -0.21277E-02         0.00000E+00
    0.10995E-01        -0.20646E-02         0.00000E+00
    0.10781E-01        -0.20018E-02         0.00000E+00
    0.10562E-01        -0.19393E-02         0.00000E+00
    0.10338E-01        -0.18770E-02         0.00000E+00
    0.10108E-01        -0.18150E-02         0.00000E+00
    0.98738E-02        -0.17534E-02         0.00000E+00
    0.96342E-02        -0.16920E-02         0.00000E+00
    0.93897E-02        -0.16310E-02         0.00000E+00
    0.91401E-02        -0.15703E-02         0.00000E+00
    0.88857E-02        -0.15100E-02         0.00000E+00
    0.86264E-02        -0.14500E-02         0.00000E+00
    0.83623E-02        -0.13904E-02         0.00000E+00
    0.80935E-02        -0.13311E-02         0.00000E+00
    0.78200E-02        -0.12723E-02         0.00000E+00
    0.75419E-02        -0.12139E-02         0.00000E+00
    0.72593E-02        -0.11558E-02         0.00000E+00
    0.69721E-02        -0.10982E-02         0.00000E+00
    0.66804E-02        -0.10410E-02         0.00000E+00
    0.63844E-02        -0.98421E-03         0.00000E+00
    0.60840E-02        -0.92789E-03         0.00000E+00
    0.57794E-02        -0.87201E-03         0.00000E+00
    0.54705E-02        -0.81660E-03         0.00000E+00
    0.51574E-02        -0.76166E-03         0.00000E+00
    0.48402E-02        -0.70721E-03         0.00000E+00
    0.45190E-02        -0.65323E-03         0.00000E+00
    0.41937E-02        -0.59976E-03         0.00000E+00
    0.38645E-02        -0.54679E-03         0.00000E+00
    0.35315E-02        -0.49434E-03         0.00000E+00
    0.31946E-02        -0.44241E-03         0.00000E+00
    0.28539E-02        -0.39102E-03         0.00000E+00
    0.25095E-02        -0.34016E-03         0.00000E+00
    0.21615E-02        -0.28985E-03         0.00000E+00
    0.18099E-02        -0.24010E-03         0.00000E+00
    0.14547E-02        -0.19092E-03         0.00000E+00
    0.10961E-02        -0.14231E-03         0.00000E+00
    0.73407E-03        -0.94280E-04         0.00000E+00
    0.36868E-03        -0.46841E-04         0.00000E+00
    0.00000E+00         0.00000E+00         0.00000E+00
    0.13469E-01        -0.35943E-02         0.00000E+00
    0.13326E-01        -0.35137E-02         0.00000E+00
    0.13177E-01        -0.34332E-02         0.00000E+00
    0.13023E-01        -0.33528E-02         0.00000E+00
    0.12862E-01        -0.32727E-02         0.00000E+00
    0.12695E-01        -0.31927E-02         0.00000E+00
    0.12522E-01        -0.31130E-02         0.00000E+00
    0.12344E-01        -0.30335E-02         0.00000E+00
    0.12160E-01        -0.29542E-02         0.00000E+00
    0.11971E-01        -0.28752E-02         0.00000E+00
    0.11775E-01        -0.27964E-02         0.00000E+00
    0.11575E-01        -0.27179E-02         0.00000E+00
    0.11368E-01        -0.26397E-02         0.00000E+00
    0.11157E-01        -0.25618E-02         0.00000E+00
    0.10939E-01        -0.24842E-02         0.00000E+00
    0.10717E-01        -0.24070E-02         0.00000E+00
    0.10489E-01        -0.23300E-02         0.00000E+00
    0.10256E-01        -0.22535E-02         0.00000E+00
    0.10018E-01        -0.21773E-02         0.00000E+00
    0.97749E-02        -0.21015E-02         0.00000E+00
    0.95266E-02        -0.20260E-02         0.00000E+00
    0.92732E-02        -0.19510E-02         0.00000E+00
    0.90149E-02        -0.18764E-02         0.00000E+00
    0.87518E-02        -0.18022E-02         0.00000E+00
    0.84837E-02        -0.17284E-02         0.00000E+00
    0.82109E-02        -0.16551E-02         0.00000E+00
    0.79333E-02        -0.15823E-02         0.00000E+00
    0.76511E-02        -0.15099E-02         0.00000E+00
    0.73643E-02        -0.14380E-02         0.00000E+00
    0.70728E-02        -0.13666E-02         0.00000E+00
    0.67769E-02        -0.12957E-02         0.00000E+00
    0.64765E-02        -0.12253E-02         0.00000E+00
    0.61717E-02        -0.11555E-02         0.00000E+00
    0.58626E-02        -0.10861E-02         0.00000E+00
    0.55492E-02        -0.10174E-02         0.00000E+00
    0.52316E-02        -0.94915E-03         0.00000E+00
    0.49098E-02        -0.88150E-03         0.00000E+00
    0.45839E-02        -0.81443E-03         0.00000E+00
    0.42540E-02        -0.74796E-03         0.00000E+00
    0.39201E-02        -0.68208E-03         0.00000E+00
    0.35822E-02        -0.61681E-03         0.00000E+00
    0.32404E-02        -0.55216E-03         0.00000E+00
    0.28949E-02        -0.48815E-03         0.00000E+00
    0.25455E-02        -0.42478E-03         0.00000E+00
    0.21925E-02        -0.36206E-03         0.00000E+00
    0.18359E-02        -0.30000E-03         0.00000E+00
    0.14756E-02        -0.23861E-03         0.00000E+00
    0.11118E-02        -0.17791E-03         0.00000E+00
    0.74461E-03        -0.11790E-03         0.00000E+00
    0.37397E-03        -0.58594E-04         0.00000E+00
    0.00000E+00         0.00000E+00         0.00000E+00
    0.13707E-01        -0.43013E-02         0.00000E+00
    0.13561E-01        -0.42050E-02         0.00000E+00
    0.13408E-01        -0.41090E-02         0.00000E+00
    0.13250E-01        -0.40132E-02         0.00000E+00
    0.13086E-01        -0.39175E-02         0.00000E+00
    0.12916E-01        -0.38221E-02         0.00000E+00
    0.12740E-01        -0.37270E-02         0.00000E+00
    0.12558E-01        -0.36321E-02         0.00000E+00
    0.12371E-01        -0.35375E-02         0.00000E+00
    0.12177E-01        -0.34432E-02         0.00000E+00
    0.11978E-01        -0.33492E-02         0.00000E+00
    0.11774E-01        -0.32555E-02         0.00000E+00
    0.11563E-01        -0.31622E-02         0.00000E+00
    0.11348E-01        -0.30692E-02         0.00000E+00
    0.11127E-01        -0.29766E-02         0.00000E+00
    0.10900E-01        -0.28844E-02         0.00000E+00
    0.10668E-01        -0.27925E-02         0.00000E+00
    0.10431E-01        -0.27011E-02         0.00000E+00
    0.10188E-01        -0.26101E-02         0.00000E+00
    0.99408E-02        -0.25195E-02         0.00000E+00
    0.96880E-02        -0.24294E-02         0.00000E+00
    0.94301E-02        -0.23397E-02         0.00000E+00
    0.91673E-02        -0.22506E-02         0.00000E+00
    0.88994E-02        -0.21619E-02         0.00000E+00
    0.86267E-02        -0.20737E-02         0.00000E+00
    0.83491E-02        -0.19861E-02         0.00000E+00
    0.80668E-02        -0.18989E-02         0.00000E+00
    0.77796E-02        -0.18124E-02         0.00000E+00
    0.74878E-02        -0.17263E-02         0.00000E+00
    0.71914E-02        -0.16409E-02         0.00000E+00
    0.68904E-02        -0.15560E-02         0.00000E+00
    0.65849E-02        -0.14717E-02         0.00000E+00
    0.62750E-02        -0.13880E-02         0.00000E+00
    0.59606E-02        -0.13050E-02         0.00000E+00
    0.56419E-02        -0.12226E-02         0.00000E+00
    0.53189E-02        -0.11408E-02         0.00000E+00
    0.49917E-02        -0.10597E-02         0.00000E+00
    0.46604E-02        -0.97925E-03         0.00000E+00
    0.43249E-02        -0.89949E-03         0.00000E+00
    0.39854E-02        -0.82042E-03         0.00000E+00
    0.36418E-02        -0.74206E-03         0.00000E+00
    0.32944E-02        -0.66442E-03         0.00000E+00
    0.29430E-02        -0.58751E-03         0.00000E+00
    0.25879E-02        -0.51134E-03         0.00000E+00
    0.22290E-02        -0.43593E-03         0.00000E+00
    0.18664E-02        -0.36128E-03         0.00000E+00
    0.15001E-02        -0.28742E-03         0.00000E+00
    0.11303E-02        -0.21435E-03         0.00000E+00
    0.75699E-03        -0.14208E-03         0.00000E+00
    0.38019E-03        -0.70626E-04         0.00000E+00
    0.00000E+00         0.00000E+00         0.00000E+00
    0.13981E-01        -0.50249E-02         0.00000E+00
    0.13832E-01        -0.49128E-02         0.00000E+00
    0.13676E-01        -0.48009E-02         0.00000E+00
    0.13514E-01        -0.46892E-02         0.00000E+00
    0.13346E-01        -0.45777E-02         0.00000E+00
    0.13172E-01        -0.44666E-02         0.00000E+00
    0.12991E-01        -0.43557E-02         0.00000E+00
    0.12805E-01        -0.42451E-02         0.00000E+00
    0.12614E-01        -0.41349E-02         0.00000E+00
    0.12416E-01        -0.40250E-02         0.00000E+00
    0.12213E-01        -0.39154E-02         0.00000E+00
    0.12003E-01        -0.38062E-02         0.00000E+00
    0.11789E-01        -0.36974E-02         0.00000E+00
    0.11568E-01        -0.35890E-02         0.00000E+00
    0.11342E-01        -0.34810E-02         0.00000E+00
    0.11111E-01        -0.33735E-02         0.00000E+00
    0.10874E-01        -0.32664E-02         0.00000E+00
    0.10632E-01        -0.31598E-02         0.00000E+00
    0.10385E-01        -0.30536E-02         0.00000E+00
    0.10132E-01        -0.29480E-02         0.00000E+00
    0.98739E-02        -0.28428E-02         0.00000E+00
    0.96109E-02        -0.27382E-02         0.00000E+00
    0.93427E-02        -0.26342E-02         0.00000E+00
    0.90695E-02        -0.25307E-02         0.00000E+00
    0.87914E-02        -0.24278E-02         0.00000E+00
    0.85083E-02        -0.23254E-02         0.00000E+00
    0.82203E-02        -0.22237E-02         0.00000E+00
    0.79276E-02        -0.21226E-02         0.00000E+00
    0.76301E-02        -0.20221E-02         0.00000E+00
    0.73279E-02        -0.19222E-02         0.00000E+00
    0.70210E-02        -0.18230E-02         0.00000E+00
    0.67096E-02        -0.17245E-02         0.00000E+00
    0.63937E-02        -0.16267E-02         0.00000E+00
    0.60733E-02        -0.15296E-02         0.00000E+00
    0.57485E-02        -0.14332E-02         0.00000E+00
    0.54193E-02        -0.13375E-02         0.00000E+00
    0.50859E-02        -0.12426E-02         0.00000E+00
    0.47482E-02        -0.11485E-02         0.00000E+00
    0.44064E-02        -0.10551E-02         0.00000E+00
    0.40604E-02        -0.96249E-03         0.00000E+00
    0.37104E-02        -0.87070E-03         0.00000E+00
    0.33564E-02        -0.77972E-03         0.00000E+00
    0.29984E-02        -0.68958E-03         0.00000E+00
    0.26366E-02        -0.60028E-03         0.00000E+00
    0.22709E-02        -0.51184E-03         0.00000E+00
    0.19015E-02        -0.42427E-03         0.00000E+00
    0.15284E-02        -0.33758E-03         0.00000E+00
    0.11516E-02        -0.25180E-03         0.00000E+00
    0.77123E-03        -0.16694E-03         0.00000E+00
    0.38735E-03        -0.82996E-04         0.00000E+00
    0.00000E+00         0.00000E+00         0.00000E+00
    0.14294E-01        -0.57681E-02         0.00000E+00
    0.14140E-01        -0.56397E-02         0.00000E+00
    0.13980E-01        -0.55115E-02         0.00000E+00
    0.13813E-01        -0.53836E-02         0.00000E+00
    0.13641E-01        -0.52560E-02         0.00000E+00
    0.13462E-01        -0.51287E-02         0.00000E+00
    0.13277E-01        -0.50017E-02         0.00000E+00
    0.13086E-01        -0.48750E-02         0.00000E+00
    0.12889E-01        -0.47487E-02         0.00000E+00
    0.12687E-01        -0.46228E-02         0.00000E+00
    0.12478E-01        -0.44973E-02         0.00000E+00
    0.12264E-01        -0.43722E-02         0.00000E+00
    0.12044E-01        -0.42476E-02         0.00000E+00
    0.11818E-01        -0.41234E-02         0.00000E+00
    0.11587E-01        -0.39997E-02         0.00000E+00
    0.11350E-01        -0.38764E-02         0.00000E+00
    0.11108E-01        -0.37537E-02         0.00000E+00
    0.10860E-01        -0.36315E-02         0.00000E+00
    0.10607E-01        -0.35098E-02         0.00000E+00
    0.10348E-01        -0.33887E-02         0.00000E+00
    0.10084E-01        -0.32682E-02         0.00000E+00
    0.98155E-02        -0.31482E-02         0.00000E+00
    0.95413E-02        -0.30289E-02         0.00000E+00
    0.92620E-02        -0.29102E-02         0.00000E+00
    0.89777E-02        -0.27921E-02         0.00000E+00
    0.86883E-02        -0.26747E-02         0.00000E+00
    0.83940E-02        -0.25580E-02         0.00000E+00
    0.80949E-02        -0.24419E-02         0.00000E+00
    0.77909E-02        -0.23266E-02         0.00000E+00
    0.74822E-02        -0.22119E-02         0.00000E+00
    0.71687E-02        -0.20981E-02         0.00000E+00
    0.68506E-02        -0.19849E-02         0.00000E+00
    0.65279E-02        -0.18726E-02         0.00000E+00
    0.62007E-02        -0.17610E-02         0.00000E+00
    0.58690E-02        -0.16502E-02         0.00000E+00
    0.55328E-02        -0.15403E-02         0.00000E+00
    0.51923E-02        -0.14312E-02         0.00000E+00
    0.48475E-02        -0.13229E-02         0.00000E+00
    0.44985E-02        -0.12155E-02         0.00000E+00
    0.41453E-02        -0.11090E-02         0.00000E+00
    0.37879E-02        -0.10034E-02         0.00000E+00
    0.34265E-02        -0.89865E-03         0.00000E+00
    0.30610E-02        -0.79487E-03         0.00000E+00
    0.26916E-02        -0.69204E-03         0.00000E+00
    0.23183E-02        -0.59016E-03         0.00000E+00
    0.19412E-02        -0.48927E-03         0.00000E+00
    0.15602E-02        -0.38936E-03         0.00000E+00
    0.11756E-02        -0.29047E-03         0.00000E+00
    0.78731E-03        -0.19260E-03         0.00000E+00
    0.39543E-03        -0.95772E-04         0.00000E+00
    0.00000E+00         0.00000E+00         0.00000E+00
    0.14644E-01        -0.65339E-02         0.00000E+00
    0.14485E-01        -0.63887E-02         0.00000E+00
    0.14320E-01        -0.62439E-02         0.00000E+00
    0.14149E-01        -0.60993E-02         0.00000E+00
    0.13971E-01        -0.59550E-02         0.00000E+00
    0.13787E-01        -0.58111E-02         0.00000E+00
    0.13597E-01        -0.56675E-02         0.00000E+00
    0.13400E-01        -0.55244E-02         0.00000E+00
    0.13198E-01        -0.53816E-02         0.00000E+00
    0.12990E-01        -0.52393E-02         0.00000E+00
    0.12775E-01        -0.50974E-02         0.00000E+00
    0.12555E-01        -0.49560E-02         0.00000E+00
    0.12329E-01        -0.48150E-02         0.00000E+00
    0.12098E-01        -0.46746E-02         0.00000E+00
    0.11860E-01        -0.45347E-02         0.00000E+00
    0.11617E-01        -0.43953E-02         0.00000E+00
    0.11369E-01        -0.42565E-02         0.00000E+00
    0.11115E-01        -0.41182E-02         0.00000E+00
    0.10855E-01        -0.39806E-02         0.00000E+00
    0.10590E-01        -0.38436E-02         0.00000E+00
    0.10320E-01        -0.37072E-02         0.00000E+00
    0.10044E-01        -0.35715E-02         0.00000E+00
    0.97629E-02        -0.34364E-02         0.00000E+00
    0.94768E-02        -0.33021E-02         0.00000E+00
    0.91856E-02        -0.31684E-02         0.00000E+00
    0.88892E-02        -0.30355E-02         0.00000E+00
    0.85879E-02        -0.29033E-02         0.00000E+00
    0.82815E-02        -0.27719E-02         0.00000E+00
    0.79703E-02        -0.26412E-02         0.00000E+00
    0.76543E-02        -0.25114E-02         0.00000E+00
    0.73334E-02        -0.23823E-02         0.00000E+00
    0.70078E-02        -0.22541E-02         0.00000E+00
    0.66776E-02        -0.21268E-02         0.00000E+00
    0.63427E-02        -0.20003E-02         0.00000E+00
    0.60033E-02        -0.18747E-02         0.00000E+00
    0.56594E-02        -0.17500E-02         0.00000E+00
    0.53110E-02        -0.16262E-02         0.00000E+00
    0.49582E-02        -0.15034E-02         0.00000E+00
    0.46012E-02        -0.13815E-02         0.00000E+00
    0.42398E-02        -0.12606E-02         0.00000E+00
    0.38743E-02        -0.11407E-02         0.00000E+00
    0.35046E-02        -0.10218E-02         0.00000E+00
    0.31307E-02        -0.90391E-03         0.00000E+00
    0.27529E-02        -0.78708E-03         0.00000E+00
    0.23711E-02        -0.67131E-03         0.00000E+00
    0.19854E-02        -0.55662E-03         0.00000E+00
    0.15958E-02        -0.44302E-03         0.00000E+00
    0.12024E-02        -0.33055E-03         0.00000E+00
    0.80524E-03        -0.21921E-03         0.00000E+00
    0.40443E-03        -0.10902E-03         0.00000E+00
    0.00000E+00         0.00000E+00         0.00000E+00
    0.15032E-01        -0.73253E-02         0.00000E+00
    0.14868E-01        -0.71629E-02         0.00000E+00
    0.14697E-01        -0.70008E-02         0.00000E+00
    0.14520E-01        -0.68391E-02         0.00000E+00
    0.14336E-01        -0.66777E-02         0.00000E+00
    0.14147E-01        -0.65167E-02         0.00000E+00
    0.13950E-01        -0.63560E-02         0.00000E+00
    0.13748E-01        -0.61959E-02         0.00000E+00
    0.13539E-01        -0.60361E-02         0.00000E+00
    0.13325E-01        -0.58769E-02         0.00000E+00
    0.13104E-01        -0.57181E-02         0.00000E+00
    0.12878E-01        -0.55598E-02         0.00000E+00
    0.12645E-01        -0.54021E-02         0.00000E+00
    0.12407E-01        -0.52449E-02         0.00000E+00
    0.12163E-01        -0.50883E-02         0.00000E+00
    0.11913E-01        -0.49323E-02         0.00000E+00
    0.11657E-01        -0.47769E-02         0.00000E+00
    0.11396E-01        -0.46222E-02         0.00000E+00
    0.11129E-01        -0.44681E-02         0.00000E+00
    0.10857E-01        -0.43147E-02         0.00000E+00
    0.10579E-01        -0.41619E-02         0.00000E+00
    0.10296E-01        -0.40099E-02         0.00000E+00
    0.10008E-01        -0.38586E-02         0.00000E+00
    0.97139E-02        -0.37081E-02         0.00000E+00
    0.94150E-02        -0.35584E-02         0.00000E+00
    0.91109E-02        -0.34094E-02         0.00000E+00
    0.88017E-02        -0.32613E-02         0.00000E+00
    0.84874E-02        -0.31139E-02         0.00000E+00
    0.81682E-02        -0.29675E-02         0.00000E+00
    0.78441E-02        -0.28219E-02         0.00000E+00
    0.75151E-02        -0.26772E-02         0.00000E+00
    0.71812E-02        -0.25334E-02         0.00000E+00
    0.68426E-02        -0.23905E-02         0.00000E+00
    0.64993E-02        -0.22486E-02         0.00000E+00
    0.61514E-02        -0.21077E-02         0.00000E+00
    0.57989E-02        -0.19677E-02         0.00000E+00
    0.54418E-02        -0.18288E-02         0.00000E+00
    0.50803E-02        -0.16908E-02         0.00000E+00
    0.47143E-02        -0.15539E-02         0.00000E+00
    0.43440E-02        -0.14181E-02         0.00000E+00
    0.39695E-02        -0.12834E-02         0.00000E+00
    0.35906E-02        -0.11498E-02         0.00000E+00
    0.32076E-02        -0.10172E-02         0.00000E+00
    0.28205E-02        -0.88588E-03         0.00000E+00
    0.24293E-02        -0.75568E-03         0.00000E+00
    0.20341E-02        -0.62666E-03         0.00000E+00
    0.16349E-02        -0.49884E-03         0.00000E+00
    0.12319E-02        -0.37224E-03         0.00000E+00
    0.82501E-03        -0.24689E-03         0.00000E+00
    0.41436E-03        -0.12280E-03         0.00000E+00
    0.00000E+00         0.00000E+00         0.00000E+00
    0.15459E-01        -0.81455E-02         0.00000E+00
    0.15288E-01        -0.79653E-02         0.00000E+00
    0.15111E-01        -0.77854E-02         0.00000E+00
    0.14928E-01        -0.76060E-02         0.00000E+00
    0.14738E-01        -0.74269E-02         0.00000E+00
    0.14541E-01        -0.72482E-02         0.00000E+00
    0.14338E-01        -0.70700E-02         0.00000E+00
    0.14129E-01        -0.68923E-02         0.00000E+00
    0.13914E-01        -0.67150E-02         0.00000E+00
    0.13692E-01        -0.65382E-02         0.00000E+00
    0.13464E-01        -0.63620E-02         0.00000E+00
    0.13230E-01        -0.61864E-02         0.00000E+00
    0.12991E-01        -0.60113E-02         0.00000E+00
    0.12745E-01        -0.58368E-02         0.00000E+00
    0.12493E-01        -0.56630E-02         0.00000E+00
    0.12236E-01        -0.54898E-02         0.00000E+00
    0.11972E-01        -0.53173E-02         0.00000E+00
    0.11704E-01        -0.51454E-02         0.00000E+00
    0.11429E-01        -0.49743E-02         0.00000E+00
    0.11149E-01        -0.48039E-02         0.00000E+00
    0.10863E-01        -0.46343E-02         0.00000E+00
    0.10572E-01        -0.44654E-02         0.00000E+00
    0.10275E-01        -0.42974E-02         0.00000E+00
    0.99730E-02        -0.41301E-02         0.00000E+00
    0.96657E-02        -0.39637E-02         0.00000E+00
    0.93531E-02        -0.37981E-02         0.00000E+00
    0.90353E-02        -0.36335E-02         0.00000E+00
    0.87124E-02        -0.34697E-02         0.00000E+00
    0.83844E-02        -0.33068E-02         0.00000E+00
    0.80514E-02        -0.31449E-02         0.00000E+00
    0.77135E-02        -0.29840E-02         0.00000E+00
    0.73706E-02        -0.28240E-02         0.00000E+00
    0.70229E-02        -0.26651E-02         0.00000E+00
    0.66703E-02        -0.25072E-02         0.00000E+00
    0.63131E-02        -0.23503E-02         0.00000E+00
    0.59512E-02        -0.21945E-02         0.00000E+00
    0.55846E-02        -0.20397E-02         0.00000E+00
    0.52135E-02        -0.18861E-02         0.00000E+00
    0.48379E-02        -0.17336E-02         0.00000E+00
    0.44578E-02        -0.15823E-02         0.00000E+00
    0.40734E-02        -0.14322E-02         0.00000E+00
    0.36846E-02        -0.12832E-02         0.00000E+00
    0.32915E-02        -0.11355E-02         0.00000E+00
    0.28943E-02        -0.98895E-03         0.00000E+00
    0.24928E-02        -0.84371E-03         0.00000E+00
    0.20873E-02        -0.69975E-03         0.00000E+00
    0.16777E-02        -0.55710E-03         0.00000E+00
    0.12641E-02        -0.41578E-03         0.00000E+00
    0.84658E-03        -0.27581E-03         0.00000E+00
    0.42520E-03        -0.13721E-03         0.00000E+00
    0.00000E+00         0.00000E+00         0.00000E+00
    0.15923E-01        -0.89977E-02         0.00000E+00
    0.15746E-01        -0.87991E-02         0.00000E+00
    0.15562E-01        -0.86009E-02         0.00000E+00
    0.15371E-01        -0.84031E-02         0.00000E+00
    0.15174E-01        -0.82057E-02         0.00000E+00
    0.14970E-01        -0.80088E-02         0.00000E+00
    0.14760E-01        -0.78123E-02         0.00000E+00
    0.14543E-01        -0.76164E-02         0.00000E+00
    0.14320E-01        -0.74210E-02         0.00000E+00
    0.14091E-01        -0.72262E-02         0.00000E+00
    0.13855E-01        -0.70319E-02         0.00000E+00
    0.13614E-01        -0.68382E-02         0.00000E+00
    0.13366E-01        -0.66452E-02         0.00000E+00
    0.13112E-01        -0.64528E-02         0.00000E+00
    0.12852E-01        -0.62611E-02         0.00000E+00
    0.12586E-01        -0.60701E-02         0.00000E+00
    0.12315E-01        -0.58798E-02         0.00000E+00
    0.12037E-01        -0.56903E-02         0.00000E+00
    0.11754E-01        -0.55015E-02         0.00000E+00
    0.11465E-01        -0.53136E-02         0.00000E+00
    0.11171E-01        -0.51264E-02         0.00000E+00
    0.10871E-01        -0.49400E-02         0.00000E+00
    0.10565E-01        -0.47546E-02         0.00000E+00
    0.10254E-01        -0.45700E-02         0.00000E+00
    0.99375E-02        -0.43862E-02         0.00000E+00
    0.96156E-02        -0.42035E-02         0.00000E+00
    0.92885E-02        -0.40216E-02         0.00000E+00
    0.89562E-02        -0.38408E-02         0.00000E+00
    0.86187E-02        -0.36609E-02         0.00000E+00
    0.82761E-02        -0.34820E-02         0.00000E+00
    0.79284E-02        -0.33042E-02         0.00000E+00
    0.75757E-02        -0.31274E-02         0.00000E+00
    0.72181E-02        -0.29517E-02         0.00000E+00
    0.68556E-02        -0.27771E-02         0.00000E+00
    0.64883E-02        -0.26036E-02         0.00000E+00
    0.61161E-02        -0.24313E-02         0.00000E+00
    0.57393E-02        -0.22602E-02         0.00000E+00
    0.53578E-02        -0.20902E-02         0.00000E+00
    0.49717E-02        -0.19215E-02         0.00000E+00
    0.45811E-02        -0.17540E-02         0.00000E+00
    0.41859E-02        -0.15877E-02         0.00000E+00
    0.37864E-02        -0.14228E-02         0.00000E+00
    0.33824E-02        -0.12591E-02         0.00000E+00
    0.29741E-02        -0.10968E-02         0.00000E+00
    0.25616E-02        -0.93585E-03         0.00000E+00
    0.21449E-02        -0.77628E-03         0.00000E+00
    0.17240E-02        -0.61811E-03         0.00000E+00
    0.12990E-02        -0.46138E-03         0.00000E+00
    0.86994E-03        -0.30610E-03         0.00000E+00
    0.43693E-03        -0.15230E-03         0.00000E+00
    0.00000E+00         0.00000E+00         0.00000E+00
    0.16425E-01        -0.98855E-02         0.00000E+00
    0.16240E-01        -0.96678E-02         0.00000E+00
    0.16049E-01        -0.94505E-02         0.00000E+00
    0.15850E-01        -0.92336E-02         0.00000E+00
    0.15645E-01        -0.90173E-02         0.00000E+00
    0.15434E-01        -0.88014E-02         0.00000E+00
    0.15215E-01        -0.85861E-02         0.00000E+00
    0.14990E-01        -0.83713E-02         0.00000E+00
    0.14759E-01        -0.81571E-02         0.00000E+00
    0.14521E-01        -0.79435E-02         0.00000E+00
    0.14277E-01        -0.77305E-02         0.00000E+00
    0.14027E-01        -0.75181E-02         0.00000E+00
    0.13771E-01        -0.73065E-02         0.00000E+00
    0.13508E-01        -0.70955E-02         0.00000E+00
    0.13239E-01        -0.68853E-02         0.00000E+00
    0.12964E-01        -0.66758E-02         0.00000E+00
    0.12684E-01        -0.64671E-02         0.00000E+00
    0.12397E-01        -0.62591E-02         0.00000E+00
    0.12105E-01        -0.60520E-02         0.00000E+00
    0.11806E-01        -0.58458E-02         0.00000E+00
    0.11502E-01        -0.56404E-02         0.00000E+00
    0.11193E-01        -0.54359E-02         0.00000E+00
    0.10877E-01        -0.52323E-02         0.00000E+00
    0.10556E-01        -0.50296E-02         0.00000E+00
    0.10230E-01        -0.48279E-02         0.00000E+00
    0.98982E-02        -0.46272E-02         0.00000E+00
    0.95610E-02        -0.44275E-02         0.00000E+00
    0.92185E-02        -0.42288E-02         0.00000E+00
    0.88707E-02        -0.40312E-02         0.00000E+00
    0.85177E-02        -0.38347E-02         0.00000E+00
    0.81596E-02        -0.36392E-02         0.00000E+00
    0.77964E-02        -0.34449E-02         0.00000E+00
    0.74281E-02        -0.32518E-02         0.00000E+00
    0.70548E-02        -0.30598E-02         0.00000E+00
    0.66766E-02        -0.28690E-02         0.00000E+00
    0.62935E-02        -0.26795E-02         0.00000E+00
    0.59056E-02        -0.24911E-02         0.00000E+00
    0.55130E-02        -0.23041E-02         0.00000E+00
    0.51156E-02        -0.21184E-02         0.00000E+00
    0.47136E-02        -0.19339E-02         0.00000E+00
    0.43069E-02        -0.17509E-02         0.00000E+00
    0.38958E-02        -0.15692E-02         0.00000E+00
    0.34801E-02        -0.13889E-02         0.00000E+00
    0.30600E-02        -0.12100E-02         0.00000E+00
    0.26356E-02        -0.10326E-02         0.00000E+00
    0.22068E-02        -0.85663E-03         0.00000E+00
    0.17737E-02        -0.68219E-03         0.00000E+00
    0.13365E-02        -0.50928E-03         0.00000E+00
    0.89506E-03        -0.33793E-03         0.00000E+00
    0.44955E-03        -0.16816E-03         0.00000E+00
    0.00000E+00         0.00000E+00         0.00000E+00
    0.16965E-01        -0.10812E-01         0.00000E+00
    0.16772E-01        -0.10575E-01         0.00000E+00
    0.16572E-01        -0.10338E-01         0.00000E+00
    0.16365E-01        -0.10101E-01         0.00000E+00
    0.16151E-01        -0.98649E-02         0.00000E+00
    0.15931E-01        -0.96294E-02         0.00000E+00
    0.15704E-01        -0.93944E-02         0.00000E+00
    0.15470E-01        -0.91600E-02         0.00000E+00
    0.15230E-01        -0.89262E-02         0.00000E+00
    0.14983E-01        -0.86931E-02         0.00000E+00
    0.14730E-01        -0.84607E-02         0.00000E+00
    0.14470E-01        -0.82289E-02         0.00000E+00
    0.14204E-01        -0.79979E-02         0.00000E+00
    0.13932E-01        -0.77676E-02         0.00000E+00
    0.13654E-01        -0.75380E-02         0.00000E+00
    0.13369E-01        -0.73093E-02         0.00000E+00
    0.13079E-01        -0.70814E-02         0.00000E+00
    0.12782E-01        -0.68544E-02         0.00000E+00
    0.12480E-01        -0.66282E-02         0.00000E+00
    0.12171E-01        -0.64029E-02         0.00000E+00
    0.11857E-01        -0.61785E-02         0.00000E+00
    0.11537E-01        -0.59551E-02         0.00000E+00
    0.11211E-01        -0.57326E-02         0.00000E+00
    0.10880E-01        -0.55111E-02         0.00000E+00
    0.10543E-01        -0.52907E-02         0.00000E+00
    0.10200E-01        -0.50713E-02         0.00000E+00
    0.98523E-02        -0.48529E-02         0.00000E+00
    0.94989E-02        -0.46357E-02         0.00000E+00
    0.91401E-02        -0.44196E-02         0.00000E+00
    0.87760E-02        -0.42046E-02         0.00000E+00
    0.84067E-02        -0.39908E-02         0.00000E+00
    0.80321E-02        -0.37781E-02         0.00000E+00
    0.76524E-02        -0.35667E-02         0.00000E+00
    0.72676E-02        -0.33566E-02         0.00000E+00
    0.68778E-02        -0.31477E-02         0.00000E+00
    0.64830E-02        -0.29401E-02         0.00000E+00
    0.60833E-02        -0.27338E-02         0.00000E+00
    0.56787E-02        -0.25288E-02         0.00000E+00
    0.52692E-02        -0.23253E-02         0.00000E+00
    0.48551E-02        -0.21231E-02         0.00000E+00
    0.44362E-02        -0.19224E-02         0.00000E+00
    0.40126E-02        -0.17232E-02         0.00000E+00
    0.35845E-02        -0.15254E-02         0.00000E+00
    0.31517E-02        -0.13291E-02         0.00000E+00
    0.27145E-02        -0.11344E-02         0.00000E+00
    0.22729E-02        -0.94123E-03         0.00000E+00
    0.18269E-02        -0.74967E-03         0.00000E+00
    0.13765E-02        -0.55974E-03         0.00000E+00
    0.92189E-03        -0.37146E-03         0.00000E+00
    0.46303E-03        -0.18487E-03         0.00000E+00
    0.00000E+00         0.00000E+00         0.00000E+00
    0.17542E-01        -0.11782E-01         0.00000E+00
    0.17340E-01        -0.11523E-01         0.00000E+00
    0.17131E-01        -0.11266E-01         0.00000E+00
    0.16915E-01        -0.11009E-01         0.00000E+00
    0.16692E-01        -0.10752E-01         0.00000E+00
    0.16462E-01        -0.10496E-01         0.00000E+00
    0.16225E-01        -0.10241E-01         0.00000E+00
    0.15982E-01        -0.99858E-02         0.00000E+00
    0.15732E-01        -0.97316E-02         0.00000E+00
    0.15475E-01        -0.94782E-02         0.00000E+00
    0.15212E-01        -0.92255E-02         0.00000E+00
    0.14942E-01        -0.89735E-02         0.00000E+00
    0.14666E-01        -0.87223E-02         0.00000E+00
    0.14384E-01        -0.84719E-02         0.00000E+00
    0.14095E-01        -0.82222E-02         0.00000E+00
    0.13800E-01        -0.79735E-02         0.00000E+00
    0.13499E-01        -0.77256E-02         0.00000E+00
    0.13192E-01        -0.74786E-02         0.00000E+00
    0.12879E-01        -0.72325E-02         0.00000E+00
    0.12559E-01        -0.69873E-02         0.00000E+00
    0.12234E-01        -0.67432E-02         0.00000E+00
    0.11903E-01        -0.65000E-02         0.00000E+00
    0.11566E-01        -0.62578E-02         0.00000E+00
    0.11224E-01        -0.60167E-02         0.00000E+00
    0.10875E-01        -0.57767E-02         0.00000E+00
    0.10521E-01        -0.55377E-02         0.00000E+00
    0.10162E-01        -0.52999E-02         0.00000E+00
    0.97968E-02        -0.50632E-02         0.00000E+00
    0.94263E-02        -0.48277E-02         0.00000E+00
    0.90504E-02        -0.45934E-02         0.00000E+00
    0.86691E-02        -0.43604E-02         0.00000E+00
    0.82825E-02        -0.41285E-02         0.00000E+00
    0.78907E-02        -0.38980E-02         0.00000E+00
    0.74937E-02        -0.36688E-02         0.00000E+00
    0.70915E-02        -0.34409E-02         0.00000E+00
    0.66842E-02        -0.32144E-02         0.00000E+00
    0.62719E-02        -0.29893E-02         0.00000E+00
    0.58546E-02        -0.27655E-02         0.00000E+00
    0.54324E-02        -0.25433E-02         0.00000E+00
    0.50053E-02        -0.23225E-02         0.00000E+00
    0.45734E-02        -0.21032E-02         0.00000E+00
    0.41367E-02        -0.18855E-02         0.00000E+00
    0.36952E-02        -0.16693E-02         0.00000E+00
    0.32491E-02        -0.14547E-02         0.00000E+00
    0.27984E-02        -0.12418E-02         0.00000E+00
    0.23431E-02        -0.10305E-02         0.00000E+00
    0.18833E-02        -0.82090E-03         0.00000E+00
    0.14191E-02        -0.61302E-03         0.00000E+00
    0.95038E-03        -0.40688E-03         0.00000E+00
    0.47734E-03        -0.20253E-03         0.00000E+00
    0.00000E+00         0.00000E+00         0.00000E+00
    0.18155E-01        -0.12797E-01         0.00000E+00
    0.17944E-01        -0.12518E-01         0.00000E+00
    0.17725E-01        -0.12239E-01         0.00000E+00
    0.17499E-01        -0.11960E-01         0.00000E+00
    0.17266E-01        -0.11682E-01         0.00000E+00
    0.17026E-01        -0.11405E-01         0.00000E+00
    0.16779E-01        -0.11128E-01         0.00000E+00
    0.16525E-01        -0.10852E-01         0.00000E+00
    0.16264E-01        -0.10577E-01         0.00000E+00
    0.15997E-01        -0.10302E-01         0.00000E+00
    0.15723E-01        -0.10028E-01         0.00000E+00
    0.15443E-01        -0.97550E-02         0.00000E+00
    0.15156E-01        -0.94828E-02         0.00000E+00
    0.14862E-01        -0.92113E-02         0.00000E+00
    0.14563E-01        -0.89407E-02         0.00000E+00
    0.14256E-01        -0.86711E-02         0.00000E+00
    0.13944E-01        -0.84023E-02         0.00000E+00
    0.13625E-01        -0.81344E-02         0.00000E+00
    0.13301E-01        -0.78675E-02         0.00000E+00
    0.12970E-01        -0.76017E-02         0.00000E+00
    0.12633E-01        -0.73368E-02         0.00000E+00
    0.12290E-01        -0.70730E-02         0.00000E+00
    0.11942E-01        -0.68102E-02         0.00000E+00
    0.11587E-01        -0.65485E-02         0.00000E+00
    0.11227E-01        -0.62880E-02         0.00000E+00
    0.10861E-01        -0.60286E-02         0.00000E+00
    0.10489E-01        -0.57704E-02         0.00000E+00
    0.10112E-01        -0.55133E-02         0.00000E+00
    0.97287E-02        -0.52575E-02         0.00000E+00
    0.93403E-02        -0.50030E-02         0.00000E+00
    0.89464E-02        -0.47498E-02         0.00000E+00
    0.85470E-02        -0.44978E-02         0.00000E+00
    0.81424E-02        -0.42472E-02         0.00000E+00
    0.77324E-02        -0.39980E-02         0.00000E+00
    0.73171E-02        -0.37502E-02         0.00000E+00
    0.68967E-02        -0.35038E-02         0.00000E+00
    0.64711E-02        -0.32588E-02         0.00000E+00
    0.60404E-02        -0.30154E-02         0.00000E+00
    0.56047E-02        -0.27734E-02         0.00000E+00
    0.51639E-02        -0.25330E-02         0.00000E+00
    0.47182E-02        -0.22942E-02         0.00000E+00
    0.42676E-02        -0.20570E-02         0.00000E+00
    0.38122E-02        -0.18214E-02         0.00000E+00
    0.33519E-02        -0.15876E-02         0.00000E+00
    0.28869E-02        -0.13554E-02         0.00000E+00
    0.24172E-02        -0.11249E-02         0.00000E+00
    0.19429E-02        -0.89626E-03         0.00000E+00
    0.14640E-02        -0.66940E-03         0.00000E+00
    0.98046E-03        -0.44438E-03         0.00000E+00
    0.49246E-03        -0.22123E-03         0.00000E+00
    0.00000E+00         0.00000E+00         0.00000E+00
    0.18805E-01        -0.13864E-01         0.00000E+00
    0.18582E-01        -0.13562E-01         0.00000E+00
    0.18353E-01        -0.13260E-01         0.00000E+00
    0.18116E-01        -0.12959E-01         0.00000E+00
    0.17872E-01        -0.12659E-01         0.00000E+00
    0.17621E-01        -0.12359E-01         0.00000E+00
    0.17363E-01        -0.12060E-01         0.00000E+00
    0.17098E-01        -0.11762E-01         0.00000E+00
    0.16826E-01        -0.11464E-01         0.00000E+00
    0.16548E-01        -0.11168E-01         0.00000E+00
    0.16262E-01        -0.10872E-01         0.00000E+00
    0.15970E-01        -0.10577E-01         0.00000E+00
    0.15672E-01        -0.10282E-01         0.00000E+00
    0.15367E-01        -0.99890E-02         0.00000E+00
    0.15055E-01        -0.96966E-02         0.00000E+00
    0.14737E-01        -0.94050E-02         0.00000E+00
    0.14413E-01        -0.91144E-02         0.00000E+00
    0.14082E-01        -0.88247E-02         0.00000E+00
    0.13745E-01        -0.85361E-02         0.00000E+00
    0.13402E-01        -0.82485E-02         0.00000E+00
    0.13053E-01        -0.79620E-02         0.00000E+00
    0.12698E-01        -0.76765E-02         0.00000E+00
    0.12337E-01        -0.73922E-02         0.00000E+00
    0.11969E-01        -0.71090E-02         0.00000E+00
    0.11596E-01        -0.68269E-02         0.00000E+00
    0.11218E-01        -0.65461E-02         0.00000E+00
    0.10833E-01        -0.62665E-02         0.00000E+00
    0.10443E-01        -0.59881E-02         0.00000E+00
    0.10047E-01        -0.57110E-02         0.00000E+00
    0.96449E-02        -0.54352E-02         0.00000E+00
    0.92377E-02        -0.51608E-02         0.00000E+00
    0.88249E-02        -0.48877E-02         0.00000E+00
    0.84067E-02        -0.46160E-02         0.00000E+00
    0.79831E-02        -0.43457E-02         0.00000E+00
    0.75541E-02        -0.40769E-02         0.00000E+00
    0.71198E-02        -0.38096E-02         0.00000E+00
    0.66803E-02        -0.35438E-02         0.00000E+00
    0.62355E-02        -0.32795E-02         0.00000E+00
    0.57856E-02        -0.30168E-02         0.00000E+00
    0.53305E-02        -0.27557E-02         0.00000E+00
    0.48703E-02        -0.24963E-02         0.00000E+00
    0.44051E-02        -0.22385E-02         0.00000E+00
    0.39350E-02        -0.19825E-02         0.00000E+00
    0.34599E-02        -0.17282E-02         0.00000E+00
    0.29799E-02        -0.14757E-02         0.00000E+00
    0.24951E-02        -0.12250E-02         0.00000E+00
    0.20055E-02        -0.97613E-03         0.00000E+00
    0.15111E-02        -0.72917E-03         0.00000E+00
    0.10120E-02        -0.48414E-03         0.00000E+00
    0.50833E-03        -0.24107E-03         0.00000E+00
    0.00000E+00         0.00000E+00         0.00000E+00
    0.19488E-01        -0.14985E-01         0.00000E+00
    0.19255E-01        -0.14659E-01         0.00000E+00
    0.19014E-01        -0.14334E-01         0.00000E+00
    0.18765E-01        -0.14010E-01         0.00000E+00
    0.18510E-01        -0.13686E-01         0.00000E+00
    0.18247E-01        -0.13363E-01         0.00000E+00
    0.17977E-01        -0.13041E-01         0.00000E+00
    0.17700E-01        -0.12720E-01         0.00000E+00
    0.17417E-01        -0.12399E-01         0.00000E+00
    0.17126E-01        -0.12079E-01         0.00000E+00
    0.16828E-01        -0.11760E-01         0.00000E+00
    0.16524E-01        -0.11442E-01         0.00000E+00
    0.16213E-01        -0.11125E-01         0.00000E+00
    0.15896E-01        -0.10808E-01         0.00000E+00
    0.15572E-01        -0.10493E-01         0.00000E+00
    0.15241E-01        -0.10178E-01         0.00000E+00
    0.14904E-01        -0.98649E-02         0.00000E+00
    0.14561E-01        -0.95524E-02         0.00000E+00
    0.14211E-01        -0.92410E-02         0.00000E+00
    0.13855E-01        -0.89307E-02         0.00000E+00
    0.13493E-01        -0.86214E-02         0.00000E+00
    0.13124E-01        -0.83133E-02         0.00000E+00
    0.12750E-01        -0.80063E-02         0.00000E+00
    0.12370E-01        -0.77005E-02         0.00000E+00
    0.11983E-01        -0.73959E-02         0.00000E+00
    0.11591E-01        -0.70926E-02         0.00000E+00
    0.11193E-01        -0.67905E-02         0.00000E+00
    0.10789E-01        -0.64897E-02         0.00000E+00
    0.10379E-01        -0.61902E-02         0.00000E+00
    0.99633E-02        -0.58921E-02         0.00000E+00
    0.95422E-02        -0.55953E-02         0.00000E+00
    0.91154E-02        -0.53000E-02         0.00000E+00
    0.86830E-02        -0.50061E-02         0.00000E+00
    0.82451E-02        -0.47136E-02         0.00000E+00
    0.78018E-02        -0.44227E-02         0.00000E+00
    0.73530E-02        -0.41333E-02         0.00000E+00
    0.68988E-02        -0.38455E-02         0.00000E+00
    0.64393E-02        -0.35592E-02         0.00000E+00
    0.59745E-02        -0.32746E-02         0.00000E+00
    0.55045E-02        -0.29917E-02         0.00000E+00
    0.50292E-02        -0.27105E-02         0.00000E+00
    0.45488E-02        -0.24310E-02         0.00000E+00
    0.40633E-02        -0.21533E-02         0.00000E+00
    0.35727E-02        -0.18774E-02         0.00000E+00
    0.30770E-02        -0.16033E-02         0.00000E+00
    0.25764E-02        -0.13312E-02         0.00000E+00
    0.20708E-02        -0.10609E-02         0.00000E+00
    0.15604E-02        -0.79265E-03         0.00000E+00
    0.10451E-02        -0.52637E-03         0.00000E+00
    0.52491E-03        -0.26215E-03         0.00000E+00
    0.00000E+00         0.00000E+00         0.00000E+00
    0.20206E-01        -0.16164E-01         0.00000E+00
    0.19960E-01        -0.15814E-01         0.00000E+00
    0.19707E-01        -0.15465E-01         0.00000E+00
    0.19446E-01        -0.15116E-01         0.00000E+00
    0.19178E-01        -0.14768E-01         0.00000E+00
    0.18902E-01        -0.14421E-01         0.00000E+00
    0.18620E-01        -0.14074E-01         0.00000E+00
    0.18330E-01        -0.13728E-01         0.00000E+00
    0.18034E-01        -0.13384E-01         0.00000E+00
    0.17730E-01        -0.13040E-01         0.00000E+00
    0.17420E-01        -0.12696E-01         0.00000E+00
    0.17102E-01        -0.12354E-01         0.00000E+00
    0.16778E-01        -0.12013E-01         0.00000E+00
    0.16448E-01        -0.11672E-01         0.00000E+00
    0.16110E-01        -0.11333E-01         0.00000E+00
    0.15766E-01        -0.10994E-01         0.00000E+00
    0.15416E-01        -0.10657E-01         0.00000E+00
    0.15059E-01        -0.10321E-01         0.00000E+00
    0.14696E-01        -0.99852E-02         0.00000E+00
    0.14326E-01        -0.96510E-02         0.00000E+00
    0.13951E-01        -0.93179E-02         0.00000E+00
    0.13569E-01        -0.89860E-02         0.00000E+00
    0.13180E-01        -0.86553E-02         0.00000E+00
    0.12786E-01        -0.83257E-02         0.00000E+00
    0.12386E-01        -0.79974E-02         0.00000E+00
    0.11979E-01        -0.76704E-02         0.00000E+00
    0.11567E-01        -0.73447E-02         0.00000E+00
    0.11149E-01        -0.70203E-02         0.00000E+00
    0.10724E-01        -0.66972E-02         0.00000E+00
    0.10294E-01        -0.63756E-02         0.00000E+00
    0.98588E-02        -0.60553E-02         0.00000E+00
    0.94174E-02        -0.57365E-02         0.00000E+00
    0.89703E-02        -0.54192E-02         0.00000E+00
    0.85175E-02        -0.51034E-02         0.00000E+00
    0.80592E-02        -0.47891E-02         0.00000E+00
    0.75954E-02        -0.44764E-02         0.00000E+00
    0.71260E-02        -0.41653E-02         0.00000E+00
    0.66512E-02        -0.38559E-02         0.00000E+00
    0.61709E-02        -0.35481E-02         0.00000E+00
    0.56853E-02        -0.32421E-02         0.00000E+00
    0.51943E-02        -0.29378E-02         0.00000E+00
    0.46981E-02        -0.26353E-02         0.00000E+00
    0.41966E-02        -0.23347E-02         0.00000E+00
    0.36899E-02        -0.20359E-02         0.00000E+00
    0.31780E-02        -0.17390E-02         0.00000E+00
    0.26609E-02        -0.14440E-02         0.00000E+00
    0.21388E-02        -0.11511E-02         0.00000E+00
    0.16116E-02        -0.86016E-03         0.00000E+00
    0.10794E-02        -0.57131E-03         0.00000E+00
    0.54215E-03        -0.28457E-03         0.00000E+00
    0.00000E+00         0.00000E+00         0.00000E+00
    0.20955E-01        -0.17407E-01         0.00000E+00
    0.20696E-01        -0.17031E-01         0.00000E+00
    0.20429E-01        -0.16656E-01         0.00000E+00
    0.20155E-01        -0.16282E-01         0.00000E+00
    0.19874E-01        -0.15908E-01         0.00000E+00
    0.19585E-01        -0.15536E-01         0.00000E+00
    0.19289E-01        -0.15164E-01         0.00000E+00
    0.18986E-01        -0.14793E-01         0.00000E+00
    0.18676E-01        -0.14422E-01         0.00000E+00
    0.18359E-01        -0.14053E-01         0.00000E+00
    0.18034E-01        -0.13684E-01         0.00000E+00
    0.17703E-01        -0.13317E-01         0.00000E+00
    0.17366E-01        -0.12950E-01         0.00000E+00
    0.17021E-01        -0.12585E-01         0.00000E+00
    0.16670E-01        -0.12220E-01         0.00000E+00
    0.16312E-01        -0.11856E-01         0.00000E+00
    0.15947E-01        -0.11494E-01         0.00000E+00
    0.15577E-01        -0.11132E-01         0.00000E+00
    0.15199E-01        -0.10772E-01         0.00000E+00
    0.14815E-01        -0.10413E-01         0.00000E+00
    0.14425E-01        -0.10054E-01         0.00000E+00
    0.14029E-01        -0.96975E-02         0.00000E+00
    0.13626E-01        -0.93418E-02         0.00000E+00
    0.13217E-01        -0.89873E-02         0.00000E+00
    0.12802E-01        -0.86340E-02         0.00000E+00
    0.12381E-01        -0.82821E-02         0.00000E+00
    0.11954E-01        -0.79315E-02         0.00000E+00
    0.11521E-01        -0.75822E-02         0.00000E+00
    0.11082E-01        -0.72344E-02         0.00000E+00
    0.10637E-01        -0.68879E-02         0.00000E+00
    0.10186E-01        -0.65429E-02         0.00000E+00
    0.97297E-02        -0.61993E-02         0.00000E+00
    0.92674E-02        -0.58573E-02         0.00000E+00
    0.87992E-02        -0.55168E-02         0.00000E+00
    0.83254E-02        -0.51779E-02         0.00000E+00
    0.78459E-02        -0.48406E-02         0.00000E+00
    0.73608E-02        -0.45049E-02         0.00000E+00
    0.68702E-02        -0.41709E-02         0.00000E+00
    0.63740E-02        -0.38386E-02         0.00000E+00
    0.58722E-02        -0.35081E-02         0.00000E+00
    0.53650E-02        -0.31794E-02         0.00000E+00
    0.48524E-02        -0.28525E-02         0.00000E+00
    0.43344E-02        -0.25275E-02         0.00000E+00
    0.38110E-02        -0.22044E-02         0.00000E+00
    0.32823E-02        -0.18833E-02         0.00000E+00
    0.27483E-02        -0.15641E-02         0.00000E+00
    0.22090E-02        -0.12470E-02         0.00000E+00
    0.16645E-02        -0.93204E-03         0.00000E+00
    0.11148E-02        -0.61916E-03         0.00000E+00
    0.55998E-03        -0.30847E-03         0.00000E+00
    0.00000E+00         0.00000E+00         0.00000E+00
    0.21733E-01        -0.18718E-01         0.00000E+00
    0.21460E-01        -0.18315E-01         0.00000E+00
    0.21179E-01        -0.17913E-01         0.00000E+00
    0.20891E-01        -0.17512E-01         0.00000E+00
    0.20596E-01        -0.17112E-01         0.00000E+00
    0.20293E-01        -0.16712E-01         0.00000E+00
    0.19982E-01        -0.16314E-01         0.00000E+00
    0.19665E-01        -0.15916E-01         0.00000E+00
    0.19341E-01        -0.15519E-01         0.00000E+00
    0.19009E-01        -0.15123E-01         0.00000E+00
    0.18670E-01        -0.14728E-01         0.00000E+00
    0.18325E-01        -0.14334E-01         0.00000E+00
    0.17973E-01        -0.13941E-01         0.00000E+00
    0.17614E-01        -0.13549E-01         0.00000E+00
    0.17248E-01        -0.13158E-01         0.00000E+00
    0.16875E-01        -0.12768E-01         0.00000E+00
    0.16496E-01        -0.12379E-01         0.00000E+00
    0.16110E-01        -0.11991E-01         0.00000E+00
    0.15718E-01        -0.11604E-01         0.00000E+00
    0.15320E-01        -0.11218E-01         0.00000E+00
    0.14915E-01        -0.10834E-01         0.00000E+00
    0.14503E-01        -0.10451E-01         0.00000E+00
    0.14086E-01        -0.10069E-01         0.00000E+00
    0.13662E-01        -0.96879E-02         0.00000E+00
    0.13232E-01        -0.93085E-02         0.00000E+00
    0.12795E-01        -0.89303E-02         0.00000E+00
    0.12353E-01        -0.85535E-02         0.00000E+00
    0.11905E-01        -0.81780E-02         0.00000E+00
    0.11450E-01        -0.78039E-02         0.00000E+00
    0.10990E-01        -0.74313E-02         0.00000E+00
    0.10523E-01        -0.70601E-02         0.00000E+00
    0.10051E-01        -0.66905E-02         0.00000E+00
    0.95730E-02        -0.63223E-02         0.00000E+00
    0.90890E-02        -0.59557E-02         0.00000E+00
    0.85992E-02        -0.55907E-02         0.00000E+00
    0.81036E-02        -0.52274E-02         0.00000E+00
    0.76024E-02        -0.48657E-02         0.00000E+00
    0.70954E-02        -0.45057E-02         0.00000E+00
    0.65827E-02        -0.41475E-02         0.00000E+00
    0.60644E-02        -0.37910E-02         0.00000E+00
    0.55406E-02        -0.34364E-02         0.00000E+00
    0.50111E-02        -0.30836E-02         0.00000E+00
    0.44761E-02        -0.27328E-02         0.00000E+00
    0.39356E-02        -0.23839E-02         0.00000E+00
    0.33896E-02        -0.20369E-02         0.00000E+00
    0.28381E-02        -0.16921E-02         0.00000E+00
    0.22812E-02        -0.13493E-02         0.00000E+00
    0.17190E-02        -0.10087E-02         0.00000E+00
    0.11513E-02        -0.67019E-03         0.00000E+00
    0.57831E-03        -0.33395E-03         0.00000E+00
    0.00000E+00         0.00000E+00         0.00000E+00
    0.22538E-01        -0.20101E-01         0.00000E+00
    0.22250E-01        -0.19670E-01         0.00000E+00
    0.21955E-01        -0.19240E-01         0.00000E+00
    0.21652E-01        -0.18811E-01         0.00000E+00
    0.21341E-01        -0.18383E-01         0.00000E+00
    0.21023E-01        -0.17955E-01         0.00000E+00
    0.20698E-01        -0.17528E-01         0.00000E+00
    0.20365E-01        -0.17103E-01         0.00000E+00
    0.20026E-01        -0.16678E-01         0.00000E+00
    0.19679E-01        -0.16254E-01         0.00000E+00
    0.19325E-01        -0.15831E-01         0.00000E+00
    0.18965E-01        -0.15409E-01         0.00000E+00
    0.18597E-01        -0.14988E-01         0.00000E+00
    0.18223E-01        -0.14568E-01         0.00000E+00
    0.17842E-01        -0.14150E-01         0.00000E+00
    0.17454E-01        -0.13732E-01         0.00000E+00
    0.17059E-01        -0.13315E-01         0.00000E+00
    0.16658E-01        -0.12899E-01         0.00000E+00
    0.16251E-01        -0.12485E-01         0.00000E+00
    0.15837E-01        -0.12072E-01         0.00000E+00
    0.15417E-01        -0.11660E-01         0.00000E+00
    0.14990E-01        -0.11249E-01         0.00000E+00
    0.14557E-01        -0.10839E-01         0.00000E+00
    0.14117E-01        -0.10431E-01         0.00000E+00
    0.13671E-01        -0.10023E-01         0.00000E+00
    0.13220E-01        -0.96177E-02         0.00000E+00
    0.12761E-01        -0.92132E-02         0.00000E+00
    0.12297E-01        -0.88101E-02         0.00000E+00
    0.11827E-01        -0.84084E-02         0.00000E+00
    0.11351E-01        -0.80081E-02         0.00000E+00
    0.10868E-01        -0.76094E-02         0.00000E+00
    0.10380E-01        -0.72121E-02         0.00000E+00
    0.98856E-02        -0.68163E-02         0.00000E+00
    0.93853E-02        -0.64221E-02         0.00000E+00
    0.88792E-02        -0.60296E-02         0.00000E+00
    0.83672E-02        -0.56386E-02         0.00000E+00
    0.78493E-02        -0.52494E-02         0.00000E+00
    0.73256E-02        -0.48618E-02         0.00000E+00
    0.67962E-02        -0.44761E-02         0.00000E+00
    0.62609E-02        -0.40921E-02         0.00000E+00
    0.57200E-02        -0.37099E-02         0.00000E+00
    0.51733E-02        -0.33297E-02         0.00000E+00
    0.46210E-02        -0.29514E-02         0.00000E+00
    0.40629E-02        -0.25750E-02         0.00000E+00
    0.34993E-02        -0.22007E-02         0.00000E+00
    0.29300E-02        -0.18285E-02         0.00000E+00
    0.23551E-02        -0.14583E-02         0.00000E+00
    0.17746E-02        -0.10904E-02         0.00000E+00
    0.11886E-02        -0.72463E-03         0.00000E+00
    0.59706E-03        -0.36115E-03         0.00000E+00
    0.00000E+00         0.00000E+00         0.00000E+00
    0.23368E-01        -0.21561E-01         0.00000E+00
    0.23064E-01        -0.21101E-01         0.00000E+00
    0.22752E-01        -0.20642E-01         0.00000E+00
    0.22433E-01        -0.20183E-01         0.00000E+00
    0.22107E-01        -0.19725E-01         0.00000E+00
    0.21773E-01        -0.19268E-01         0.00000E+00
    0.21432E-01        -0.18812E-01         0.00000E+00
    0.21083E-01        -0.18357E-01         0.00000E+00
    0.20728E-01        -0.17903E-01         0.00000E+00
    0.20365E-01        -0.17450E-01         0.00000E+00
    0.19996E-01        -0.16998E-01         0.00000E+00
    0.19619E-01        -0.16547E-01         0.00000E+00
    0.19236E-01        -0.16097E-01         0.00000E+00
    0.18846E-01        -0.15648E-01         0.00000E+00
    0.18449E-01        -0.15200E-01         0.00000E+00
    0.18045E-01        -0.14753E-01         0.00000E+00
    0.17635E-01        -0.14307E-01         0.00000E+00
    0.17218E-01        -0.13862E-01         0.00000E+00
    0.16795E-01        -0.13418E-01         0.00000E+00
    0.16365E-01        -0.12976E-01         0.00000E+00
    0.15928E-01        -0.12535E-01         0.00000E+00
    0.15486E-01        -0.12095E-01         0.00000E+00
    0.15037E-01        -0.11656E-01         0.00000E+00
    0.14581E-01        -0.11218E-01         0.00000E+00
    0.14119E-01        -0.10782E-01         0.00000E+00
    0.13651E-01        -0.10347E-01         0.00000E+00
    0.13177E-01        -0.99134E-02         0.00000E+00
    0.12697E-01        -0.94811E-02         0.00000E+00
    0.12210E-01        -0.90502E-02         0.00000E+00
    0.11718E-01        -0.86208E-02         0.00000E+00
    0.11219E-01        -0.81928E-02         0.00000E+00
    0.10714E-01        -0.77663E-02         0.00000E+00
    0.10203E-01        -0.73414E-02         0.00000E+00
    0.96866E-02        -0.69180E-02         0.00000E+00
    0.91638E-02        -0.64962E-02         0.00000E+00
    0.86350E-02        -0.60761E-02         0.00000E+00
    0.81003E-02        -0.56576E-02         0.00000E+00
    0.75597E-02        -0.52409E-02         0.00000E+00
    0.70131E-02        -0.48259E-02         0.00000E+00
    0.64607E-02        -0.44127E-02         0.00000E+00
    0.59023E-02        -0.40013E-02         0.00000E+00
    0.53382E-02        -0.35919E-02         0.00000E+00
    0.47682E-02        -0.31844E-02         0.00000E+00
    0.41924E-02        -0.27789E-02         0.00000E+00
    0.36107E-02        -0.23754E-02         0.00000E+00
    0.30233E-02        -0.19740E-02         0.00000E+00
    0.24302E-02        -0.15747E-02         0.00000E+00
    0.18312E-02        -0.11776E-02         0.00000E+00
    0.12265E-02        -0.78274E-03         0.00000E+00
    0.61613E-03        -0.39020E-03         0.00000E+00
    0.00000E+00         0.00000E+00         0.00000E+00
    0.24217E-01        -0.23104E-01         0.00000E+00
    0.23897E-01        -0.22613E-01         0.00000E+00
    0.23568E-01        -0.22122E-01         0.00000E+00
    0.23232E-01        -0.21633E-01         0.00000E+00
    0.22889E-01        -0.21144E-01         0.00000E+00
    0.22538E-01        -0.20657E-01         0.00000E+00
    0.22180E-01        -0.20170E-01         0.00000E+00
    0.21815E-01        -0.19684E-01         0.00000E+00
    0.21443E-01        -0.19199E-01         0.00000E+00
    0.21064E-01        -0.18715E-01         0.00000E+00
    0.20678E-01        -0.18233E-01         0.00000E+00
    0.20285E-01        -0.17751E-01         0.00000E+00
    0.19885E-01        -0.17270E-01         0.00000E+00
    0.19479E-01        -0.16790E-01         0.00000E+00
    0.19065E-01        -0.16312E-01         0.00000E+00
    0.18645E-01        -0.15834E-01         0.00000E+00
    0.18219E-01        -0.15357E-01         0.00000E+00
    0.17786E-01        -0.14882E-01         0.00000E+00
    0.17346E-01        -0.14408E-01         0.00000E+00
    0.16900E-01        -0.13935E-01         0.00000E+00
    0.16447E-01        -0.13463E-01         0.00000E+00
    0.15988E-01        -0.12992E-01         0.00000E+00
    0.15523E-01        -0.12522E-01         0.00000E+00
    0.15051E-01        -0.12054E-01         0.00000E+00
    0.14573E-01        -0.11587E-01         0.00000E+00
    0.14088E-01        -0.11121E-01         0.00000E+00
    0.13598E-01        -0.10657E-01         0.00000E+00
    0.13101E-01        -0.10194E-01         0.00000E+00
    0.12598E-01        -0.97321E-02         0.00000E+00
    0.12089E-01        -0.92718E-02         0.00000E+00
    0.11574E-01        -0.88130E-02         0.00000E+00
    0.11052E-01        -0.83556E-02         0.00000E+00
    0.10525E-01        -0.78998E-02         0.00000E+00
    0.99910E-02        -0.74454E-02         0.00000E+00
    0.94513E-02        -0.69927E-02         0.00000E+00
    0.89056E-02        -0.65416E-02         0.00000E+00
    0.83538E-02        -0.60922E-02         0.00000E+00
    0.77960E-02        -0.56444E-02         0.00000E+00
    0.72321E-02        -0.51984E-02         0.00000E+00
    0.66623E-02        -0.47542E-02         0.00000E+00
    0.60864E-02        -0.43119E-02         0.00000E+00
    0.55046E-02        -0.38714E-02         0.00000E+00
    0.49168E-02        -0.34328E-02         0.00000E+00
    0.43230E-02        -0.29962E-02         0.00000E+00
    0.37233E-02        -0.25617E-02         0.00000E+00
    0.31176E-02        -0.21292E-02         0.00000E+00
    0.25060E-02        -0.16989E-02         0.00000E+00
    0.18884E-02        -0.12707E-02         0.00000E+00
    0.12649E-02        -0.84481E-03         0.00000E+00
    0.63539E-03        -0.42122E-03         0.00000E+00
    0.00000E+00         0.00000E+00         0.00000E+00
    0.25083E-01        -0.24734E-01         0.00000E+00
    0.24745E-01        -0.24210E-01         0.00000E+00
    0.24398E-01        -0.23687E-01         0.00000E+00
    0.24045E-01        -0.23165E-01         0.00000E+00
    0.23684E-01        -0.22644E-01         0.00000E+00
    0.23316E-01        -0.22124E-01         0.00000E+00
    0.22940E-01        -0.21605E-01         0.00000E+00
    0.22558E-01        -0.21087E-01         0.00000E+00
    0.22168E-01        -0.20570E-01         0.00000E+00
    0.21772E-01        -0.20054E-01         0.00000E+00
    0.21369E-01        -0.19539E-01         0.00000E+00
    0.20959E-01        -0.19025E-01         0.00000E+00
    0.20542E-01        -0.18512E-01         0.00000E+00
    0.20118E-01        -0.18000E-01         0.00000E+00
    0.19688E-01        -0.17489E-01         0.00000E+00
    0.19251E-01        -0.16980E-01         0.00000E+00
    0.18808E-01        -0.16471E-01         0.00000E+00
    0.18358E-01        -0.15963E-01         0.00000E+00
    0.17901E-01        -0.15457E-01         0.00000E+00
    0.17438E-01        -0.14951E-01         0.00000E+00
    0.16969E-01        -0.14447E-01         0.00000E+00
    0.16493E-01        -0.13944E-01         0.00000E+00
    0.16011E-01        -0.13442E-01         0.00000E+00
    0.15523E-01        -0.12941E-01         0.00000E+00
    0.15028E-01        -0.12442E-01         0.00000E+00
    0.14527E-01        -0.11943E-01         0.00000E+00
    0.14020E-01        -0.11446E-01         0.00000E+00
    0.13507E-01        -0.10951E-01         0.00000E+00
    0.12987E-01        -0.10457E-01         0.00000E+00
    0.12461E-01        -0.99637E-02         0.00000E+00
    0.11929E-01        -0.94722E-02         0.00000E+00
    0.11391E-01        -0.89822E-02         0.00000E+00
    0.10847E-01        -0.84936E-02         0.00000E+00
    0.10296E-01        -0.80066E-02         0.00000E+00
    0.97396E-02        -0.75211E-02         0.00000E+00
    0.91768E-02        -0.70372E-02         0.00000E+00
    0.86079E-02        -0.65549E-02         0.00000E+00
    0.80329E-02        -0.60742E-02         0.00000E+00
    0.74517E-02        -0.55953E-02         0.00000E+00
    0.68644E-02        -0.51182E-02         0.00000E+00
    0.62710E-02        -0.46428E-02         0.00000E+00
    0.56715E-02        -0.41693E-02         0.00000E+00
    0.50658E-02        -0.36977E-02         0.00000E+00
    0.44541E-02        -0.32281E-02         0.00000E+00
    0.38362E-02        -0.27604E-02         0.00000E+00
    0.32121E-02        -0.22949E-02         0.00000E+00
    0.25820E-02        -0.18314E-02         0.00000E+00
    0.19457E-02        -0.13701E-02         0.00000E+00
    0.13033E-02        -0.91111E-03         0.00000E+00
    0.65471E-03        -0.45438E-03         0.00000E+00
    0.00000E+00         0.00000E+00         0.00000E+00
    0.25961E-01        -0.26456E-01         0.00000E+00
    0.25603E-01        -0.25898E-01         0.00000E+00
    0.25238E-01        -0.25341E-01         0.00000E+00
    0.24866E-01        -0.24785E-01         0.00000E+00
    0.24486E-01        -0.24231E-01         0.00000E+00
    0.24100E-01        -0.23677E-01         0.00000E+00
    0.23706E-01        -0.23124E-01         0.00000E+00
    0.23305E-01        -0.22572E-01         0.00000E+00
    0.22898E-01        -0.22021E-01         0.00000E+00
    0.22484E-01        -0.21471E-01         0.00000E+00
    0.22063E-01        -0.20922E-01         0.00000E+00
    0.21635E-01        -0.20375E-01         0.00000E+00
    0.21201E-01        -0.19828E-01         0.00000E+00
    0.20760E-01        -0.19282E-01         0.00000E+00
    0.20312E-01        -0.18737E-01         0.00000E+00
    0.19858E-01        -0.18193E-01         0.00000E+00
    0.19397E-01        -0.17651E-01         0.00000E+00
    0.18930E-01        -0.17109E-01         0.00000E+00
    0.18457E-01        -0.16568E-01         0.00000E+00
    0.17977E-01        -0.16029E-01         0.00000E+00
    0.17491E-01        -0.15491E-01         0.00000E+00
    0.16998E-01        -0.14954E-01         0.00000E+00
    0.16499E-01        -0.14417E-01         0.00000E+00
    0.15994E-01        -0.13883E-01         0.00000E+00
    0.15483E-01        -0.13349E-01         0.00000E+00
    0.14965E-01        -0.12816E-01         0.00000E+00
    0.14441E-01        -0.12285E-01         0.00000E+00
    0.13911E-01        -0.11755E-01         0.00000E+00
    0.13375E-01        -0.11227E-01         0.00000E+00
    0.12832E-01        -0.10699E-01         0.00000E+00
    0.12283E-01        -0.10173E-01         0.00000E+00
    0.11729E-01        -0.96486E-02         0.00000E+00
    0.11167E-01        -0.91254E-02         0.00000E+00
    0.10600E-01        -0.86036E-02         0.00000E+00
    0.10026E-01        -0.80834E-02         0.00000E+00
    0.94467E-02        -0.75647E-02         0.00000E+00
    0.88607E-02        -0.70475E-02         0.00000E+00
    0.82685E-02        -0.65320E-02         0.00000E+00
    0.76701E-02        -0.60181E-02         0.00000E+00
    0.70654E-02        -0.55060E-02         0.00000E+00
    0.64545E-02        -0.49956E-02         0.00000E+00
    0.58374E-02        -0.44870E-02         0.00000E+00
    0.52140E-02        -0.39802E-02         0.00000E+00
    0.45844E-02        -0.34754E-02         0.00000E+00
    0.39484E-02        -0.29725E-02         0.00000E+00
    0.33062E-02        -0.24717E-02         0.00000E+00
    0.26576E-02        -0.19730E-02         0.00000E+00
    0.20027E-02        -0.14763E-02         0.00000E+00
    0.13415E-02        -0.98193E-03         0.00000E+00
    0.67395E-03        -0.48980E-03         0.00000E+00
    0.00000E+00         0.00000E+00         0.00000E+00
    0.26843E-01        -0.28275E-01         0.00000E+00
    0.26466E-01        -0.27682E-01         0.00000E+00
    0.26081E-01        -0.27089E-01         0.00000E+00
    0.25689E-01        -0.26498E-01         0.00000E+00
    0.25291E-01        -0.25908E-01         0.00000E+00
    0.24885E-01        -0.25318E-01         0.00000E+00
    0.24472E-01        -0.24730E-01         0.00000E+00
    0.24053E-01        -0.24142E-01         0.00000E+00
    0.23627E-01        -0.23556E-01         0.00000E+00
    0.23194E-01        -0.22971E-01         0.00000E+00
    0.22755E-01        -0.22386E-01         0.00000E+00
    0.22309E-01        -0.21803E-01         0.00000E+00
    0.21857E-01        -0.21220E-01         0.00000E+00
    0.21398E-01        -0.20639E-01         0.00000E+00
    0.20932E-01        -0.20059E-01         0.00000E+00
    0.20461E-01        -0.19479E-01         0.00000E+00
    0.19983E-01        -0.18901E-01         0.00000E+00
    0.19498E-01        -0.18324E-01         0.00000E+00
    0.19008E-01        -0.17747E-01         0.00000E+00
    0.18511E-01        -0.17172E-01         0.00000E+00
    0.18007E-01        -0.16598E-01         0.00000E+00
    0.17498E-01        -0.16025E-01         0.00000E+00
    0.16982E-01        -0.15453E-01         0.00000E+00
    0.16460E-01        -0.14882E-01         0.00000E+00
    0.15932E-01        -0.14312E-01         0.00000E+00
    0.15398E-01        -0.13743E-01         0.00000E+00
    0.14857E-01        -0.13176E-01         0.00000E+00
    0.14310E-01        -0.12610E-01         0.00000E+00
    0.13757E-01        -0.12045E-01         0.00000E+00
    0.13198E-01        -0.11481E-01         0.00000E+00
    0.12633E-01        -0.10918E-01         0.00000E+00
    0.12061E-01        -0.10357E-01         0.00000E+00
    0.11484E-01        -0.97972E-02         0.00000E+00
    0.10899E-01        -0.92388E-02         0.00000E+00
    0.10309E-01        -0.86817E-02         0.00000E+00
    0.97126E-02        -0.81261E-02         0.00000E+00
    0.91098E-02        -0.75720E-02         0.00000E+00
    0.85007E-02        -0.70195E-02         0.00000E+00
    0.78853E-02        -0.64685E-02         0.00000E+00
    0.72635E-02        -0.59192E-02         0.00000E+00
    0.66354E-02        -0.53715E-02         0.00000E+00
    0.60009E-02        -0.48256E-02         0.00000E+00
    0.53601E-02        -0.42815E-02         0.00000E+00
    0.47128E-02        -0.37392E-02         0.00000E+00
    0.40591E-02        -0.31988E-02         0.00000E+00
    0.33989E-02        -0.26604E-02         0.00000E+00
    0.27322E-02        -0.21240E-02         0.00000E+00
    0.20590E-02        -0.15897E-02         0.00000E+00
    0.13792E-02        -0.10576E-02         0.00000E+00
    0.69292E-03        -0.52764E-03         0.00000E+00
    0.00000E+00         0.00000E+00         0.00000E+00
    0.27725E-01        -0.30197E-01         0.00000E+00
    0.27327E-01        -0.29566E-01         0.00000E+00
    0.26922E-01        -0.28936E-01         0.00000E+00
    0.26509E-01        -0.28308E-01         0.00000E+00
    0.26091E-01        -0.27680E-01         0.00000E+00
    0.25665E-01        -0.27053E-01         0.00000E+00
    0.25233E-01        -0.26428E-01         0.00000E+00
    0.24794E-01        -0.25803E-01         0.00000E+00
    0.24349E-01        -0.25180E-01         0.00000E+00
    0.23897E-01        -0.24557E-01         0.00000E+00
    0.23439E-01        -0.23935E-01         0.00000E+00
    0.22975E-01        -0.23315E-01         0.00000E+00
    0.22504E-01        -0.22695E-01         0.00000E+00
    0.22027E-01        -0.22076E-01         0.00000E+00
    0.21544E-01        -0.21458E-01         0.00000E+00
    0.21054E-01        -0.20842E-01         0.00000E+00
    0.20559E-01        -0.20226E-01         0.00000E+00
    0.20057E-01        -0.19611E-01         0.00000E+00
    0.19549E-01        -0.18997E-01         0.00000E+00
    0.19035E-01        -0.18384E-01         0.00000E+00
    0.18514E-01        -0.17772E-01         0.00000E+00
    0.17988E-01        -0.17161E-01         0.00000E+00
    0.17455E-01        -0.16551E-01         0.00000E+00
    0.16917E-01        -0.15942E-01         0.00000E+00
    0.16372E-01        -0.15334E-01         0.00000E+00
    0.15821E-01        -0.14727E-01         0.00000E+00
    0.15264E-01        -0.14122E-01         0.00000E+00
    0.14701E-01        -0.13517E-01         0.00000E+00
    0.14131E-01        -0.12914E-01         0.00000E+00
    0.13556E-01        -0.12311E-01         0.00000E+00
    0.12974E-01        -0.11710E-01         0.00000E+00
    0.12386E-01        -0.11110E-01         0.00000E+00
    0.11792E-01        -0.10512E-01         0.00000E+00
    0.11192E-01        -0.99143E-02         0.00000E+00
    0.10585E-01        -0.93182E-02         0.00000E+00
    0.99721E-02        -0.87235E-02         0.00000E+00
    0.93528E-02        -0.81302E-02         0.00000E+00
    0.87271E-02        -0.75384E-02         0.00000E+00
    0.80951E-02        -0.69480E-02         0.00000E+00
    0.74567E-02        -0.63592E-02         0.00000E+00
    0.68118E-02        -0.57720E-02         0.00000E+00
    0.61604E-02        -0.51864E-02         0.00000E+00
    0.55025E-02        -0.46026E-02         0.00000E+00
    0.48380E-02        -0.40204E-02         0.00000E+00
    0.41670E-02        -0.34401E-02         0.00000E+00
    0.34893E-02        -0.28617E-02         0.00000E+00
    0.28049E-02        -0.22852E-02         0.00000E+00
    0.21139E-02        -0.17107E-02         0.00000E+00
    0.14161E-02        -0.11383E-02         0.00000E+00
    0.71145E-03        -0.56804E-03         0.00000E+00
    0.00000E+00         0.00000E+00         0.00000E+00
    0.28599E-01        -0.32226E-01         0.00000E+00
    0.28179E-01        -0.31556E-01         0.00000E+00
    0.27752E-01        -0.30887E-01         0.00000E+00
    0.27318E-01        -0.30220E-01         0.00000E+00
    0.26879E-01        -0.29553E-01         0.00000E+00
    0.26433E-01        -0.28887E-01         0.00000E+00
    0.25980E-01        -0.28223E-01         0.00000E+00
    0.25522E-01        -0.27559E-01         0.00000E+00
    0.25057E-01        -0.26896E-01         0.00000E+00
    0.24586E-01        -0.26235E-01         0.00000E+00
    0.24108E-01        -0.25574E-01         0.00000E+00
    0.23625E-01        -0.24914E-01         0.00000E+00
    0.23136E-01        -0.24255E-01         0.00000E+00
    0.22641E-01        -0.23597E-01         0.00000E+00
    0.22139E-01        -0.22940E-01         0.00000E+00
    0.21632E-01        -0.22284E-01         0.00000E+00
    0.21119E-01        -0.21629E-01         0.00000E+00
    0.20599E-01        -0.20974E-01         0.00000E+00
    0.20074E-01        -0.20321E-01         0.00000E+00
    0.19543E-01        -0.19668E-01         0.00000E+00
    0.19006E-01        -0.19016E-01         0.00000E+00
    0.18462E-01        -0.18366E-01         0.00000E+00
    0.17913E-01        -0.17716E-01         0.00000E+00
    0.17358E-01        -0.17067E-01         0.00000E+00
    0.16797E-01        -0.16419E-01         0.00000E+00
    0.16230E-01        -0.15772E-01         0.00000E+00
    0.15657E-01        -0.15126E-01         0.00000E+00
    0.15077E-01        -0.14481E-01         0.00000E+00
    0.14492E-01        -0.13837E-01         0.00000E+00
    0.13901E-01        -0.13194E-01         0.00000E+00
    0.13303E-01        -0.12552E-01         0.00000E+00
    0.12699E-01        -0.11911E-01         0.00000E+00
    0.12089E-01        -0.11271E-01         0.00000E+00
    0.11473E-01        -0.10632E-01         0.00000E+00
    0.10851E-01        -0.99951E-02         0.00000E+00
    0.10222E-01        -0.93590E-02         0.00000E+00
    0.95868E-02        -0.87241E-02         0.00000E+00
    0.89452E-02        -0.80906E-02         0.00000E+00
    0.82972E-02        -0.74585E-02         0.00000E+00
    0.76427E-02        -0.68277E-02         0.00000E+00
    0.69816E-02        -0.61985E-02         0.00000E+00
    0.63140E-02        -0.55708E-02         0.00000E+00
    0.56397E-02        -0.49446E-02         0.00000E+00
    0.49587E-02        -0.43201E-02         0.00000E+00
    0.42710E-02        -0.36973E-02         0.00000E+00
    0.35765E-02        -0.30763E-02         0.00000E+00
    0.28751E-02        -0.24571E-02         0.00000E+00
    0.21668E-02        -0.18398E-02         0.00000E+00
    0.14516E-02        -0.12244E-02         0.00000E+00
    0.72932E-03        -0.61116E-03         0.00000E+00
    0.00000E+00         0.00000E+00         0.00000E+00
    0.29455E-01        -0.34367E-01         0.00000E+00
    0.29012E-01        -0.33656E-01         0.00000E+00
    0.28563E-01        -0.32947E-01         0.00000E+00
    0.28108E-01        -0.32238E-01         0.00000E+00
    0.27647E-01        -0.31531E-01         0.00000E+00
    0.27180E-01        -0.30824E-01         0.00000E+00
    0.26707E-01        -0.30119E-01         0.00000E+00
    0.26227E-01        -0.29414E-01         0.00000E+00
    0.25743E-01        -0.28710E-01         0.00000E+00
    0.25252E-01        -0.28008E-01         0.00000E+00
    0.24755E-01        -0.27306E-01         0.00000E+00
    0.24253E-01        -0.26605E-01         0.00000E+00
    0.23745E-01        -0.25905E-01         0.00000E+00
    0.23231E-01        -0.25206E-01         0.00000E+00
    0.22712E-01        -0.24508E-01         0.00000E+00
    0.22187E-01        -0.23810E-01         0.00000E+00
    0.21656E-01        -0.23114E-01         0.00000E+00
    0.21119E-01        -0.22418E-01         0.00000E+00
    0.20577E-01        -0.21723E-01         0.00000E+00
    0.20029E-01        -0.21028E-01         0.00000E+00
    0.19475E-01        -0.20335E-01         0.00000E+00
    0.18916E-01        -0.19642E-01         0.00000E+00
    0.18350E-01        -0.18950E-01         0.00000E+00
    0.17779E-01        -0.18259E-01         0.00000E+00
    0.17202E-01        -0.17569E-01         0.00000E+00
    0.16619E-01        -0.16879E-01         0.00000E+00
    0.16031E-01        -0.16191E-01         0.00000E+00
    0.15436E-01        -0.15503E-01         0.00000E+00
    0.14835E-01        -0.14816E-01         0.00000E+00
    0.14228E-01        -0.14130E-01         0.00000E+00
    0.13616E-01        -0.13445E-01         0.00000E+00
    0.12997E-01        -0.12761E-01         0.00000E+00
    0.12372E-01        -0.12078E-01         0.00000E+00
    0.11740E-01        -0.11395E-01         0.00000E+00
    0.11103E-01        -0.10714E-01         0.00000E+00
    0.10459E-01        -0.10034E-01         0.00000E+00
    0.98088E-02        -0.93555E-02         0.00000E+00
    0.91521E-02        -0.86778E-02         0.00000E+00
    0.84890E-02        -0.80014E-02         0.00000E+00
    0.78192E-02        -0.73262E-02         0.00000E+00
    0.71428E-02        -0.66523E-02         0.00000E+00
    0.64597E-02        -0.59798E-02         0.00000E+00
    0.57699E-02        -0.53088E-02         0.00000E+00
    0.50733E-02        -0.46393E-02         0.00000E+00
    0.43697E-02        -0.39713E-02         0.00000E+00
    0.36592E-02        -0.33049E-02         0.00000E+00
    0.29417E-02        -0.26402E-02         0.00000E+00
    0.22171E-02        -0.19774E-02         0.00000E+00
    0.14853E-02        -0.13163E-02         0.00000E+00
    0.74632E-03        -0.65715E-03         0.00000E+00
    0.00000E+00         0.00000E+00         0.00000E+00
    0.30285E-01        -0.36625E-01         0.00000E+00
    0.29819E-01        -0.35871E-01         0.00000E+00
    0.29347E-01        -0.35119E-01         0.00000E+00
    0.28869E-01        -0.34368E-01         0.00000E+00
    0.28386E-01        -0.33617E-01         0.00000E+00
    0.27897E-01        -0.32868E-01         0.00000E+00
    0.27402E-01        -0.32120E-01         0.00000E+00
    0.26903E-01        -0.31373E-01         0.00000E+00
    0.26398E-01        -0.30626E-01         0.00000E+00
    0.25887E-01        -0.29881E-01         0.00000E+00
    0.25371E-01        -0.29136E-01         0.00000E+00
    0.24850E-01        -0.28392E-01         0.00000E+00
    0.24323E-01        -0.27649E-01         0.00000E+00
    0.23791E-01        -0.26907E-01         0.00000E+00
    0.23254E-01        -0.26165E-01         0.00000E+00
    0.22711E-01        -0.25424E-01         0.00000E+00
    0.22163E-01        -0.24684E-01         0.00000E+00
    0.21609E-01        -0.23945E-01         0.00000E+00
    0.21051E-01        -0.23206E-01         0.00000E+00
    0.20486E-01        -0.22468E-01         0.00000E+00
    0.19916E-01        -0.21730E-01         0.00000E+00
    0.19341E-01        -0.20994E-01         0.00000E+00
    0.18760E-01        -0.20257E-01         0.00000E+00
    0.18173E-01        -0.19522E-01         0.00000E+00
    0.17581E-01        -0.18787E-01         0.00000E+00
    0.16983E-01        -0.18053E-01         0.00000E+00
    0.16380E-01        -0.17319E-01         0.00000E+00
    0.15771E-01        -0.16587E-01         0.00000E+00
    0.15155E-01        -0.15854E-01         0.00000E+00
    0.14534E-01        -0.15123E-01         0.00000E+00
    0.13907E-01        -0.14392E-01         0.00000E+00
    0.13274E-01        -0.13663E-01         0.00000E+00
    0.12635E-01        -0.12934E-01         0.00000E+00
    0.11989E-01        -0.12205E-01         0.00000E+00
    0.11338E-01        -0.11478E-01         0.00000E+00
    0.10680E-01        -0.10752E-01         0.00000E+00
    0.10016E-01        -0.10026E-01         0.00000E+00
    0.93448E-02        -0.93017E-02         0.00000E+00
    0.86675E-02        -0.85783E-02         0.00000E+00
    0.79835E-02        -0.78560E-02         0.00000E+00
    0.72929E-02        -0.71348E-02         0.00000E+00
    0.65955E-02        -0.64149E-02         0.00000E+00
    0.58912E-02        -0.56962E-02         0.00000E+00
    0.51800E-02        -0.49788E-02         0.00000E+00
    0.44618E-02        -0.42628E-02         0.00000E+00
    0.37364E-02        -0.35483E-02         0.00000E+00
    0.30039E-02        -0.28353E-02         0.00000E+00
    0.22641E-02        -0.21238E-02         0.00000E+00
    0.15169E-02        -0.14141E-02         0.00000E+00
    0.76221E-03        -0.70614E-03         0.00000E+00
    0.00000E+00         0.00000E+00         0.00000E+00
    0.31077E-01        -0.39004E-01         0.00000E+00
    0.30587E-01        -0.38205E-01         0.00000E+00
    0.30091E-01        -0.37408E-01         0.00000E+00
    0.29590E-01        -0.36612E-01         0.00000E+00
    0.29084E-01        -0.35818E-01         0.00000E+00
    0.28573E-01        -0.35024E-01         0.00000E+00
    0.28058E-01        -0.34231E-01         0.00000E+00
    0.27537E-01        -0.33439E-01         0.00000E+00
    0.27012E-01        -0.32648E-01         0.00000E+00
    0.26481E-01        -0.31857E-01         0.00000E+00
    0.25946E-01        -0.31068E-01         0.00000E+00
    0.25406E-01        -0.30279E-01         0.00000E+00
    0.24861E-01        -0.29491E-01         0.00000E+00
    0.24311E-01        -0.28703E-01         0.00000E+00
    0.23756E-01        -0.27916E-01         0.00000E+00
    0.23196E-01        -0.27130E-01         0.00000E+00
    0.22631E-01        -0.26344E-01         0.00000E+00
    0.22061E-01        -0.25559E-01         0.00000E+00
    0.21487E-01        -0.24774E-01         0.00000E+00
    0.20907E-01        -0.23990E-01         0.00000E+00
    0.20321E-01        -0.23207E-01         0.00000E+00
    0.19731E-01        -0.22423E-01         0.00000E+00
    0.19135E-01        -0.21641E-01         0.00000E+00
    0.18534E-01        -0.20858E-01         0.00000E+00
    0.17928E-01        -0.20077E-01         0.00000E+00
    0.17316E-01        -0.19295E-01         0.00000E+00
    0.16699E-01        -0.18515E-01         0.00000E+00
    0.16076E-01        -0.17734E-01         0.00000E+00
    0.15447E-01        -0.16955E-01         0.00000E+00
    0.14813E-01        -0.16175E-01         0.00000E+00
    0.14172E-01        -0.15397E-01         0.00000E+00
    0.13526E-01        -0.14619E-01         0.00000E+00
    0.12874E-01        -0.13841E-01         0.00000E+00
    0.12216E-01        -0.13064E-01         0.00000E+00
    0.11551E-01        -0.12288E-01         0.00000E+00
    0.10880E-01        -0.11513E-01         0.00000E+00
    0.10203E-01        -0.10738E-01         0.00000E+00
    0.95198E-02        -0.99639E-02         0.00000E+00
    0.88297E-02        -0.91908E-02         0.00000E+00
    0.81329E-02        -0.84186E-02         0.00000E+00
    0.74294E-02        -0.76473E-02         0.00000E+00
    0.67190E-02        -0.68770E-02         0.00000E+00
    0.60016E-02        -0.61077E-02         0.00000E+00
    0.52772E-02        -0.53396E-02         0.00000E+00
    0.45456E-02        -0.45727E-02         0.00000E+00
    0.38068E-02        -0.38070E-02         0.00000E+00
    0.30606E-02        -0.30426E-02         0.00000E+00
    0.23069E-02        -0.22797E-02         0.00000E+00
    0.15457E-02        -0.15182E-02         0.00000E+00
    0.77672E-03        -0.75827E-03         0.00000E+00
    0.00000E+00         0.00000E+00         0.00000E+00
    0.31819E-01        -0.41507E-01         0.00000E+00
    0.31304E-01        -0.40662E-01         0.00000E+00
    0.30784E-01        -0.39819E-01         0.00000E+00
    0.30260E-01        -0.38976E-01         0.00000E+00
    0.29731E-01        -0.38135E-01         0.00000E+00
    0.29198E-01        -0.37294E-01         0.00000E+00
    0.28661E-01        -0.36455E-01         0.00000E+00
    0.28120E-01        -0.35616E-01         0.00000E+00
    0.27574E-01        -0.34778E-01         0.00000E+00
    0.27024E-01        -0.33941E-01         0.00000E+00
    0.26470E-01        -0.33104E-01         0.00000E+00
    0.25911E-01        -0.32268E-01         0.00000E+00
    0.25348E-01        -0.31433E-01         0.00000E+00
    0.24781E-01        -0.30598E-01         0.00000E+00
    0.24209E-01        -0.29764E-01         0.00000E+00
    0.23633E-01        -0.28930E-01         0.00000E+00
    0.23052E-01        -0.28097E-01         0.00000E+00
    0.22466E-01        -0.27263E-01         0.00000E+00
    0.21876E-01        -0.26431E-01         0.00000E+00
    0.21282E-01        -0.25598E-01         0.00000E+00
    0.20682E-01        -0.24766E-01         0.00000E+00
    0.20078E-01        -0.23934E-01         0.00000E+00
    0.19468E-01        -0.23103E-01         0.00000E+00
    0.18854E-01        -0.22271E-01         0.00000E+00
    0.18235E-01        -0.21440E-01         0.00000E+00
    0.17610E-01        -0.20610E-01         0.00000E+00
    0.16980E-01        -0.19779E-01         0.00000E+00
    0.16345E-01        -0.18949E-01         0.00000E+00
    0.15704E-01        -0.18119E-01         0.00000E+00
    0.15058E-01        -0.17289E-01         0.00000E+00
    0.14406E-01        -0.16460E-01         0.00000E+00
    0.13748E-01        -0.15631E-01         0.00000E+00
    0.13084E-01        -0.14802E-01         0.00000E+00
    0.12415E-01        -0.13974E-01         0.00000E+00
    0.11739E-01        -0.13146E-01         0.00000E+00
    0.11057E-01        -0.12319E-01         0.00000E+00
    0.10368E-01        -0.11492E-01         0.00000E+00
    0.96737E-02        -0.10666E-01         0.00000E+00
    0.89723E-02        -0.98402E-02         0.00000E+00
    0.82643E-02        -0.90152E-02         0.00000E+00
    0.75494E-02        -0.81908E-02         0.00000E+00
    0.68277E-02        -0.73672E-02         0.00000E+00
    0.60989E-02        -0.65444E-02         0.00000E+00
    0.53629E-02        -0.57226E-02         0.00000E+00
    0.46196E-02        -0.49016E-02         0.00000E+00
    0.38689E-02        -0.40817E-02         0.00000E+00
    0.31107E-02        -0.32628E-02         0.00000E+00
    0.23448E-02        -0.24452E-02         0.00000E+00
    0.15712E-02        -0.16287E-02         0.00000E+00
    0.78959E-03        -0.81366E-03         0.00000E+00
    0.00000E+00         0.00000E+00         0.00000E+00
    0.32498E-01        -0.44138E-01         0.00000E+00
    0.31957E-01        -0.43245E-01         0.00000E+00
    0.31413E-01        -0.42353E-01         0.00000E+00
    0.30865E-01        -0.41462E-01         0.00000E+00
    0.30313E-01        -0.40572E-01         0.00000E+00
    0.29758E-01        -0.39683E-01         0.00000E+00
    0.29200E-01        -0.38795E-01         0.00000E+00
    0.28638E-01        -0.37907E-01         0.00000E+00
    0.28072E-01        -0.37021E-01         0.00000E+00
    0.27503E-01        -0.36135E-01         0.00000E+00
    0.26930E-01        -0.35249E-01         0.00000E+00
    0.26353E-01        -0.34364E-01         0.00000E+00
    0.25773E-01        -0.33479E-01         0.00000E+00
    0.25189E-01        -0.32595E-01         0.00000E+00
    0.24601E-01        -0.31711E-01         0.00000E+00
    0.24010E-01        -0.30827E-01         0.00000E+00
    0.23414E-01        -0.29944E-01         0.00000E+00
    0.22814E-01        -0.29061E-01         0.00000E+00
    0.22210E-01        -0.28178E-01         0.00000E+00
    0.21602E-01        -0.27295E-01         0.00000E+00
    0.20989E-01        -0.26412E-01         0.00000E+00
    0.20372E-01        -0.25529E-01         0.00000E+00
    0.19751E-01        -0.24646E-01         0.00000E+00
    0.19125E-01        -0.23763E-01         0.00000E+00
    0.18494E-01        -0.22880E-01         0.00000E+00
    0.17858E-01        -0.21998E-01         0.00000E+00
    0.17217E-01        -0.21115E-01         0.00000E+00
    0.16571E-01        -0.20232E-01         0.00000E+00
    0.15920E-01        -0.19349E-01         0.00000E+00
    0.15263E-01        -0.18467E-01         0.00000E+00
    0.14601E-01        -0.17584E-01         0.00000E+00
    0.13934E-01        -0.16701E-01         0.00000E+00
    0.13260E-01        -0.15819E-01         0.00000E+00
    0.12581E-01        -0.14937E-01         0.00000E+00
    0.11896E-01        -0.14054E-01         0.00000E+00
    0.11204E-01        -0.13172E-01         0.00000E+00
    0.10507E-01        -0.12291E-01         0.00000E+00
    0.98027E-02        -0.11409E-01         0.00000E+00
    0.90920E-02        -0.10528E-01         0.00000E+00
    0.83746E-02        -0.96469E-02         0.00000E+00
    0.76503E-02        -0.87665E-02         0.00000E+00
    0.69191E-02        -0.78865E-02         0.00000E+00
    0.61807E-02        -0.70071E-02         0.00000E+00
    0.54351E-02        -0.61283E-02         0.00000E+00
    0.46820E-02        -0.52502E-02         0.00000E+00
    0.39214E-02        -0.43729E-02         0.00000E+00
    0.31531E-02        -0.34963E-02         0.00000E+00
    0.23769E-02        -0.26207E-02         0.00000E+00
    0.15928E-02        -0.17460E-02         0.00000E+00
    0.80054E-03        -0.87242E-03         0.00000E+00
    0.00000E+00         0.00000E+00         0.00000E+00
    0.33097E-01        -0.46899E-01         0.00000E+00
    0.32531E-01        -0.45955E-01         0.00000E+00
    0.31962E-01        -0.45013E-01         0.00000E+00
    0.31390E-01        -0.44072E-01         0.00000E+00
    0.30816E-01        -0.43131E-01         0.00000E+00
    0.30239E-01        -0.42192E-01         0.00000E+00
    0.29659E-01        -0.41253E-01         0.00000E+00
    0.29077E-01        -0.40315E-01         0.00000E+00
    0.28492E-01        -0.39378E-01         0.00000E+00
    0.27905E-01        -0.38441E-01         0.00000E+00
    0.27314E-01        -0.37504E-01         0.00000E+00
    0.26721E-01        -0.36568E-01         0.00000E+00
    0.26124E-01        -0.35632E-01         0.00000E+00
    0.25525E-01        -0.34696E-01         0.00000E+00
    0.24922E-01        -0.33760E-01         0.00000E+00
    0.24316E-01        -0.32825E-01         0.00000E+00
    0.23707E-01        -0.31889E-01         0.00000E+00
    0.23094E-01        -0.30953E-01         0.00000E+00
    0.22478E-01        -0.30017E-01         0.00000E+00
    0.21858E-01        -0.29081E-01         0.00000E+00
    0.21234E-01        -0.28145E-01         0.00000E+00
    0.20606E-01        -0.27209E-01         0.00000E+00
    0.19974E-01        -0.26272E-01         0.00000E+00
    0.19338E-01        -0.25336E-01         0.00000E+00
    0.18697E-01        -0.24398E-01         0.00000E+00
    0.18052E-01        -0.23461E-01         0.00000E+00
    0.17402E-01        -0.22523E-01         0.00000E+00
    0.16747E-01        -0.21586E-01         0.00000E+00
    0.16088E-01        -0.20647E-01         0.00000E+00
    0.15423E-01        -0.19709E-01         0.00000E+00
    0.14753E-01        -0.18770E-01         0.00000E+00
    0.14078E-01        -0.17831E-01         0.00000E+00
    0.13397E-01        -0.16892E-01         0.00000E+00
    0.12710E-01        -0.15953E-01         0.00000E+00
    0.12018E-01        -0.15013E-01         0.00000E+00
    0.11319E-01        -0.14074E-01         0.00000E+00
    0.10614E-01        -0.13134E-01         0.00000E+00
    0.99028E-02        -0.12194E-01         0.00000E+00
    0.91849E-02        -0.11254E-01         0.00000E+00
    0.84604E-02        -0.10315E-01         0.00000E+00
    0.77289E-02        -0.93751E-02         0.00000E+00
    0.69905E-02        -0.84357E-02         0.00000E+00
    0.62448E-02        -0.74965E-02         0.00000E+00
    0.54917E-02        -0.65576E-02         0.00000E+00
    0.47311E-02        -0.56190E-02         0.00000E+00
    0.39628E-02        -0.46809E-02         0.00000E+00
    0.31866E-02        -0.37434E-02         0.00000E+00
    0.24024E-02        -0.28064E-02         0.00000E+00
    0.16100E-02        -0.18701E-02         0.00000E+00
    0.80928E-03        -0.93464E-03         0.00000E+00
    0.00000E+00         0.00000E+00         0.00000E+00
    0.33600E-01        -0.49791E-01         0.00000E+00
    0.33008E-01        -0.48795E-01         0.00000E+00
    0.32414E-01        -0.47801E-01         0.00000E+00
    0.31819E-01        -0.46807E-01         0.00000E+00
    0.31222E-01        -0.45815E-01         0.00000E+00
    0.30624E-01        -0.44823E-01         0.00000E+00
    0.30024E-01        -0.43832E-01         0.00000E+00
    0.29423E-01        -0.42841E-01         0.00000E+00
    0.28820E-01        -0.41851E-01         0.00000E+00
    0.28215E-01        -0.40861E-01         0.00000E+00
    0.27608E-01        -0.39871E-01         0.00000E+00
    0.26999E-01        -0.38881E-01         0.00000E+00
    0.26387E-01        -0.37892E-01         0.00000E+00
    0.25774E-01        -0.36902E-01         0.00000E+00
    0.25158E-01        -0.35913E-01         0.00000E+00
    0.24540E-01        -0.34923E-01         0.00000E+00
    0.23919E-01        -0.33933E-01         0.00000E+00
    0.23295E-01        -0.32942E-01         0.00000E+00
    0.22668E-01        -0.31951E-01         0.00000E+00
    0.22038E-01        -0.30960E-01         0.00000E+00
    0.21404E-01        -0.29968E-01         0.00000E+00
    0.20768E-01        -0.28976E-01         0.00000E+00
    0.20127E-01        -0.27983E-01         0.00000E+00
    0.19483E-01        -0.26990E-01         0.00000E+00
    0.18835E-01        -0.25996E-01         0.00000E+00
    0.18183E-01        -0.25001E-01         0.00000E+00
    0.17527E-01        -0.24006E-01         0.00000E+00
    0.16866E-01        -0.23011E-01         0.00000E+00
    0.16200E-01        -0.22014E-01         0.00000E+00
    0.15530E-01        -0.21017E-01         0.00000E+00
    0.14854E-01        -0.20020E-01         0.00000E+00
    0.14174E-01        -0.19022E-01         0.00000E+00
    0.13488E-01        -0.18023E-01         0.00000E+00
    0.12796E-01        -0.17024E-01         0.00000E+00
    0.12099E-01        -0.16024E-01         0.00000E+00
    0.11395E-01        -0.15024E-01         0.00000E+00
    0.10686E-01        -0.14023E-01         0.00000E+00
    0.99699E-02        -0.13022E-01         0.00000E+00
    0.92475E-02        -0.12021E-01         0.00000E+00
    0.85183E-02        -0.11019E-01         0.00000E+00
    0.77823E-02        -0.10017E-01         0.00000E+00
    0.70391E-02        -0.90150E-02         0.00000E+00
    0.62886E-02        -0.80128E-02         0.00000E+00
    0.55307E-02        -0.70106E-02         0.00000E+00
    0.47651E-02        -0.60083E-02         0.00000E+00
    0.39916E-02        -0.50062E-02         0.00000E+00
    0.32101E-02        -0.40043E-02         0.00000E+00
    0.24204E-02        -0.30026E-02         0.00000E+00
    0.16222E-02        -0.20013E-02         0.00000E+00
    0.81551E-03        -0.10004E-02         0.00000E+00
    0.00000E+00         0.00000E+00         0.00000E+00
    0.33988E-01        -0.52815E-01         0.00000E+00
    0.33370E-01        -0.51765E-01         0.00000E+00
    0.32752E-01        -0.50716E-01         0.00000E+00
    0.32134E-01        -0.49669E-01         0.00000E+00
    0.31516E-01        -0.48622E-01         0.00000E+00
    0.30897E-01        -0.47576E-01         0.00000E+00
    0.30278E-01        -0.46530E-01         0.00000E+00
    0.29658E-01        -0.45485E-01         0.00000E+00
    0.29038E-01        -0.44440E-01         0.00000E+00
    0.28417E-01        -0.43395E-01         0.00000E+00
    0.27795E-01        -0.42350E-01         0.00000E+00
    0.27172E-01        -0.41305E-01         0.00000E+00
    0.26548E-01        -0.40260E-01         0.00000E+00
    0.25923E-01        -0.39215E-01         0.00000E+00
    0.25295E-01        -0.38169E-01         0.00000E+00
    0.24667E-01        -0.37122E-01         0.00000E+00
    0.24036E-01        -0.36075E-01         0.00000E+00
    0.23403E-01        -0.35028E-01         0.00000E+00
    0.22768E-01        -0.33980E-01         0.00000E+00
    0.22131E-01        -0.32931E-01         0.00000E+00
    0.21491E-01        -0.31881E-01         0.00000E+00
    0.20848E-01        -0.30831E-01         0.00000E+00
    0.20202E-01        -0.29779E-01         0.00000E+00
    0.19552E-01        -0.28727E-01         0.00000E+00
    0.18900E-01        -0.27673E-01         0.00000E+00
    0.18243E-01        -0.26619E-01         0.00000E+00
    0.17583E-01        -0.25564E-01         0.00000E+00
    0.16918E-01        -0.24508E-01         0.00000E+00
    0.16250E-01        -0.23450E-01         0.00000E+00
    0.15576E-01        -0.22392E-01         0.00000E+00
    0.14898E-01        -0.21333E-01         0.00000E+00
    0.14215E-01        -0.20273E-01         0.00000E+00
    0.13527E-01        -0.19212E-01         0.00000E+00
    0.12833E-01        -0.18150E-01         0.00000E+00
    0.12134E-01        -0.17087E-01         0.00000E+00
    0.11429E-01        -0.16023E-01         0.00000E+00
    0.10718E-01        -0.14959E-01         0.00000E+00
    0.99999E-02        -0.13893E-01         0.00000E+00
    0.92758E-02        -0.12827E-01         0.00000E+00
    0.85450E-02        -0.11760E-01         0.00000E+00
    0.78072E-02        -0.10693E-01         0.00000E+00
    0.70622E-02        -0.96249E-02         0.00000E+00
    0.63099E-02        -0.85564E-02         0.00000E+00
    0.55499E-02        -0.74875E-02         0.00000E+00
    0.47821E-02        -0.64183E-02         0.00000E+00
    0.40064E-02        -0.53487E-02         0.00000E+00
    0.32224E-02        -0.42790E-02         0.00000E+00
    0.24299E-02        -0.32092E-02         0.00000E+00
    0.16289E-02        -0.21394E-02         0.00000E+00
    0.81895E-03        -0.10696E-02         0.00000E+00
    0.00000E+00         0.00000E+00         0.00000E+00
    0.34238E-01        -0.55968E-01         0.00000E+00
    0.33595E-01        -0.54862E-01         0.00000E+00
    0.32954E-01        -0.53758E-01         0.00000E+00
    0.32314E-01        -0.52655E-01         0.00000E+00
    0.31675E-01        -0.51552E-01         0.00000E+00
    0.31038E-01        -0.50450E-01         0.00000E+00
    0.30401E-01        -0.49348E-01         0.00000E+00
    0.29765E-01        -0.48246E-01         0.00000E+00
    0.29130E-01        -0.47144E-01         0.00000E+00
    0.28495E-01        -0.46042E-01         0.00000E+00
    0.27860E-01        -0.44940E-01         0.00000E+00
    0.27225E-01        -0.43838E-01         0.00000E+00
    0.26590E-01        -0.42735E-01         0.00000E+00
    0.25955E-01        -0.41632E-01         0.00000E+00
    0.25319E-01        -0.40528E-01         0.00000E+00
    0.24683E-01        -0.39423E-01         0.00000E+00
    0.24045E-01        -0.38317E-01         0.00000E+00
    0.23406E-01        -0.37210E-01         0.00000E+00
    0.22766E-01        -0.36102E-01         0.00000E+00
    0.22124E-01        -0.34993E-01         0.00000E+00
    0.21480E-01        -0.33883E-01         0.00000E+00
    0.20834E-01        -0.32772E-01         0.00000E+00
    0.20185E-01        -0.31659E-01         0.00000E+00
    0.19534E-01        -0.30545E-01         0.00000E+00
    0.18880E-01        -0.29430E-01         0.00000E+00
    0.18222E-01        -0.28313E-01         0.00000E+00
    0.17561E-01        -0.27196E-01         0.00000E+00
    0.16896E-01        -0.26076E-01         0.00000E+00
    0.16228E-01        -0.24955E-01         0.00000E+00
    0.15555E-01        -0.23833E-01         0.00000E+00
    0.14878E-01        -0.22710E-01         0.00000E+00
    0.14195E-01        -0.21585E-01         0.00000E+00
    0.13508E-01        -0.20458E-01         0.00000E+00
    0.12816E-01        -0.19330E-01         0.00000E+00
    0.12118E-01        -0.18201E-01         0.00000E+00
    0.11414E-01        -0.17071E-01         0.00000E+00
    0.10705E-01        -0.15940E-01         0.00000E+00
    0.99886E-02        -0.14807E-01         0.00000E+00
    0.92661E-02        -0.13673E-01         0.00000E+00
    0.85368E-02        -0.12538E-01         0.00000E+00
    0.78005E-02        -0.11402E-01         0.00000E+00
    0.70570E-02        -0.10265E-01         0.00000E+00
    0.63060E-02        -0.91269E-02         0.00000E+00
    0.55472E-02        -0.79881E-02         0.00000E+00
    0.47805E-02        -0.68486E-02         0.00000E+00
    0.40056E-02        -0.57084E-02         0.00000E+00
    0.32222E-02        -0.45675E-02         0.00000E+00
    0.24302E-02        -0.34262E-02         0.00000E+00
    0.16293E-02        -0.22844E-02         0.00000E+00
    0.81932E-03        -0.11423E-02         0.00000E+00
    0.00000E+00         0.00000E+00         0.00000E+00
    0.34328E-01        -0.59247E-01         0.00000E+00
    0.33661E-01        -0.58084E-01         0.00000E+00
    0.32998E-01        -0.56922E-01         0.00000E+00
    0.32338E-01        -0.55761E-01         0.00000E+00
    0.31680E-01        -0.54601E-01         0.00000E+00
    0.31026E-01        -0.53441E-01         0.00000E+00
    0.30373E-01        -0.52281E-01         0.00000E+00
    0.29723E-01        -0.51121E-01         0.00000E+00
    0.29075E-01        -0.49961E-01         0.00000E+00
    0.28428E-01        -0.48800E-01         0.00000E+00
    0.27784E-01        -0.47639E-01         0.00000E+00
    0.27140E-01        -0.46477E-01         0.00000E+00
    0.26497E-01        -0.45315E-01         0.00000E+00
    0.25855E-01        -0.44151E-01         0.00000E+00
    0.25214E-01        -0.42987E-01         0.00000E+00
    0.24573E-01        -0.41821E-01         0.00000E+00
    0.23932E-01        -0.40654E-01         0.00000E+00
    0.23290E-01        -0.39486E-01         0.00000E+00
    0.22648E-01        -0.38316E-01         0.00000E+00
    0.22005E-01        -0.37145E-01         0.00000E+00
    0.21361E-01        -0.35972E-01         0.00000E+00
    0.20715E-01        -0.34798E-01         0.00000E+00
    0.20067E-01        -0.33622E-01         0.00000E+00
    0.19417E-01        -0.32444E-01         0.00000E+00
    0.18765E-01        -0.31264E-01         0.00000E+00
    0.18110E-01        -0.30083E-01         0.00000E+00
    0.17452E-01        -0.28899E-01         0.00000E+00
    0.16791E-01        -0.27714E-01         0.00000E+00
    0.16126E-01        -0.26527E-01         0.00000E+00
    0.15458E-01        -0.25338E-01         0.00000E+00
    0.14785E-01        -0.24148E-01         0.00000E+00
    0.14107E-01        -0.22955E-01         0.00000E+00
    0.13425E-01        -0.21761E-01         0.00000E+00
    0.12738E-01        -0.20564E-01         0.00000E+00
    0.12045E-01        -0.19366E-01         0.00000E+00
    0.11347E-01        -0.18167E-01         0.00000E+00
    0.10642E-01        -0.16965E-01         0.00000E+00
    0.99315E-02        -0.15762E-01         0.00000E+00
    0.92143E-02        -0.14557E-01         0.00000E+00
    0.84903E-02        -0.13351E-01         0.00000E+00
    0.77592E-02        -0.12143E-01         0.00000E+00
    0.70207E-02        -0.10934E-01         0.00000E+00
    0.62746E-02        -0.97237E-02         0.00000E+00
    0.55206E-02        -0.85119E-02         0.00000E+00
    0.47584E-02        -0.72988E-02         0.00000E+00
    0.39878E-02        -0.60847E-02         0.00000E+00
    0.32086E-02        -0.48694E-02         0.00000E+00
    0.24204E-02        -0.36533E-02         0.00000E+00
    0.16231E-02        -0.24363E-02         0.00000E+00
    0.81637E-03        -0.12185E-02         0.00000E+00
    0.00000E+00         0.00000E+00         0.00000E+00
    0.34231E-01        -0.62645E-01         0.00000E+00
    0.33542E-01        -0.61423E-01         0.00000E+00
    0.32859E-01        -0.60203E-01         0.00000E+00
    0.32181E-01        -0.58983E-01         0.00000E+00
    0.31507E-01        -0.57763E-01         0.00000E+00
    0.30837E-01        -0.56544E-01         0.00000E+00
    0.30172E-01        -0.55324E-01         0.00000E+00
    0.29511E-01        -0.54104E-01         0.00000E+00
    0.28853E-01        -0.52884E-01         0.00000E+00
    0.28198E-01        -0.51663E-01         0.00000E+00
    0.27546E-01        -0.50441E-01         0.00000E+00
    0.26897E-01        -0.49218E-01         0.00000E+00
    0.26250E-01        -0.47994E-01         0.00000E+00
    0.25606E-01        -0.46768E-01         0.00000E+00
    0.24962E-01        -0.45541E-01         0.00000E+00
    0.24320E-01        -0.44313E-01         0.00000E+00
    0.23680E-01        -0.43083E-01         0.00000E+00
    0.23039E-01        -0.41851E-01         0.00000E+00
    0.22399E-01        -0.40617E-01         0.00000E+00
    0.21759E-01        -0.39382E-01         0.00000E+00
    0.21119E-01        -0.38144E-01         0.00000E+00
    0.20477E-01        -0.36904E-01         0.00000E+00
    0.19835E-01        -0.35662E-01         0.00000E+00
    0.19191E-01        -0.34418E-01         0.00000E+00
    0.18545E-01        -0.33171E-01         0.00000E+00
    0.17897E-01        -0.31923E-01         0.00000E+00
    0.17247E-01        -0.30672E-01         0.00000E+00
    0.16594E-01        -0.29418E-01         0.00000E+00
    0.15937E-01        -0.28163E-01         0.00000E+00
    0.15277E-01        -0.26904E-01         0.00000E+00
    0.14612E-01        -0.25644E-01         0.00000E+00
    0.13944E-01        -0.24381E-01         0.00000E+00
    0.13271E-01        -0.23116E-01         0.00000E+00
    0.12593E-01        -0.21849E-01         0.00000E+00
    0.11910E-01        -0.20579E-01         0.00000E+00
    0.11221E-01        -0.19307E-01         0.00000E+00
    0.10526E-01        -0.18033E-01         0.00000E+00
    0.98244E-02        -0.16757E-01         0.00000E+00
    0.91166E-02        -0.15479E-01         0.00000E+00
    0.84019E-02        -0.14198E-01         0.00000E+00
    0.76800E-02        -0.12916E-01         0.00000E+00
    0.69506E-02        -0.11632E-01         0.00000E+00
    0.62133E-02        -0.10345E-01         0.00000E+00
    0.54680E-02        -0.90575E-02         0.00000E+00
    0.47142E-02        -0.77679E-02         0.00000E+00
    0.39518E-02        -0.64767E-02         0.00000E+00
    0.31804E-02        -0.51840E-02         0.00000E+00
    0.23998E-02        -0.38899E-02         0.00000E+00
    0.16097E-02        -0.25945E-02         0.00000E+00
    0.80984E-03        -0.12978E-02         0.00000E+00
    0.00000E+00         0.00000E+00         0.00000E+00
    0.33918E-01        -0.66153E-01         0.00000E+00
    0.33211E-01        -0.64871E-01         0.00000E+00
    0.32510E-01        -0.63590E-01         0.00000E+00
    0.31816E-01        -0.62310E-01         0.00000E+00
    0.31129E-01        -0.61030E-01         0.00000E+00
    0.30449E-01        -0.59749E-01         0.00000E+00
    0.29774E-01        -0.58468E-01         0.00000E+00
    0.29105E-01        -0.57187E-01         0.00000E+00
    0.28441E-01        -0.55905E-01         0.00000E+00
    0.27782E-01        -0.54622E-01         0.00000E+00
    0.27127E-01        -0.53337E-01         0.00000E+00
    0.26477E-01        -0.52051E-01         0.00000E+00
    0.25830E-01        -0.50764E-01         0.00000E+00
    0.25187E-01        -0.49475E-01         0.00000E+00
    0.24546E-01        -0.48184E-01         0.00000E+00
    0.23908E-01        -0.46891E-01         0.00000E+00
    0.23272E-01        -0.45595E-01         0.00000E+00
    0.22638E-01        -0.44298E-01         0.00000E+00
    0.22005E-01        -0.42998E-01         0.00000E+00
    0.21373E-01        -0.41696E-01         0.00000E+00
    0.20741E-01        -0.40391E-01         0.00000E+00
    0.20109E-01        -0.39084E-01         0.00000E+00
    0.19477E-01        -0.37774E-01         0.00000E+00
    0.18843E-01        -0.36462E-01         0.00000E+00
    0.18209E-01        -0.35146E-01         0.00000E+00
    0.17573E-01        -0.33828E-01         0.00000E+00
    0.16935E-01        -0.32507E-01         0.00000E+00
    0.16294E-01        -0.31183E-01         0.00000E+00
    0.15650E-01        -0.29856E-01         0.00000E+00
    0.15004E-01        -0.28527E-01         0.00000E+00
    0.14353E-01        -0.27194E-01         0.00000E+00
    0.13698E-01        -0.25859E-01         0.00000E+00
    0.13039E-01        -0.24521E-01         0.00000E+00
    0.12375E-01        -0.23180E-01         0.00000E+00
    0.11706E-01        -0.21836E-01         0.00000E+00
    0.11031E-01        -0.20489E-01         0.00000E+00
    0.10350E-01        -0.19140E-01         0.00000E+00
    0.96631E-02        -0.17788E-01         0.00000E+00
    0.89692E-02        -0.16433E-01         0.00000E+00
    0.82683E-02        -0.15076E-01         0.00000E+00
    0.75600E-02        -0.13716E-01         0.00000E+00
    0.68440E-02        -0.12354E-01         0.00000E+00
    0.61199E-02        -0.10990E-01         0.00000E+00
    0.53874E-02        -0.96232E-02         0.00000E+00
    0.46463E-02        -0.82543E-02         0.00000E+00
    0.38961E-02        -0.68833E-02         0.00000E+00
    0.31366E-02        -0.55103E-02         0.00000E+00
    0.23676E-02        -0.41353E-02         0.00000E+00
    0.15886E-02        -0.27586E-02         0.00000E+00
    0.79953E-03        -0.13801E-02         0.00000E+00
    0.00000E+00         0.00000E+00         0.00000E+00
    0.33360E-01        -0.69756E-01         0.00000E+00
    0.32636E-01        -0.68413E-01         0.00000E+00
    0.31921E-01        -0.67071E-01         0.00000E+00
    0.31216E-01        -0.65729E-01         0.00000E+00
    0.30520E-01        -0.64387E-01         0.00000E+00
    0.29832E-01        -0.63045E-01         0.00000E+00
    0.29153E-01        -0.61701E-01         0.00000E+00
    0.28480E-01        -0.60357E-01         0.00000E+00
    0.27815E-01        -0.59012E-01         0.00000E+00
    0.27157E-01        -0.57665E-01         0.00000E+00
    0.26505E-01        -0.56316E-01         0.00000E+00
    0.25858E-01        -0.54966E-01         0.00000E+00
    0.25217E-01        -0.53614E-01         0.00000E+00
    0.24580E-01        -0.52259E-01         0.00000E+00
    0.23947E-01        -0.50902E-01         0.00000E+00
    0.23318E-01        -0.49543E-01         0.00000E+00
    0.22693E-01        -0.48181E-01         0.00000E+00
    0.22070E-01        -0.46816E-01         0.00000E+00
    0.21449E-01        -0.45449E-01         0.00000E+00
    0.20830E-01        -0.44078E-01         0.00000E+00
    0.20213E-01        -0.42705E-01         0.00000E+00
    0.19596E-01        -0.41328E-01         0.00000E+00
    0.18979E-01        -0.39949E-01         0.00000E+00
    0.18362E-01        -0.38565E-01         0.00000E+00
    0.17745E-01        -0.37179E-01         0.00000E+00
    0.17126E-01        -0.35790E-01         0.00000E+00
    0.16505E-01        -0.34397E-01         0.00000E+00
    0.15883E-01        -0.33000E-01         0.00000E+00
    0.15258E-01        -0.31600E-01         0.00000E+00
    0.14630E-01        -0.30197E-01         0.00000E+00
    0.13998E-01        -0.28790E-01         0.00000E+00
    0.13363E-01        -0.27380E-01         0.00000E+00
    0.12723E-01        -0.25967E-01         0.00000E+00
    0.12078E-01        -0.24550E-01         0.00000E+00
    0.11428E-01        -0.23130E-01         0.00000E+00
    0.10773E-01        -0.21707E-01         0.00000E+00
    0.10111E-01        -0.20280E-01         0.00000E+00
    0.94431E-02        -0.18850E-01         0.00000E+00
    0.87681E-02        -0.17417E-01         0.00000E+00
    0.80859E-02        -0.15981E-01         0.00000E+00
    0.73961E-02        -0.14542E-01         0.00000E+00
    0.66982E-02        -0.13099E-01         0.00000E+00
    0.59920E-02        -0.11654E-01         0.00000E+00
    0.52770E-02        -0.10206E-01         0.00000E+00
    0.45530E-02        -0.87557E-02         0.00000E+00
    0.38195E-02        -0.73024E-02         0.00000E+00
    0.30763E-02        -0.58466E-02         0.00000E+00
    0.23231E-02        -0.43884E-02         0.00000E+00
    0.15595E-02        -0.29278E-02         0.00000E+00
    0.78521E-03        -0.14649E-02         0.00000E+00
    0.00000E+00         0.00000E+00         0.00000E+00
    0.32521E-01        -0.73436E-01         0.00000E+00
    0.31785E-01        -0.72032E-01         0.00000E+00
    0.31062E-01        -0.70627E-01         0.00000E+00
    0.30350E-01        -0.69223E-01         0.00000E+00
    0.29650E-01        -0.67818E-01         0.00000E+00
    0.28960E-01        -0.66412E-01         0.00000E+00
    0.28281E-01        -0.65005E-01         0.00000E+00
    0.27611E-01        -0.63597E-01         0.00000E+00
    0.26951E-01        -0.62187E-01         0.00000E+00
    0.26299E-01        -0.60776E-01         0.00000E+00
    0.25655E-01        -0.59362E-01         0.00000E+00
    0.25018E-01        -0.57946E-01         0.00000E+00
    0.24388E-01        -0.56527E-01         0.00000E+00
    0.23764E-01        -0.55106E-01         0.00000E+00
    0.23145E-01        -0.53682E-01         0.00000E+00
    0.22532E-01        -0.52255E-01         0.00000E+00
    0.21923E-01        -0.50824E-01         0.00000E+00
    0.21318E-01        -0.49391E-01         0.00000E+00
    0.20716E-01        -0.47954E-01         0.00000E+00
    0.20117E-01        -0.46514E-01         0.00000E+00
    0.19519E-01        -0.45070E-01         0.00000E+00
    0.18924E-01        -0.43623E-01         0.00000E+00
    0.18329E-01        -0.42171E-01         0.00000E+00
    0.17735E-01        -0.40716E-01         0.00000E+00
    0.17140E-01        -0.39258E-01         0.00000E+00
    0.16545E-01        -0.37795E-01         0.00000E+00
    0.15949E-01        -0.36328E-01         0.00000E+00
    0.15350E-01        -0.34858E-01         0.00000E+00
    0.14750E-01        -0.33384E-01         0.00000E+00
    0.14147E-01        -0.31905E-01         0.00000E+00
    0.13540E-01        -0.30423E-01         0.00000E+00
    0.12930E-01        -0.28936E-01         0.00000E+00
    0.12315E-01        -0.27446E-01         0.00000E+00
    0.11695E-01        -0.25952E-01         0.00000E+00
    0.11071E-01        -0.24454E-01         0.00000E+00
    0.10440E-01        -0.22952E-01         0.00000E+00
    0.98032E-02        -0.21446E-01         0.00000E+00
    0.91598E-02        -0.19937E-01         0.00000E+00
    0.85092E-02        -0.18423E-01         0.00000E+00
    0.78510E-02        -0.16906E-01         0.00000E+00
    0.71849E-02        -0.15386E-01         0.00000E+00
    0.65104E-02        -0.13862E-01         0.00000E+00
    0.58271E-02        -0.12334E-01         0.00000E+00
    0.51347E-02        -0.10803E-01         0.00000E+00
    0.44327E-02        -0.92690E-02         0.00000E+00
    0.37207E-02        -0.77315E-02         0.00000E+00
    0.29985E-02        -0.61910E-02         0.00000E+00
    0.22656E-02        -0.46475E-02         0.00000E+00
    0.15218E-02        -0.31011E-02         0.00000E+00
    0.76668E-03        -0.15519E-02         0.00000E+00
    0.00000E+00         0.00000E+00         0.00000E+00
    0.31365E-01        -0.77168E-01         0.00000E+00
    0.30623E-01        -0.75701E-01         0.00000E+00
    0.29897E-01        -0.74234E-01         0.00000E+00
    0.29185E-01        -0.72767E-01         0.00000E+00
    0.28487E-01        -0.71298E-01         0.00000E+00
    0.27802E-01        -0.69828E-01         0.00000E+00
    0.27130E-01        -0.68357E-01         0.00000E+00
    0.26470E-01        -0.66884E-01         0.00000E+00
    0.25821E-01        -0.65409E-01         0.00000E+00
    0.25182E-01        -0.63931E-01         0.00000E+00
    0.24553E-01        -0.62451E-01         0.00000E+00
    0.23934E-01        -0.60968E-01         0.00000E+00
    0.23322E-01        -0.59482E-01         0.00000E+00
    0.22718E-01        -0.57993E-01         0.00000E+00
    0.22121E-01        -0.56500E-01         0.00000E+00
    0.21530E-01        -0.55004E-01         0.00000E+00
    0.20945E-01        -0.53505E-01         0.00000E+00
    0.20365E-01        -0.52001E-01         0.00000E+00
    0.19789E-01        -0.50494E-01         0.00000E+00
    0.19216E-01        -0.48983E-01         0.00000E+00
    0.18646E-01        -0.47467E-01         0.00000E+00
    0.18079E-01        -0.45948E-01         0.00000E+00
    0.17513E-01        -0.44424E-01         0.00000E+00
    0.16948E-01        -0.42896E-01         0.00000E+00
    0.16384E-01        -0.41364E-01         0.00000E+00
    0.15819E-01        -0.39827E-01         0.00000E+00
    0.15253E-01        -0.38286E-01         0.00000E+00
    0.14686E-01        -0.36741E-01         0.00000E+00
    0.14117E-01        -0.35190E-01         0.00000E+00
    0.13545E-01        -0.33636E-01         0.00000E+00
    0.12970E-01        -0.32077E-01         0.00000E+00
    0.12391E-01        -0.30513E-01         0.00000E+00
    0.11808E-01        -0.28945E-01         0.00000E+00
    0.11220E-01        -0.27373E-01         0.00000E+00
    0.10626E-01        -0.25796E-01         0.00000E+00
    0.10027E-01        -0.24214E-01         0.00000E+00
    0.94208E-02        -0.22629E-01         0.00000E+00
    0.88079E-02        -0.21038E-01         0.00000E+00
    0.81876E-02        -0.19444E-01         0.00000E+00
    0.75594E-02        -0.17845E-01         0.00000E+00
    0.69228E-02        -0.16242E-01         0.00000E+00
    0.62773E-02        -0.14635E-01         0.00000E+00
    0.56225E-02        -0.13024E-01         0.00000E+00
    0.49580E-02        -0.11409E-01         0.00000E+00
    0.42833E-02        -0.97899E-02         0.00000E+00
    0.35981E-02        -0.81671E-02         0.00000E+00
    0.29018E-02        -0.65406E-02         0.00000E+00
    0.21943E-02        -0.49106E-02         0.00000E+00
    0.14750E-02        -0.32770E-02         0.00000E+00
    0.74370E-03        -0.16401E-02         0.00000E+00
    0.00000E+00         0.00000E+00         0.00000E+00
    0.29853E-01        -0.80919E-01         0.00000E+00
    0.29113E-01        -0.79390E-01         0.00000E+00
    0.28391E-01        -0.77860E-01         0.00000E+00
    0.27687E-01        -0.76329E-01         0.00000E+00
    0.26999E-01        -0.74796E-01         0.00000E+00
    0.26328E-01        -0.73262E-01         0.00000E+00
    0.25671E-01        -0.71725E-01         0.00000E+00
    0.25028E-01        -0.70186E-01         0.00000E+00
    0.24399E-01        -0.68645E-01         0.00000E+00
    0.23782E-01        -0.67101E-01         0.00000E+00
    0.23177E-01        -0.65554E-01         0.00000E+00
    0.22582E-01        -0.64003E-01         0.00000E+00
    0.21997E-01        -0.62449E-01         0.00000E+00
    0.21422E-01        -0.60891E-01         0.00000E+00
    0.20854E-01        -0.59329E-01         0.00000E+00
    0.20294E-01        -0.57764E-01         0.00000E+00
    0.19741E-01        -0.56194E-01         0.00000E+00
    0.19193E-01        -0.54620E-01         0.00000E+00
    0.18651E-01        -0.53041E-01         0.00000E+00
    0.18113E-01        -0.51458E-01         0.00000E+00
    0.17578E-01        -0.49871E-01         0.00000E+00
    0.17047E-01        -0.48279E-01         0.00000E+00
    0.16518E-01        -0.46682E-01         0.00000E+00
    0.15990E-01        -0.45081E-01         0.00000E+00
    0.15462E-01        -0.43475E-01         0.00000E+00
    0.14935E-01        -0.41863E-01         0.00000E+00
    0.14408E-01        -0.40247E-01         0.00000E+00
    0.13879E-01        -0.38626E-01         0.00000E+00
    0.13348E-01        -0.37001E-01         0.00000E+00
    0.12814E-01        -0.35370E-01         0.00000E+00
    0.12278E-01        -0.33734E-01         0.00000E+00
    0.11737E-01        -0.32093E-01         0.00000E+00
    0.11192E-01        -0.30447E-01         0.00000E+00
    0.10642E-01        -0.28796E-01         0.00000E+00
    0.10087E-01        -0.27140E-01         0.00000E+00
    0.95254E-02        -0.25479E-01         0.00000E+00
    0.89570E-02        -0.23814E-01         0.00000E+00
    0.83813E-02        -0.22143E-01         0.00000E+00
    0.77978E-02        -0.20467E-01         0.00000E+00
    0.72058E-02        -0.18787E-01         0.00000E+00
    0.66050E-02        -0.17101E-01         0.00000E+00
    0.59947E-02        -0.15411E-01         0.00000E+00
    0.53745E-02        -0.13716E-01         0.00000E+00
    0.47439E-02        -0.12017E-01         0.00000E+00
    0.41024E-02        -0.10313E-01         0.00000E+00
    0.34495E-02        -0.86047E-02         0.00000E+00
    0.27848E-02        -0.68920E-02         0.00000E+00
    0.21079E-02        -0.51750E-02         0.00000E+00
    0.14184E-02        -0.34540E-02         0.00000E+00
    0.71591E-03        -0.17289E-02         0.00000E+00
    0.00000E+00         0.00000E+00         0.00000E+00
    0.27944E-01        -0.84648E-01         0.00000E+00
    0.27215E-01        -0.83056E-01         0.00000E+00
    0.26508E-01        -0.81463E-01         0.00000E+00
    0.25821E-01        -0.79868E-01         0.00000E+00
    0.25154E-01        -0.78271E-01         0.00000E+00
    0.24505E-01        -0.76672E-01         0.00000E+00
    0.23873E-01        -0.75070E-01         0.00000E+00
    0.23258E-01        -0.73465E-01         0.00000E+00
    0.22658E-01        -0.71857E-01         0.00000E+00
    0.22072E-01        -0.70246E-01         0.00000E+00
    0.21500E-01        -0.68631E-01         0.00000E+00
    0.20940E-01        -0.67012E-01         0.00000E+00
    0.20392E-01        -0.65389E-01         0.00000E+00
    0.19853E-01        -0.63762E-01         0.00000E+00
    0.19325E-01        -0.62131E-01         0.00000E+00
    0.18804E-01        -0.60495E-01         0.00000E+00
    0.18292E-01        -0.58855E-01         0.00000E+00
    0.17786E-01        -0.57210E-01         0.00000E+00
    0.17286E-01        -0.55561E-01         0.00000E+00
    0.16791E-01        -0.53906E-01         0.00000E+00
    0.16300E-01        -0.52247E-01         0.00000E+00
    0.15813E-01        -0.50582E-01         0.00000E+00
    0.15328E-01        -0.48913E-01         0.00000E+00
    0.14845E-01        -0.47238E-01         0.00000E+00
    0.14363E-01        -0.45558E-01         0.00000E+00
    0.13881E-01        -0.43873E-01         0.00000E+00
    0.13399E-01        -0.42183E-01         0.00000E+00
    0.12916E-01        -0.40488E-01         0.00000E+00
    0.12431E-01        -0.38787E-01         0.00000E+00
    0.11943E-01        -0.37081E-01         0.00000E+00
    0.11452E-01        -0.35369E-01         0.00000E+00
    0.10958E-01        -0.33652E-01         0.00000E+00
    0.10458E-01        -0.31929E-01         0.00000E+00
    0.99539E-02        -0.30201E-01         0.00000E+00
    0.94437E-02        -0.28468E-01         0.00000E+00
    0.89270E-02        -0.26729E-01         0.00000E+00
    0.84032E-02        -0.24984E-01         0.00000E+00
    0.78718E-02        -0.23234E-01         0.00000E+00
    0.73320E-02        -0.21478E-01         0.00000E+00
    0.67833E-02        -0.19717E-01         0.00000E+00
    0.62251E-02        -0.17951E-01         0.00000E+00
    0.56568E-02        -0.16179E-01         0.00000E+00
    0.50779E-02        -0.14402E-01         0.00000E+00
    0.44878E-02        -0.12619E-01         0.00000E+00
    0.38859E-02        -0.10832E-01         0.00000E+00
    0.32718E-02        -0.90385E-02         0.00000E+00
    0.26449E-02        -0.72405E-02         0.00000E+00
    0.20048E-02        -0.54375E-02         0.00000E+00
    0.13509E-02        -0.36297E-02         0.00000E+00
    0.68274E-03        -0.18171E-02         0.00000E+00
    0.00000E+00         0.00000E+00         0.00000E+00
    0.25597E-01        -0.88302E-01         0.00000E+00
    0.24891E-01        -0.86648E-01         0.00000E+00
    0.24210E-01        -0.84991E-01         0.00000E+00
    0.23552E-01        -0.83333E-01         0.00000E+00
    0.22916E-01        -0.81672E-01         0.00000E+00
    0.22302E-01        -0.80008E-01         0.00000E+00
    0.21707E-01        -0.78340E-01         0.00000E+00
    0.21131E-01        -0.76669E-01         0.00000E+00
    0.20572E-01        -0.74995E-01         0.00000E+00
    0.20029E-01        -0.73316E-01         0.00000E+00
    0.19501E-01        -0.71633E-01         0.00000E+00
    0.18987E-01        -0.69946E-01         0.00000E+00
    0.18485E-01        -0.68255E-01         0.00000E+00
    0.17995E-01        -0.66558E-01         0.00000E+00
    0.17514E-01        -0.64858E-01         0.00000E+00
    0.17044E-01        -0.63152E-01         0.00000E+00
    0.16581E-01        -0.61442E-01         0.00000E+00
    0.16126E-01        -0.59726E-01         0.00000E+00
    0.15678E-01        -0.58006E-01         0.00000E+00
    0.15234E-01        -0.56281E-01         0.00000E+00
    0.14796E-01        -0.54550E-01         0.00000E+00
    0.14361E-01        -0.52814E-01         0.00000E+00
    0.13929E-01        -0.51073E-01         0.00000E+00
    0.13499E-01        -0.49327E-01         0.00000E+00
    0.13070E-01        -0.47575E-01         0.00000E+00
    0.12641E-01        -0.45818E-01         0.00000E+00
    0.12213E-01        -0.44056E-01         0.00000E+00
    0.11783E-01        -0.42288E-01         0.00000E+00
    0.11351E-01        -0.40514E-01         0.00000E+00
    0.10917E-01        -0.38735E-01         0.00000E+00
    0.10479E-01        -0.36950E-01         0.00000E+00
    0.10038E-01        -0.35160E-01         0.00000E+00
    0.95920E-02        -0.33363E-01         0.00000E+00
    0.91406E-02        -0.31561E-01         0.00000E+00
    0.86831E-02        -0.29753E-01         0.00000E+00
    0.82190E-02        -0.27938E-01         0.00000E+00
    0.77474E-02        -0.26118E-01         0.00000E+00
    0.72677E-02        -0.24292E-01         0.00000E+00
    0.67793E-02        -0.22460E-01         0.00000E+00
    0.62815E-02        -0.20621E-01         0.00000E+00
    0.57736E-02        -0.18776E-01         0.00000E+00
    0.52550E-02        -0.16926E-01         0.00000E+00
    0.47250E-02        -0.15069E-01         0.00000E+00
    0.41829E-02        -0.13206E-01         0.00000E+00
    0.36282E-02        -0.11337E-01         0.00000E+00
    0.30602E-02        -0.94618E-02         0.00000E+00
    0.24783E-02        -0.75809E-02         0.00000E+00
    0.18819E-02        -0.56941E-02         0.00000E+00
    0.12704E-02        -0.38016E-02         0.00000E+00
    0.64327E-03        -0.19035E-02         0.00000E+00
    0.00000E+00         0.00000E+00         0.00000E+00
    0.22768E-01        -0.91815E-01         0.00000E+00
    0.22099E-01        -0.90099E-01         0.00000E+00
    0.21459E-01        -0.88380E-01         0.00000E+00
    0.20845E-01        -0.86658E-01         0.00000E+00
    0.20256E-01        -0.84933E-01         0.00000E+00
    0.19690E-01        -0.83204E-01         0.00000E+00
    0.19147E-01        -0.81471E-01         0.00000E+00
    0.18623E-01        -0.79734E-01         0.00000E+00
    0.18118E-01        -0.77993E-01         0.00000E+00
    0.17631E-01        -0.76247E-01         0.00000E+00
    0.17159E-01        -0.74497E-01         0.00000E+00
    0.16703E-01        -0.72742E-01         0.00000E+00
    0.16259E-01        -0.70982E-01         0.00000E+00
    0.15828E-01        -0.69217E-01         0.00000E+00
    0.15407E-01        -0.67447E-01         0.00000E+00
    0.14996E-01        -0.65673E-01         0.00000E+00
    0.14594E-01        -0.63893E-01         0.00000E+00
    0.14199E-01        -0.62109E-01         0.00000E+00
    0.13811E-01        -0.60319E-01         0.00000E+00
    0.13428E-01        -0.58525E-01         0.00000E+00
    0.13050E-01        -0.56725E-01         0.00000E+00
    0.12676E-01        -0.54920E-01         0.00000E+00
    0.12305E-01        -0.53111E-01         0.00000E+00
    0.11935E-01        -0.51295E-01         0.00000E+00
    0.11567E-01        -0.49475E-01         0.00000E+00
    0.11200E-01        -0.47649E-01         0.00000E+00
    0.10832E-01        -0.45818E-01         0.00000E+00
    0.10462E-01        -0.43982E-01         0.00000E+00
    0.10092E-01        -0.42140E-01         0.00000E+00
    0.97181E-02        -0.40292E-01         0.00000E+00
    0.93413E-02        -0.38438E-01         0.00000E+00
    0.89606E-02        -0.36579E-01         0.00000E+00
    0.85752E-02        -0.34713E-01         0.00000E+00
    0.81844E-02        -0.32841E-01         0.00000E+00
    0.77874E-02        -0.30963E-01         0.00000E+00
    0.73836E-02        -0.29079E-01         0.00000E+00
    0.69722E-02        -0.27188E-01         0.00000E+00
    0.65526E-02        -0.25291E-01         0.00000E+00
    0.61239E-02        -0.23387E-01         0.00000E+00
    0.56854E-02        -0.21476E-01         0.00000E+00
    0.52364E-02        -0.19559E-01         0.00000E+00
    0.47761E-02        -0.17634E-01         0.00000E+00
    0.43037E-02        -0.15703E-01         0.00000E+00
    0.38185E-02        -0.13764E-01         0.00000E+00
    0.33198E-02        -0.11819E-01         0.00000E+00
    0.28067E-02        -0.98661E-02         0.00000E+00
    0.22785E-02        -0.79065E-02         0.00000E+00
    0.17345E-02        -0.59400E-02         0.00000E+00
    0.11738E-02        -0.39667E-02         0.00000E+00
    0.59592E-03        -0.19866E-02         0.00000E+00
    0.00000E+00         0.00000E+00         0.00000E+00
    0.19415E-01        -0.95104E-01         0.00000E+00
    0.18802E-01        -0.93327E-01         0.00000E+00
    0.18221E-01        -0.91547E-01         0.00000E+00
    0.17669E-01        -0.89762E-01         0.00000E+00
    0.17144E-01        -0.87973E-01         0.00000E+00
    0.16644E-01        -0.86180E-01         0.00000E+00
    0.16168E-01        -0.84382E-01         0.00000E+00
    0.15713E-01        -0.82579E-01         0.00000E+00
    0.15278E-01        -0.80771E-01         0.00000E+00
    0.14860E-01        -0.78959E-01         0.00000E+00
    0.14460E-01        -0.77141E-01         0.00000E+00
    0.14073E-01        -0.75319E-01         0.00000E+00
    0.13700E-01        -0.73491E-01         0.00000E+00
    0.13340E-01        -0.71659E-01         0.00000E+00
    0.12989E-01        -0.69822E-01         0.00000E+00
    0.12649E-01        -0.67980E-01         0.00000E+00
    0.12316E-01        -0.66134E-01         0.00000E+00
    0.11991E-01        -0.64283E-01         0.00000E+00
    0.11671E-01        -0.62427E-01         0.00000E+00
    0.11358E-01        -0.60567E-01         0.00000E+00
    0.11048E-01        -0.58702E-01         0.00000E+00
    0.10742E-01        -0.56832E-01         0.00000E+00
    0.10438E-01        -0.54958E-01         0.00000E+00
    0.10136E-01        -0.53079E-01         0.00000E+00
    0.98355E-02        -0.51195E-01         0.00000E+00
    0.95351E-02        -0.49306E-01         0.00000E+00
    0.92344E-02        -0.47412E-01         0.00000E+00
    0.89325E-02        -0.45513E-01         0.00000E+00
    0.86288E-02        -0.43609E-01         0.00000E+00
    0.83226E-02        -0.41699E-01         0.00000E+00
    0.80133E-02        -0.39783E-01         0.00000E+00
    0.77002E-02        -0.37862E-01         0.00000E+00
    0.73826E-02        -0.35935E-01         0.00000E+00
    0.70597E-02        -0.34001E-01         0.00000E+00
    0.67309E-02        -0.32061E-01         0.00000E+00
    0.63954E-02        -0.30115E-01         0.00000E+00
    0.60526E-02        -0.28162E-01         0.00000E+00
    0.57016E-02        -0.26201E-01         0.00000E+00
    0.53416E-02        -0.24234E-01         0.00000E+00
    0.49718E-02        -0.22259E-01         0.00000E+00
    0.45915E-02        -0.20276E-01         0.00000E+00
    0.41996E-02        -0.18285E-01         0.00000E+00
    0.37953E-02        -0.16287E-01         0.00000E+00
    0.33777E-02        -0.14280E-01         0.00000E+00
    0.29458E-02        -0.12265E-01         0.00000E+00
    0.24986E-02        -0.10242E-01         0.00000E+00
    0.20353E-02        -0.82100E-02         0.00000E+00
    0.15547E-02        -0.61699E-02         0.00000E+00
    0.10560E-02        -0.41215E-02         0.00000E+00
    0.53802E-03        -0.20648E-02         0.00000E+00
    0.00000E+00         0.00000E+00         0.00000E+00
    0.15497E-01        -0.98064E-01         0.00000E+00
    0.14964E-01        -0.96228E-01         0.00000E+00
    0.14465E-01        -0.94387E-01         0.00000E+00
    0.13997E-01        -0.92540E-01         0.00000E+00
    0.13558E-01        -0.90688E-01         0.00000E+00
    0.13145E-01        -0.88831E-01         0.00000E+00
    0.12756E-01        -0.86968E-01         0.00000E+00
    0.12388E-01        -0.85100E-01         0.00000E+00
    0.12040E-01        -0.83226E-01         0.00000E+00
    0.11709E-01        -0.81347E-01         0.00000E+00
    0.11393E-01        -0.79464E-01         0.00000E+00
    0.11091E-01        -0.77575E-01         0.00000E+00
    0.10801E-01        -0.75683E-01         0.00000E+00
    0.10522E-01        -0.73786E-01         0.00000E+00
    0.10252E-01        -0.71884E-01         0.00000E+00
    0.99906E-02        -0.69979E-01         0.00000E+00
    0.97360E-02        -0.68070E-01         0.00000E+00
    0.94877E-02        -0.66157E-01         0.00000E+00
    0.92445E-02        -0.64241E-01         0.00000E+00
    0.90056E-02        -0.62321E-01         0.00000E+00
    0.87703E-02        -0.60396E-01         0.00000E+00
    0.85378E-02        -0.58469E-01         0.00000E+00
    0.83073E-02        -0.56537E-01         0.00000E+00
    0.80783E-02        -0.54601E-01         0.00000E+00
    0.78500E-02        -0.52662E-01         0.00000E+00
    0.76219E-02        -0.50718E-01         0.00000E+00
    0.73933E-02        -0.48769E-01         0.00000E+00
    0.71637E-02        -0.46817E-01         0.00000E+00
    0.69324E-02        -0.44859E-01         0.00000E+00
    0.66990E-02        -0.42897E-01         0.00000E+00
    0.64627E-02        -0.40929E-01         0.00000E+00
    0.62230E-02        -0.38956E-01         0.00000E+00
    0.59794E-02        -0.36977E-01         0.00000E+00
    0.57311E-02        -0.34992E-01         0.00000E+00
    0.54776E-02        -0.33001E-01         0.00000E+00
    0.52182E-02        -0.31003E-01         0.00000E+00
    0.49521E-02        -0.28998E-01         0.00000E+00
    0.46786E-02        -0.26986E-01         0.00000E+00
    0.43970E-02        -0.24966E-01         0.00000E+00
    0.41062E-02        -0.22937E-01         0.00000E+00
    0.38055E-02        -0.20901E-01         0.00000E+00
    0.34939E-02        -0.18855E-01         0.00000E+00
    0.31702E-02        -0.16800E-01         0.00000E+00
    0.28334E-02        -0.14736E-01         0.00000E+00
    0.24822E-02        -0.12662E-01         0.00000E+00
    0.21154E-02        -0.10577E-01         0.00000E+00
    0.17316E-02        -0.84826E-02         0.00000E+00
    0.13295E-02        -0.63776E-02         0.00000E+00
    0.90788E-03        -0.42622E-02         0.00000E+00
    0.46527E-03        -0.21363E-02         0.00000E+00
    0.00000E+00         0.00000E+00         0.00000E+00
    0.10977E-01        -0.10056E+00         0.00000E+00
    0.10555E-01        -0.98666E-01         0.00000E+00
    0.10168E-01        -0.96765E-01         0.00000E+00
    0.98136E-02        -0.94857E-01         0.00000E+00
    0.94884E-02        -0.92942E-01         0.00000E+00
    0.91884E-02        -0.91021E-01         0.00000E+00
    0.89101E-02        -0.89093E-01         0.00000E+00
    0.86507E-02        -0.87160E-01         0.00000E+00
    0.84077E-02        -0.85221E-01         0.00000E+00
    0.81787E-02        -0.83279E-01         0.00000E+00
    0.79619E-02        -0.81332E-01         0.00000E+00
    0.77558E-02        -0.79383E-01         0.00000E+00
    0.75590E-02        -0.77430E-01         0.00000E+00
    0.73701E-02        -0.75474E-01         0.00000E+00
    0.71881E-02        -0.73515E-01         0.00000E+00
    0.70121E-02        -0.71554E-01         0.00000E+00
    0.68413E-02        -0.69591E-01         0.00000E+00
    0.66747E-02        -0.67625E-01         0.00000E+00
    0.65118E-02        -0.65656E-01         0.00000E+00
    0.63520E-02        -0.63686E-01         0.00000E+00
    0.61945E-02        -0.61713E-01         0.00000E+00
    0.60390E-02        -0.59737E-01         0.00000E+00
    0.58848E-02        -0.57759E-01         0.00000E+00
    0.57315E-02        -0.55778E-01         0.00000E+00
    0.55787E-02        -0.53794E-01         0.00000E+00
    0.54258E-02        -0.51806E-01         0.00000E+00
    0.52725E-02        -0.49816E-01         0.00000E+00
    0.51184E-02        -0.47821E-01         0.00000E+00
    0.49630E-02        -0.45823E-01         0.00000E+00
    0.48058E-02        -0.43820E-01         0.00000E+00
    0.46466E-02        -0.41813E-01         0.00000E+00
    0.44848E-02        -0.39800E-01         0.00000E+00
    0.43199E-02        -0.37783E-01         0.00000E+00
    0.41516E-02        -0.35760E-01         0.00000E+00
    0.39793E-02        -0.33730E-01         0.00000E+00
    0.38025E-02        -0.31694E-01         0.00000E+00
    0.36205E-02        -0.29651E-01         0.00000E+00
    0.34329E-02        -0.27601E-01         0.00000E+00
    0.32389E-02        -0.25543E-01         0.00000E+00
    0.30376E-02        -0.23476E-01         0.00000E+00
    0.28284E-02        -0.21399E-01         0.00000E+00
    0.26101E-02        -0.19313E-01         0.00000E+00
    0.23817E-02        -0.17217E-01         0.00000E+00
    0.21420E-02        -0.15110E-01         0.00000E+00
    0.18895E-02        -0.12991E-01         0.00000E+00
    0.16225E-02        -0.10859E-01         0.00000E+00
    0.13392E-02        -0.87145E-02         0.00000E+00
    0.10373E-02        -0.65565E-02         0.00000E+00
    0.71473E-03        -0.43846E-02         0.00000E+00
    0.36931E-03        -0.21989E-02         0.00000E+00
    0.00000E+00         0.00000E+00         0.00000E+00
    0.58179E-02        -0.10240E+00         0.00000E+00
    0.55521E-02        -0.10045E+00         0.00000E+00
    0.53261E-02        -0.98489E-01         0.00000E+00
    0.51291E-02        -0.96517E-01         0.00000E+00
    0.49539E-02        -0.94537E-01         0.00000E+00
    0.47959E-02        -0.92552E-01         0.00000E+00
    0.46516E-02        -0.90562E-01         0.00000E+00
    0.45186E-02        -0.88570E-01         0.00000E+00
    0.43950E-02        -0.86575E-01         0.00000E+00
    0.42792E-02        -0.84578E-01         0.00000E+00
    0.41700E-02        -0.82580E-01         0.00000E+00
    0.40666E-02        -0.80581E-01         0.00000E+00
    0.39680E-02        -0.78581E-01         0.00000E+00
    0.38735E-02        -0.76580E-01         0.00000E+00
    0.37827E-02        -0.74579E-01         0.00000E+00
    0.36948E-02        -0.72577E-01         0.00000E+00
    0.36096E-02        -0.70574E-01         0.00000E+00
    0.35266E-02        -0.68571E-01         0.00000E+00
    0.34453E-02        -0.66566E-01         0.00000E+00
    0.33656E-02        -0.64561E-01         0.00000E+00
    0.32871E-02        -0.62555E-01         0.00000E+00
    0.32095E-02        -0.60547E-01         0.00000E+00
    0.31325E-02        -0.58538E-01         0.00000E+00
    0.30559E-02        -0.56527E-01         0.00000E+00
    0.29795E-02        -0.54513E-01         0.00000E+00
    0.29031E-02        -0.52498E-01         0.00000E+00
    0.28264E-02        -0.50480E-01         0.00000E+00
    0.27492E-02        -0.48458E-01         0.00000E+00
    0.26712E-02        -0.46434E-01         0.00000E+00
    0.25924E-02        -0.44406E-01         0.00000E+00
    0.25123E-02        -0.42374E-01         0.00000E+00
    0.24309E-02        -0.40337E-01         0.00000E+00
    0.23479E-02        -0.38296E-01         0.00000E+00
    0.22630E-02        -0.36249E-01         0.00000E+00
    0.21759E-02        -0.34197E-01         0.00000E+00
    0.20864E-02        -0.32138E-01         0.00000E+00
    0.19941E-02        -0.30073E-01         0.00000E+00
    0.18986E-02        -0.28000E-01         0.00000E+00
    0.17996E-02        -0.25919E-01         0.00000E+00
    0.16966E-02        -0.23829E-01         0.00000E+00
    0.15890E-02        -0.21730E-01         0.00000E+00
    0.14763E-02        -0.19621E-01         0.00000E+00
    0.13575E-02        -0.17500E-01         0.00000E+00
    0.12320E-02        -0.15368E-01         0.00000E+00
    0.10984E-02        -0.13223E-01         0.00000E+00
    0.95535E-03        -0.11063E-01         0.00000E+00
    0.80099E-03        -0.88879E-02         0.00000E+00
    0.63277E-03        -0.66956E-02         0.00000E+00
    0.44714E-03        -0.44847E-02         0.00000E+00
    0.23891E-03        -0.22534E-02         0.00000E+00
    0.00000E+00         0.00000E+00         0.00000E+00
    0.00000E+00        -0.10323E+00         0.00000E+00
    0.00000E+00        -0.10122E+00         0.00000E+00
    0.00000E+00        -0.99202E-01         0.00000E+00
    0.00000E+00        -0.97181E-01         0.00000E+00
    0.00000E+00        -0.95158E-01         0.00000E+00
    0.00000E+00        -0.93135E-01         0.00000E+00
    0.00000E+00        -0.91112E-01         0.00000E+00
    0.00000E+00        -0.89090E-01         0.00000E+00
    0.00000E+00        -0.87068E-01         0.00000E+00
    0.00000E+00        -0.85047E-01         0.00000E+00
    0.00000E+00        -0.83026E-01         0.00000E+00
    0.00000E+00        -0.81007E-01         0.00000E+00
    0.00000E+00        -0.78988E-01         0.00000E+00
    0.00000E+00        -0.76969E-01         0.00000E+00
    0.00000E+00        -0.74951E-01         0.00000E+00
    0.00000E+00        -0.72934E-01         0.00000E+00
    0.00000E+00        -0.70917E-01         0.00000E+00
    0.00000E+00        -0.68899E-01         0.00000E+00
    0.00000E+00        -0.66882E-01         0.00000E+00
    0.00000E+00        -0.64864E-01         0.00000E+00
    0.00000E+00        -0.62846E-01         0.00000E+00
    0.00000E+00        -0.60826E-01         0.00000E+00
    0.00000E+00        -0.58806E-01         0.00000E+00
    0.00000E+00        -0.56784E-01         0.00000E+00
    0.00000E+00        -0.54761E-01         0.00000E+00
    0.00000E+00        -0.52736E-01         0.00000E+00
    0.00000E+00        -0.50708E-01         0.00000E+00
    0.00000E+00        -0.48678E-01         0.00000E+00
    0.00000E+00        -0.46644E-01         0.00000E+00
    0.00000E+00        -0.44608E-01         0.00000E+00
    0.00000E+00        -0.42567E-01         0.00000E+00
    0.00000E+00        -0.40522E-01         0.00000E+00
    0.00000E+00        -0.38473E-01         0.00000E+00
    0.00000E+00        -0.36418E-01         0.00000E+00
    0.00000E+00        -0.34358E-01         0.00000E+00
    0.00000E+00        -0.32292E-01         0.00000E+00
    0.00000E+00        -0.30219E-01         0.00000E+00
    0.00000E+00        -0.28139E-01         0.00000E+00
    0.00000E+00        -0.26051E-01         0.00000E+00
    0.00000E+00        -0.23954E-01         0.00000E+00
    0.00000E+00        -0.21848E-01         0.00000E+00
    0.00000E+00        -0.19731E-01         0.00000E+00
    0.00000E+00        -0.17603E-01         0.00000E+00
    0.00000E+00        -0.15463E-01         0.00000E+00
    0.00000E+00        -0.13310E-01         0.00000E+00
    0.00000E+00        -0.11142E-01         0.00000E+00
    0.00000E+00        -0.89569E-02         0.00000E+00
    0.00000E+00        -0.67534E-02         0.00000E+00
    0.00000E+00        -0.45287E-02         0.00000E+00
    0.00000E+00        -0.22792E-02         0.00000E+00
    0.00000E+00         0.00000E+00         0.00000E+00
CELL_DATA       5000
VECTORS vDarcy double 
    0.77014E-07        -0.13221E-10         0.00000E+00
    0.77024E-07        -0.37098E-10         0.00000E+00
    0.77043E-07        -0.58848E-10         0.00000E+00
    0.77071E-07        -0.79214E-10         0.00000E+00
    0.77106E-07        -0.97288E-10         0.00000E+00
    0.77147E-07        -0.10760E-09         0.00000E+00
    0.77190E-07        -0.10943E-09         0.00000E+00
    0.77234E-07        -0.10800E-09         0.00000E+00
    0.77276E-07        -0.10519E-09         0.00000E+00
    0.77318E-07        -0.10122E-09         0.00000E+00
    0.77357E-07        -0.96336E-10         0.00000E+00
    0.77395E-07        -0.90388E-10         0.00000E+00
    0.77430E-07        -0.85465E-10         0.00000E+00
    0.77464E-07        -0.84773E-10         0.00000E+00
    0.77498E-07        -0.87515E-10         0.00000E+00
    0.77534E-07        -0.91951E-10         0.00000E+00
    0.77572E-07        -0.98324E-10         0.00000E+00
    0.77613E-07        -0.10640E-09         0.00000E+00
    0.77657E-07        -0.11478E-09         0.00000E+00
    0.77705E-07        -0.12250E-09         0.00000E+00
    0.77755E-07        -0.12982E-09         0.00000E+00
    0.77809E-07        -0.13714E-09         0.00000E+00
    0.77865E-07        -0.14482E-09         0.00000E+00
    0.77925E-07        -0.15316E-09         0.00000E+00
    0.77988E-07        -0.16250E-09         0.00000E+00
    0.78055E-07        -0.17316E-09         0.00000E+00
    0.78127E-07        -0.18553E-09         0.00000E+00
    0.78204E-07        -0.20009E-09         0.00000E+00
    0.78287E-07        -0.21743E-09         0.00000E+00
    0.78379E-07        -0.23835E-09         0.00000E+00
    0.78479E-07        -0.26388E-09         0.00000E+00
    0.78591E-07        -0.29548E-09         0.00000E+00
    0.78717E-07        -0.33523E-09         0.00000E+00
    0.78861E-07        -0.38358E-09         0.00000E+00
    0.79024E-07        -0.43269E-09         0.00000E+00
    0.79205E-07        -0.47177E-09         0.00000E+00
    0.79398E-07        -0.49461E-09         0.00000E+00
    0.79596E-07        -0.49617E-09         0.00000E+00
    0.79790E-07        -0.47066E-09         0.00000E+00
    0.79966E-07        -0.41196E-09         0.00000E+00
    0.80116E-07        -0.33680E-09         0.00000E+00
    0.80237E-07        -0.26806E-09         0.00000E+00
    0.80332E-07        -0.20686E-09         0.00000E+00
    0.80404E-07        -0.15161E-09         0.00000E+00
    0.80454E-07        -0.10288E-09         0.00000E+00
    0.80487E-07        -0.60772E-10         0.00000E+00
    0.80505E-07        -0.26345E-10         0.00000E+00
    0.80510E-07        -0.15824E-11         0.00000E+00
    0.80508E-07         0.10691E-10         0.00000E+00
    0.80505E-07         0.62976E-11         0.00000E+00
    0.77508E-07        -0.28319E-10         0.00000E+00
    0.77509E-07        -0.79848E-10         0.00000E+00
    0.77512E-07        -0.12536E-09         0.00000E+00
    0.77515E-07        -0.16558E-09         0.00000E+00
    0.77517E-07        -0.19973E-09         0.00000E+00
    0.77520E-07        -0.22318E-09         0.00000E+00
    0.77525E-07        -0.23560E-09         0.00000E+00
    0.77533E-07        -0.24210E-09         0.00000E+00
    0.77546E-07        -0.24508E-09         0.00000E+00
    0.77561E-07        -0.24555E-09         0.00000E+00
    0.77580E-07        -0.24450E-09         0.00000E+00
    0.77603E-07        -0.24259E-09         0.00000E+00
    0.77630E-07        -0.24226E-09         0.00000E+00
    0.77659E-07        -0.24660E-09         0.00000E+00
    0.77691E-07        -0.25496E-09         0.00000E+00
    0.77723E-07        -0.26576E-09         0.00000E+00
    0.77756E-07        -0.27924E-09         0.00000E+00
    0.77789E-07        -0.29514E-09         0.00000E+00
    0.77822E-07        -0.31224E-09         0.00000E+00
    0.77855E-07        -0.32970E-09         0.00000E+00
    0.77890E-07        -0.34767E-09         0.00000E+00
    0.77926E-07        -0.36658E-09         0.00000E+00
    0.77964E-07        -0.38687E-09         0.00000E+00
    0.78004E-07        -0.40904E-09         0.00000E+00
    0.78046E-07        -0.43362E-09         0.00000E+00
    0.78091E-07        -0.46120E-09         0.00000E+00
    0.78138E-07        -0.49246E-09         0.00000E+00
    0.78188E-07        -0.52819E-09         0.00000E+00
    0.78240E-07        -0.56932E-09         0.00000E+00
    0.78295E-07        -0.61696E-09         0.00000E+00
    0.78352E-07        -0.67246E-09         0.00000E+00
    0.78411E-07        -0.73742E-09         0.00000E+00
    0.78469E-07        -0.81382E-09         0.00000E+00
    0.78524E-07        -0.90220E-09         0.00000E+00
    0.78577E-07        -0.99588E-09         0.00000E+00
    0.78632E-07        -0.10839E-08         0.00000E+00
    0.78692E-07        -0.11528E-08         0.00000E+00
    0.78763E-07        -0.11844E-08         0.00000E+00
    0.78846E-07        -0.11616E-08         0.00000E+00
    0.78940E-07        -0.10728E-08         0.00000E+00
    0.79041E-07        -0.92836E-09         0.00000E+00
    0.79137E-07        -0.76119E-09         0.00000E+00
    0.79219E-07        -0.60098E-09         0.00000E+00
    0.79287E-07        -0.45729E-09         0.00000E+00
    0.79343E-07        -0.32940E-09         0.00000E+00
    0.79387E-07        -0.21930E-09         0.00000E+00
    0.79422E-07        -0.12884E-09         0.00000E+00
    0.79448E-07        -0.60057E-10         0.00000E+00
    0.79467E-07        -0.16148E-10         0.00000E+00
    0.79478E-07        -0.79346E-12         0.00000E+00
    0.77569E-07        -0.28204E-10         0.00000E+00
    0.77567E-07        -0.79803E-10         0.00000E+00
    0.77565E-07        -0.12491E-09         0.00000E+00
    0.77561E-07        -0.16382E-09         0.00000E+00
    0.77558E-07        -0.19690E-09         0.00000E+00
    0.77555E-07        -0.22505E-09         0.00000E+00
    0.77553E-07        -0.24889E-09         0.00000E+00
    0.77553E-07        -0.26867E-09         0.00000E+00
    0.77554E-07        -0.28518E-09         0.00000E+00
    0.77557E-07        -0.29941E-09         0.00000E+00
    0.77562E-07        -0.31235E-09         0.00000E+00
    0.77570E-07        -0.32500E-09         0.00000E+00
    0.77579E-07        -0.33797E-09         0.00000E+00
    0.77589E-07        -0.35143E-09         0.00000E+00
    0.77601E-07        -0.36569E-09         0.00000E+00
    0.77614E-07        -0.38101E-09         0.00000E+00
    0.77627E-07        -0.39752E-09         0.00000E+00
    0.77642E-07        -0.41533E-09         0.00000E+00
    0.77658E-07        -0.43468E-09         0.00000E+00
    0.77674E-07        -0.45574E-09         0.00000E+00
    0.77691E-07        -0.47856E-09         0.00000E+00
    0.77708E-07        -0.50324E-09         0.00000E+00
    0.77726E-07        -0.52997E-09         0.00000E+00
    0.77745E-07        -0.55901E-09         0.00000E+00
    0.77764E-07        -0.59069E-09         0.00000E+00
    0.77783E-07        -0.62536E-09         0.00000E+00
    0.77803E-07        -0.66344E-09         0.00000E+00
    0.77823E-07        -0.70532E-09         0.00000E+00
    0.77842E-07        -0.75145E-09         0.00000E+00
    0.77861E-07        -0.80223E-09         0.00000E+00
    0.77878E-07        -0.85802E-09         0.00000E+00
    0.77893E-07        -0.91903E-09         0.00000E+00
    0.77906E-07        -0.98527E-09         0.00000E+00
    0.77915E-07        -0.10568E-08         0.00000E+00
    0.77921E-07        -0.11346E-08         0.00000E+00
    0.77921E-07        -0.12183E-08         0.00000E+00
    0.77917E-07        -0.13017E-08         0.00000E+00
    0.77914E-07        -0.13728E-08         0.00000E+00
    0.77920E-07        -0.14162E-08         0.00000E+00
    0.77944E-07        -0.14090E-08         0.00000E+00
    0.77990E-07        -0.13269E-08         0.00000E+00
    0.78056E-07        -0.11716E-08         0.00000E+00
    0.78130E-07        -0.97170E-09         0.00000E+00
    0.78197E-07        -0.76528E-09         0.00000E+00
    0.78253E-07        -0.57855E-09         0.00000E+00
    0.78298E-07        -0.41636E-09         0.00000E+00
    0.78333E-07        -0.27948E-09         0.00000E+00
    0.78358E-07        -0.16922E-09         0.00000E+00
    0.78375E-07        -0.84893E-10         0.00000E+00
    0.78383E-07        -0.24671E-10         0.00000E+00
    0.77267E-07        -0.22494E-10         0.00000E+00
    0.77265E-07        -0.64652E-10         0.00000E+00
    0.77260E-07        -0.10322E-09         0.00000E+00
    0.77254E-07        -0.13843E-09         0.00000E+00
    0.77247E-07        -0.17054E-09         0.00000E+00
    0.77239E-07        -0.19972E-09         0.00000E+00
    0.77232E-07        -0.22626E-09         0.00000E+00
    0.77224E-07        -0.25062E-09         0.00000E+00
    0.77217E-07        -0.27315E-09         0.00000E+00
    0.77210E-07        -0.29420E-09         0.00000E+00
    0.77204E-07        -0.31415E-09         0.00000E+00
    0.77199E-07        -0.33331E-09         0.00000E+00
    0.77194E-07        -0.35207E-09         0.00000E+00
    0.77191E-07        -0.37080E-09         0.00000E+00
    0.77188E-07        -0.38978E-09         0.00000E+00
    0.77185E-07        -0.40924E-09         0.00000E+00
    0.77184E-07        -0.42940E-09         0.00000E+00
    0.77182E-07        -0.45047E-09         0.00000E+00
    0.77181E-07        -0.47261E-09         0.00000E+00
    0.77181E-07        -0.49596E-09         0.00000E+00
    0.77180E-07        -0.52070E-09         0.00000E+00
    0.77180E-07        -0.54699E-09         0.00000E+00
    0.77180E-07        -0.57498E-09         0.00000E+00
    0.77179E-07        -0.60481E-09         0.00000E+00
    0.77179E-07        -0.63663E-09         0.00000E+00
    0.77177E-07        -0.67059E-09         0.00000E+00
    0.77175E-07        -0.70681E-09         0.00000E+00
    0.77172E-07        -0.74543E-09         0.00000E+00
    0.77168E-07        -0.78656E-09         0.00000E+00
    0.77162E-07        -0.83028E-09         0.00000E+00
    0.77154E-07        -0.87667E-09         0.00000E+00
    0.77144E-07        -0.92576E-09         0.00000E+00
    0.77131E-07        -0.97762E-09         0.00000E+00
    0.77115E-07        -0.10322E-08         0.00000E+00
    0.77096E-07        -0.10894E-08         0.00000E+00
    0.77072E-07        -0.11490E-08         0.00000E+00
    0.77045E-07        -0.12118E-08         0.00000E+00
    0.77011E-07        -0.12784E-08         0.00000E+00
    0.76972E-07        -0.13456E-08         0.00000E+00
    0.76932E-07        -0.13986E-08         0.00000E+00
    0.76901E-07        -0.14167E-08         0.00000E+00
    0.76894E-07        -0.13758E-08         0.00000E+00
    0.76919E-07        -0.12576E-08         0.00000E+00
    0.76971E-07        -0.10762E-08         0.00000E+00
    0.77034E-07        -0.86211E-09         0.00000E+00
    0.77091E-07        -0.64643E-09         0.00000E+00
    0.77137E-07        -0.45153E-09         0.00000E+00
    0.77169E-07        -0.28631E-09         0.00000E+00
    0.77190E-07        -0.15228E-09         0.00000E+00
    0.77199E-07        -0.46336E-10         0.00000E+00
    0.76598E-07        -0.15418E-10         0.00000E+00
    0.76595E-07        -0.45633E-10         0.00000E+00
    0.76590E-07        -0.74757E-10         0.00000E+00
    0.76583E-07        -0.10266E-09         0.00000E+00
    0.76575E-07        -0.12930E-09         0.00000E+00
    0.76565E-07        -0.15475E-09         0.00000E+00
    0.76554E-07        -0.17910E-09         0.00000E+00
    0.76543E-07        -0.20242E-09         0.00000E+00
    0.76531E-07        -0.22487E-09         0.00000E+00
    0.76518E-07        -0.24661E-09         0.00000E+00
    0.76505E-07        -0.26780E-09         0.00000E+00
    0.76493E-07        -0.28864E-09         0.00000E+00
    0.76480E-07        -0.30929E-09         0.00000E+00
    0.76467E-07        -0.32990E-09         0.00000E+00
    0.76454E-07        -0.35065E-09         0.00000E+00
    0.76441E-07        -0.37171E-09         0.00000E+00
    0.76428E-07        -0.39321E-09         0.00000E+00
    0.76415E-07        -0.41530E-09         0.00000E+00
    0.76402E-07        -0.43809E-09         0.00000E+00
    0.76389E-07        -0.46171E-09         0.00000E+00
    0.76375E-07        -0.48625E-09         0.00000E+00
    0.76362E-07        -0.51180E-09         0.00000E+00
    0.76347E-07        -0.53844E-09         0.00000E+00
    0.76333E-07        -0.56622E-09         0.00000E+00
    0.76318E-07        -0.59520E-09         0.00000E+00
    0.76302E-07        -0.62543E-09         0.00000E+00
    0.76285E-07        -0.65691E-09         0.00000E+00
    0.76267E-07        -0.68967E-09         0.00000E+00
    0.76247E-07        -0.72369E-09         0.00000E+00
    0.76226E-07        -0.75894E-09         0.00000E+00
    0.76204E-07        -0.79537E-09         0.00000E+00
    0.76179E-07        -0.83293E-09         0.00000E+00
    0.76152E-07        -0.87151E-09         0.00000E+00
    0.76122E-07        -0.91100E-09         0.00000E+00
    0.76090E-07        -0.95134E-09         0.00000E+00
    0.76055E-07        -0.99244E-09         0.00000E+00
    0.76015E-07        -0.10339E-08         0.00000E+00
    0.75972E-07        -0.10754E-08         0.00000E+00
    0.75925E-07        -0.11172E-08         0.00000E+00
    0.75873E-07        -0.11610E-08         0.00000E+00
    0.75813E-07        -0.12042E-08         0.00000E+00
    0.75749E-07        -0.12331E-08         0.00000E+00
    0.75690E-07        -0.12290E-08         0.00000E+00
    0.75653E-07        -0.11768E-08         0.00000E+00
    0.75650E-07        -0.10614E-08         0.00000E+00
    0.75681E-07        -0.89253E-09         0.00000E+00
    0.75733E-07        -0.69124E-09         0.00000E+00
    0.75785E-07        -0.46929E-09         0.00000E+00
    0.75822E-07        -0.25636E-09         0.00000E+00
    0.75840E-07        -0.79140E-10         0.00000E+00
    0.75596E-07        -0.87955E-11         0.00000E+00
    0.75594E-07        -0.26693E-10         0.00000E+00
    0.75589E-07        -0.44927E-10         0.00000E+00
    0.75582E-07        -0.63372E-10         0.00000E+00
    0.75573E-07        -0.81929E-10         0.00000E+00
    0.75563E-07        -0.10052E-09         0.00000E+00
    0.75550E-07        -0.11911E-09         0.00000E+00
    0.75537E-07        -0.13770E-09         0.00000E+00
    0.75522E-07        -0.15629E-09         0.00000E+00
    0.75507E-07        -0.17490E-09         0.00000E+00
    0.75490E-07        -0.19359E-09         0.00000E+00
    0.75473E-07        -0.21240E-09         0.00000E+00
    0.75455E-07        -0.23139E-09         0.00000E+00
    0.75437E-07        -0.25062E-09         0.00000E+00
    0.75418E-07        -0.27015E-09         0.00000E+00
    0.75399E-07        -0.29006E-09         0.00000E+00
    0.75379E-07        -0.31040E-09         0.00000E+00
    0.75358E-07        -0.33122E-09         0.00000E+00
    0.75337E-07        -0.35258E-09         0.00000E+00
    0.75316E-07        -0.37451E-09         0.00000E+00
    0.75294E-07        -0.39706E-09         0.00000E+00
    0.75272E-07        -0.42025E-09         0.00000E+00
    0.75248E-07        -0.44409E-09         0.00000E+00
    0.75225E-07        -0.46858E-09         0.00000E+00
    0.75200E-07        -0.49372E-09         0.00000E+00
    0.75174E-07        -0.51949E-09         0.00000E+00
    0.75148E-07        -0.54583E-09         0.00000E+00
    0.75121E-07        -0.57270E-09         0.00000E+00
    0.75092E-07        -0.60003E-09         0.00000E+00
    0.75062E-07        -0.62773E-09         0.00000E+00
    0.75030E-07        -0.65567E-09         0.00000E+00
    0.74997E-07        -0.68374E-09         0.00000E+00
    0.74962E-07        -0.71177E-09         0.00000E+00
    0.74926E-07        -0.73956E-09         0.00000E+00
    0.74887E-07        -0.76689E-09         0.00000E+00
    0.74846E-07        -0.79349E-09         0.00000E+00
    0.74802E-07        -0.81910E-09         0.00000E+00
    0.74756E-07        -0.84344E-09         0.00000E+00
    0.74706E-07        -0.86596E-09         0.00000E+00
    0.74654E-07        -0.88554E-09         0.00000E+00
    0.74598E-07        -0.90204E-09         0.00000E+00
    0.74538E-07        -0.91623E-09         0.00000E+00
    0.74473E-07        -0.92706E-09         0.00000E+00
    0.74401E-07        -0.93201E-09         0.00000E+00
    0.74326E-07        -0.91431E-09         0.00000E+00
    0.74258E-07        -0.85687E-09         0.00000E+00
    0.74211E-07        -0.75219E-09         0.00000E+00
    0.74196E-07        -0.59277E-09         0.00000E+00
    0.74209E-07        -0.38370E-09         0.00000E+00
    0.74228E-07        -0.13494E-09         0.00000E+00
    0.74304E-07        -0.24000E-11         0.00000E+00
    0.74301E-07        -0.82004E-11         0.00000E+00
    0.74296E-07        -0.15266E-10         0.00000E+00
    0.74289E-07        -0.23468E-10         0.00000E+00
    0.74280E-07        -0.32692E-10         0.00000E+00
    0.74270E-07        -0.42841E-10         0.00000E+00
    0.74257E-07        -0.53831E-10         0.00000E+00
    0.74243E-07        -0.65587E-10         0.00000E+00
    0.74228E-07        -0.78054E-10         0.00000E+00
    0.74211E-07        -0.91187E-10         0.00000E+00
    0.74193E-07        -0.10495E-09         0.00000E+00
    0.74174E-07        -0.11932E-09         0.00000E+00
    0.74153E-07        -0.13428E-09         0.00000E+00
    0.74132E-07        -0.14982E-09         0.00000E+00
    0.74110E-07        -0.16591E-09         0.00000E+00
    0.74087E-07        -0.18256E-09         0.00000E+00
    0.74064E-07        -0.19976E-09         0.00000E+00
    0.74039E-07        -0.21750E-09         0.00000E+00
    0.74014E-07        -0.23576E-09         0.00000E+00
    0.73988E-07        -0.25454E-09         0.00000E+00
    0.73961E-07        -0.27380E-09         0.00000E+00
    0.73934E-07        -0.29353E-09         0.00000E+00
    0.73905E-07        -0.31369E-09         0.00000E+00
    0.73876E-07        -0.33423E-09         0.00000E+00
    0.73846E-07        -0.35510E-09         0.00000E+00
    0.73815E-07        -0.37623E-09         0.00000E+00
    0.73784E-07        -0.39755E-09         0.00000E+00
    0.73751E-07        -0.41896E-09         0.00000E+00
    0.73717E-07        -0.44035E-09         0.00000E+00
    0.73682E-07        -0.46159E-09         0.00000E+00
    0.73645E-07        -0.48255E-09         0.00000E+00
    0.73608E-07        -0.50304E-09         0.00000E+00
    0.73568E-07        -0.52286E-09         0.00000E+00
    0.73528E-07        -0.54178E-09         0.00000E+00
    0.73486E-07        -0.55955E-09         0.00000E+00
    0.73442E-07        -0.57585E-09         0.00000E+00
    0.73396E-07        -0.59031E-09         0.00000E+00
    0.73349E-07        -0.60247E-09         0.00000E+00
    0.73299E-07        -0.61187E-09         0.00000E+00
    0.73247E-07        -0.61810E-09         0.00000E+00
    0.73193E-07        -0.62034E-09         0.00000E+00
    0.73137E-07        -0.61730E-09         0.00000E+00
    0.73078E-07        -0.60780E-09         0.00000E+00
    0.73018E-07        -0.59089E-09         0.00000E+00
    0.72956E-07        -0.56645E-09         0.00000E+00
    0.72890E-07        -0.53402E-09         0.00000E+00
    0.72818E-07        -0.48704E-09         0.00000E+00
    0.72745E-07        -0.41372E-09         0.00000E+00
    0.72678E-07        -0.29253E-09         0.00000E+00
    0.72635E-07        -0.10800E-09         0.00000E+00
    0.72758E-07         0.36901E-11         0.00000E+00
    0.72755E-07         0.95716E-11         0.00000E+00
    0.72751E-07         0.13490E-10         0.00000E+00
    0.72744E-07         0.15584E-10         0.00000E+00
    0.72735E-07         0.15980E-10         0.00000E+00
    0.72725E-07         0.14799E-10         0.00000E+00
    0.72713E-07         0.12151E-10         0.00000E+00
    0.72699E-07         0.81383E-11         0.00000E+00
    0.72683E-07         0.28545E-11         0.00000E+00
    0.72667E-07        -0.36142E-11         0.00000E+00
    0.72648E-07        -0.11189E-10         0.00000E+00
    0.72629E-07        -0.19796E-10         0.00000E+00
    0.72608E-07        -0.29370E-10         0.00000E+00
    0.72586E-07        -0.39847E-10         0.00000E+00
    0.72563E-07        -0.51168E-10         0.00000E+00
    0.72539E-07        -0.63276E-10         0.00000E+00
    0.72515E-07        -0.76115E-10         0.00000E+00
    0.72489E-07        -0.89629E-10         0.00000E+00
    0.72462E-07        -0.10376E-09         0.00000E+00
    0.72434E-07        -0.11846E-09         0.00000E+00
    0.72406E-07        -0.13365E-09         0.00000E+00
    0.72376E-07        -0.14928E-09         0.00000E+00
    0.72346E-07        -0.16526E-09         0.00000E+00
    0.72315E-07        -0.18154E-09         0.00000E+00
    0.72283E-07        -0.19801E-09         0.00000E+00
    0.72250E-07        -0.21458E-09         0.00000E+00
    0.72217E-07        -0.23116E-09         0.00000E+00
    0.72182E-07        -0.24761E-09         0.00000E+00
    0.72146E-07        -0.26383E-09         0.00000E+00
    0.72110E-07        -0.27964E-09         0.00000E+00
    0.72072E-07        -0.29491E-09         0.00000E+00
    0.72034E-07        -0.30943E-09         0.00000E+00
    0.71994E-07        -0.32302E-09         0.00000E+00
    0.71953E-07        -0.33544E-09         0.00000E+00
    0.71912E-07        -0.34642E-09         0.00000E+00
    0.71869E-07        -0.35568E-09         0.00000E+00
    0.71825E-07        -0.36290E-09         0.00000E+00
    0.71780E-07        -0.36770E-09         0.00000E+00
    0.71734E-07        -0.36966E-09         0.00000E+00
    0.71688E-07        -0.36826E-09         0.00000E+00
    0.71640E-07        -0.36298E-09         0.00000E+00
    0.71592E-07        -0.35335E-09         0.00000E+00
    0.71544E-07        -0.33875E-09         0.00000E+00
    0.71496E-07        -0.31838E-09         0.00000E+00
    0.71449E-07        -0.29089E-09         0.00000E+00
    0.71404E-07        -0.25474E-09         0.00000E+00
    0.71364E-07        -0.20977E-09         0.00000E+00
    0.71331E-07        -0.15623E-09         0.00000E+00
    0.71307E-07        -0.95266E-10         0.00000E+00
    0.71294E-07        -0.30857E-10         0.00000E+00
    0.70995E-07         0.93549E-11         0.00000E+00
    0.70993E-07         0.26164E-10         0.00000E+00
    0.70989E-07         0.40464E-10         0.00000E+00
    0.70983E-07         0.52402E-10         0.00000E+00
    0.70975E-07         0.62120E-10         0.00000E+00
    0.70965E-07         0.69752E-10         0.00000E+00
    0.70954E-07         0.75427E-10         0.00000E+00
    0.70941E-07         0.79269E-10         0.00000E+00
    0.70926E-07         0.81394E-10         0.00000E+00
    0.70910E-07         0.81914E-10         0.00000E+00
    0.70893E-07         0.80935E-10         0.00000E+00
    0.70874E-07         0.78558E-10         0.00000E+00
    0.70855E-07         0.74879E-10         0.00000E+00
    0.70834E-07         0.69993E-10         0.00000E+00
    0.70812E-07         0.63988E-10         0.00000E+00
    0.70788E-07         0.56953E-10         0.00000E+00
    0.70764E-07         0.48974E-10         0.00000E+00
    0.70739E-07         0.40136E-10         0.00000E+00
    0.70713E-07         0.30522E-10         0.00000E+00
    0.70686E-07         0.20219E-10         0.00000E+00
    0.70658E-07         0.93137E-11         0.00000E+00
    0.70630E-07        -0.21056E-11         0.00000E+00
    0.70600E-07        -0.13947E-10         0.00000E+00
    0.70570E-07        -0.26114E-10         0.00000E+00
    0.70539E-07        -0.38506E-10         0.00000E+00
    0.70507E-07        -0.51018E-10         0.00000E+00
    0.70475E-07        -0.63536E-10         0.00000E+00
    0.70441E-07        -0.75942E-10         0.00000E+00
    0.70408E-07        -0.88106E-10         0.00000E+00
    0.70373E-07        -0.99891E-10         0.00000E+00
    0.70338E-07        -0.11115E-09         0.00000E+00
    0.70302E-07        -0.12173E-09         0.00000E+00
    0.70266E-07        -0.13145E-09         0.00000E+00
    0.70229E-07        -0.14014E-09         0.00000E+00
    0.70192E-07        -0.14761E-09         0.00000E+00
    0.70155E-07        -0.15364E-09         0.00000E+00
    0.70117E-07        -0.15803E-09         0.00000E+00
    0.70080E-07        -0.16055E-09         0.00000E+00
    0.70042E-07        -0.16097E-09         0.00000E+00
    0.70005E-07        -0.15909E-09         0.00000E+00
    0.69969E-07        -0.15468E-09         0.00000E+00
    0.69934E-07        -0.14752E-09         0.00000E+00
    0.69901E-07        -0.13744E-09         0.00000E+00
    0.69870E-07        -0.12440E-09         0.00000E+00
    0.69842E-07        -0.10860E-09         0.00000E+00
    0.69818E-07        -0.90534E-10         0.00000E+00
    0.69797E-07        -0.70622E-10         0.00000E+00
    0.69781E-07        -0.49610E-10         0.00000E+00
    0.69770E-07        -0.28542E-10         0.00000E+00
    0.69765E-07        -0.86487E-11         0.00000E+00
    0.69052E-07         0.14434E-10         0.00000E+00
    0.69050E-07         0.41080E-10         0.00000E+00
    0.69047E-07         0.64781E-10         0.00000E+00
    0.69041E-07         0.85696E-10         0.00000E+00
    0.69034E-07         0.10398E-09         0.00000E+00
    0.69026E-07         0.11977E-09         0.00000E+00
    0.69016E-07         0.13323E-09         0.00000E+00
    0.69004E-07         0.14447E-09         0.00000E+00
    0.68991E-07         0.15364E-09         0.00000E+00
    0.68977E-07         0.16086E-09         0.00000E+00
    0.68961E-07         0.16626E-09         0.00000E+00
    0.68944E-07         0.16995E-09         0.00000E+00
    0.68926E-07         0.17204E-09         0.00000E+00
    0.68907E-07         0.17265E-09         0.00000E+00
    0.68887E-07         0.17188E-09         0.00000E+00
    0.68866E-07         0.16983E-09         0.00000E+00
    0.68845E-07         0.16661E-09         0.00000E+00
    0.68822E-07         0.16232E-09         0.00000E+00
    0.68798E-07         0.15706E-09         0.00000E+00
    0.68773E-07         0.15092E-09         0.00000E+00
    0.68748E-07         0.14400E-09         0.00000E+00
    0.68722E-07         0.13640E-09         0.00000E+00
    0.68696E-07         0.12821E-09         0.00000E+00
    0.68668E-07         0.11954E-09         0.00000E+00
    0.68640E-07         0.11048E-09         0.00000E+00
    0.68612E-07         0.10113E-09         0.00000E+00
    0.68583E-07         0.91596E-10         0.00000E+00
    0.68554E-07         0.81986E-10         0.00000E+00
    0.68524E-07         0.72402E-10         0.00000E+00
    0.68494E-07         0.62954E-10         0.00000E+00
    0.68463E-07         0.53750E-10         0.00000E+00
    0.68433E-07         0.44900E-10         0.00000E+00
    0.68402E-07         0.36515E-10         0.00000E+00
    0.68371E-07         0.28703E-10         0.00000E+00
    0.68341E-07         0.21568E-10         0.00000E+00
    0.68311E-07         0.15210E-10         0.00000E+00
    0.68281E-07         0.97180E-11         0.00000E+00
    0.68252E-07         0.51656E-11         0.00000E+00
    0.68223E-07         0.16096E-11         0.00000E+00
    0.68196E-07        -0.91595E-12         0.00000E+00
    0.68170E-07        -0.24173E-11         0.00000E+00
    0.68146E-07        -0.29552E-11         0.00000E+00
    0.68123E-07        -0.26430E-11         0.00000E+00
    0.68102E-07        -0.16543E-11         0.00000E+00
    0.68084E-07        -0.19617E-12         0.00000E+00
    0.68069E-07         0.14777E-11         0.00000E+00
    0.68056E-07         0.29558E-11         0.00000E+00
    0.68047E-07         0.37900E-11         0.00000E+00
    0.68040E-07         0.34996E-11         0.00000E+00
    0.68037E-07         0.16762E-11         0.00000E+00
    0.66961E-07         0.18777E-10         0.00000E+00
    0.66960E-07         0.53864E-10         0.00000E+00
    0.66957E-07         0.85673E-10         0.00000E+00
    0.66952E-07         0.11437E-09         0.00000E+00
    0.66946E-07         0.14012E-09         0.00000E+00
    0.66939E-07         0.16307E-09         0.00000E+00
    0.66930E-07         0.18339E-09         0.00000E+00
    0.66921E-07         0.20120E-09         0.00000E+00
    0.66910E-07         0.21665E-09         0.00000E+00
    0.66898E-07         0.22987E-09         0.00000E+00
    0.66884E-07         0.24100E-09         0.00000E+00
    0.66870E-07         0.25016E-09         0.00000E+00
    0.66855E-07         0.25746E-09         0.00000E+00
    0.66839E-07         0.26304E-09         0.00000E+00
    0.66822E-07         0.26699E-09         0.00000E+00
    0.66804E-07         0.26944E-09         0.00000E+00
    0.66785E-07         0.27048E-09         0.00000E+00
    0.66765E-07         0.27023E-09         0.00000E+00
    0.66745E-07         0.26878E-09         0.00000E+00
    0.66724E-07         0.26623E-09         0.00000E+00
    0.66703E-07         0.26268E-09         0.00000E+00
    0.66681E-07         0.25822E-09         0.00000E+00
    0.66658E-07         0.25295E-09         0.00000E+00
    0.66635E-07         0.24695E-09         0.00000E+00
    0.66611E-07         0.24032E-09         0.00000E+00
    0.66587E-07         0.23314E-09         0.00000E+00
    0.66563E-07         0.22549E-09         0.00000E+00
    0.66539E-07         0.21747E-09         0.00000E+00
    0.66514E-07         0.20913E-09         0.00000E+00
    0.66489E-07         0.20057E-09         0.00000E+00
    0.66465E-07         0.19185E-09         0.00000E+00
    0.66440E-07         0.18305E-09         0.00000E+00
    0.66415E-07         0.17421E-09         0.00000E+00
    0.66391E-07         0.16539E-09         0.00000E+00
    0.66367E-07         0.15664E-09         0.00000E+00
    0.66344E-07         0.14798E-09         0.00000E+00
    0.66321E-07         0.13943E-09         0.00000E+00
    0.66299E-07         0.13100E-09         0.00000E+00
    0.66278E-07         0.12267E-09         0.00000E+00
    0.66258E-07         0.11439E-09         0.00000E+00
    0.66240E-07         0.10610E-09         0.00000E+00
    0.66222E-07         0.97716E-10         0.00000E+00
    0.66206E-07         0.89127E-10         0.00000E+00
    0.66192E-07         0.80192E-10         0.00000E+00
    0.66180E-07         0.70737E-10         0.00000E+00
    0.66169E-07         0.60555E-10         0.00000E+00
    0.66161E-07         0.49451E-10         0.00000E+00
    0.66154E-07         0.37215E-10         0.00000E+00
    0.66150E-07         0.23640E-10         0.00000E+00
    0.66148E-07         0.84899E-11         0.00000E+00
    0.64754E-07         0.22273E-10         0.00000E+00
    0.64752E-07         0.64184E-10         0.00000E+00
    0.64750E-07         0.10259E-09         0.00000E+00
    0.64746E-07         0.13765E-09         0.00000E+00
    0.64742E-07         0.16955E-09         0.00000E+00
    0.64736E-07         0.19842E-09         0.00000E+00
    0.64729E-07         0.22444E-09         0.00000E+00
    0.64722E-07         0.24773E-09         0.00000E+00
    0.64713E-07         0.26845E-09         0.00000E+00
    0.64703E-07         0.28673E-09         0.00000E+00
    0.64693E-07         0.30270E-09         0.00000E+00
    0.64681E-07         0.31649E-09         0.00000E+00
    0.64669E-07         0.32821E-09         0.00000E+00
    0.64656E-07         0.33799E-09         0.00000E+00
    0.64643E-07         0.34594E-09         0.00000E+00
    0.64628E-07         0.35216E-09         0.00000E+00
    0.64613E-07         0.35677E-09         0.00000E+00
    0.64598E-07         0.35986E-09         0.00000E+00
    0.64581E-07         0.36153E-09         0.00000E+00
    0.64565E-07         0.36188E-09         0.00000E+00
    0.64547E-07         0.36099E-09         0.00000E+00
    0.64530E-07         0.35896E-09         0.00000E+00
    0.64512E-07         0.35586E-09         0.00000E+00
    0.64493E-07         0.35177E-09         0.00000E+00
    0.64474E-07         0.34678E-09         0.00000E+00
    0.64455E-07         0.34094E-09         0.00000E+00
    0.64436E-07         0.33434E-09         0.00000E+00
    0.64417E-07         0.32702E-09         0.00000E+00
    0.64398E-07         0.31906E-09         0.00000E+00
    0.64379E-07         0.31049E-09         0.00000E+00
    0.64359E-07         0.30138E-09         0.00000E+00
    0.64340E-07         0.29174E-09         0.00000E+00
    0.64322E-07         0.28162E-09         0.00000E+00
    0.64303E-07         0.27104E-09         0.00000E+00
    0.64285E-07         0.26001E-09         0.00000E+00
    0.64268E-07         0.24853E-09         0.00000E+00
    0.64251E-07         0.23660E-09         0.00000E+00
    0.64235E-07         0.22419E-09         0.00000E+00
    0.64220E-07         0.21128E-09         0.00000E+00
    0.64205E-07         0.19781E-09         0.00000E+00
    0.64192E-07         0.18372E-09         0.00000E+00
    0.64179E-07         0.16894E-09         0.00000E+00
    0.64168E-07         0.15339E-09         0.00000E+00
    0.64158E-07         0.13695E-09         0.00000E+00
    0.64150E-07         0.11953E-09         0.00000E+00
    0.64142E-07         0.10099E-09         0.00000E+00
    0.64136E-07         0.81223E-10         0.00000E+00
    0.64132E-07         0.60074E-10         0.00000E+00
    0.64129E-07         0.37394E-10         0.00000E+00
    0.64127E-07         0.13028E-10         0.00000E+00
    0.62458E-07         0.24866E-10         0.00000E+00
    0.62457E-07         0.71874E-10         0.00000E+00
    0.62456E-07         0.11525E-09         0.00000E+00
    0.62453E-07         0.15516E-09         0.00000E+00
    0.62450E-07         0.19176E-09         0.00000E+00
    0.62446E-07         0.22522E-09         0.00000E+00
    0.62441E-07         0.25567E-09         0.00000E+00
    0.62435E-07         0.28326E-09         0.00000E+00
    0.62429E-07         0.30812E-09         0.00000E+00
    0.62422E-07         0.33040E-09         0.00000E+00
    0.62414E-07         0.35021E-09         0.00000E+00
    0.62406E-07         0.36768E-09         0.00000E+00
    0.62397E-07         0.38292E-09         0.00000E+00
    0.62387E-07         0.39605E-09         0.00000E+00
    0.62377E-07         0.40718E-09         0.00000E+00
    0.62366E-07         0.41641E-09         0.00000E+00
    0.62355E-07         0.42383E-09         0.00000E+00
    0.62344E-07         0.42955E-09         0.00000E+00
    0.62331E-07         0.43365E-09         0.00000E+00
    0.62319E-07         0.43623E-09         0.00000E+00
    0.62306E-07         0.43735E-09         0.00000E+00
    0.62293E-07         0.43711E-09         0.00000E+00
    0.62279E-07         0.43557E-09         0.00000E+00
    0.62266E-07         0.43281E-09         0.00000E+00
    0.62252E-07         0.42888E-09         0.00000E+00
    0.62238E-07         0.42385E-09         0.00000E+00
    0.62223E-07         0.41778E-09         0.00000E+00
    0.62209E-07         0.41070E-09         0.00000E+00
    0.62195E-07         0.40267E-09         0.00000E+00
    0.62181E-07         0.39372E-09         0.00000E+00
    0.62167E-07         0.38388E-09         0.00000E+00
    0.62153E-07         0.37318E-09         0.00000E+00
    0.62139E-07         0.36164E-09         0.00000E+00
    0.62126E-07         0.34927E-09         0.00000E+00
    0.62113E-07         0.33607E-09         0.00000E+00
    0.62101E-07         0.32203E-09         0.00000E+00
    0.62089E-07         0.30715E-09         0.00000E+00
    0.62077E-07         0.29140E-09         0.00000E+00
    0.62067E-07         0.27475E-09         0.00000E+00
    0.62056E-07         0.25717E-09         0.00000E+00
    0.62047E-07         0.23861E-09         0.00000E+00
    0.62038E-07         0.21901E-09         0.00000E+00
    0.62031E-07         0.19832E-09         0.00000E+00
    0.62024E-07         0.17646E-09         0.00000E+00
    0.62018E-07         0.15335E-09         0.00000E+00
    0.62013E-07         0.12893E-09         0.00000E+00
    0.62009E-07         0.10308E-09         0.00000E+00
    0.62006E-07         0.75739E-10         0.00000E+00
    0.62004E-07         0.46796E-10         0.00000E+00
    0.62003E-07         0.16164E-10         0.00000E+00
    0.60102E-07         0.26558E-10         0.00000E+00
    0.60102E-07         0.76940E-10         0.00000E+00
    0.60101E-07         0.12367E-09         0.00000E+00
    0.60099E-07         0.16689E-09         0.00000E+00
    0.60097E-07         0.20677E-09         0.00000E+00
    0.60095E-07         0.24344E-09         0.00000E+00
    0.60092E-07         0.27705E-09         0.00000E+00
    0.60088E-07         0.30773E-09         0.00000E+00
    0.60084E-07         0.33561E-09         0.00000E+00
    0.60079E-07         0.36081E-09         0.00000E+00
    0.60074E-07         0.38345E-09         0.00000E+00
    0.60069E-07         0.40366E-09         0.00000E+00
    0.60063E-07         0.42152E-09         0.00000E+00
    0.60057E-07         0.43717E-09         0.00000E+00
    0.60050E-07         0.45068E-09         0.00000E+00
    0.60043E-07         0.46216E-09         0.00000E+00
    0.60035E-07         0.47170E-09         0.00000E+00
    0.60027E-07         0.47939E-09         0.00000E+00
    0.60019E-07         0.48531E-09         0.00000E+00
    0.60011E-07         0.48954E-09         0.00000E+00
    0.60002E-07         0.49214E-09         0.00000E+00
    0.59993E-07         0.49321E-09         0.00000E+00
    0.59984E-07         0.49278E-09         0.00000E+00
    0.59975E-07         0.49094E-09         0.00000E+00
    0.59965E-07         0.48773E-09         0.00000E+00
    0.59956E-07         0.48320E-09         0.00000E+00
    0.59946E-07         0.47740E-09         0.00000E+00
    0.59936E-07         0.47037E-09         0.00000E+00
    0.59927E-07         0.46215E-09         0.00000E+00
    0.59917E-07         0.45277E-09         0.00000E+00
    0.59908E-07         0.44225E-09         0.00000E+00
    0.59898E-07         0.43061E-09         0.00000E+00
    0.59889E-07         0.41787E-09         0.00000E+00
    0.59880E-07         0.40403E-09         0.00000E+00
    0.59871E-07         0.38910E-09         0.00000E+00
    0.59863E-07         0.37308E-09         0.00000E+00
    0.59855E-07         0.35595E-09         0.00000E+00
    0.59848E-07         0.33769E-09         0.00000E+00
    0.59840E-07         0.31830E-09         0.00000E+00
    0.59834E-07         0.29773E-09         0.00000E+00
    0.59828E-07         0.27596E-09         0.00000E+00
    0.59822E-07         0.25295E-09         0.00000E+00
    0.59817E-07         0.22866E-09         0.00000E+00
    0.59812E-07         0.20304E-09         0.00000E+00
    0.59808E-07         0.17603E-09         0.00000E+00
    0.59805E-07         0.14759E-09         0.00000E+00
    0.59803E-07         0.11765E-09         0.00000E+00
    0.59801E-07         0.86155E-10         0.00000E+00
    0.59799E-07         0.53036E-10         0.00000E+00
    0.59799E-07         0.18230E-10         0.00000E+00
    0.57710E-07         0.27405E-10         0.00000E+00
    0.57710E-07         0.79537E-10         0.00000E+00
    0.57710E-07         0.12808E-09         0.00000E+00
    0.57709E-07         0.17317E-09         0.00000E+00
    0.57708E-07         0.21495E-09         0.00000E+00
    0.57707E-07         0.25356E-09         0.00000E+00
    0.57706E-07         0.28911E-09         0.00000E+00
    0.57704E-07         0.32174E-09         0.00000E+00
    0.57702E-07         0.35155E-09         0.00000E+00
    0.57700E-07         0.37867E-09         0.00000E+00
    0.57697E-07         0.40320E-09         0.00000E+00
    0.57695E-07         0.42525E-09         0.00000E+00
    0.57692E-07         0.44491E-09         0.00000E+00
    0.57688E-07         0.46229E-09         0.00000E+00
    0.57685E-07         0.47746E-09         0.00000E+00
    0.57681E-07         0.49053E-09         0.00000E+00
    0.57677E-07         0.50157E-09         0.00000E+00
    0.57672E-07         0.51066E-09         0.00000E+00
    0.57668E-07         0.51788E-09         0.00000E+00
    0.57663E-07         0.52329E-09         0.00000E+00
    0.57658E-07         0.52697E-09         0.00000E+00
    0.57653E-07         0.52897E-09         0.00000E+00
    0.57647E-07         0.52935E-09         0.00000E+00
    0.57642E-07         0.52817E-09         0.00000E+00
    0.57636E-07         0.52547E-09         0.00000E+00
    0.57631E-07         0.52131E-09         0.00000E+00
    0.57625E-07         0.51571E-09         0.00000E+00
    0.57620E-07         0.50873E-09         0.00000E+00
    0.57614E-07         0.50038E-09         0.00000E+00
    0.57608E-07         0.49069E-09         0.00000E+00
    0.57603E-07         0.47970E-09         0.00000E+00
    0.57597E-07         0.46741E-09         0.00000E+00
    0.57592E-07         0.45384E-09         0.00000E+00
    0.57586E-07         0.43900E-09         0.00000E+00
    0.57581E-07         0.42289E-09         0.00000E+00
    0.57576E-07         0.40552E-09         0.00000E+00
    0.57572E-07         0.38687E-09         0.00000E+00
    0.57567E-07         0.36694E-09         0.00000E+00
    0.57563E-07         0.34572E-09         0.00000E+00
    0.57559E-07         0.32319E-09         0.00000E+00
    0.57556E-07         0.29933E-09         0.00000E+00
    0.57552E-07         0.27411E-09         0.00000E+00
    0.57549E-07         0.24750E-09         0.00000E+00
    0.57547E-07         0.21948E-09         0.00000E+00
    0.57545E-07         0.19000E-09         0.00000E+00
    0.57543E-07         0.15904E-09         0.00000E+00
    0.57541E-07         0.12655E-09         0.00000E+00
    0.57540E-07         0.92484E-10         0.00000E+00
    0.57540E-07         0.56807E-10         0.00000E+00
    0.57539E-07         0.19472E-10         0.00000E+00
    0.55305E-07         0.27496E-10         0.00000E+00
    0.55305E-07         0.79923E-10         0.00000E+00
    0.55305E-07         0.12890E-09         0.00000E+00
    0.55305E-07         0.17456E-09         0.00000E+00
    0.55306E-07         0.21702E-09         0.00000E+00
    0.55306E-07         0.25639E-09         0.00000E+00
    0.55306E-07         0.29279E-09         0.00000E+00
    0.55306E-07         0.32633E-09         0.00000E+00
    0.55306E-07         0.35711E-09         0.00000E+00
    0.55305E-07         0.38524E-09         0.00000E+00
    0.55305E-07         0.41080E-09         0.00000E+00
    0.55305E-07         0.43389E-09         0.00000E+00
    0.55304E-07         0.45461E-09         0.00000E+00
    0.55303E-07         0.47303E-09         0.00000E+00
    0.55302E-07         0.48923E-09         0.00000E+00
    0.55301E-07         0.50330E-09         0.00000E+00
    0.55300E-07         0.51531E-09         0.00000E+00
    0.55299E-07         0.52533E-09         0.00000E+00
    0.55298E-07         0.53342E-09         0.00000E+00
    0.55296E-07         0.53965E-09         0.00000E+00
    0.55294E-07         0.54408E-09         0.00000E+00
    0.55292E-07         0.54675E-09         0.00000E+00
    0.55290E-07         0.54773E-09         0.00000E+00
    0.55288E-07         0.54706E-09         0.00000E+00
    0.55286E-07         0.54478E-09         0.00000E+00
    0.55284E-07         0.54094E-09         0.00000E+00
    0.55282E-07         0.53557E-09         0.00000E+00
    0.55280E-07         0.52870E-09         0.00000E+00
    0.55277E-07         0.52036E-09         0.00000E+00
    0.55275E-07         0.51059E-09         0.00000E+00
    0.55273E-07         0.49939E-09         0.00000E+00
    0.55270E-07         0.48678E-09         0.00000E+00
    0.55268E-07         0.47279E-09         0.00000E+00
    0.55266E-07         0.45742E-09         0.00000E+00
    0.55264E-07         0.44068E-09         0.00000E+00
    0.55262E-07         0.42257E-09         0.00000E+00
    0.55260E-07         0.40310E-09         0.00000E+00
    0.55258E-07         0.38225E-09         0.00000E+00
    0.55256E-07         0.36002E-09         0.00000E+00
    0.55254E-07         0.33641E-09         0.00000E+00
    0.55253E-07         0.31140E-09         0.00000E+00
    0.55252E-07         0.28497E-09         0.00000E+00
    0.55250E-07         0.25711E-09         0.00000E+00
    0.55249E-07         0.22780E-09         0.00000E+00
    0.55249E-07         0.19702E-09         0.00000E+00
    0.55248E-07         0.16473E-09         0.00000E+00
    0.55247E-07         0.13092E-09         0.00000E+00
    0.55247E-07         0.95556E-10         0.00000E+00
    0.55247E-07         0.58611E-10         0.00000E+00
    0.55247E-07         0.20054E-10         0.00000E+00
    0.52906E-07         0.26942E-10         0.00000E+00
    0.52907E-07         0.78422E-10         0.00000E+00
    0.52907E-07         0.12666E-09         0.00000E+00
    0.52908E-07         0.17176E-09         0.00000E+00
    0.52909E-07         0.21383E-09         0.00000E+00
    0.52910E-07         0.25296E-09         0.00000E+00
    0.52912E-07         0.28926E-09         0.00000E+00
    0.52913E-07         0.32281E-09         0.00000E+00
    0.52914E-07         0.35372E-09         0.00000E+00
    0.52916E-07         0.38205E-09         0.00000E+00
    0.52918E-07         0.40791E-09         0.00000E+00
    0.52919E-07         0.43136E-09         0.00000E+00
    0.52921E-07         0.45249E-09         0.00000E+00
    0.52922E-07         0.47137E-09         0.00000E+00
    0.52924E-07         0.48806E-09         0.00000E+00
    0.52925E-07         0.50265E-09         0.00000E+00
    0.52926E-07         0.51519E-09         0.00000E+00
    0.52927E-07         0.52574E-09         0.00000E+00
    0.52929E-07         0.53436E-09         0.00000E+00
    0.52930E-07         0.54111E-09         0.00000E+00
    0.52931E-07         0.54604E-09         0.00000E+00
    0.52932E-07         0.54920E-09         0.00000E+00
    0.52933E-07         0.55063E-09         0.00000E+00
    0.52933E-07         0.55037E-09         0.00000E+00
    0.52934E-07         0.54847E-09         0.00000E+00
    0.52935E-07         0.54495E-09         0.00000E+00
    0.52935E-07         0.53987E-09         0.00000E+00
    0.52936E-07         0.53323E-09         0.00000E+00
    0.52936E-07         0.52507E-09         0.00000E+00
    0.52937E-07         0.51542E-09         0.00000E+00
    0.52937E-07         0.50429E-09         0.00000E+00
    0.52938E-07         0.49170E-09         0.00000E+00
    0.52938E-07         0.47767E-09         0.00000E+00
    0.52938E-07         0.46221E-09         0.00000E+00
    0.52938E-07         0.44533E-09         0.00000E+00
    0.52939E-07         0.42703E-09         0.00000E+00
    0.52939E-07         0.40732E-09         0.00000E+00
    0.52939E-07         0.38619E-09         0.00000E+00
    0.52939E-07         0.36366E-09         0.00000E+00
    0.52940E-07         0.33971E-09         0.00000E+00
    0.52940E-07         0.31433E-09         0.00000E+00
    0.52940E-07         0.28753E-09         0.00000E+00
    0.52940E-07         0.25929E-09         0.00000E+00
    0.52940E-07         0.22960E-09         0.00000E+00
    0.52941E-07         0.19844E-09         0.00000E+00
    0.52941E-07         0.16580E-09         0.00000E+00
    0.52941E-07         0.13167E-09         0.00000E+00
    0.52941E-07         0.96018E-10         0.00000E+00
    0.52941E-07         0.58838E-10         0.00000E+00
    0.52941E-07         0.20107E-10         0.00000E+00
    0.50532E-07         0.25865E-10         0.00000E+00
    0.50533E-07         0.75383E-10         0.00000E+00
    0.50534E-07         0.12191E-09         0.00000E+00
    0.50535E-07         0.16552E-09         0.00000E+00
    0.50537E-07         0.20632E-09         0.00000E+00
    0.50539E-07         0.24438E-09         0.00000E+00
    0.50541E-07         0.27978E-09         0.00000E+00
    0.50544E-07         0.31260E-09         0.00000E+00
    0.50546E-07         0.34292E-09         0.00000E+00
    0.50549E-07         0.37081E-09         0.00000E+00
    0.50552E-07         0.39634E-09         0.00000E+00
    0.50556E-07         0.41957E-09         0.00000E+00
    0.50559E-07         0.44058E-09         0.00000E+00
    0.50562E-07         0.45942E-09         0.00000E+00
    0.50565E-07         0.47616E-09         0.00000E+00
    0.50569E-07         0.49085E-09         0.00000E+00
    0.50572E-07         0.50356E-09         0.00000E+00
    0.50575E-07         0.51432E-09         0.00000E+00
    0.50579E-07         0.52320E-09         0.00000E+00
    0.50582E-07         0.53024E-09         0.00000E+00
    0.50585E-07         0.53548E-09         0.00000E+00
    0.50589E-07         0.53896E-09         0.00000E+00
    0.50592E-07         0.54074E-09         0.00000E+00
    0.50595E-07         0.54083E-09         0.00000E+00
    0.50598E-07         0.53929E-09         0.00000E+00
    0.50601E-07         0.53613E-09         0.00000E+00
    0.50604E-07         0.53140E-09         0.00000E+00
    0.50606E-07         0.52511E-09         0.00000E+00
    0.50609E-07         0.51729E-09         0.00000E+00
    0.50612E-07         0.50797E-09         0.00000E+00
    0.50614E-07         0.49715E-09         0.00000E+00
    0.50617E-07         0.48487E-09         0.00000E+00
    0.50619E-07         0.47114E-09         0.00000E+00
    0.50621E-07         0.45596E-09         0.00000E+00
    0.50624E-07         0.43935E-09         0.00000E+00
    0.50626E-07         0.42131E-09         0.00000E+00
    0.50628E-07         0.40186E-09         0.00000E+00
    0.50630E-07         0.38100E-09         0.00000E+00
    0.50631E-07         0.35873E-09         0.00000E+00
    0.50633E-07         0.33505E-09         0.00000E+00
    0.50635E-07         0.30995E-09         0.00000E+00
    0.50636E-07         0.28345E-09         0.00000E+00
    0.50637E-07         0.25552E-09         0.00000E+00
    0.50639E-07         0.22618E-09         0.00000E+00
    0.50640E-07         0.19540E-09         0.00000E+00
    0.50641E-07         0.16318E-09         0.00000E+00
    0.50641E-07         0.12952E-09         0.00000E+00
    0.50642E-07         0.94400E-10         0.00000E+00
    0.50642E-07         0.57810E-10         0.00000E+00
    0.50643E-07         0.19740E-10         0.00000E+00
    0.48199E-07         0.24385E-10         0.00000E+00
    0.48199E-07         0.71152E-10         0.00000E+00
    0.48200E-07         0.11520E-09         0.00000E+00
    0.48202E-07         0.15661E-09         0.00000E+00
    0.48204E-07         0.19544E-09         0.00000E+00
    0.48207E-07         0.23176E-09         0.00000E+00
    0.48210E-07         0.26563E-09         0.00000E+00
    0.48214E-07         0.29712E-09         0.00000E+00
    0.48217E-07         0.32629E-09         0.00000E+00
    0.48221E-07         0.35319E-09         0.00000E+00
    0.48225E-07         0.37789E-09         0.00000E+00
    0.48230E-07         0.40044E-09         0.00000E+00
    0.48234E-07         0.42089E-09         0.00000E+00
    0.48239E-07         0.43930E-09         0.00000E+00
    0.48244E-07         0.45572E-09         0.00000E+00
    0.48249E-07         0.47019E-09         0.00000E+00
    0.48254E-07         0.48276E-09         0.00000E+00
    0.48259E-07         0.49348E-09         0.00000E+00
    0.48264E-07         0.50239E-09         0.00000E+00
    0.48269E-07         0.50952E-09         0.00000E+00
    0.48274E-07         0.51492E-09         0.00000E+00
    0.48279E-07         0.51862E-09         0.00000E+00
    0.48283E-07         0.52066E-09         0.00000E+00
    0.48288E-07         0.52106E-09         0.00000E+00
    0.48293E-07         0.51986E-09         0.00000E+00
    0.48298E-07         0.51709E-09         0.00000E+00
    0.48303E-07         0.51277E-09         0.00000E+00
    0.48307E-07         0.50693E-09         0.00000E+00
    0.48312E-07         0.49958E-09         0.00000E+00
    0.48316E-07         0.49076E-09         0.00000E+00
    0.48320E-07         0.48047E-09         0.00000E+00
    0.48324E-07         0.46873E-09         0.00000E+00
    0.48328E-07         0.45556E-09         0.00000E+00
    0.48332E-07         0.44097E-09         0.00000E+00
    0.48336E-07         0.42497E-09         0.00000E+00
    0.48339E-07         0.40758E-09         0.00000E+00
    0.48343E-07         0.38879E-09         0.00000E+00
    0.48346E-07         0.36862E-09         0.00000E+00
    0.48349E-07         0.34706E-09         0.00000E+00
    0.48352E-07         0.32413E-09         0.00000E+00
    0.48354E-07         0.29983E-09         0.00000E+00
    0.48357E-07         0.27415E-09         0.00000E+00
    0.48359E-07         0.24710E-09         0.00000E+00
    0.48361E-07         0.21868E-09         0.00000E+00
    0.48363E-07         0.18887E-09         0.00000E+00
    0.48364E-07         0.15769E-09         0.00000E+00
    0.48365E-07         0.12512E-09         0.00000E+00
    0.48366E-07         0.91156E-10         0.00000E+00
    0.48367E-07         0.55800E-10         0.00000E+00
    0.48367E-07         0.19043E-10         0.00000E+00
    0.45918E-07         0.22612E-10         0.00000E+00
    0.45919E-07         0.66056E-10         0.00000E+00
    0.45920E-07         0.10708E-09         0.00000E+00
    0.45923E-07         0.14574E-09         0.00000E+00
    0.45925E-07         0.18208E-09         0.00000E+00
    0.45928E-07         0.21615E-09         0.00000E+00
    0.45932E-07         0.24801E-09         0.00000E+00
    0.45936E-07         0.27771E-09         0.00000E+00
    0.45940E-07         0.30528E-09         0.00000E+00
    0.45945E-07         0.33079E-09         0.00000E+00
    0.45950E-07         0.35427E-09         0.00000E+00
    0.45955E-07         0.37577E-09         0.00000E+00
    0.45961E-07         0.39532E-09         0.00000E+00
    0.45966E-07         0.41299E-09         0.00000E+00
    0.45972E-07         0.42879E-09         0.00000E+00
    0.45978E-07         0.44278E-09         0.00000E+00
    0.45984E-07         0.45499E-09         0.00000E+00
    0.45991E-07         0.46546E-09         0.00000E+00
    0.45997E-07         0.47421E-09         0.00000E+00
    0.46003E-07         0.48129E-09         0.00000E+00
    0.46009E-07         0.48673E-09         0.00000E+00
    0.46016E-07         0.49055E-09         0.00000E+00
    0.46022E-07         0.49278E-09         0.00000E+00
    0.46028E-07         0.49346E-09         0.00000E+00
    0.46034E-07         0.49260E-09         0.00000E+00
    0.46040E-07         0.49023E-09         0.00000E+00
    0.46046E-07         0.48637E-09         0.00000E+00
    0.46052E-07         0.48105E-09         0.00000E+00
    0.46058E-07         0.47428E-09         0.00000E+00
    0.46064E-07         0.46608E-09         0.00000E+00
    0.46069E-07         0.45647E-09         0.00000E+00
    0.46075E-07         0.44546E-09         0.00000E+00
    0.46080E-07         0.43307E-09         0.00000E+00
    0.46085E-07         0.41931E-09         0.00000E+00
    0.46090E-07         0.40418E-09         0.00000E+00
    0.46094E-07         0.38771E-09         0.00000E+00
    0.46098E-07         0.36989E-09         0.00000E+00
    0.46103E-07         0.35074E-09         0.00000E+00
    0.46107E-07         0.33026E-09         0.00000E+00
    0.46110E-07         0.30845E-09         0.00000E+00
    0.46114E-07         0.28533E-09         0.00000E+00
    0.46117E-07         0.26089E-09         0.00000E+00
    0.46120E-07         0.23513E-09         0.00000E+00
    0.46122E-07         0.20807E-09         0.00000E+00
    0.46124E-07         0.17969E-09         0.00000E+00
    0.46126E-07         0.15000E-09         0.00000E+00
    0.46128E-07         0.11899E-09         0.00000E+00
    0.46129E-07         0.86677E-10         0.00000E+00
    0.46130E-07         0.53046E-10         0.00000E+00
    0.46130E-07         0.18097E-10         0.00000E+00
    0.43703E-07         0.20647E-10         0.00000E+00
    0.43704E-07         0.60387E-10         0.00000E+00
    0.43705E-07         0.98006E-10         0.00000E+00
    0.43707E-07         0.13354E-09         0.00000E+00
    0.43710E-07         0.16703E-09         0.00000E+00
    0.43714E-07         0.19851E-09         0.00000E+00
    0.43718E-07         0.22801E-09         0.00000E+00
    0.43722E-07         0.25558E-09         0.00000E+00
    0.43727E-07         0.28125E-09         0.00000E+00
    0.43732E-07         0.30506E-09         0.00000E+00
    0.43738E-07         0.32703E-09         0.00000E+00
    0.43744E-07         0.34720E-09         0.00000E+00
    0.43750E-07         0.36561E-09         0.00000E+00
    0.43756E-07         0.38229E-09         0.00000E+00
    0.43763E-07         0.39727E-09         0.00000E+00
    0.43769E-07         0.41057E-09         0.00000E+00
    0.43776E-07         0.42224E-09         0.00000E+00
    0.43783E-07         0.43229E-09         0.00000E+00
    0.43790E-07         0.44075E-09         0.00000E+00
    0.43798E-07         0.44766E-09         0.00000E+00
    0.43805E-07         0.45303E-09         0.00000E+00
    0.43812E-07         0.45689E-09         0.00000E+00
    0.43819E-07         0.45926E-09         0.00000E+00
    0.43826E-07         0.46017E-09         0.00000E+00
    0.43833E-07         0.45964E-09         0.00000E+00
    0.43840E-07         0.45768E-09         0.00000E+00
    0.43847E-07         0.45432E-09         0.00000E+00
    0.43854E-07         0.44957E-09         0.00000E+00
    0.43861E-07         0.44344E-09         0.00000E+00
    0.43867E-07         0.43597E-09         0.00000E+00
    0.43874E-07         0.42715E-09         0.00000E+00
    0.43880E-07         0.41700E-09         0.00000E+00
    0.43886E-07         0.40554E-09         0.00000E+00
    0.43892E-07         0.39277E-09         0.00000E+00
    0.43897E-07         0.37871E-09         0.00000E+00
    0.43903E-07         0.36336E-09         0.00000E+00
    0.43908E-07         0.34674E-09         0.00000E+00
    0.43913E-07         0.32885E-09         0.00000E+00
    0.43917E-07         0.30970E-09         0.00000E+00
    0.43922E-07         0.28929E-09         0.00000E+00
    0.43925E-07         0.26763E-09         0.00000E+00
    0.43929E-07         0.24473E-09         0.00000E+00
    0.43932E-07         0.22058E-09         0.00000E+00
    0.43935E-07         0.19519E-09         0.00000E+00
    0.43938E-07         0.16857E-09         0.00000E+00
    0.43940E-07         0.14071E-09         0.00000E+00
    0.43942E-07         0.11162E-09         0.00000E+00
    0.43943E-07         0.81303E-10         0.00000E+00
    0.43944E-07         0.49752E-10         0.00000E+00
    0.43945E-07         0.16971E-10         0.00000E+00
    0.41562E-07         0.18577E-10         0.00000E+00
    0.41562E-07         0.54398E-10         0.00000E+00
    0.41564E-07         0.88393E-10         0.00000E+00
    0.41566E-07         0.12058E-09         0.00000E+00
    0.41569E-07         0.15100E-09         0.00000E+00
    0.41573E-07         0.17966E-09         0.00000E+00
    0.41577E-07         0.20659E-09         0.00000E+00
    0.41581E-07         0.23182E-09         0.00000E+00
    0.41587E-07         0.25537E-09         0.00000E+00
    0.41592E-07         0.27727E-09         0.00000E+00
    0.41598E-07         0.29754E-09         0.00000E+00
    0.41604E-07         0.31620E-09         0.00000E+00
    0.41611E-07         0.33328E-09         0.00000E+00
    0.41617E-07         0.34880E-09         0.00000E+00
    0.41624E-07         0.36279E-09         0.00000E+00
    0.41632E-07         0.37527E-09         0.00000E+00
    0.41639E-07         0.38625E-09         0.00000E+00
    0.41647E-07         0.39576E-09         0.00000E+00
    0.41654E-07         0.40383E-09         0.00000E+00
    0.41662E-07         0.41047E-09         0.00000E+00
    0.41670E-07         0.41569E-09         0.00000E+00
    0.41677E-07         0.41953E-09         0.00000E+00
    0.41685E-07         0.42200E-09         0.00000E+00
    0.41693E-07         0.42310E-09         0.00000E+00
    0.41700E-07         0.42288E-09         0.00000E+00
    0.41708E-07         0.42132E-09         0.00000E+00
    0.41716E-07         0.41846E-09         0.00000E+00
    0.41723E-07         0.41431E-09         0.00000E+00
    0.41730E-07         0.40888E-09         0.00000E+00
    0.41737E-07         0.40218E-09         0.00000E+00
    0.41744E-07         0.39422E-09         0.00000E+00
    0.41751E-07         0.38502E-09         0.00000E+00
    0.41758E-07         0.37459E-09         0.00000E+00
    0.41764E-07         0.36293E-09         0.00000E+00
    0.41770E-07         0.35006E-09         0.00000E+00
    0.41776E-07         0.33599E-09         0.00000E+00
    0.41782E-07         0.32071E-09         0.00000E+00
    0.41787E-07         0.30425E-09         0.00000E+00
    0.41792E-07         0.28660E-09         0.00000E+00
    0.41796E-07         0.26777E-09         0.00000E+00
    0.41801E-07         0.24777E-09         0.00000E+00
    0.41805E-07         0.22661E-09         0.00000E+00
    0.41808E-07         0.20428E-09         0.00000E+00
    0.41811E-07         0.18079E-09         0.00000E+00
    0.41814E-07         0.15615E-09         0.00000E+00
    0.41817E-07         0.13035E-09         0.00000E+00
    0.41819E-07         0.10341E-09         0.00000E+00
    0.41820E-07         0.75325E-10         0.00000E+00
    0.41821E-07         0.46094E-10         0.00000E+00
    0.41822E-07         0.15723E-10         0.00000E+00
    0.39502E-07         0.16475E-10         0.00000E+00
    0.39502E-07         0.48304E-10         0.00000E+00
    0.39504E-07         0.78588E-10         0.00000E+00
    0.39506E-07         0.10734E-09         0.00000E+00
    0.39509E-07         0.13458E-09         0.00000E+00
    0.39513E-07         0.16031E-09         0.00000E+00
    0.39517E-07         0.18456E-09         0.00000E+00
    0.39522E-07         0.20733E-09         0.00000E+00
    0.39527E-07         0.22864E-09         0.00000E+00
    0.39533E-07         0.24852E-09         0.00000E+00
    0.39538E-07         0.26696E-09         0.00000E+00
    0.39545E-07         0.28399E-09         0.00000E+00
    0.39551E-07         0.29963E-09         0.00000E+00
    0.39558E-07         0.31389E-09         0.00000E+00
    0.39566E-07         0.32678E-09         0.00000E+00
    0.39573E-07         0.33833E-09         0.00000E+00
    0.39581E-07         0.34854E-09         0.00000E+00
    0.39588E-07         0.35743E-09         0.00000E+00
    0.39596E-07         0.36502E-09         0.00000E+00
    0.39604E-07         0.37131E-09         0.00000E+00
    0.39612E-07         0.37633E-09         0.00000E+00
    0.39620E-07         0.38009E-09         0.00000E+00
    0.39628E-07         0.38260E-09         0.00000E+00
    0.39636E-07         0.38388E-09         0.00000E+00
    0.39644E-07         0.38393E-09         0.00000E+00
    0.39652E-07         0.38277E-09         0.00000E+00
    0.39660E-07         0.38041E-09         0.00000E+00
    0.39667E-07         0.37685E-09         0.00000E+00
    0.39675E-07         0.37213E-09         0.00000E+00
    0.39682E-07         0.36623E-09         0.00000E+00
    0.39690E-07         0.35917E-09         0.00000E+00
    0.39697E-07         0.35096E-09         0.00000E+00
    0.39703E-07         0.34161E-09         0.00000E+00
    0.39710E-07         0.33113E-09         0.00000E+00
    0.39716E-07         0.31952E-09         0.00000E+00
    0.39723E-07         0.30680E-09         0.00000E+00
    0.39728E-07         0.29296E-09         0.00000E+00
    0.39734E-07         0.27802E-09         0.00000E+00
    0.39739E-07         0.26198E-09         0.00000E+00
    0.39744E-07         0.24484E-09         0.00000E+00
    0.39748E-07         0.22662E-09         0.00000E+00
    0.39753E-07         0.20732E-09         0.00000E+00
    0.39756E-07         0.18693E-09         0.00000E+00
    0.39760E-07         0.16548E-09         0.00000E+00
    0.39763E-07         0.14295E-09         0.00000E+00
    0.39765E-07         0.11936E-09         0.00000E+00
    0.39767E-07         0.94703E-10         0.00000E+00
    0.39769E-07         0.68990E-10         0.00000E+00
    0.39770E-07         0.42223E-10         0.00000E+00
    0.39770E-07         0.14404E-10         0.00000E+00
    0.37529E-07         0.14401E-10         0.00000E+00
    0.37530E-07         0.42278E-10         0.00000E+00
    0.37531E-07         0.68876E-10         0.00000E+00
    0.37534E-07         0.94201E-10         0.00000E+00
    0.37536E-07         0.11826E-09         0.00000E+00
    0.37540E-07         0.14105E-09         0.00000E+00
    0.37544E-07         0.16258E-09         0.00000E+00
    0.37549E-07         0.18286E-09         0.00000E+00
    0.37554E-07         0.20190E-09         0.00000E+00
    0.37559E-07         0.21969E-09         0.00000E+00
    0.37565E-07         0.23626E-09         0.00000E+00
    0.37572E-07         0.25161E-09         0.00000E+00
    0.37578E-07         0.26575E-09         0.00000E+00
    0.37585E-07         0.27868E-09         0.00000E+00
    0.37592E-07         0.29042E-09         0.00000E+00
    0.37599E-07         0.30098E-09         0.00000E+00
    0.37607E-07         0.31036E-09         0.00000E+00
    0.37615E-07         0.31857E-09         0.00000E+00
    0.37623E-07         0.32563E-09         0.00000E+00
    0.37630E-07         0.33153E-09         0.00000E+00
    0.37638E-07         0.33630E-09         0.00000E+00
    0.37646E-07         0.33994E-09         0.00000E+00
    0.37655E-07         0.34246E-09         0.00000E+00
    0.37663E-07         0.34386E-09         0.00000E+00
    0.37671E-07         0.34416E-09         0.00000E+00
    0.37678E-07         0.34337E-09         0.00000E+00
    0.37686E-07         0.34148E-09         0.00000E+00
    0.37694E-07         0.33852E-09         0.00000E+00
    0.37702E-07         0.33449E-09         0.00000E+00
    0.37709E-07         0.32939E-09         0.00000E+00
    0.37717E-07         0.32324E-09         0.00000E+00
    0.37724E-07         0.31603E-09         0.00000E+00
    0.37731E-07         0.30778E-09         0.00000E+00
    0.37737E-07         0.29849E-09         0.00000E+00
    0.37744E-07         0.28817E-09         0.00000E+00
    0.37750E-07         0.27683E-09         0.00000E+00
    0.37756E-07         0.26446E-09         0.00000E+00
    0.37761E-07         0.25108E-09         0.00000E+00
    0.37767E-07         0.23669E-09         0.00000E+00
    0.37771E-07         0.22130E-09         0.00000E+00
    0.37776E-07         0.20491E-09         0.00000E+00
    0.37780E-07         0.18752E-09         0.00000E+00
    0.37784E-07         0.16914E-09         0.00000E+00
    0.37787E-07         0.14977E-09         0.00000E+00
    0.37790E-07         0.12942E-09         0.00000E+00
    0.37793E-07         0.10809E-09         0.00000E+00
    0.37795E-07         0.85784E-10         0.00000E+00
    0.37796E-07         0.62508E-10         0.00000E+00
    0.37797E-07         0.38265E-10         0.00000E+00
    0.37798E-07         0.13057E-10         0.00000E+00
    0.35648E-07         0.12400E-10         0.00000E+00
    0.35649E-07         0.36457E-10         0.00000E+00
    0.35650E-07         0.59482E-10         0.00000E+00
    0.35652E-07         0.81471E-10         0.00000E+00
    0.35655E-07         0.10242E-09         0.00000E+00
    0.35658E-07         0.12233E-09         0.00000E+00
    0.35662E-07         0.14119E-09         0.00000E+00
    0.35667E-07         0.15902E-09         0.00000E+00
    0.35672E-07         0.17580E-09         0.00000E+00
    0.35677E-07         0.19153E-09         0.00000E+00
    0.35683E-07         0.20623E-09         0.00000E+00
    0.35689E-07         0.21989E-09         0.00000E+00
    0.35695E-07         0.23252E-09         0.00000E+00
    0.35702E-07         0.24411E-09         0.00000E+00
    0.35709E-07         0.25468E-09         0.00000E+00
    0.35716E-07         0.26422E-09         0.00000E+00
    0.35723E-07         0.27274E-09         0.00000E+00
    0.35731E-07         0.28024E-09         0.00000E+00
    0.35738E-07         0.28673E-09         0.00000E+00
    0.35746E-07         0.29221E-09         0.00000E+00
    0.35754E-07         0.29669E-09         0.00000E+00
    0.35762E-07         0.30018E-09         0.00000E+00
    0.35770E-07         0.30267E-09         0.00000E+00
    0.35777E-07         0.30417E-09         0.00000E+00
    0.35785E-07         0.30469E-09         0.00000E+00
    0.35793E-07         0.30423E-09         0.00000E+00
    0.35801E-07         0.30280E-09         0.00000E+00
    0.35808E-07         0.30040E-09         0.00000E+00
    0.35816E-07         0.29703E-09         0.00000E+00
    0.35823E-07         0.29271E-09         0.00000E+00
    0.35830E-07         0.28744E-09         0.00000E+00
    0.35837E-07         0.28122E-09         0.00000E+00
    0.35844E-07         0.27405E-09         0.00000E+00
    0.35851E-07         0.26594E-09         0.00000E+00
    0.35857E-07         0.25690E-09         0.00000E+00
    0.35863E-07         0.24693E-09         0.00000E+00
    0.35869E-07         0.23603E-09         0.00000E+00
    0.35874E-07         0.22420E-09         0.00000E+00
    0.35880E-07         0.21146E-09         0.00000E+00
    0.35885E-07         0.19780E-09         0.00000E+00
    0.35889E-07         0.18324E-09         0.00000E+00
    0.35893E-07         0.16776E-09         0.00000E+00
    0.35897E-07         0.15138E-09         0.00000E+00
    0.35900E-07         0.13410E-09         0.00000E+00
    0.35903E-07         0.11592E-09         0.00000E+00
    0.35905E-07         0.96854E-10         0.00000E+00
    0.35907E-07         0.76895E-10         0.00000E+00
    0.35909E-07         0.56050E-10         0.00000E+00
    0.35910E-07         0.34322E-10         0.00000E+00
    0.35911E-07         0.11716E-10         0.00000E+00
    0.33861E-07         0.10509E-10         0.00000E+00
    0.33862E-07         0.30948E-10         0.00000E+00
    0.33863E-07         0.50578E-10         0.00000E+00
    0.33865E-07         0.69388E-10         0.00000E+00
    0.33868E-07         0.87369E-10         0.00000E+00
    0.33871E-07         0.10451E-09         0.00000E+00
    0.33875E-07         0.12082E-09         0.00000E+00
    0.33879E-07         0.13627E-09         0.00000E+00
    0.33884E-07         0.15086E-09         0.00000E+00
    0.33889E-07         0.16460E-09         0.00000E+00
    0.33894E-07         0.17748E-09         0.00000E+00
    0.33900E-07         0.18949E-09         0.00000E+00
    0.33906E-07         0.20063E-09         0.00000E+00
    0.33912E-07         0.21090E-09         0.00000E+00
    0.33919E-07         0.22030E-09         0.00000E+00
    0.33926E-07         0.22883E-09         0.00000E+00
    0.33933E-07         0.23648E-09         0.00000E+00
    0.33940E-07         0.24327E-09         0.00000E+00
    0.33947E-07         0.24918E-09         0.00000E+00
    0.33954E-07         0.25422E-09         0.00000E+00
    0.33962E-07         0.25839E-09         0.00000E+00
    0.33969E-07         0.26169E-09         0.00000E+00
    0.33977E-07         0.26412E-09         0.00000E+00
    0.33984E-07         0.26569E-09         0.00000E+00
    0.33992E-07         0.26640E-09         0.00000E+00
    0.33999E-07         0.26624E-09         0.00000E+00
    0.34007E-07         0.26522E-09         0.00000E+00
    0.34014E-07         0.26335E-09         0.00000E+00
    0.34021E-07         0.26062E-09         0.00000E+00
    0.34028E-07         0.25704E-09         0.00000E+00
    0.34035E-07         0.25260E-09         0.00000E+00
    0.34042E-07         0.24732E-09         0.00000E+00
    0.34049E-07         0.24120E-09         0.00000E+00
    0.34055E-07         0.23423E-09         0.00000E+00
    0.34061E-07         0.22642E-09         0.00000E+00
    0.34067E-07         0.21778E-09         0.00000E+00
    0.34072E-07         0.20830E-09         0.00000E+00
    0.34078E-07         0.19799E-09         0.00000E+00
    0.34083E-07         0.18685E-09         0.00000E+00
    0.34087E-07         0.17489E-09         0.00000E+00
    0.34092E-07         0.16210E-09         0.00000E+00
    0.34096E-07         0.14849E-09         0.00000E+00
    0.34099E-07         0.13406E-09         0.00000E+00
    0.34103E-07         0.11882E-09         0.00000E+00
    0.34105E-07         0.10276E-09         0.00000E+00
    0.34108E-07         0.85897E-10         0.00000E+00
    0.34110E-07         0.68227E-10         0.00000E+00
    0.34111E-07         0.49754E-10         0.00000E+00
    0.34112E-07         0.30480E-10         0.00000E+00
    0.34113E-07         0.10410E-10         0.00000E+00
    0.32171E-07         0.87522E-11         0.00000E+00
    0.32171E-07         0.25825E-10         0.00000E+00
    0.32173E-07         0.42287E-10         0.00000E+00
    0.32174E-07         0.58124E-10         0.00000E+00
    0.32177E-07         0.73321E-10         0.00000E+00
    0.32180E-07         0.87868E-10         0.00000E+00
    0.32183E-07         0.10175E-09         0.00000E+00
    0.32187E-07         0.11496E-09         0.00000E+00
    0.32191E-07         0.12749E-09         0.00000E+00
    0.32196E-07         0.13932E-09         0.00000E+00
    0.32201E-07         0.15046E-09         0.00000E+00
    0.32207E-07         0.16088E-09         0.00000E+00
    0.32212E-07         0.17060E-09         0.00000E+00
    0.32218E-07         0.17959E-09         0.00000E+00
    0.32224E-07         0.18787E-09         0.00000E+00
    0.32231E-07         0.19541E-09         0.00000E+00
    0.32237E-07         0.20222E-09         0.00000E+00
    0.32244E-07         0.20829E-09         0.00000E+00
    0.32251E-07         0.21362E-09         0.00000E+00
    0.32258E-07         0.21822E-09         0.00000E+00
    0.32265E-07         0.22206E-09         0.00000E+00
    0.32272E-07         0.22517E-09         0.00000E+00
    0.32279E-07         0.22752E-09         0.00000E+00
    0.32286E-07         0.22913E-09         0.00000E+00
    0.32293E-07         0.22998E-09         0.00000E+00
    0.32300E-07         0.23009E-09         0.00000E+00
    0.32307E-07         0.22944E-09         0.00000E+00
    0.32314E-07         0.22805E-09         0.00000E+00
    0.32321E-07         0.22591E-09         0.00000E+00
    0.32327E-07         0.22301E-09         0.00000E+00
    0.32334E-07         0.21936E-09         0.00000E+00
    0.32340E-07         0.21497E-09         0.00000E+00
    0.32346E-07         0.20983E-09         0.00000E+00
    0.32352E-07         0.20394E-09         0.00000E+00
    0.32358E-07         0.19730E-09         0.00000E+00
    0.32364E-07         0.18992E-09         0.00000E+00
    0.32369E-07         0.18179E-09         0.00000E+00
    0.32374E-07         0.17292E-09         0.00000E+00
    0.32379E-07         0.16331E-09         0.00000E+00
    0.32383E-07         0.15296E-09         0.00000E+00
    0.32387E-07         0.14187E-09         0.00000E+00
    0.32391E-07         0.13004E-09         0.00000E+00
    0.32394E-07         0.11748E-09         0.00000E+00
    0.32398E-07         0.10419E-09         0.00000E+00
    0.32400E-07         0.90164E-10         0.00000E+00
    0.32402E-07         0.75411E-10         0.00000E+00
    0.32404E-07         0.59932E-10         0.00000E+00
    0.32406E-07         0.43729E-10         0.00000E+00
    0.32407E-07         0.26804E-10         0.00000E+00
    0.32407E-07         0.91602E-11         0.00000E+00
    0.30577E-07         0.71475E-11         0.00000E+00
    0.30578E-07         0.21139E-10         0.00000E+00
    0.30579E-07         0.34695E-10         0.00000E+00
    0.30581E-07         0.47797E-10         0.00000E+00
    0.30583E-07         0.60427E-10         0.00000E+00
    0.30586E-07         0.72571E-10         0.00000E+00
    0.30589E-07         0.84213E-10         0.00000E+00
    0.30592E-07         0.95339E-10         0.00000E+00
    0.30596E-07         0.10594E-09         0.00000E+00
    0.30600E-07         0.11599E-09         0.00000E+00
    0.30605E-07         0.12549E-09         0.00000E+00
    0.30610E-07         0.13444E-09         0.00000E+00
    0.30615E-07         0.14280E-09         0.00000E+00
    0.30621E-07         0.15059E-09         0.00000E+00
    0.30626E-07         0.15779E-09         0.00000E+00
    0.30632E-07         0.16439E-09         0.00000E+00
    0.30638E-07         0.17038E-09         0.00000E+00
    0.30644E-07         0.17577E-09         0.00000E+00
    0.30651E-07         0.18054E-09         0.00000E+00
    0.30657E-07         0.18469E-09         0.00000E+00
    0.30663E-07         0.18821E-09         0.00000E+00
    0.30670E-07         0.19110E-09         0.00000E+00
    0.30677E-07         0.19336E-09         0.00000E+00
    0.30683E-07         0.19498E-09         0.00000E+00
    0.30690E-07         0.19595E-09         0.00000E+00
    0.30696E-07         0.19628E-09         0.00000E+00
    0.30703E-07         0.19597E-09         0.00000E+00
    0.30709E-07         0.19501E-09         0.00000E+00
    0.30715E-07         0.19339E-09         0.00000E+00
    0.30722E-07         0.19112E-09         0.00000E+00
    0.30728E-07         0.18820E-09         0.00000E+00
    0.30734E-07         0.18462E-09         0.00000E+00
    0.30739E-07         0.18039E-09         0.00000E+00
    0.30745E-07         0.17550E-09         0.00000E+00
    0.30750E-07         0.16995E-09         0.00000E+00
    0.30755E-07         0.16374E-09         0.00000E+00
    0.30760E-07         0.15688E-09         0.00000E+00
    0.30765E-07         0.14935E-09         0.00000E+00
    0.30769E-07         0.14117E-09         0.00000E+00
    0.30774E-07         0.13234E-09         0.00000E+00
    0.30777E-07         0.12284E-09         0.00000E+00
    0.30781E-07         0.11269E-09         0.00000E+00
    0.30784E-07         0.10188E-09         0.00000E+00
    0.30787E-07         0.90421E-10         0.00000E+00
    0.30789E-07         0.78307E-10         0.00000E+00
    0.30792E-07         0.65540E-10         0.00000E+00
    0.30793E-07         0.52123E-10         0.00000E+00
    0.30795E-07         0.38057E-10         0.00000E+00
    0.30795E-07         0.23343E-10         0.00000E+00
    0.30796E-07         0.79836E-11         0.00000E+00
    0.29081E-07         0.57046E-11         0.00000E+00
    0.29081E-07         0.16921E-10         0.00000E+00
    0.29082E-07         0.27853E-10         0.00000E+00
    0.29084E-07         0.38479E-10         0.00000E+00
    0.29086E-07         0.48781E-10         0.00000E+00
    0.29088E-07         0.58739E-10         0.00000E+00
    0.29091E-07         0.68336E-10         0.00000E+00
    0.29094E-07         0.77557E-10         0.00000E+00
    0.29098E-07         0.86384E-10         0.00000E+00
    0.29102E-07         0.94804E-10         0.00000E+00
    0.29106E-07         0.10280E-09         0.00000E+00
    0.29110E-07         0.11037E-09         0.00000E+00
    0.29115E-07         0.11749E-09         0.00000E+00
    0.29120E-07         0.12415E-09         0.00000E+00
    0.29125E-07         0.13035E-09         0.00000E+00
    0.29130E-07         0.13606E-09         0.00000E+00
    0.29136E-07         0.14129E-09         0.00000E+00
    0.29141E-07         0.14602E-09         0.00000E+00
    0.29147E-07         0.15025E-09         0.00000E+00
    0.29153E-07         0.15397E-09         0.00000E+00
    0.29159E-07         0.15717E-09         0.00000E+00
    0.29165E-07         0.15985E-09         0.00000E+00
    0.29171E-07         0.16199E-09         0.00000E+00
    0.29177E-07         0.16360E-09         0.00000E+00
    0.29183E-07         0.16466E-09         0.00000E+00
    0.29189E-07         0.16518E-09         0.00000E+00
    0.29195E-07         0.16515E-09         0.00000E+00
    0.29200E-07         0.16457E-09         0.00000E+00
    0.29206E-07         0.16342E-09         0.00000E+00
    0.29212E-07         0.16172E-09         0.00000E+00
    0.29217E-07         0.15945E-09         0.00000E+00
    0.29223E-07         0.15661E-09         0.00000E+00
    0.29228E-07         0.15320E-09         0.00000E+00
    0.29233E-07         0.14922E-09         0.00000E+00
    0.29238E-07         0.14467E-09         0.00000E+00
    0.29243E-07         0.13954E-09         0.00000E+00
    0.29247E-07         0.13383E-09         0.00000E+00
    0.29252E-07         0.12755E-09         0.00000E+00
    0.29256E-07         0.12069E-09         0.00000E+00
    0.29259E-07         0.11324E-09         0.00000E+00
    0.29263E-07         0.10522E-09         0.00000E+00
    0.29266E-07         0.96615E-10         0.00000E+00
    0.29269E-07         0.87430E-10         0.00000E+00
    0.29272E-07         0.77664E-10         0.00000E+00
    0.29274E-07         0.67317E-10         0.00000E+00
    0.29276E-07         0.56390E-10         0.00000E+00
    0.29278E-07         0.44884E-10         0.00000E+00
    0.29279E-07         0.32798E-10         0.00000E+00
    0.29280E-07         0.20134E-10         0.00000E+00
    0.29280E-07         0.68925E-11         0.00000E+00
    0.27681E-07         0.44278E-11         0.00000E+00
    0.27681E-07         0.13184E-10         0.00000E+00
    0.27682E-07         0.21783E-10         0.00000E+00
    0.27684E-07         0.30204E-10         0.00000E+00
    0.27685E-07         0.38426E-10         0.00000E+00
    0.27688E-07         0.46427E-10         0.00000E+00
    0.27690E-07         0.54190E-10         0.00000E+00
    0.27693E-07         0.61696E-10         0.00000E+00
    0.27696E-07         0.68927E-10         0.00000E+00
    0.27699E-07         0.75868E-10         0.00000E+00
    0.27703E-07         0.82502E-10         0.00000E+00
    0.27707E-07         0.88816E-10         0.00000E+00
    0.27711E-07         0.94796E-10         0.00000E+00
    0.27716E-07         0.10043E-09         0.00000E+00
    0.27720E-07         0.10570E-09         0.00000E+00
    0.27725E-07         0.11060E-09         0.00000E+00
    0.27730E-07         0.11512E-09         0.00000E+00
    0.27735E-07         0.11924E-09         0.00000E+00
    0.27740E-07         0.12296E-09         0.00000E+00
    0.27745E-07         0.12627E-09         0.00000E+00
    0.27750E-07         0.12916E-09         0.00000E+00
    0.27756E-07         0.13162E-09         0.00000E+00
    0.27761E-07         0.13364E-09         0.00000E+00
    0.27766E-07         0.13522E-09         0.00000E+00
    0.27772E-07         0.13634E-09         0.00000E+00
    0.27777E-07         0.13702E-09         0.00000E+00
    0.27782E-07         0.13722E-09         0.00000E+00
    0.27788E-07         0.13696E-09         0.00000E+00
    0.27793E-07         0.13623E-09         0.00000E+00
    0.27798E-07         0.13502E-09         0.00000E+00
    0.27803E-07         0.13333E-09         0.00000E+00
    0.27808E-07         0.13115E-09         0.00000E+00
    0.27812E-07         0.12848E-09         0.00000E+00
    0.27817E-07         0.12532E-09         0.00000E+00
    0.27822E-07         0.12166E-09         0.00000E+00
    0.27826E-07         0.11750E-09         0.00000E+00
    0.27830E-07         0.11284E-09         0.00000E+00
    0.27834E-07         0.10768E-09         0.00000E+00
    0.27837E-07         0.10201E-09         0.00000E+00
    0.27841E-07         0.95830E-10         0.00000E+00
    0.27844E-07         0.89144E-10         0.00000E+00
    0.27847E-07         0.81946E-10         0.00000E+00
    0.27850E-07         0.74237E-10         0.00000E+00
    0.27852E-07         0.66015E-10         0.00000E+00
    0.27854E-07         0.57280E-10         0.00000E+00
    0.27856E-07         0.48031E-10         0.00000E+00
    0.27857E-07         0.38268E-10         0.00000E+00
    0.27858E-07         0.27991E-10         0.00000E+00
    0.27859E-07         0.17200E-10         0.00000E+00
    0.27859E-07         0.58949E-11         0.00000E+00
    0.26376E-07         0.33164E-11         0.00000E+00
    0.26377E-07         0.99272E-11         0.00000E+00
    0.26377E-07         0.16488E-10         0.00000E+00
    0.26379E-07         0.22977E-10         0.00000E+00
    0.26380E-07         0.29370E-10         0.00000E+00
    0.26382E-07         0.35648E-10         0.00000E+00
    0.26384E-07         0.41790E-10         0.00000E+00
    0.26387E-07         0.47778E-10         0.00000E+00
    0.26389E-07         0.53592E-10         0.00000E+00
    0.26392E-07         0.59215E-10         0.00000E+00
    0.26395E-07         0.64631E-10         0.00000E+00
    0.26399E-07         0.69824E-10         0.00000E+00
    0.26403E-07         0.74779E-10         0.00000E+00
    0.26406E-07         0.79482E-10         0.00000E+00
    0.26410E-07         0.83918E-10         0.00000E+00
    0.26414E-07         0.88076E-10         0.00000E+00
    0.26419E-07         0.91942E-10         0.00000E+00
    0.26423E-07         0.95506E-10         0.00000E+00
    0.26428E-07         0.98755E-10         0.00000E+00
    0.26432E-07         0.10168E-09         0.00000E+00
    0.26437E-07         0.10427E-09         0.00000E+00
    0.26441E-07         0.10652E-09         0.00000E+00
    0.26446E-07         0.10841E-09         0.00000E+00
    0.26451E-07         0.10995E-09         0.00000E+00
    0.26456E-07         0.11111E-09         0.00000E+00
    0.26460E-07         0.11190E-09         0.00000E+00
    0.26465E-07         0.11230E-09         0.00000E+00
    0.26470E-07         0.11232E-09         0.00000E+00
    0.26474E-07         0.11194E-09         0.00000E+00
    0.26479E-07         0.11115E-09         0.00000E+00
    0.26483E-07         0.10996E-09         0.00000E+00
    0.26488E-07         0.10836E-09         0.00000E+00
    0.26492E-07         0.10634E-09         0.00000E+00
    0.26496E-07         0.10390E-09         0.00000E+00
    0.26500E-07         0.10103E-09         0.00000E+00
    0.26504E-07         0.97733E-10         0.00000E+00
    0.26507E-07         0.94003E-10         0.00000E+00
    0.26511E-07         0.89837E-10         0.00000E+00
    0.26514E-07         0.85231E-10         0.00000E+00
    0.26517E-07         0.80184E-10         0.00000E+00
    0.26520E-07         0.74693E-10         0.00000E+00
    0.26523E-07         0.68755E-10         0.00000E+00
    0.26525E-07         0.62369E-10         0.00000E+00
    0.26527E-07         0.55533E-10         0.00000E+00
    0.26529E-07         0.48245E-10         0.00000E+00
    0.26530E-07         0.40504E-10         0.00000E+00
    0.26532E-07         0.32310E-10         0.00000E+00
    0.26533E-07         0.23661E-10         0.00000E+00
    0.26533E-07         0.14556E-10         0.00000E+00
    0.26534E-07         0.49956E-11         0.00000E+00
    0.25165E-07         0.23667E-11         0.00000E+00
    0.25165E-07         0.71405E-11         0.00000E+00
    0.25166E-07         0.11951E-10         0.00000E+00
    0.25167E-07         0.16775E-10         0.00000E+00
    0.25168E-07         0.21591E-10         0.00000E+00
    0.25170E-07         0.26377E-10         0.00000E+00
    0.25172E-07         0.31112E-10         0.00000E+00
    0.25174E-07         0.35778E-10         0.00000E+00
    0.25176E-07         0.40354E-10         0.00000E+00
    0.25179E-07         0.44824E-10         0.00000E+00
    0.25181E-07         0.49170E-10         0.00000E+00
    0.25184E-07         0.53376E-10         0.00000E+00
    0.25187E-07         0.57425E-10         0.00000E+00
    0.25191E-07         0.61303E-10         0.00000E+00
    0.25194E-07         0.64995E-10         0.00000E+00
    0.25198E-07         0.68488E-10         0.00000E+00
    0.25201E-07         0.71769E-10         0.00000E+00
    0.25205E-07         0.74825E-10         0.00000E+00
    0.25209E-07         0.77644E-10         0.00000E+00
    0.25213E-07         0.80214E-10         0.00000E+00
    0.25217E-07         0.82527E-10         0.00000E+00
    0.25221E-07         0.84569E-10         0.00000E+00
    0.25225E-07         0.86334E-10         0.00000E+00
    0.25229E-07         0.87810E-10         0.00000E+00
    0.25233E-07         0.88989E-10         0.00000E+00
    0.25238E-07         0.89862E-10         0.00000E+00
    0.25242E-07         0.90423E-10         0.00000E+00
    0.25246E-07         0.90663E-10         0.00000E+00
    0.25250E-07         0.90576E-10         0.00000E+00
    0.25254E-07         0.90154E-10         0.00000E+00
    0.25257E-07         0.89392E-10         0.00000E+00
    0.25261E-07         0.88283E-10         0.00000E+00
    0.25265E-07         0.86822E-10         0.00000E+00
    0.25269E-07         0.85004E-10         0.00000E+00
    0.25272E-07         0.82824E-10         0.00000E+00
    0.25275E-07         0.80277E-10         0.00000E+00
    0.25279E-07         0.77358E-10         0.00000E+00
    0.25282E-07         0.74065E-10         0.00000E+00
    0.25284E-07         0.70393E-10         0.00000E+00
    0.25287E-07         0.66339E-10         0.00000E+00
    0.25290E-07         0.61899E-10         0.00000E+00
    0.25292E-07         0.57071E-10         0.00000E+00
    0.25294E-07         0.51852E-10         0.00000E+00
    0.25296E-07         0.46239E-10         0.00000E+00
    0.25297E-07         0.40231E-10         0.00000E+00
    0.25299E-07         0.33826E-10         0.00000E+00
    0.25300E-07         0.27021E-10         0.00000E+00
    0.25301E-07         0.19815E-10         0.00000E+00
    0.25301E-07         0.12207E-10         0.00000E+00
    0.25302E-07         0.41964E-11         0.00000E+00
    0.24045E-07         0.15718E-11         0.00000E+00
    0.24046E-07         0.48049E-11         0.00000E+00
    0.24046E-07         0.81428E-11         0.00000E+00
    0.24047E-07         0.11563E-10         0.00000E+00
    0.24048E-07         0.15043E-10         0.00000E+00
    0.24049E-07         0.18561E-10         0.00000E+00
    0.24051E-07         0.22099E-10         0.00000E+00
    0.24053E-07         0.25635E-10         0.00000E+00
    0.24055E-07         0.29151E-10         0.00000E+00
    0.24057E-07         0.32629E-10         0.00000E+00
    0.24059E-07         0.36051E-10         0.00000E+00
    0.24062E-07         0.39402E-10         0.00000E+00
    0.24064E-07         0.42664E-10         0.00000E+00
    0.24067E-07         0.45822E-10         0.00000E+00
    0.24070E-07         0.48863E-10         0.00000E+00
    0.24073E-07         0.51771E-10         0.00000E+00
    0.24076E-07         0.54533E-10         0.00000E+00
    0.24079E-07         0.57136E-10         0.00000E+00
    0.24082E-07         0.59568E-10         0.00000E+00
    0.24086E-07         0.61817E-10         0.00000E+00
    0.24089E-07         0.63872E-10         0.00000E+00
    0.24093E-07         0.65722E-10         0.00000E+00
    0.24096E-07         0.67356E-10         0.00000E+00
    0.24100E-07         0.68765E-10         0.00000E+00
    0.24103E-07         0.69940E-10         0.00000E+00
    0.24107E-07         0.70871E-10         0.00000E+00
    0.24110E-07         0.71550E-10         0.00000E+00
    0.24114E-07         0.71969E-10         0.00000E+00
    0.24117E-07         0.72120E-10         0.00000E+00
    0.24120E-07         0.71997E-10         0.00000E+00
    0.24124E-07         0.71591E-10         0.00000E+00
    0.24127E-07         0.70897E-10         0.00000E+00
    0.24130E-07         0.69908E-10         0.00000E+00
    0.24133E-07         0.68619E-10         0.00000E+00
    0.24136E-07         0.67024E-10         0.00000E+00
    0.24139E-07         0.65117E-10         0.00000E+00
    0.24142E-07         0.62895E-10         0.00000E+00
    0.24144E-07         0.60351E-10         0.00000E+00
    0.24147E-07         0.57482E-10         0.00000E+00
    0.24149E-07         0.54285E-10         0.00000E+00
    0.24151E-07         0.50754E-10         0.00000E+00
    0.24153E-07         0.46887E-10         0.00000E+00
    0.24155E-07         0.42680E-10         0.00000E+00
    0.24157E-07         0.38131E-10         0.00000E+00
    0.24158E-07         0.33236E-10         0.00000E+00
    0.24159E-07         0.27993E-10         0.00000E+00
    0.24160E-07         0.22399E-10         0.00000E+00
    0.24161E-07         0.16454E-10         0.00000E+00
    0.24161E-07         0.10153E-10         0.00000E+00
    0.24162E-07         0.34970E-11         0.00000E+00
    0.23015E-07         0.92330E-12         0.00000E+00
    0.23015E-07         0.28958E-11         0.00000E+00
    0.23016E-07         0.50245E-11         0.00000E+00
    0.23017E-07         0.72872E-11         0.00000E+00
    0.23017E-07         0.96625E-11         0.00000E+00
    0.23018E-07         0.12130E-10         0.00000E+00
    0.23020E-07         0.14669E-10         0.00000E+00
    0.23021E-07         0.17261E-10         0.00000E+00
    0.23023E-07         0.19887E-10         0.00000E+00
    0.23024E-07         0.22530E-10         0.00000E+00
    0.23026E-07         0.25172E-10         0.00000E+00
    0.23028E-07         0.27796E-10         0.00000E+00
    0.23030E-07         0.30388E-10         0.00000E+00
    0.23033E-07         0.32930E-10         0.00000E+00
    0.23035E-07         0.35410E-10         0.00000E+00
    0.23038E-07         0.37812E-10         0.00000E+00
    0.23040E-07         0.40122E-10         0.00000E+00
    0.23043E-07         0.42329E-10         0.00000E+00
    0.23046E-07         0.44419E-10         0.00000E+00
    0.23048E-07         0.46380E-10         0.00000E+00
    0.23051E-07         0.48201E-10         0.00000E+00
    0.23054E-07         0.49870E-10         0.00000E+00
    0.23057E-07         0.51378E-10         0.00000E+00
    0.23060E-07         0.52713E-10         0.00000E+00
    0.23063E-07         0.53867E-10         0.00000E+00
    0.23066E-07         0.54830E-10         0.00000E+00
    0.23069E-07         0.55593E-10         0.00000E+00
    0.23071E-07         0.56148E-10         0.00000E+00
    0.23074E-07         0.56486E-10         0.00000E+00
    0.23077E-07         0.56601E-10         0.00000E+00
    0.23080E-07         0.56484E-10         0.00000E+00
    0.23083E-07         0.56129E-10         0.00000E+00
    0.23085E-07         0.55529E-10         0.00000E+00
    0.23088E-07         0.54677E-10         0.00000E+00
    0.23090E-07         0.53569E-10         0.00000E+00
    0.23093E-07         0.52197E-10         0.00000E+00
    0.23095E-07         0.50558E-10         0.00000E+00
    0.23097E-07         0.48645E-10         0.00000E+00
    0.23099E-07         0.46454E-10         0.00000E+00
    0.23101E-07         0.43981E-10         0.00000E+00
    0.23103E-07         0.41220E-10         0.00000E+00
    0.23105E-07         0.38169E-10         0.00000E+00
    0.23106E-07         0.34824E-10         0.00000E+00
    0.23108E-07         0.31180E-10         0.00000E+00
    0.23109E-07         0.27236E-10         0.00000E+00
    0.23110E-07         0.22987E-10         0.00000E+00
    0.23111E-07         0.18431E-10         0.00000E+00
    0.23111E-07         0.13565E-10         0.00000E+00
    0.23112E-07         0.83872E-11         0.00000E+00
    0.23112E-07         0.28953E-11         0.00000E+00
    0.22072E-07         0.41120E-12         0.00000E+00
    0.22072E-07         0.13851E-11         0.00000E+00
    0.22073E-07         0.25513E-11         0.00000E+00
    0.22073E-07         0.38887E-11         0.00000E+00
    0.22074E-07         0.53767E-11         0.00000E+00
    0.22075E-07         0.69956E-11         0.00000E+00
    0.22076E-07         0.87262E-11         0.00000E+00
    0.22077E-07         0.10550E-10         0.00000E+00
    0.22078E-07         0.12449E-10         0.00000E+00
    0.22079E-07         0.14406E-10         0.00000E+00
    0.22081E-07         0.16404E-10         0.00000E+00
    0.22082E-07         0.18427E-10         0.00000E+00
    0.22084E-07         0.20459E-10         0.00000E+00
    0.22086E-07         0.22486E-10         0.00000E+00
    0.22088E-07         0.24493E-10         0.00000E+00
    0.22090E-07         0.26465E-10         0.00000E+00
    0.22092E-07         0.28391E-10         0.00000E+00
    0.22094E-07         0.30256E-10         0.00000E+00
    0.22096E-07         0.32048E-10         0.00000E+00
    0.22098E-07         0.33756E-10         0.00000E+00
    0.22101E-07         0.35367E-10         0.00000E+00
    0.22103E-07         0.36871E-10         0.00000E+00
    0.22105E-07         0.38256E-10         0.00000E+00
    0.22108E-07         0.39514E-10         0.00000E+00
    0.22110E-07         0.40634E-10         0.00000E+00
    0.22112E-07         0.41606E-10         0.00000E+00
    0.22115E-07         0.42422E-10         0.00000E+00
    0.22117E-07         0.43073E-10         0.00000E+00
    0.22119E-07         0.43551E-10         0.00000E+00
    0.22122E-07         0.43848E-10         0.00000E+00
    0.22124E-07         0.43956E-10         0.00000E+00
    0.22126E-07         0.43868E-10         0.00000E+00
    0.22128E-07         0.43578E-10         0.00000E+00
    0.22130E-07         0.43078E-10         0.00000E+00
    0.22133E-07         0.42363E-10         0.00000E+00
    0.22135E-07         0.41427E-10         0.00000E+00
    0.22136E-07         0.40264E-10         0.00000E+00
    0.22138E-07         0.38868E-10         0.00000E+00
    0.22140E-07         0.37234E-10         0.00000E+00
    0.22142E-07         0.35359E-10         0.00000E+00
    0.22143E-07         0.33236E-10         0.00000E+00
    0.22144E-07         0.30862E-10         0.00000E+00
    0.22146E-07         0.28233E-10         0.00000E+00
    0.22147E-07         0.25345E-10         0.00000E+00
    0.22148E-07         0.22194E-10         0.00000E+00
    0.22149E-07         0.18777E-10         0.00000E+00
    0.22149E-07         0.15091E-10         0.00000E+00
    0.22150E-07         0.11132E-10         0.00000E+00
    0.22150E-07         0.68986E-11         0.00000E+00
    0.22150E-07         0.23876E-11         0.00000E+00
    0.21214E-07         0.24934E-13         0.00000E+00
    0.21214E-07         0.24198E-12         0.00000E+00
    0.21214E-07         0.67412E-12         0.00000E+00
    0.21214E-07         0.13014E-11         0.00000E+00
    0.21215E-07         0.21044E-11         0.00000E+00
    0.21215E-07         0.30644E-11         0.00000E+00
    0.21216E-07         0.41632E-11         0.00000E+00
    0.21217E-07         0.53831E-11         0.00000E+00
    0.21218E-07         0.67070E-11         0.00000E+00
    0.21219E-07         0.81185E-11         0.00000E+00
    0.21220E-07         0.96013E-11         0.00000E+00
    0.21221E-07         0.11140E-10         0.00000E+00
    0.21223E-07         0.12720E-10         0.00000E+00
    0.21224E-07         0.14326E-10         0.00000E+00
    0.21225E-07         0.15945E-10         0.00000E+00
    0.21227E-07         0.17563E-10         0.00000E+00
    0.21228E-07         0.19167E-10         0.00000E+00
    0.21230E-07         0.20744E-10         0.00000E+00
    0.21232E-07         0.22283E-10         0.00000E+00
    0.21234E-07         0.23771E-10         0.00000E+00
    0.21235E-07         0.25197E-10         0.00000E+00
    0.21237E-07         0.26551E-10         0.00000E+00
    0.21239E-07         0.27821E-10         0.00000E+00
    0.21241E-07         0.28999E-10         0.00000E+00
    0.21243E-07         0.30073E-10         0.00000E+00
    0.21244E-07         0.31036E-10         0.00000E+00
    0.21246E-07         0.31877E-10         0.00000E+00
    0.21248E-07         0.32588E-10         0.00000E+00
    0.21250E-07         0.33162E-10         0.00000E+00
    0.21252E-07         0.33590E-10         0.00000E+00
    0.21254E-07         0.33864E-10         0.00000E+00
    0.21255E-07         0.33978E-10         0.00000E+00
    0.21257E-07         0.33924E-10         0.00000E+00
    0.21259E-07         0.33696E-10         0.00000E+00
    0.21260E-07         0.33288E-10         0.00000E+00
    0.21262E-07         0.32692E-10         0.00000E+00
    0.21263E-07         0.31904E-10         0.00000E+00
    0.21265E-07         0.30918E-10         0.00000E+00
    0.21266E-07         0.29729E-10         0.00000E+00
    0.21268E-07         0.28332E-10         0.00000E+00
    0.21269E-07         0.26721E-10         0.00000E+00
    0.21270E-07         0.24893E-10         0.00000E+00
    0.21271E-07         0.22843E-10         0.00000E+00
    0.21272E-07         0.20567E-10         0.00000E+00
    0.21273E-07         0.18062E-10         0.00000E+00
    0.21273E-07         0.15323E-10         0.00000E+00
    0.21274E-07         0.12348E-10         0.00000E+00
    0.21274E-07         0.91320E-11         0.00000E+00
    0.21275E-07         0.56736E-11         0.00000E+00
    0.21275E-07         0.19694E-11         0.00000E+00
    0.20437E-07        -0.24647E-12         0.00000E+00
    0.20437E-07        -0.56516E-12         0.00000E+00
    0.20438E-07        -0.65786E-12         0.00000E+00
    0.20438E-07        -0.54318E-12         0.00000E+00
    0.20438E-07        -0.23920E-12         0.00000E+00
    0.20439E-07         0.23650E-12         0.00000E+00
    0.20439E-07         0.86684E-12         0.00000E+00
    0.20440E-07         0.16352E-11         0.00000E+00
    0.20440E-07         0.25256E-11         0.00000E+00
    0.20441E-07         0.35224E-11         0.00000E+00
    0.20442E-07         0.46103E-11         0.00000E+00
    0.20443E-07         0.57749E-11         0.00000E+00
    0.20444E-07         0.70018E-11         0.00000E+00
    0.20445E-07         0.82773E-11         0.00000E+00
    0.20446E-07         0.95881E-11         0.00000E+00
    0.20447E-07         0.10921E-10         0.00000E+00
    0.20448E-07         0.12264E-10         0.00000E+00
    0.20449E-07         0.13605E-10         0.00000E+00
    0.20450E-07         0.14932E-10         0.00000E+00
    0.20452E-07         0.16234E-10         0.00000E+00
    0.20453E-07         0.17500E-10         0.00000E+00
    0.20454E-07         0.18719E-10         0.00000E+00
    0.20455E-07         0.19882E-10         0.00000E+00
    0.20457E-07         0.20979E-10         0.00000E+00
    0.20458E-07         0.21999E-10         0.00000E+00
    0.20460E-07         0.22935E-10         0.00000E+00
    0.20461E-07         0.23778E-10         0.00000E+00
    0.20462E-07         0.24518E-10         0.00000E+00
    0.20464E-07         0.25148E-10         0.00000E+00
    0.20465E-07         0.25660E-10         0.00000E+00
    0.20466E-07         0.26047E-10         0.00000E+00
    0.20468E-07         0.26302E-10         0.00000E+00
    0.20469E-07         0.26417E-10         0.00000E+00
    0.20470E-07         0.26386E-10         0.00000E+00
    0.20472E-07         0.26203E-10         0.00000E+00
    0.20473E-07         0.25861E-10         0.00000E+00
    0.20474E-07         0.25355E-10         0.00000E+00
    0.20475E-07         0.24680E-10         0.00000E+00
    0.20476E-07         0.23829E-10         0.00000E+00
    0.20477E-07         0.22799E-10         0.00000E+00
    0.20478E-07         0.21583E-10         0.00000E+00
    0.20479E-07         0.20178E-10         0.00000E+00
    0.20480E-07         0.18579E-10         0.00000E+00
    0.20480E-07         0.16782E-10         0.00000E+00
    0.20481E-07         0.14783E-10         0.00000E+00
    0.20482E-07         0.12579E-10         0.00000E+00
    0.20482E-07         0.10165E-10         0.00000E+00
    0.20482E-07         0.75384E-11         0.00000E+00
    0.20483E-07         0.46962E-11         0.00000E+00
    0.20483E-07         0.16351E-11         0.00000E+00
    0.19741E-07        -0.41398E-12         0.00000E+00
    0.19741E-07        -0.10682E-11         0.00000E+00
    0.19741E-07        -0.14959E-11         0.00000E+00
    0.19741E-07        -0.17143E-11         0.00000E+00
    0.19742E-07        -0.17400E-11         0.00000E+00
    0.19742E-07        -0.15893E-11         0.00000E+00
    0.19742E-07        -0.12781E-11         0.00000E+00
    0.19742E-07        -0.82168E-12         0.00000E+00
    0.19743E-07        -0.23505E-12         0.00000E+00
    0.19743E-07         0.46726E-12         0.00000E+00
    0.19744E-07         0.12711E-11         0.00000E+00
    0.19744E-07         0.21629E-11         0.00000E+00
    0.19745E-07         0.31291E-11         0.00000E+00
    0.19746E-07         0.41570E-11         0.00000E+00
    0.19746E-07         0.52340E-11         0.00000E+00
    0.19747E-07         0.63480E-11         0.00000E+00
    0.19748E-07         0.74871E-11         0.00000E+00
    0.19748E-07         0.86401E-11         0.00000E+00
    0.19749E-07         0.97958E-11         0.00000E+00
    0.19750E-07         0.10944E-10         0.00000E+00
    0.19751E-07         0.12073E-10         0.00000E+00
    0.19752E-07         0.13175E-10         0.00000E+00
    0.19753E-07         0.14238E-10         0.00000E+00
    0.19754E-07         0.15255E-10         0.00000E+00
    0.19755E-07         0.16215E-10         0.00000E+00
    0.19755E-07         0.17110E-10         0.00000E+00
    0.19756E-07         0.17932E-10         0.00000E+00
    0.19757E-07         0.18672E-10         0.00000E+00
    0.19758E-07         0.19324E-10         0.00000E+00
    0.19759E-07         0.19879E-10         0.00000E+00
    0.19760E-07         0.20330E-10         0.00000E+00
    0.19761E-07         0.20670E-10         0.00000E+00
    0.19762E-07         0.20892E-10         0.00000E+00
    0.19763E-07         0.20991E-10         0.00000E+00
    0.19764E-07         0.20959E-10         0.00000E+00
    0.19765E-07         0.20791E-10         0.00000E+00
    0.19766E-07         0.20482E-10         0.00000E+00
    0.19766E-07         0.20025E-10         0.00000E+00
    0.19767E-07         0.19416E-10         0.00000E+00
    0.19768E-07         0.18650E-10         0.00000E+00
    0.19769E-07         0.17721E-10         0.00000E+00
    0.19769E-07         0.16626E-10         0.00000E+00
    0.19770E-07         0.15360E-10         0.00000E+00
    0.19770E-07         0.13918E-10         0.00000E+00
    0.19771E-07         0.12297E-10         0.00000E+00
    0.19771E-07         0.10493E-10         0.00000E+00
    0.19771E-07         0.85026E-11         0.00000E+00
    0.19772E-07         0.63222E-11         0.00000E+00
    0.19772E-07         0.39487E-11         0.00000E+00
    0.19772E-07         0.13789E-11         0.00000E+00
    0.19123E-07        -0.48839E-12         0.00000E+00
    0.19123E-07        -0.12985E-11         0.00000E+00
    0.19123E-07        -0.18906E-11         0.00000E+00
    0.19123E-07        -0.22803E-11         0.00000E+00
    0.19123E-07        -0.24829E-11         0.00000E+00
    0.19123E-07        -0.25133E-11         0.00000E+00
    0.19123E-07        -0.23860E-11         0.00000E+00
    0.19123E-07        -0.21150E-11         0.00000E+00
    0.19123E-07        -0.17142E-11         0.00000E+00
    0.19123E-07        -0.11969E-11         0.00000E+00
    0.19124E-07        -0.57603E-12         0.00000E+00
    0.19124E-07         0.13563E-12         0.00000E+00
    0.19124E-07         0.92582E-12         0.00000E+00
    0.19124E-07         0.17826E-11         0.00000E+00
    0.19125E-07         0.26943E-11         0.00000E+00
    0.19125E-07         0.36497E-11         0.00000E+00
    0.19126E-07         0.46379E-11         0.00000E+00
    0.19126E-07         0.56482E-11         0.00000E+00
    0.19126E-07         0.66704E-11         0.00000E+00
    0.19127E-07         0.76944E-11         0.00000E+00
    0.19127E-07         0.87107E-11         0.00000E+00
    0.19128E-07         0.97098E-11         0.00000E+00
    0.19128E-07         0.10683E-10         0.00000E+00
    0.19129E-07         0.11621E-10         0.00000E+00
    0.19129E-07         0.12515E-10         0.00000E+00
    0.19130E-07         0.13358E-10         0.00000E+00
    0.19130E-07         0.14141E-10         0.00000E+00
    0.19131E-07         0.14857E-10         0.00000E+00
    0.19132E-07         0.15499E-10         0.00000E+00
    0.19132E-07         0.16059E-10         0.00000E+00
    0.19133E-07         0.16530E-10         0.00000E+00
    0.19133E-07         0.16906E-10         0.00000E+00
    0.19134E-07         0.17180E-10         0.00000E+00
    0.19134E-07         0.17347E-10         0.00000E+00
    0.19135E-07         0.17400E-10         0.00000E+00
    0.19135E-07         0.17334E-10         0.00000E+00
    0.19136E-07         0.17143E-10         0.00000E+00
    0.19137E-07         0.16822E-10         0.00000E+00
    0.19137E-07         0.16366E-10         0.00000E+00
    0.19137E-07         0.15770E-10         0.00000E+00
    0.19138E-07         0.15030E-10         0.00000E+00
    0.19138E-07         0.14140E-10         0.00000E+00
    0.19139E-07         0.13098E-10         0.00000E+00
    0.19139E-07         0.11898E-10         0.00000E+00
    0.19139E-07         0.10537E-10         0.00000E+00
    0.19140E-07         0.90118E-11         0.00000E+00
    0.19140E-07         0.73180E-11         0.00000E+00
    0.19140E-07         0.54526E-11         0.00000E+00
    0.19140E-07         0.34124E-11         0.00000E+00
    0.19140E-07         0.11943E-11         0.00000E+00
    0.18580E-07        -0.48007E-12         0.00000E+00
    0.18580E-07        -0.12862E-11         0.00000E+00
    0.18580E-07        -0.18907E-11         0.00000E+00
    0.18580E-07        -0.23075E-11         0.00000E+00
    0.18580E-07        -0.25505E-11         0.00000E+00
    0.18579E-07        -0.26331E-11         0.00000E+00
    0.18579E-07        -0.25684E-11         0.00000E+00
    0.18579E-07        -0.23693E-11         0.00000E+00
    0.18579E-07        -0.20481E-11         0.00000E+00
    0.18579E-07        -0.16171E-11         0.00000E+00
    0.18579E-07        -0.10881E-11         0.00000E+00
    0.18579E-07        -0.47258E-12         0.00000E+00
    0.18579E-07         0.21820E-12         0.00000E+00
    0.18579E-07         0.97333E-12         0.00000E+00
    0.18579E-07         0.17822E-11         0.00000E+00
    0.18579E-07         0.26345E-11         0.00000E+00
    0.18579E-07         0.35201E-11         0.00000E+00
    0.18579E-07         0.44294E-11         0.00000E+00
    0.18580E-07         0.53528E-11         0.00000E+00
    0.18580E-07         0.62813E-11         0.00000E+00
    0.18580E-07         0.72058E-11         0.00000E+00
    0.18580E-07         0.81178E-11         0.00000E+00
    0.18580E-07         0.90089E-11         0.00000E+00
    0.18580E-07         0.98710E-11         0.00000E+00
    0.18580E-07         0.10696E-10         0.00000E+00
    0.18581E-07         0.11477E-10         0.00000E+00
    0.18581E-07         0.12206E-10         0.00000E+00
    0.18581E-07         0.12876E-10         0.00000E+00
    0.18581E-07         0.13480E-10         0.00000E+00
    0.18581E-07         0.14012E-10         0.00000E+00
    0.18582E-07         0.14465E-10         0.00000E+00
    0.18582E-07         0.14832E-10         0.00000E+00
    0.18582E-07         0.15109E-10         0.00000E+00
    0.18582E-07         0.15289E-10         0.00000E+00
    0.18583E-07         0.15367E-10         0.00000E+00
    0.18583E-07         0.15337E-10         0.00000E+00
    0.18583E-07         0.15194E-10         0.00000E+00
    0.18584E-07         0.14934E-10         0.00000E+00
    0.18584E-07         0.14551E-10         0.00000E+00
    0.18584E-07         0.14041E-10         0.00000E+00
    0.18584E-07         0.13399E-10         0.00000E+00
    0.18584E-07         0.12622E-10         0.00000E+00
    0.18585E-07         0.11706E-10         0.00000E+00
    0.18585E-07         0.10645E-10         0.00000E+00
    0.18585E-07         0.94379E-11         0.00000E+00
    0.18585E-07         0.80798E-11         0.00000E+00
    0.18585E-07         0.65675E-11         0.00000E+00
    0.18585E-07         0.48980E-11         0.00000E+00
    0.18585E-07         0.30681E-11         0.00000E+00
    0.18585E-07         0.10749E-11         0.00000E+00
    0.18110E-07        -0.39892E-12         0.00000E+00
    0.18110E-07        -0.10603E-11         0.00000E+00
    0.18110E-07        -0.15429E-11         0.00000E+00
    0.18110E-07        -0.18593E-11         0.00000E+00
    0.18110E-07        -0.20218E-11         0.00000E+00
    0.18110E-07        -0.20424E-11         0.00000E+00
    0.18110E-07        -0.19328E-11         0.00000E+00
    0.18109E-07        -0.17044E-11         0.00000E+00
    0.18109E-07        -0.13685E-11         0.00000E+00
    0.18109E-07        -0.93582E-12         0.00000E+00
    0.18109E-07        -0.41707E-12         0.00000E+00
    0.18109E-07         0.17739E-12         0.00000E+00
    0.18108E-07         0.83750E-12         0.00000E+00
    0.18108E-07         0.15534E-11         0.00000E+00
    0.18108E-07         0.23156E-11         0.00000E+00
    0.18108E-07         0.31146E-11         0.00000E+00
    0.18107E-07         0.39416E-11         0.00000E+00
    0.18107E-07         0.47876E-11         0.00000E+00
    0.18107E-07         0.56442E-11         0.00000E+00
    0.18107E-07         0.65029E-11         0.00000E+00
    0.18106E-07         0.73558E-11         0.00000E+00
    0.18106E-07         0.81950E-11         0.00000E+00
    0.18106E-07         0.90129E-11         0.00000E+00
    0.18106E-07         0.98020E-11         0.00000E+00
    0.18106E-07         0.10555E-10         0.00000E+00
    0.18106E-07         0.11266E-10         0.00000E+00
    0.18106E-07         0.11927E-10         0.00000E+00
    0.18106E-07         0.12532E-10         0.00000E+00
    0.18105E-07         0.13075E-10         0.00000E+00
    0.18105E-07         0.13550E-10         0.00000E+00
    0.18105E-07         0.13950E-10         0.00000E+00
    0.18105E-07         0.14271E-10         0.00000E+00
    0.18105E-07         0.14506E-10         0.00000E+00
    0.18105E-07         0.14651E-10         0.00000E+00
    0.18105E-07         0.14700E-10         0.00000E+00
    0.18105E-07         0.14648E-10         0.00000E+00
    0.18105E-07         0.14492E-10         0.00000E+00
    0.18105E-07         0.14225E-10         0.00000E+00
    0.18105E-07         0.13843E-10         0.00000E+00
    0.18105E-07         0.13344E-10         0.00000E+00
    0.18105E-07         0.12722E-10         0.00000E+00
    0.18105E-07         0.11973E-10         0.00000E+00
    0.18106E-07         0.11094E-10         0.00000E+00
    0.18106E-07         0.10081E-10         0.00000E+00
    0.18106E-07         0.89313E-11         0.00000E+00
    0.18106E-07         0.76410E-11         0.00000E+00
    0.18106E-07         0.62070E-11         0.00000E+00
    0.18106E-07         0.46265E-11         0.00000E+00
    0.18106E-07         0.28964E-11         0.00000E+00
    0.18106E-07         0.10142E-11         0.00000E+00
    0.17713E-07        -0.25427E-12         0.00000E+00
    0.17713E-07        -0.64791E-12         0.00000E+00
    0.17713E-07        -0.89145E-12         0.00000E+00
    0.17713E-07        -0.99590E-12         0.00000E+00
    0.17712E-07        -0.97205E-12         0.00000E+00
    0.17712E-07        -0.83044E-12         0.00000E+00
    0.17712E-07        -0.58139E-12         0.00000E+00
    0.17712E-07        -0.23496E-12         0.00000E+00
    0.17711E-07         0.19900E-12         0.00000E+00
    0.17711E-07         0.71089E-12         0.00000E+00
    0.17710E-07         0.12913E-11         0.00000E+00
    0.17710E-07         0.19311E-11         0.00000E+00
    0.17709E-07         0.26214E-11         0.00000E+00
    0.17709E-07         0.33535E-11         0.00000E+00
    0.17708E-07         0.41189E-11         0.00000E+00
    0.17708E-07         0.49093E-11         0.00000E+00
    0.17707E-07         0.57167E-11         0.00000E+00
    0.17707E-07         0.65333E-11         0.00000E+00
    0.17707E-07         0.73516E-11         0.00000E+00
    0.17706E-07         0.81640E-11         0.00000E+00
    0.17706E-07         0.89635E-11         0.00000E+00
    0.17705E-07         0.97430E-11         0.00000E+00
    0.17705E-07         0.10496E-10         0.00000E+00
    0.17704E-07         0.11215E-10         0.00000E+00
    0.17704E-07         0.11895E-10         0.00000E+00
    0.17703E-07         0.12529E-10         0.00000E+00
    0.17703E-07         0.13111E-10         0.00000E+00
    0.17703E-07         0.13635E-10         0.00000E+00
    0.17702E-07         0.14097E-10         0.00000E+00
    0.17702E-07         0.14489E-10         0.00000E+00
    0.17702E-07         0.14807E-10         0.00000E+00
    0.17701E-07         0.15047E-10         0.00000E+00
    0.17701E-07         0.15202E-10         0.00000E+00
    0.17701E-07         0.15269E-10         0.00000E+00
    0.17701E-07         0.15242E-10         0.00000E+00
    0.17700E-07         0.15118E-10         0.00000E+00
    0.17700E-07         0.14892E-10         0.00000E+00
    0.17700E-07         0.14560E-10         0.00000E+00
    0.17700E-07         0.14117E-10         0.00000E+00
    0.17700E-07         0.13561E-10         0.00000E+00
    0.17700E-07         0.12888E-10         0.00000E+00
    0.17700E-07         0.12093E-10         0.00000E+00
    0.17700E-07         0.11174E-10         0.00000E+00
    0.17699E-07         0.10128E-10         0.00000E+00
    0.17699E-07         0.89506E-11         0.00000E+00
    0.17699E-07         0.76399E-11         0.00000E+00
    0.17699E-07         0.61926E-11         0.00000E+00
    0.17699E-07         0.46062E-11         0.00000E+00
    0.17699E-07         0.28779E-11         0.00000E+00
    0.17699E-07         0.10054E-11         0.00000E+00
    0.17386E-07        -0.54867E-13         0.00000E+00
    0.17386E-07        -0.74738E-13         0.00000E+00
    0.17386E-07         0.22064E-13         0.00000E+00
    0.17386E-07         0.22604E-12         0.00000E+00
    0.17385E-07         0.52789E-12         0.00000E+00
    0.17385E-07         0.91851E-12         0.00000E+00
    0.17385E-07         0.13890E-11         0.00000E+00
    0.17384E-07         0.19306E-11         0.00000E+00
    0.17384E-07         0.25349E-11         0.00000E+00
    0.17383E-07         0.31935E-11         0.00000E+00
    0.17382E-07         0.38983E-11         0.00000E+00
    0.17382E-07         0.46414E-11         0.00000E+00
    0.17381E-07         0.54151E-11         0.00000E+00
    0.17380E-07         0.62117E-11         0.00000E+00
    0.17380E-07         0.70240E-11         0.00000E+00
    0.17379E-07         0.78448E-11         0.00000E+00
    0.17378E-07         0.86671E-11         0.00000E+00
    0.17378E-07         0.94842E-11         0.00000E+00
    0.17377E-07         0.10289E-10         0.00000E+00
    0.17376E-07         0.11076E-10         0.00000E+00
    0.17376E-07         0.11839E-10         0.00000E+00
    0.17375E-07         0.12570E-10         0.00000E+00
    0.17374E-07         0.13265E-10         0.00000E+00
    0.17374E-07         0.13918E-10         0.00000E+00
    0.17373E-07         0.14523E-10         0.00000E+00
    0.17372E-07         0.15075E-10         0.00000E+00
    0.17372E-07         0.15569E-10         0.00000E+00
    0.17371E-07         0.15999E-10         0.00000E+00
    0.17370E-07         0.16361E-10         0.00000E+00
    0.17370E-07         0.16649E-10         0.00000E+00
    0.17369E-07         0.16860E-10         0.00000E+00
    0.17369E-07         0.16989E-10         0.00000E+00
    0.17368E-07         0.17031E-10         0.00000E+00
    0.17368E-07         0.16983E-10         0.00000E+00
    0.17368E-07         0.16840E-10         0.00000E+00
    0.17367E-07         0.16599E-10         0.00000E+00
    0.17367E-07         0.16256E-10         0.00000E+00
    0.17366E-07         0.15807E-10         0.00000E+00
    0.17366E-07         0.15248E-10         0.00000E+00
    0.17366E-07         0.14578E-10         0.00000E+00
    0.17366E-07         0.13791E-10         0.00000E+00
    0.17365E-07         0.12886E-10         0.00000E+00
    0.17365E-07         0.11860E-10         0.00000E+00
    0.17365E-07         0.10708E-10         0.00000E+00
    0.17365E-07         0.94297E-11         0.00000E+00
    0.17365E-07         0.80214E-11         0.00000E+00
    0.17365E-07         0.64808E-11         0.00000E+00
    0.17364E-07         0.48056E-11         0.00000E+00
    0.17364E-07         0.29934E-11         0.00000E+00
    0.17364E-07         0.10422E-11         0.00000E+00
    0.17128E-07         0.19110E-12         0.00000E+00
    0.17128E-07         0.63525E-12         0.00000E+00
    0.17128E-07         0.11586E-11         0.00000E+00
    0.17128E-07         0.17533E-11         0.00000E+00
    0.17127E-07         0.24113E-11         0.00000E+00
    0.17127E-07         0.31250E-11         0.00000E+00
    0.17126E-07         0.38869E-11         0.00000E+00
    0.17126E-07         0.46897E-11         0.00000E+00
    0.17125E-07         0.55262E-11         0.00000E+00
    0.17124E-07         0.63894E-11         0.00000E+00
    0.17124E-07         0.72723E-11         0.00000E+00
    0.17123E-07         0.81684E-11         0.00000E+00
    0.17122E-07         0.90710E-11         0.00000E+00
    0.17121E-07         0.99739E-11         0.00000E+00
    0.17120E-07         0.10871E-10         0.00000E+00
    0.17120E-07         0.11756E-10         0.00000E+00
    0.17119E-07         0.12622E-10         0.00000E+00
    0.17118E-07         0.13466E-10         0.00000E+00
    0.17117E-07         0.14280E-10         0.00000E+00
    0.17116E-07         0.15059E-10         0.00000E+00
    0.17115E-07         0.15798E-10         0.00000E+00
    0.17114E-07         0.16493E-10         0.00000E+00
    0.17113E-07         0.17137E-10         0.00000E+00
    0.17113E-07         0.17726E-10         0.00000E+00
    0.17112E-07         0.18256E-10         0.00000E+00
    0.17111E-07         0.18722E-10         0.00000E+00
    0.17110E-07         0.19119E-10         0.00000E+00
    0.17109E-07         0.19443E-10         0.00000E+00
    0.17108E-07         0.19690E-10         0.00000E+00
    0.17108E-07         0.19857E-10         0.00000E+00
    0.17107E-07         0.19938E-10         0.00000E+00
    0.17106E-07         0.19931E-10         0.00000E+00
    0.17106E-07         0.19832E-10         0.00000E+00
    0.17105E-07         0.19637E-10         0.00000E+00
    0.17104E-07         0.19344E-10         0.00000E+00
    0.17104E-07         0.18948E-10         0.00000E+00
    0.17103E-07         0.18446E-10         0.00000E+00
    0.17103E-07         0.17836E-10         0.00000E+00
    0.17102E-07         0.17115E-10         0.00000E+00
    0.17102E-07         0.16280E-10         0.00000E+00
    0.17102E-07         0.15328E-10         0.00000E+00
    0.17101E-07         0.14257E-10         0.00000E+00
    0.17101E-07         0.13064E-10         0.00000E+00
    0.17101E-07         0.11747E-10         0.00000E+00
    0.17100E-07         0.10304E-10         0.00000E+00
    0.17100E-07         0.87317E-11         0.00000E+00
    0.17100E-07         0.70291E-11         0.00000E+00
    0.17100E-07         0.51938E-11         0.00000E+00
    0.17100E-07         0.32241E-11         0.00000E+00
    0.17100E-07         0.11181E-11         0.00000E+00
    0.16938E-07         0.47597E-12         0.00000E+00
    0.16938E-07         0.14596E-11         0.00000E+00
    0.16938E-07         0.24817E-11         0.00000E+00
    0.16938E-07         0.35357E-11         0.00000E+00
    0.16937E-07         0.46153E-11         0.00000E+00
    0.16937E-07         0.57142E-11         0.00000E+00
    0.16936E-07         0.68263E-11         0.00000E+00
    0.16936E-07         0.79455E-11         0.00000E+00
    0.16935E-07         0.90661E-11         0.00000E+00
    0.16934E-07         0.10182E-10         0.00000E+00
    0.16933E-07         0.11288E-10         0.00000E+00
    0.16932E-07         0.12379E-10         0.00000E+00
    0.16931E-07         0.13449E-10         0.00000E+00
    0.16930E-07         0.14493E-10         0.00000E+00
    0.16929E-07         0.15506E-10         0.00000E+00
    0.16928E-07         0.16483E-10         0.00000E+00
    0.16927E-07         0.17420E-10         0.00000E+00
    0.16926E-07         0.18311E-10         0.00000E+00
    0.16925E-07         0.19152E-10         0.00000E+00
    0.16924E-07         0.19939E-10         0.00000E+00
    0.16923E-07         0.20668E-10         0.00000E+00
    0.16922E-07         0.21333E-10         0.00000E+00
    0.16921E-07         0.21932E-10         0.00000E+00
    0.16920E-07         0.22460E-10         0.00000E+00
    0.16919E-07         0.22914E-10         0.00000E+00
    0.16918E-07         0.23290E-10         0.00000E+00
    0.16917E-07         0.23584E-10         0.00000E+00
    0.16916E-07         0.23793E-10         0.00000E+00
    0.16915E-07         0.23913E-10         0.00000E+00
    0.16914E-07         0.23942E-10         0.00000E+00
    0.16913E-07         0.23876E-10         0.00000E+00
    0.16913E-07         0.23713E-10         0.00000E+00
    0.16912E-07         0.23448E-10         0.00000E+00
    0.16911E-07         0.23081E-10         0.00000E+00
    0.16910E-07         0.22607E-10         0.00000E+00
    0.16909E-07         0.22024E-10         0.00000E+00
    0.16909E-07         0.21330E-10         0.00000E+00
    0.16908E-07         0.20523E-10         0.00000E+00
    0.16908E-07         0.19600E-10         0.00000E+00
    0.16907E-07         0.18558E-10         0.00000E+00
    0.16907E-07         0.17397E-10         0.00000E+00
    0.16906E-07         0.16113E-10         0.00000E+00
    0.16906E-07         0.14705E-10         0.00000E+00
    0.16905E-07         0.13171E-10         0.00000E+00
    0.16905E-07         0.11509E-10         0.00000E+00
    0.16905E-07         0.97179E-11         0.00000E+00
    0.16905E-07         0.77955E-11         0.00000E+00
    0.16905E-07         0.57405E-11         0.00000E+00
    0.16904E-07         0.35514E-11         0.00000E+00
    0.16904E-07         0.12268E-11         0.00000E+00
    0.16816E-07         0.79255E-12         0.00000E+00
    0.16816E-07         0.23771E-11         0.00000E+00
    0.16815E-07         0.39567E-11         0.00000E+00
    0.16815E-07         0.55262E-11         0.00000E+00
    0.16815E-07         0.70807E-11         0.00000E+00
    0.16814E-07         0.86154E-11         0.00000E+00
    0.16813E-07         0.10125E-10         0.00000E+00
    0.16813E-07         0.11606E-10         0.00000E+00
    0.16812E-07         0.13053E-10         0.00000E+00
    0.16811E-07         0.14462E-10         0.00000E+00
    0.16810E-07         0.15828E-10         0.00000E+00
    0.16809E-07         0.17147E-10         0.00000E+00
    0.16808E-07         0.18416E-10         0.00000E+00
    0.16807E-07         0.19630E-10         0.00000E+00
    0.16806E-07         0.20785E-10         0.00000E+00
    0.16805E-07         0.21877E-10         0.00000E+00
    0.16804E-07         0.22903E-10         0.00000E+00
    0.16802E-07         0.23860E-10         0.00000E+00
    0.16801E-07         0.24743E-10         0.00000E+00
    0.16800E-07         0.25550E-10         0.00000E+00
    0.16799E-07         0.26278E-10         0.00000E+00
    0.16798E-07         0.26922E-10         0.00000E+00
    0.16797E-07         0.27480E-10         0.00000E+00
    0.16795E-07         0.27949E-10         0.00000E+00
    0.16794E-07         0.28327E-10         0.00000E+00
    0.16793E-07         0.28609E-10         0.00000E+00
    0.16792E-07         0.28795E-10         0.00000E+00
    0.16791E-07         0.28881E-10         0.00000E+00
    0.16790E-07         0.28864E-10         0.00000E+00
    0.16789E-07         0.28743E-10         0.00000E+00
    0.16788E-07         0.28515E-10         0.00000E+00
    0.16787E-07         0.28177E-10         0.00000E+00
    0.16786E-07         0.27728E-10         0.00000E+00
    0.16785E-07         0.27166E-10         0.00000E+00
    0.16784E-07         0.26488E-10         0.00000E+00
    0.16783E-07         0.25693E-10         0.00000E+00
    0.16783E-07         0.24779E-10         0.00000E+00
    0.16782E-07         0.23744E-10         0.00000E+00
    0.16781E-07         0.22586E-10         0.00000E+00
    0.16781E-07         0.21304E-10         0.00000E+00
    0.16780E-07         0.19897E-10         0.00000E+00
    0.16779E-07         0.18363E-10         0.00000E+00
    0.16779E-07         0.16700E-10         0.00000E+00
    0.16779E-07         0.14907E-10         0.00000E+00
    0.16778E-07         0.12984E-10         0.00000E+00
    0.16778E-07         0.10928E-10         0.00000E+00
    0.16778E-07         0.87391E-11         0.00000E+00
    0.16778E-07         0.64157E-11         0.00000E+00
    0.16777E-07         0.39571E-11         0.00000E+00
    0.16777E-07         0.13622E-11         0.00000E+00
    0.16760E-07         0.11341E-11         0.00000E+00
    0.16760E-07         0.33678E-11         0.00000E+00
    0.16760E-07         0.55510E-11         0.00000E+00
    0.16759E-07         0.76800E-11         0.00000E+00
    0.16759E-07         0.97512E-11         0.00000E+00
    0.16758E-07         0.11761E-10         0.00000E+00
    0.16757E-07         0.13707E-10         0.00000E+00
    0.16757E-07         0.15584E-10         0.00000E+00
    0.16756E-07         0.17390E-10         0.00000E+00
    0.16755E-07         0.19122E-10         0.00000E+00
    0.16754E-07         0.20777E-10         0.00000E+00
    0.16753E-07         0.22352E-10         0.00000E+00
    0.16752E-07         0.23843E-10         0.00000E+00
    0.16750E-07         0.25248E-10         0.00000E+00
    0.16749E-07         0.26565E-10         0.00000E+00
    0.16748E-07         0.27791E-10         0.00000E+00
    0.16747E-07         0.28923E-10         0.00000E+00
    0.16746E-07         0.29959E-10         0.00000E+00
    0.16744E-07         0.30896E-10         0.00000E+00
    0.16743E-07         0.31732E-10         0.00000E+00
    0.16742E-07         0.32465E-10         0.00000E+00
    0.16740E-07         0.33093E-10         0.00000E+00
    0.16739E-07         0.33614E-10         0.00000E+00
    0.16738E-07         0.34026E-10         0.00000E+00
    0.16737E-07         0.34326E-10         0.00000E+00
    0.16735E-07         0.34514E-10         0.00000E+00
    0.16734E-07         0.34586E-10         0.00000E+00
    0.16733E-07         0.34543E-10         0.00000E+00
    0.16732E-07         0.34381E-10         0.00000E+00
    0.16731E-07         0.34099E-10         0.00000E+00
    0.16730E-07         0.33697E-10         0.00000E+00
    0.16729E-07         0.33172E-10         0.00000E+00
    0.16728E-07         0.32523E-10         0.00000E+00
    0.16727E-07         0.31749E-10         0.00000E+00
    0.16726E-07         0.30849E-10         0.00000E+00
    0.16725E-07         0.29821E-10         0.00000E+00
    0.16724E-07         0.28665E-10         0.00000E+00
    0.16723E-07         0.27378E-10         0.00000E+00
    0.16722E-07         0.25961E-10         0.00000E+00
    0.16722E-07         0.24413E-10         0.00000E+00
    0.16721E-07         0.22732E-10         0.00000E+00
    0.16720E-07         0.20917E-10         0.00000E+00
    0.16720E-07         0.18969E-10         0.00000E+00
    0.16720E-07         0.16885E-10         0.00000E+00
    0.16719E-07         0.14666E-10         0.00000E+00
    0.16719E-07         0.12311E-10         0.00000E+00
    0.16719E-07         0.98194E-11         0.00000E+00
    0.16718E-07         0.71903E-11         0.00000E+00
    0.16718E-07         0.44233E-11         0.00000E+00
    0.16718E-07         0.15181E-11         0.00000E+00
    0.16771E-07         0.14940E-11         0.00000E+00
    0.16770E-07         0.44126E-11         0.00000E+00
    0.16770E-07         0.72334E-11         0.00000E+00
    0.16770E-07         0.99541E-11         0.00000E+00
    0.16769E-07         0.12573E-10         0.00000E+00
    0.16769E-07         0.15087E-10         0.00000E+00
    0.16768E-07         0.17495E-10         0.00000E+00
    0.16767E-07         0.19795E-10         0.00000E+00
    0.16766E-07         0.21984E-10         0.00000E+00
    0.16765E-07         0.24062E-10         0.00000E+00
    0.16764E-07         0.26026E-10         0.00000E+00
    0.16763E-07         0.27875E-10         0.00000E+00
    0.16762E-07         0.29607E-10         0.00000E+00
    0.16761E-07         0.31220E-10         0.00000E+00
    0.16759E-07         0.32713E-10         0.00000E+00
    0.16758E-07         0.34084E-10         0.00000E+00
    0.16757E-07         0.35333E-10         0.00000E+00
    0.16755E-07         0.36457E-10         0.00000E+00
    0.16754E-07         0.37456E-10         0.00000E+00
    0.16753E-07         0.38328E-10         0.00000E+00
    0.16751E-07         0.39072E-10         0.00000E+00
    0.16750E-07         0.39688E-10         0.00000E+00
    0.16749E-07         0.40173E-10         0.00000E+00
    0.16747E-07         0.40528E-10         0.00000E+00
    0.16746E-07         0.40750E-10         0.00000E+00
    0.16745E-07         0.40840E-10         0.00000E+00
    0.16743E-07         0.40796E-10         0.00000E+00
    0.16742E-07         0.40618E-10         0.00000E+00
    0.16741E-07         0.40305E-10         0.00000E+00
    0.16740E-07         0.39856E-10         0.00000E+00
    0.16739E-07         0.39270E-10         0.00000E+00
    0.16737E-07         0.38548E-10         0.00000E+00
    0.16736E-07         0.37688E-10         0.00000E+00
    0.16735E-07         0.36690E-10         0.00000E+00
    0.16734E-07         0.35553E-10         0.00000E+00
    0.16733E-07         0.34278E-10         0.00000E+00
    0.16733E-07         0.32863E-10         0.00000E+00
    0.16732E-07         0.31309E-10         0.00000E+00
    0.16731E-07         0.29614E-10         0.00000E+00
    0.16730E-07         0.27780E-10         0.00000E+00
    0.16730E-07         0.25805E-10         0.00000E+00
    0.16729E-07         0.23689E-10         0.00000E+00
    0.16728E-07         0.21432E-10         0.00000E+00
    0.16728E-07         0.19035E-10         0.00000E+00
    0.16727E-07         0.16497E-10         0.00000E+00
    0.16727E-07         0.13817E-10         0.00000E+00
    0.16727E-07         0.10997E-10         0.00000E+00
    0.16727E-07         0.80350E-11         0.00000E+00
    0.16727E-07         0.49322E-11         0.00000E+00
    0.16726E-07         0.16885E-11         0.00000E+00
    0.16848E-07         0.18660E-11         0.00000E+00
    0.16847E-07         0.54928E-11         0.00000E+00
    0.16847E-07         0.89733E-11         0.00000E+00
    0.16847E-07         0.12307E-10         0.00000E+00
    0.16846E-07         0.15492E-10         0.00000E+00
    0.16846E-07         0.18530E-10         0.00000E+00
    0.16845E-07         0.21418E-10         0.00000E+00
    0.16844E-07         0.24156E-10         0.00000E+00
    0.16843E-07         0.26744E-10         0.00000E+00
    0.16842E-07         0.29182E-10         0.00000E+00
    0.16841E-07         0.31468E-10         0.00000E+00
    0.16840E-07         0.33603E-10         0.00000E+00
    0.16839E-07         0.35585E-10         0.00000E+00
    0.16837E-07         0.37416E-10         0.00000E+00
    0.16836E-07         0.39093E-10         0.00000E+00
    0.16835E-07         0.40618E-10         0.00000E+00
    0.16834E-07         0.41990E-10         0.00000E+00
    0.16832E-07         0.43208E-10         0.00000E+00
    0.16831E-07         0.44273E-10         0.00000E+00
    0.16829E-07         0.45185E-10         0.00000E+00
    0.16828E-07         0.45942E-10         0.00000E+00
    0.16827E-07         0.46547E-10         0.00000E+00
    0.16825E-07         0.46997E-10         0.00000E+00
    0.16824E-07         0.47295E-10         0.00000E+00
    0.16822E-07         0.47438E-10         0.00000E+00
    0.16821E-07         0.47428E-10         0.00000E+00
    0.16820E-07         0.47265E-10         0.00000E+00
    0.16819E-07         0.46949E-10         0.00000E+00
    0.16817E-07         0.46480E-10         0.00000E+00
    0.16816E-07         0.45858E-10         0.00000E+00
    0.16815E-07         0.45084E-10         0.00000E+00
    0.16814E-07         0.44157E-10         0.00000E+00
    0.16813E-07         0.43078E-10         0.00000E+00
    0.16811E-07         0.41848E-10         0.00000E+00
    0.16810E-07         0.40466E-10         0.00000E+00
    0.16809E-07         0.38934E-10         0.00000E+00
    0.16809E-07         0.37251E-10         0.00000E+00
    0.16808E-07         0.35417E-10         0.00000E+00
    0.16807E-07         0.33434E-10         0.00000E+00
    0.16806E-07         0.31301E-10         0.00000E+00
    0.16805E-07         0.29020E-10         0.00000E+00
    0.16805E-07         0.26590E-10         0.00000E+00
    0.16804E-07         0.24012E-10         0.00000E+00
    0.16804E-07         0.21287E-10         0.00000E+00
    0.16803E-07         0.18414E-10         0.00000E+00
    0.16803E-07         0.15396E-10         0.00000E+00
    0.16803E-07         0.12231E-10         0.00000E+00
    0.16803E-07         0.89211E-11         0.00000E+00
    0.16802E-07         0.54663E-11         0.00000E+00
    0.16802E-07         0.18673E-11         0.00000E+00
    0.16991E-07         0.22439E-11         0.00000E+00
    0.16991E-07         0.65901E-11         0.00000E+00
    0.16991E-07         0.10741E-10         0.00000E+00
    0.16991E-07         0.14697E-10         0.00000E+00
    0.16990E-07         0.18459E-10         0.00000E+00
    0.16989E-07         0.22027E-10         0.00000E+00
    0.16989E-07         0.25403E-10         0.00000E+00
    0.16988E-07         0.28587E-10         0.00000E+00
    0.16987E-07         0.31580E-10         0.00000E+00
    0.16986E-07         0.34383E-10         0.00000E+00
    0.16985E-07         0.36996E-10         0.00000E+00
    0.16984E-07         0.39421E-10         0.00000E+00
    0.16982E-07         0.41659E-10         0.00000E+00
    0.16981E-07         0.43709E-10         0.00000E+00
    0.16980E-07         0.45575E-10         0.00000E+00
    0.16979E-07         0.47255E-10         0.00000E+00
    0.16977E-07         0.48752E-10         0.00000E+00
    0.16976E-07         0.50065E-10         0.00000E+00
    0.16975E-07         0.51197E-10         0.00000E+00
    0.16973E-07         0.52149E-10         0.00000E+00
    0.16972E-07         0.52920E-10         0.00000E+00
    0.16970E-07         0.53513E-10         0.00000E+00
    0.16969E-07         0.53928E-10         0.00000E+00
    0.16968E-07         0.54167E-10         0.00000E+00
    0.16966E-07         0.54230E-10         0.00000E+00
    0.16965E-07         0.54119E-10         0.00000E+00
    0.16964E-07         0.53834E-10         0.00000E+00
    0.16962E-07         0.53378E-10         0.00000E+00
    0.16961E-07         0.52750E-10         0.00000E+00
    0.16960E-07         0.51952E-10         0.00000E+00
    0.16959E-07         0.50986E-10         0.00000E+00
    0.16957E-07         0.49851E-10         0.00000E+00
    0.16956E-07         0.48550E-10         0.00000E+00
    0.16955E-07         0.47084E-10         0.00000E+00
    0.16954E-07         0.45453E-10         0.00000E+00
    0.16953E-07         0.43659E-10         0.00000E+00
    0.16952E-07         0.41703E-10         0.00000E+00
    0.16951E-07         0.39587E-10         0.00000E+00
    0.16951E-07         0.37310E-10         0.00000E+00
    0.16950E-07         0.34875E-10         0.00000E+00
    0.16949E-07         0.32282E-10         0.00000E+00
    0.16949E-07         0.29533E-10         0.00000E+00
    0.16948E-07         0.26629E-10         0.00000E+00
    0.16948E-07         0.23571E-10         0.00000E+00
    0.16947E-07         0.20359E-10         0.00000E+00
    0.16947E-07         0.16996E-10         0.00000E+00
    0.16946E-07         0.13483E-10         0.00000E+00
    0.16946E-07         0.98195E-11         0.00000E+00
    0.16946E-07         0.60078E-11         0.00000E+00
    0.16946E-07         0.20486E-11         0.00000E+00
    0.17203E-07         0.26214E-11         0.00000E+00
    0.17203E-07         0.76861E-11         0.00000E+00
    0.17202E-07         0.12506E-10         0.00000E+00
    0.17202E-07         0.17083E-10         0.00000E+00
    0.17201E-07         0.21419E-10         0.00000E+00
    0.17201E-07         0.25516E-10         0.00000E+00
    0.17200E-07         0.29378E-10         0.00000E+00
    0.17199E-07         0.33005E-10         0.00000E+00
    0.17198E-07         0.36400E-10         0.00000E+00
    0.17197E-07         0.39566E-10         0.00000E+00
    0.17196E-07         0.42504E-10         0.00000E+00
    0.17195E-07         0.45216E-10         0.00000E+00
    0.17194E-07         0.47705E-10         0.00000E+00
    0.17193E-07         0.49974E-10         0.00000E+00
    0.17191E-07         0.52024E-10         0.00000E+00
    0.17190E-07         0.53857E-10         0.00000E+00
    0.17189E-07         0.55475E-10         0.00000E+00
    0.17187E-07         0.56882E-10         0.00000E+00
    0.17186E-07         0.58078E-10         0.00000E+00
    0.17185E-07         0.59066E-10         0.00000E+00
    0.17183E-07         0.59849E-10         0.00000E+00
    0.17182E-07         0.60428E-10         0.00000E+00
    0.17181E-07         0.60805E-10         0.00000E+00
    0.17179E-07         0.60984E-10         0.00000E+00
    0.17178E-07         0.60964E-10         0.00000E+00
    0.17177E-07         0.60750E-10         0.00000E+00
    0.17175E-07         0.60343E-10         0.00000E+00
    0.17174E-07         0.59744E-10         0.00000E+00
    0.17173E-07         0.58957E-10         0.00000E+00
    0.17172E-07         0.57983E-10         0.00000E+00
    0.17170E-07         0.56824E-10         0.00000E+00
    0.17169E-07         0.55481E-10         0.00000E+00
    0.17168E-07         0.53958E-10         0.00000E+00
    0.17167E-07         0.52256E-10         0.00000E+00
    0.17166E-07         0.50378E-10         0.00000E+00
    0.17165E-07         0.48324E-10         0.00000E+00
    0.17164E-07         0.46096E-10         0.00000E+00
    0.17163E-07         0.43698E-10         0.00000E+00
    0.17163E-07         0.41130E-10         0.00000E+00
    0.17162E-07         0.38395E-10         0.00000E+00
    0.17161E-07         0.35495E-10         0.00000E+00
    0.17161E-07         0.32430E-10         0.00000E+00
    0.17160E-07         0.29203E-10         0.00000E+00
    0.17160E-07         0.25816E-10         0.00000E+00
    0.17159E-07         0.22271E-10         0.00000E+00
    0.17159E-07         0.18569E-10         0.00000E+00
    0.17159E-07         0.14712E-10         0.00000E+00
    0.17158E-07         0.10701E-10         0.00000E+00
    0.17158E-07         0.65387E-11         0.00000E+00
    0.17158E-07         0.22263E-11         0.00000E+00
    0.17482E-07         0.29922E-11         0.00000E+00
    0.17482E-07         0.87619E-11         0.00000E+00
    0.17482E-07         0.14237E-10         0.00000E+00
    0.17482E-07         0.19422E-10         0.00000E+00
    0.17481E-07         0.24319E-10         0.00000E+00
    0.17480E-07         0.28934E-10         0.00000E+00
    0.17480E-07         0.33268E-10         0.00000E+00
    0.17479E-07         0.37326E-10         0.00000E+00
    0.17478E-07         0.41112E-10         0.00000E+00
    0.17477E-07         0.44629E-10         0.00000E+00
    0.17476E-07         0.47881E-10         0.00000E+00
    0.17475E-07         0.50870E-10         0.00000E+00
    0.17474E-07         0.53602E-10         0.00000E+00
    0.17473E-07         0.56078E-10         0.00000E+00
    0.17471E-07         0.58304E-10         0.00000E+00
    0.17470E-07         0.60281E-10         0.00000E+00
    0.17469E-07         0.62014E-10         0.00000E+00
    0.17468E-07         0.63506E-10         0.00000E+00
    0.17466E-07         0.64760E-10         0.00000E+00
    0.17465E-07         0.65780E-10         0.00000E+00
    0.17464E-07         0.66568E-10         0.00000E+00
    0.17462E-07         0.67129E-10         0.00000E+00
    0.17461E-07         0.67465E-10         0.00000E+00
    0.17460E-07         0.67580E-10         0.00000E+00
    0.17459E-07         0.67476E-10         0.00000E+00
    0.17457E-07         0.67157E-10         0.00000E+00
    0.17456E-07         0.66626E-10         0.00000E+00
    0.17455E-07         0.65886E-10         0.00000E+00
    0.17454E-07         0.64940E-10         0.00000E+00
    0.17452E-07         0.63791E-10         0.00000E+00
    0.17451E-07         0.62442E-10         0.00000E+00
    0.17450E-07         0.60895E-10         0.00000E+00
    0.17449E-07         0.59154E-10         0.00000E+00
    0.17448E-07         0.57222E-10         0.00000E+00
    0.17447E-07         0.55100E-10         0.00000E+00
    0.17446E-07         0.52793E-10         0.00000E+00
    0.17446E-07         0.50302E-10         0.00000E+00
    0.17445E-07         0.47631E-10         0.00000E+00
    0.17444E-07         0.44781E-10         0.00000E+00
    0.17443E-07         0.41756E-10         0.00000E+00
    0.17443E-07         0.38558E-10         0.00000E+00
    0.17442E-07         0.35190E-10         0.00000E+00
    0.17442E-07         0.31654E-10         0.00000E+00
    0.17441E-07         0.27952E-10         0.00000E+00
    0.17441E-07         0.24087E-10         0.00000E+00
    0.17441E-07         0.20061E-10         0.00000E+00
    0.17440E-07         0.15876E-10         0.00000E+00
    0.17440E-07         0.11536E-10         0.00000E+00
    0.17440E-07         0.70408E-11         0.00000E+00
    0.17440E-07         0.23941E-11         0.00000E+00
    0.17832E-07         0.33496E-11         0.00000E+00
    0.17831E-07         0.97980E-11         0.00000E+00
    0.17831E-07         0.15903E-10         0.00000E+00
    0.17831E-07         0.21670E-10         0.00000E+00
    0.17830E-07         0.27105E-10         0.00000E+00
    0.17830E-07         0.32212E-10         0.00000E+00
    0.17829E-07         0.36997E-10         0.00000E+00
    0.17828E-07         0.41464E-10         0.00000E+00
    0.17827E-07         0.45620E-10         0.00000E+00
    0.17827E-07         0.49468E-10         0.00000E+00
    0.17826E-07         0.53014E-10         0.00000E+00
    0.17825E-07         0.56262E-10         0.00000E+00
    0.17824E-07         0.59219E-10         0.00000E+00
    0.17822E-07         0.61888E-10         0.00000E+00
    0.17821E-07         0.64274E-10         0.00000E+00
    0.17820E-07         0.66382E-10         0.00000E+00
    0.17819E-07         0.68216E-10         0.00000E+00
    0.17818E-07         0.69782E-10         0.00000E+00
    0.17816E-07         0.71084E-10         0.00000E+00
    0.17815E-07         0.72126E-10         0.00000E+00
    0.17814E-07         0.72913E-10         0.00000E+00
    0.17813E-07         0.73449E-10         0.00000E+00
    0.17812E-07         0.73738E-10         0.00000E+00
    0.17810E-07         0.73786E-10         0.00000E+00
    0.17809E-07         0.73595E-10         0.00000E+00
    0.17808E-07         0.73170E-10         0.00000E+00
    0.17807E-07         0.72516E-10         0.00000E+00
    0.17806E-07         0.71635E-10         0.00000E+00
    0.17805E-07         0.70533E-10         0.00000E+00
    0.17804E-07         0.69213E-10         0.00000E+00
    0.17803E-07         0.67680E-10         0.00000E+00
    0.17802E-07         0.65935E-10         0.00000E+00
    0.17801E-07         0.63985E-10         0.00000E+00
    0.17800E-07         0.61831E-10         0.00000E+00
    0.17799E-07         0.59478E-10         0.00000E+00
    0.17798E-07         0.56930E-10         0.00000E+00
    0.17797E-07         0.54189E-10         0.00000E+00
    0.17797E-07         0.51260E-10         0.00000E+00
    0.17796E-07         0.48145E-10         0.00000E+00
    0.17795E-07         0.44848E-10         0.00000E+00
    0.17795E-07         0.41372E-10         0.00000E+00
    0.17794E-07         0.37721E-10         0.00000E+00
    0.17794E-07         0.33896E-10         0.00000E+00
    0.17793E-07         0.29903E-10         0.00000E+00
    0.17793E-07         0.25743E-10         0.00000E+00
    0.17793E-07         0.21419E-10         0.00000E+00
    0.17793E-07         0.16935E-10         0.00000E+00
    0.17792E-07         0.12293E-10         0.00000E+00
    0.17792E-07         0.74952E-11         0.00000E+00
    0.17792E-07         0.25456E-11         0.00000E+00
    0.18252E-07         0.36866E-11         0.00000E+00
    0.18252E-07         0.10773E-10         0.00000E+00
    0.18252E-07         0.17469E-10         0.00000E+00
    0.18251E-07         0.23782E-10         0.00000E+00
    0.18251E-07         0.29717E-10         0.00000E+00
    0.18250E-07         0.35281E-10         0.00000E+00
    0.18250E-07         0.40483E-10         0.00000E+00
    0.18249E-07         0.45327E-10         0.00000E+00
    0.18248E-07         0.49821E-10         0.00000E+00
    0.18247E-07         0.53971E-10         0.00000E+00
    0.18246E-07         0.57783E-10         0.00000E+00
    0.18245E-07         0.61265E-10         0.00000E+00
    0.18244E-07         0.64421E-10         0.00000E+00
    0.18243E-07         0.67260E-10         0.00000E+00
    0.18242E-07         0.69785E-10         0.00000E+00
    0.18241E-07         0.72004E-10         0.00000E+00
    0.18240E-07         0.73923E-10         0.00000E+00
    0.18239E-07         0.75547E-10         0.00000E+00
    0.18238E-07         0.76882E-10         0.00000E+00
    0.18237E-07         0.77935E-10         0.00000E+00
    0.18236E-07         0.78709E-10         0.00000E+00
    0.18235E-07         0.79212E-10         0.00000E+00
    0.18234E-07         0.79448E-10         0.00000E+00
    0.18233E-07         0.79423E-10         0.00000E+00
    0.18232E-07         0.79142E-10         0.00000E+00
    0.18231E-07         0.78611E-10         0.00000E+00
    0.18230E-07         0.77834E-10         0.00000E+00
    0.18229E-07         0.76816E-10         0.00000E+00
    0.18228E-07         0.75563E-10         0.00000E+00
    0.18227E-07         0.74079E-10         0.00000E+00
    0.18226E-07         0.72369E-10         0.00000E+00
    0.18225E-07         0.70438E-10         0.00000E+00
    0.18224E-07         0.68290E-10         0.00000E+00
    0.18223E-07         0.65930E-10         0.00000E+00
    0.18223E-07         0.63362E-10         0.00000E+00
    0.18222E-07         0.60591E-10         0.00000E+00
    0.18221E-07         0.57621E-10         0.00000E+00
    0.18221E-07         0.54455E-10         0.00000E+00
    0.18220E-07         0.51099E-10         0.00000E+00
    0.18220E-07         0.47556E-10         0.00000E+00
    0.18219E-07         0.43830E-10         0.00000E+00
    0.18219E-07         0.39925E-10         0.00000E+00
    0.18218E-07         0.35845E-10         0.00000E+00
    0.18218E-07         0.31593E-10         0.00000E+00
    0.18218E-07         0.27173E-10         0.00000E+00
    0.18217E-07         0.22588E-10         0.00000E+00
    0.18217E-07         0.17843E-10         0.00000E+00
    0.18217E-07         0.12940E-10         0.00000E+00
    0.18217E-07         0.78827E-11         0.00000E+00
    0.18217E-07         0.26742E-11         0.00000E+00
    0.18745E-07         0.39955E-11         0.00000E+00
    0.18745E-07         0.11666E-10         0.00000E+00
    0.18745E-07         0.18900E-10         0.00000E+00
    0.18744E-07         0.25705E-10         0.00000E+00
    0.18744E-07         0.32092E-10         0.00000E+00
    0.18744E-07         0.38066E-10         0.00000E+00
    0.18743E-07         0.43639E-10         0.00000E+00
    0.18742E-07         0.48816E-10         0.00000E+00
    0.18742E-07         0.53607E-10         0.00000E+00
    0.18741E-07         0.58020E-10         0.00000E+00
    0.18740E-07         0.62062E-10         0.00000E+00
    0.18739E-07         0.65742E-10         0.00000E+00
    0.18738E-07         0.69066E-10         0.00000E+00
    0.18738E-07         0.72043E-10         0.00000E+00
    0.18737E-07         0.74681E-10         0.00000E+00
    0.18736E-07         0.76986E-10         0.00000E+00
    0.18735E-07         0.78965E-10         0.00000E+00
    0.18734E-07         0.80627E-10         0.00000E+00
    0.18733E-07         0.81978E-10         0.00000E+00
    0.18732E-07         0.83024E-10         0.00000E+00
    0.18731E-07         0.83774E-10         0.00000E+00
    0.18730E-07         0.84232E-10         0.00000E+00
    0.18729E-07         0.84407E-10         0.00000E+00
    0.18728E-07         0.84304E-10         0.00000E+00
    0.18727E-07         0.83931E-10         0.00000E+00
    0.18727E-07         0.83292E-10         0.00000E+00
    0.18726E-07         0.82394E-10         0.00000E+00
    0.18725E-07         0.81244E-10         0.00000E+00
    0.18724E-07         0.79847E-10         0.00000E+00
    0.18723E-07         0.78208E-10         0.00000E+00
    0.18723E-07         0.76335E-10         0.00000E+00
    0.18722E-07         0.74231E-10         0.00000E+00
    0.18721E-07         0.71903E-10         0.00000E+00
    0.18721E-07         0.69356E-10         0.00000E+00
    0.18720E-07         0.66596E-10         0.00000E+00
    0.18720E-07         0.63626E-10         0.00000E+00
    0.18719E-07         0.60453E-10         0.00000E+00
    0.18719E-07         0.57082E-10         0.00000E+00
    0.18718E-07         0.53516E-10         0.00000E+00
    0.18718E-07         0.49761E-10         0.00000E+00
    0.18717E-07         0.45822E-10         0.00000E+00
    0.18717E-07         0.41703E-10         0.00000E+00
    0.18717E-07         0.37408E-10         0.00000E+00
    0.18716E-07         0.32942E-10         0.00000E+00
    0.18716E-07         0.28308E-10         0.00000E+00
    0.18716E-07         0.23511E-10         0.00000E+00
    0.18716E-07         0.18556E-10         0.00000E+00
    0.18716E-07         0.13445E-10         0.00000E+00
    0.18716E-07         0.81828E-11         0.00000E+00
    0.18716E-07         0.27730E-11         0.00000E+00
    0.19313E-07         0.42682E-11         0.00000E+00
    0.19313E-07         0.12452E-10         0.00000E+00
    0.19313E-07         0.20155E-10         0.00000E+00
    0.19313E-07         0.27388E-10         0.00000E+00
    0.19312E-07         0.34162E-10         0.00000E+00
    0.19312E-07         0.40486E-10         0.00000E+00
    0.19311E-07         0.46371E-10         0.00000E+00
    0.19311E-07         0.51827E-10         0.00000E+00
    0.19310E-07         0.56863E-10         0.00000E+00
    0.19310E-07         0.61488E-10         0.00000E+00
    0.19309E-07         0.65714E-10         0.00000E+00
    0.19308E-07         0.69547E-10         0.00000E+00
    0.19308E-07         0.72999E-10         0.00000E+00
    0.19307E-07         0.76078E-10         0.00000E+00
    0.19306E-07         0.78792E-10         0.00000E+00
    0.19306E-07         0.81151E-10         0.00000E+00
    0.19305E-07         0.83164E-10         0.00000E+00
    0.19304E-07         0.84838E-10         0.00000E+00
    0.19303E-07         0.86181E-10         0.00000E+00
    0.19303E-07         0.87203E-10         0.00000E+00
    0.19302E-07         0.87912E-10         0.00000E+00
    0.19301E-07         0.88314E-10         0.00000E+00
    0.19300E-07         0.88418E-10         0.00000E+00
    0.19300E-07         0.88231E-10         0.00000E+00
    0.19299E-07         0.87761E-10         0.00000E+00
    0.19298E-07         0.87015E-10         0.00000E+00
    0.19298E-07         0.86000E-10         0.00000E+00
    0.19297E-07         0.84723E-10         0.00000E+00
    0.19297E-07         0.83191E-10         0.00000E+00
    0.19296E-07         0.81412E-10         0.00000E+00
    0.19296E-07         0.79390E-10         0.00000E+00
    0.19295E-07         0.77133E-10         0.00000E+00
    0.19295E-07         0.74647E-10         0.00000E+00
    0.19294E-07         0.71939E-10         0.00000E+00
    0.19294E-07         0.69014E-10         0.00000E+00
    0.19293E-07         0.65878E-10         0.00000E+00
    0.19293E-07         0.62537E-10         0.00000E+00
    0.19293E-07         0.58996E-10         0.00000E+00
    0.19292E-07         0.55262E-10         0.00000E+00
    0.19292E-07         0.51339E-10         0.00000E+00
    0.19292E-07         0.47233E-10         0.00000E+00
    0.19292E-07         0.42948E-10         0.00000E+00
    0.19291E-07         0.38491E-10         0.00000E+00
    0.19291E-07         0.33865E-10         0.00000E+00
    0.19291E-07         0.29076E-10         0.00000E+00
    0.19291E-07         0.24127E-10         0.00000E+00
    0.19291E-07         0.19025E-10         0.00000E+00
    0.19291E-07         0.13772E-10         0.00000E+00
    0.19291E-07         0.83744E-11         0.00000E+00
    0.19291E-07         0.28348E-11         0.00000E+00
    0.19959E-07         0.44958E-11         0.00000E+00
    0.19959E-07         0.13104E-10         0.00000E+00
    0.19959E-07         0.21192E-10         0.00000E+00
    0.19958E-07         0.28771E-10         0.00000E+00
    0.19958E-07         0.35855E-10         0.00000E+00
    0.19958E-07         0.42453E-10         0.00000E+00
    0.19957E-07         0.48580E-10         0.00000E+00
    0.19957E-07         0.54246E-10         0.00000E+00
    0.19957E-07         0.59462E-10         0.00000E+00
    0.19956E-07         0.64240E-10         0.00000E+00
    0.19956E-07         0.68591E-10         0.00000E+00
    0.19955E-07         0.72526E-10         0.00000E+00
    0.19955E-07         0.76055E-10         0.00000E+00
    0.19954E-07         0.79189E-10         0.00000E+00
    0.19954E-07         0.81939E-10         0.00000E+00
    0.19953E-07         0.84314E-10         0.00000E+00
    0.19953E-07         0.86325E-10         0.00000E+00
    0.19952E-07         0.87981E-10         0.00000E+00
    0.19952E-07         0.89291E-10         0.00000E+00
    0.19951E-07         0.90266E-10         0.00000E+00
    0.19951E-07         0.90914E-10         0.00000E+00
    0.19950E-07         0.91245E-10         0.00000E+00
    0.19950E-07         0.91267E-10         0.00000E+00
    0.19949E-07         0.90990E-10         0.00000E+00
    0.19949E-07         0.90420E-10         0.00000E+00
    0.19948E-07         0.89568E-10         0.00000E+00
    0.19948E-07         0.88441E-10         0.00000E+00
    0.19948E-07         0.87046E-10         0.00000E+00
    0.19947E-07         0.85393E-10         0.00000E+00
    0.19947E-07         0.83487E-10         0.00000E+00
    0.19947E-07         0.81338E-10         0.00000E+00
    0.19946E-07         0.78952E-10         0.00000E+00
    0.19946E-07         0.76336E-10         0.00000E+00
    0.19946E-07         0.73497E-10         0.00000E+00
    0.19946E-07         0.70442E-10         0.00000E+00
    0.19946E-07         0.67178E-10         0.00000E+00
    0.19946E-07         0.63711E-10         0.00000E+00
    0.19945E-07         0.60048E-10         0.00000E+00
    0.19945E-07         0.56194E-10         0.00000E+00
    0.19945E-07         0.52156E-10         0.00000E+00
    0.19945E-07         0.47939E-10         0.00000E+00
    0.19945E-07         0.43550E-10         0.00000E+00
    0.19945E-07         0.38993E-10         0.00000E+00
    0.19945E-07         0.34274E-10         0.00000E+00
    0.19945E-07         0.29399E-10         0.00000E+00
    0.19945E-07         0.24373E-10         0.00000E+00
    0.19945E-07         0.19200E-10         0.00000E+00
    0.19945E-07         0.13886E-10         0.00000E+00
    0.19945E-07         0.84352E-11         0.00000E+00
    0.19945E-07         0.28520E-11         0.00000E+00
    0.20685E-07         0.46685E-11         0.00000E+00
    0.20684E-07         0.13595E-10         0.00000E+00
    0.20684E-07         0.21964E-10         0.00000E+00
    0.20684E-07         0.29791E-10         0.00000E+00
    0.20684E-07         0.37089E-10         0.00000E+00
    0.20684E-07         0.43872E-10         0.00000E+00
    0.20684E-07         0.50154E-10         0.00000E+00
    0.20683E-07         0.55948E-10         0.00000E+00
    0.20683E-07         0.61268E-10         0.00000E+00
    0.20683E-07         0.66125E-10         0.00000E+00
    0.20683E-07         0.70534E-10         0.00000E+00
    0.20682E-07         0.74507E-10         0.00000E+00
    0.20682E-07         0.78055E-10         0.00000E+00
    0.20682E-07         0.81190E-10         0.00000E+00
    0.20681E-07         0.83926E-10         0.00000E+00
    0.20681E-07         0.86272E-10         0.00000E+00
    0.20681E-07         0.88241E-10         0.00000E+00
    0.20681E-07         0.89843E-10         0.00000E+00
    0.20680E-07         0.91090E-10         0.00000E+00
    0.20680E-07         0.91992E-10         0.00000E+00
    0.20680E-07         0.92559E-10         0.00000E+00
    0.20680E-07         0.92802E-10         0.00000E+00
    0.20680E-07         0.92730E-10         0.00000E+00
    0.20680E-07         0.92354E-10         0.00000E+00
    0.20679E-07         0.91683E-10         0.00000E+00
    0.20679E-07         0.90726E-10         0.00000E+00
    0.20679E-07         0.89493E-10         0.00000E+00
    0.20679E-07         0.87992E-10         0.00000E+00
    0.20679E-07         0.86232E-10         0.00000E+00
    0.20679E-07         0.84221E-10         0.00000E+00
    0.20679E-07         0.81969E-10         0.00000E+00
    0.20679E-07         0.79482E-10         0.00000E+00
    0.20679E-07         0.76769E-10         0.00000E+00
    0.20679E-07         0.73838E-10         0.00000E+00
    0.20679E-07         0.70696E-10         0.00000E+00
    0.20679E-07         0.67351E-10         0.00000E+00
    0.20680E-07         0.63809E-10         0.00000E+00
    0.20680E-07         0.60077E-10         0.00000E+00
    0.20680E-07         0.56163E-10         0.00000E+00
    0.20680E-07         0.52073E-10         0.00000E+00
    0.20680E-07         0.47813E-10         0.00000E+00
    0.20680E-07         0.43390E-10         0.00000E+00
    0.20680E-07         0.38809E-10         0.00000E+00
    0.20680E-07         0.34077E-10         0.00000E+00
    0.20680E-07         0.29200E-10         0.00000E+00
    0.20681E-07         0.24182E-10         0.00000E+00
    0.20681E-07         0.19030E-10         0.00000E+00
    0.20681E-07         0.13748E-10         0.00000E+00
    0.20681E-07         0.83420E-11         0.00000E+00
    0.20681E-07         0.28167E-11         0.00000E+00
    0.21493E-07         0.47756E-11         0.00000E+00
    0.21493E-07         0.13892E-10         0.00000E+00
    0.21493E-07         0.22421E-10         0.00000E+00
    0.21493E-07         0.30377E-10         0.00000E+00
    0.21493E-07         0.37778E-10         0.00000E+00
    0.21493E-07         0.44638E-10         0.00000E+00
    0.21493E-07         0.50974E-10         0.00000E+00
    0.21493E-07         0.56801E-10         0.00000E+00
    0.21493E-07         0.62133E-10         0.00000E+00
    0.21493E-07         0.66985E-10         0.00000E+00
    0.21493E-07         0.71372E-10         0.00000E+00
    0.21493E-07         0.75307E-10         0.00000E+00
    0.21493E-07         0.78805E-10         0.00000E+00
    0.21493E-07         0.81880E-10         0.00000E+00
    0.21493E-07         0.84543E-10         0.00000E+00
    0.21493E-07         0.86809E-10         0.00000E+00
    0.21493E-07         0.88689E-10         0.00000E+00
    0.21493E-07         0.90197E-10         0.00000E+00
    0.21493E-07         0.91345E-10         0.00000E+00
    0.21493E-07         0.92144E-10         0.00000E+00
    0.21493E-07         0.92606E-10         0.00000E+00
    0.21493E-07         0.92742E-10         0.00000E+00
    0.21494E-07         0.92564E-10         0.00000E+00
    0.21494E-07         0.92082E-10         0.00000E+00
    0.21494E-07         0.91307E-10         0.00000E+00
    0.21494E-07         0.90249E-10         0.00000E+00
    0.21495E-07         0.88918E-10         0.00000E+00
    0.21495E-07         0.87324E-10         0.00000E+00
    0.21495E-07         0.85477E-10         0.00000E+00
    0.21496E-07         0.83386E-10         0.00000E+00
    0.21496E-07         0.81060E-10         0.00000E+00
    0.21496E-07         0.78508E-10         0.00000E+00
    0.21497E-07         0.75738E-10         0.00000E+00
    0.21497E-07         0.72760E-10         0.00000E+00
    0.21497E-07         0.69581E-10         0.00000E+00
    0.21498E-07         0.66208E-10         0.00000E+00
    0.21498E-07         0.62651E-10         0.00000E+00
    0.21498E-07         0.58916E-10         0.00000E+00
    0.21499E-07         0.55011E-10         0.00000E+00
    0.21499E-07         0.50943E-10         0.00000E+00
    0.21499E-07         0.46719E-10         0.00000E+00
    0.21500E-07         0.42345E-10         0.00000E+00
    0.21500E-07         0.37828E-10         0.00000E+00
    0.21500E-07         0.33175E-10         0.00000E+00
    0.21501E-07         0.28391E-10         0.00000E+00
    0.21501E-07         0.23484E-10         0.00000E+00
    0.21501E-07         0.18457E-10         0.00000E+00
    0.21501E-07         0.13317E-10         0.00000E+00
    0.21501E-07         0.80702E-11         0.00000E+00
    0.21501E-07         0.27207E-11         0.00000E+00
    0.22389E-07         0.48054E-11         0.00000E+00
    0.22389E-07         0.13962E-10         0.00000E+00
    0.22389E-07         0.22506E-10         0.00000E+00
    0.22389E-07         0.30454E-10         0.00000E+00
    0.22389E-07         0.37826E-10         0.00000E+00
    0.22389E-07         0.44639E-10         0.00000E+00
    0.22389E-07         0.50910E-10         0.00000E+00
    0.22389E-07         0.56657E-10         0.00000E+00
    0.22389E-07         0.61896E-10         0.00000E+00
    0.22389E-07         0.66644E-10         0.00000E+00
    0.22390E-07         0.70917E-10         0.00000E+00
    0.22390E-07         0.74730E-10         0.00000E+00
    0.22390E-07         0.78099E-10         0.00000E+00
    0.22390E-07         0.81039E-10         0.00000E+00
    0.22391E-07         0.83565E-10         0.00000E+00
    0.22391E-07         0.85690E-10         0.00000E+00
    0.22392E-07         0.87430E-10         0.00000E+00
    0.22392E-07         0.88798E-10         0.00000E+00
    0.22393E-07         0.89806E-10         0.00000E+00
    0.22393E-07         0.90469E-10         0.00000E+00
    0.22394E-07         0.90799E-10         0.00000E+00
    0.22394E-07         0.90809E-10         0.00000E+00
    0.22395E-07         0.90510E-10         0.00000E+00
    0.22395E-07         0.89914E-10         0.00000E+00
    0.22396E-07         0.89034E-10         0.00000E+00
    0.22397E-07         0.87880E-10         0.00000E+00
    0.22397E-07         0.86463E-10         0.00000E+00
    0.22398E-07         0.84794E-10         0.00000E+00
    0.22399E-07         0.82883E-10         0.00000E+00
    0.22400E-07         0.80740E-10         0.00000E+00
    0.22400E-07         0.78376E-10         0.00000E+00
    0.22401E-07         0.75799E-10         0.00000E+00
    0.22402E-07         0.73020E-10         0.00000E+00
    0.22402E-07         0.70047E-10         0.00000E+00
    0.22403E-07         0.66888E-10         0.00000E+00
    0.22404E-07         0.63554E-10         0.00000E+00
    0.22405E-07         0.60050E-10         0.00000E+00
    0.22405E-07         0.56387E-10         0.00000E+00
    0.22406E-07         0.52572E-10         0.00000E+00
    0.22406E-07         0.48611E-10         0.00000E+00
    0.22407E-07         0.44513E-10         0.00000E+00
    0.22408E-07         0.40285E-10         0.00000E+00
    0.22408E-07         0.35934E-10         0.00000E+00
    0.22409E-07         0.31465E-10         0.00000E+00
    0.22409E-07         0.26887E-10         0.00000E+00
    0.22409E-07         0.22205E-10         0.00000E+00
    0.22410E-07         0.17425E-10         0.00000E+00
    0.22410E-07         0.12553E-10         0.00000E+00
    0.22410E-07         0.75943E-11         0.00000E+00
    0.22410E-07         0.25552E-11         0.00000E+00
    0.23374E-07         0.47452E-11         0.00000E+00
    0.23374E-07         0.13768E-10         0.00000E+00
    0.23374E-07         0.22159E-10         0.00000E+00
    0.23374E-07         0.29940E-10         0.00000E+00
    0.23374E-07         0.37131E-10         0.00000E+00
    0.23375E-07         0.43752E-10         0.00000E+00
    0.23375E-07         0.49823E-10         0.00000E+00
    0.23375E-07         0.55361E-10         0.00000E+00
    0.23376E-07         0.60386E-10         0.00000E+00
    0.23376E-07         0.64916E-10         0.00000E+00
    0.23377E-07         0.68969E-10         0.00000E+00
    0.23377E-07         0.72562E-10         0.00000E+00
    0.23378E-07         0.75712E-10         0.00000E+00
    0.23379E-07         0.78436E-10         0.00000E+00
    0.23379E-07         0.80749E-10         0.00000E+00
    0.23380E-07         0.82668E-10         0.00000E+00
    0.23381E-07         0.84207E-10         0.00000E+00
    0.23382E-07         0.85382E-10         0.00000E+00
    0.23383E-07         0.86208E-10         0.00000E+00
    0.23384E-07         0.86698E-10         0.00000E+00
    0.23385E-07         0.86867E-10         0.00000E+00
    0.23386E-07         0.86728E-10         0.00000E+00
    0.23387E-07         0.86294E-10         0.00000E+00
    0.23388E-07         0.85577E-10         0.00000E+00
    0.23389E-07         0.84591E-10         0.00000E+00
    0.23390E-07         0.83348E-10         0.00000E+00
    0.23391E-07         0.81859E-10         0.00000E+00
    0.23392E-07         0.80135E-10         0.00000E+00
    0.23394E-07         0.78188E-10         0.00000E+00
    0.23395E-07         0.76029E-10         0.00000E+00
    0.23396E-07         0.73668E-10         0.00000E+00
    0.23397E-07         0.71115E-10         0.00000E+00
    0.23398E-07         0.68380E-10         0.00000E+00
    0.23399E-07         0.65473E-10         0.00000E+00
    0.23400E-07         0.62403E-10         0.00000E+00
    0.23402E-07         0.59179E-10         0.00000E+00
    0.23403E-07         0.55810E-10         0.00000E+00
    0.23404E-07         0.52304E-10         0.00000E+00
    0.23405E-07         0.48670E-10         0.00000E+00
    0.23405E-07         0.44915E-10         0.00000E+00
    0.23406E-07         0.41048E-10         0.00000E+00
    0.23407E-07         0.37075E-10         0.00000E+00
    0.23408E-07         0.33003E-10         0.00000E+00
    0.23408E-07         0.28841E-10         0.00000E+00
    0.23409E-07         0.24594E-10         0.00000E+00
    0.23410E-07         0.20269E-10         0.00000E+00
    0.23410E-07         0.15872E-10         0.00000E+00
    0.23410E-07         0.11410E-10         0.00000E+00
    0.23410E-07         0.68877E-11         0.00000E+00
    0.23411E-07         0.23113E-11         0.00000E+00
    0.24453E-07         0.45811E-11         0.00000E+00
    0.24453E-07         0.13268E-10         0.00000E+00
    0.24453E-07         0.21315E-10         0.00000E+00
    0.24454E-07         0.28746E-10         0.00000E+00
    0.24454E-07         0.35582E-10         0.00000E+00
    0.24454E-07         0.41847E-10         0.00000E+00
    0.24455E-07         0.47560E-10         0.00000E+00
    0.24455E-07         0.52743E-10         0.00000E+00
    0.24456E-07         0.57417E-10         0.00000E+00
    0.24457E-07         0.61601E-10         0.00000E+00
    0.24458E-07         0.65315E-10         0.00000E+00
    0.24459E-07         0.68577E-10         0.00000E+00
    0.24460E-07         0.71407E-10         0.00000E+00
    0.24461E-07         0.73821E-10         0.00000E+00
    0.24462E-07         0.75839E-10         0.00000E+00
    0.24463E-07         0.77476E-10         0.00000E+00
    0.24465E-07         0.78749E-10         0.00000E+00
    0.24466E-07         0.79674E-10         0.00000E+00
    0.24467E-07         0.80268E-10         0.00000E+00
    0.24469E-07         0.80546E-10         0.00000E+00
    0.24470E-07         0.80522E-10         0.00000E+00
    0.24472E-07         0.80210E-10         0.00000E+00
    0.24474E-07         0.79626E-10         0.00000E+00
    0.24475E-07         0.78782E-10         0.00000E+00
    0.24477E-07         0.77692E-10         0.00000E+00
    0.24478E-07         0.76368E-10         0.00000E+00
    0.24480E-07         0.74824E-10         0.00000E+00
    0.24482E-07         0.73071E-10         0.00000E+00
    0.24483E-07         0.71121E-10         0.00000E+00
    0.24485E-07         0.68985E-10         0.00000E+00
    0.24487E-07         0.66675E-10         0.00000E+00
    0.24488E-07         0.64201E-10         0.00000E+00
    0.24490E-07         0.61574E-10         0.00000E+00
    0.24491E-07         0.58803E-10         0.00000E+00
    0.24493E-07         0.55898E-10         0.00000E+00
    0.24495E-07         0.52870E-10         0.00000E+00
    0.24496E-07         0.49725E-10         0.00000E+00
    0.24497E-07         0.46475E-10         0.00000E+00
    0.24499E-07         0.43126E-10         0.00000E+00
    0.24500E-07         0.39688E-10         0.00000E+00
    0.24501E-07         0.36167E-10         0.00000E+00
    0.24502E-07         0.32573E-10         0.00000E+00
    0.24503E-07         0.28912E-10         0.00000E+00
    0.24504E-07         0.25191E-10         0.00000E+00
    0.24505E-07         0.21417E-10         0.00000E+00
    0.24505E-07         0.17597E-10         0.00000E+00
    0.24506E-07         0.13738E-10         0.00000E+00
    0.24506E-07         0.98442E-11         0.00000E+00
    0.24507E-07         0.59230E-11         0.00000E+00
    0.24507E-07         0.19796E-11         0.00000E+00
    0.25630E-07         0.42983E-11         0.00000E+00
    0.25630E-07         0.12420E-10         0.00000E+00
    0.25630E-07         0.19904E-10         0.00000E+00
    0.25631E-07         0.26776E-10         0.00000E+00
    0.25631E-07         0.33061E-10         0.00000E+00
    0.25632E-07         0.38781E-10         0.00000E+00
    0.25633E-07         0.43962E-10         0.00000E+00
    0.25634E-07         0.48625E-10         0.00000E+00
    0.25635E-07         0.52792E-10         0.00000E+00
    0.25636E-07         0.56486E-10         0.00000E+00
    0.25637E-07         0.59726E-10         0.00000E+00
    0.25638E-07         0.62535E-10         0.00000E+00
    0.25640E-07         0.64931E-10         0.00000E+00
    0.25641E-07         0.66933E-10         0.00000E+00
    0.25643E-07         0.68562E-10         0.00000E+00
    0.25645E-07         0.69834E-10         0.00000E+00
    0.25647E-07         0.70769E-10         0.00000E+00
    0.25649E-07         0.71382E-10         0.00000E+00
    0.25651E-07         0.71691E-10         0.00000E+00
    0.25653E-07         0.71712E-10         0.00000E+00
    0.25655E-07         0.71461E-10         0.00000E+00
    0.25657E-07         0.70953E-10         0.00000E+00
    0.25659E-07         0.70204E-10         0.00000E+00
    0.25661E-07         0.69226E-10         0.00000E+00
    0.25663E-07         0.68035E-10         0.00000E+00
    0.25666E-07         0.66644E-10         0.00000E+00
    0.25668E-07         0.65066E-10         0.00000E+00
    0.25670E-07         0.63313E-10         0.00000E+00
    0.25672E-07         0.61398E-10         0.00000E+00
    0.25674E-07         0.59333E-10         0.00000E+00
    0.25677E-07         0.57129E-10         0.00000E+00
    0.25679E-07         0.54797E-10         0.00000E+00
    0.25681E-07         0.52348E-10         0.00000E+00
    0.25683E-07         0.49793E-10         0.00000E+00
    0.25685E-07         0.47141E-10         0.00000E+00
    0.25687E-07         0.44401E-10         0.00000E+00
    0.25689E-07         0.41584E-10         0.00000E+00
    0.25691E-07         0.38699E-10         0.00000E+00
    0.25692E-07         0.35753E-10         0.00000E+00
    0.25694E-07         0.32755E-10         0.00000E+00
    0.25696E-07         0.29713E-10         0.00000E+00
    0.25697E-07         0.26635E-10         0.00000E+00
    0.25698E-07         0.23529E-10         0.00000E+00
    0.25699E-07         0.20401E-10         0.00000E+00
    0.25700E-07         0.17259E-10         0.00000E+00
    0.25701E-07         0.14109E-10         0.00000E+00
    0.25702E-07         0.10957E-10         0.00000E+00
    0.25702E-07         0.78093E-11         0.00000E+00
    0.25703E-07         0.46721E-11         0.00000E+00
    0.25703E-07         0.15507E-11         0.00000E+00
    0.26909E-07         0.38811E-11         0.00000E+00
    0.26909E-07         0.11178E-10         0.00000E+00
    0.26909E-07         0.17852E-10         0.00000E+00
    0.26910E-07         0.23930E-10         0.00000E+00
    0.26910E-07         0.29441E-10         0.00000E+00
    0.26911E-07         0.34408E-10         0.00000E+00
    0.26912E-07         0.38859E-10         0.00000E+00
    0.26914E-07         0.42816E-10         0.00000E+00
    0.26915E-07         0.46304E-10         0.00000E+00
    0.26917E-07         0.49346E-10         0.00000E+00
    0.26918E-07         0.51965E-10         0.00000E+00
    0.26920E-07         0.54183E-10         0.00000E+00
    0.26922E-07         0.56020E-10         0.00000E+00
    0.26924E-07         0.57498E-10         0.00000E+00
    0.26927E-07         0.58635E-10         0.00000E+00
    0.26929E-07         0.59453E-10         0.00000E+00
    0.26931E-07         0.59969E-10         0.00000E+00
    0.26934E-07         0.60202E-10         0.00000E+00
    0.26936E-07         0.60169E-10         0.00000E+00
    0.26939E-07         0.59887E-10         0.00000E+00
    0.26942E-07         0.59374E-10         0.00000E+00
    0.26944E-07         0.58645E-10         0.00000E+00
    0.26947E-07         0.57715E-10         0.00000E+00
    0.26950E-07         0.56599E-10         0.00000E+00
    0.26953E-07         0.55313E-10         0.00000E+00
    0.26956E-07         0.53869E-10         0.00000E+00
    0.26959E-07         0.52282E-10         0.00000E+00
    0.26962E-07         0.50564E-10         0.00000E+00
    0.26964E-07         0.48729E-10         0.00000E+00
    0.26967E-07         0.46788E-10         0.00000E+00
    0.26970E-07         0.44752E-10         0.00000E+00
    0.26973E-07         0.42635E-10         0.00000E+00
    0.26975E-07         0.40445E-10         0.00000E+00
    0.26978E-07         0.38194E-10         0.00000E+00
    0.26981E-07         0.35892E-10         0.00000E+00
    0.26983E-07         0.33548E-10         0.00000E+00
    0.26985E-07         0.31172E-10         0.00000E+00
    0.26988E-07         0.28774E-10         0.00000E+00
    0.26990E-07         0.26360E-10         0.00000E+00
    0.26992E-07         0.23941E-10         0.00000E+00
    0.26994E-07         0.21524E-10         0.00000E+00
    0.26996E-07         0.19116E-10         0.00000E+00
    0.26997E-07         0.16725E-10         0.00000E+00
    0.26999E-07         0.14357E-10         0.00000E+00
    0.27000E-07         0.12021E-10         0.00000E+00
    0.27001E-07         0.97216E-11         0.00000E+00
    0.27002E-07         0.74656E-11         0.00000E+00
    0.27002E-07         0.52587E-11         0.00000E+00
    0.27003E-07         0.31068E-11         0.00000E+00
    0.27003E-07         0.10151E-11         0.00000E+00
    0.28294E-07         0.33129E-11         0.00000E+00
    0.28294E-07         0.94930E-11         0.00000E+00
    0.28294E-07         0.15080E-10         0.00000E+00
    0.28295E-07         0.20103E-10         0.00000E+00
    0.28296E-07         0.24592E-10         0.00000E+00
    0.28297E-07         0.28573E-10         0.00000E+00
    0.28299E-07         0.32074E-10         0.00000E+00
    0.28300E-07         0.35121E-10         0.00000E+00
    0.28302E-07         0.37738E-10         0.00000E+00
    0.28304E-07         0.39952E-10         0.00000E+00
    0.28306E-07         0.41786E-10         0.00000E+00
    0.28309E-07         0.43262E-10         0.00000E+00
    0.28311E-07         0.44403E-10         0.00000E+00
    0.28314E-07         0.45232E-10         0.00000E+00
    0.28317E-07         0.45768E-10         0.00000E+00
    0.28320E-07         0.46032E-10         0.00000E+00
    0.28323E-07         0.46044E-10         0.00000E+00
    0.28326E-07         0.45823E-10         0.00000E+00
    0.28329E-07         0.45388E-10         0.00000E+00
    0.28332E-07         0.44755E-10         0.00000E+00
    0.28336E-07         0.43941E-10         0.00000E+00
    0.28339E-07         0.42965E-10         0.00000E+00
    0.28343E-07         0.41841E-10         0.00000E+00
    0.28346E-07         0.40584E-10         0.00000E+00
    0.28350E-07         0.39211E-10         0.00000E+00
    0.28354E-07         0.37734E-10         0.00000E+00
    0.28357E-07         0.36168E-10         0.00000E+00
    0.28361E-07         0.34526E-10         0.00000E+00
    0.28364E-07         0.32820E-10         0.00000E+00
    0.28368E-07         0.31064E-10         0.00000E+00
    0.28371E-07         0.29268E-10         0.00000E+00
    0.28375E-07         0.27444E-10         0.00000E+00
    0.28378E-07         0.25604E-10         0.00000E+00
    0.28381E-07         0.23757E-10         0.00000E+00
    0.28384E-07         0.21913E-10         0.00000E+00
    0.28387E-07         0.20082E-10         0.00000E+00
    0.28390E-07         0.18274E-10         0.00000E+00
    0.28393E-07         0.16498E-10         0.00000E+00
    0.28396E-07         0.14761E-10         0.00000E+00
    0.28398E-07         0.13072E-10         0.00000E+00
    0.28400E-07         0.11438E-10         0.00000E+00
    0.28402E-07         0.98679E-11         0.00000E+00
    0.28404E-07         0.83678E-11         0.00000E+00
    0.28406E-07         0.69446E-11         0.00000E+00
    0.28408E-07         0.56049E-11         0.00000E+00
    0.28409E-07         0.43548E-11         0.00000E+00
    0.28410E-07         0.32001E-11         0.00000E+00
    0.28411E-07         0.21464E-11         0.00000E+00
    0.28411E-07         0.11991E-11         0.00000E+00
    0.28412E-07         0.36319E-12         0.00000E+00
    0.29789E-07         0.25765E-11         0.00000E+00
    0.29790E-07         0.73161E-11         0.00000E+00
    0.29790E-07         0.11509E-10         0.00000E+00
    0.29791E-07         0.15187E-10         0.00000E+00
    0.29792E-07         0.18379E-10         0.00000E+00
    0.29794E-07         0.21117E-10         0.00000E+00
    0.29796E-07         0.23427E-10         0.00000E+00
    0.29798E-07         0.25337E-10         0.00000E+00
    0.29800E-07         0.26875E-10         0.00000E+00
    0.29803E-07         0.28067E-10         0.00000E+00
    0.29805E-07         0.28936E-10         0.00000E+00
    0.29808E-07         0.29507E-10         0.00000E+00
    0.29811E-07         0.29804E-10         0.00000E+00
    0.29815E-07         0.29850E-10         0.00000E+00
    0.29818E-07         0.29664E-10         0.00000E+00
    0.29822E-07         0.29270E-10         0.00000E+00
    0.29826E-07         0.28687E-10         0.00000E+00
    0.29829E-07         0.27935E-10         0.00000E+00
    0.29833E-07         0.27031E-10         0.00000E+00
    0.29838E-07         0.25996E-10         0.00000E+00
    0.29842E-07         0.24845E-10         0.00000E+00
    0.29846E-07         0.23596E-10         0.00000E+00
    0.29850E-07         0.22265E-10         0.00000E+00
    0.29855E-07         0.20867E-10         0.00000E+00
    0.29859E-07         0.19418E-10         0.00000E+00
    0.29863E-07         0.17931E-10         0.00000E+00
    0.29868E-07         0.16421E-10         0.00000E+00
    0.29872E-07         0.14900E-10         0.00000E+00
    0.29876E-07         0.13382E-10         0.00000E+00
    0.29880E-07         0.11879E-10         0.00000E+00
    0.29885E-07         0.10401E-10         0.00000E+00
    0.29889E-07         0.89612E-11         0.00000E+00
    0.29893E-07         0.75692E-11         0.00000E+00
    0.29896E-07         0.62355E-11         0.00000E+00
    0.29900E-07         0.49699E-11         0.00000E+00
    0.29904E-07         0.37817E-11         0.00000E+00
    0.29907E-07         0.26799E-11         0.00000E+00
    0.29911E-07         0.16729E-11         0.00000E+00
    0.29914E-07         0.76891E-12         0.00000E+00
    0.29917E-07        -0.24364E-13         0.00000E+00
    0.29919E-07        -0.69953E-12         0.00000E+00
    0.29922E-07        -0.12496E-11         0.00000E+00
    0.29924E-07        -0.16679E-11         0.00000E+00
    0.29926E-07        -0.19480E-11         0.00000E+00
    0.29928E-07        -0.20841E-11         0.00000E+00
    0.29930E-07        -0.20703E-11         0.00000E+00
    0.29931E-07        -0.19014E-11         0.00000E+00
    0.29932E-07        -0.15722E-11         0.00000E+00
    0.29933E-07        -0.10779E-11         0.00000E+00
    0.29933E-07        -0.41399E-12         0.00000E+00
    0.31400E-07         0.16544E-11         0.00000E+00
    0.31400E-07         0.45963E-11         0.00000E+00
    0.31401E-07         0.70573E-11         0.00000E+00
    0.31402E-07         0.90703E-11         0.00000E+00
    0.31404E-07         0.10667E-10         0.00000E+00
    0.31406E-07         0.11879E-10         0.00000E+00
    0.31408E-07         0.12735E-10         0.00000E+00
    0.31410E-07         0.13265E-10         0.00000E+00
    0.31413E-07         0.13496E-10         0.00000E+00
    0.31416E-07         0.13454E-10         0.00000E+00
    0.31420E-07         0.13166E-10         0.00000E+00
    0.31423E-07         0.12657E-10         0.00000E+00
    0.31427E-07         0.11950E-10         0.00000E+00
    0.31431E-07         0.11068E-10         0.00000E+00
    0.31435E-07         0.10034E-10         0.00000E+00
    0.31440E-07         0.88696E-11         0.00000E+00
    0.31444E-07         0.75945E-11         0.00000E+00
    0.31449E-07         0.62287E-11         0.00000E+00
    0.31454E-07         0.47913E-11         0.00000E+00
    0.31458E-07         0.33004E-11         0.00000E+00
    0.31463E-07         0.17736E-11         0.00000E+00
    0.31469E-07         0.22754E-12         0.00000E+00
    0.31474E-07        -0.13216E-11         0.00000E+00
    0.31479E-07        -0.28585E-11         0.00000E+00
    0.31484E-07        -0.43684E-11         0.00000E+00
    0.31489E-07        -0.58371E-11         0.00000E+00
    0.31494E-07        -0.72511E-11         0.00000E+00
    0.31499E-07        -0.85975E-11         0.00000E+00
    0.31504E-07        -0.98640E-11         0.00000E+00
    0.31509E-07        -0.11039E-10         0.00000E+00
    0.31514E-07        -0.12110E-10         0.00000E+00
    0.31519E-07        -0.13068E-10         0.00000E+00
    0.31524E-07        -0.13902E-10         0.00000E+00
    0.31529E-07        -0.14603E-10         0.00000E+00
    0.31533E-07        -0.15160E-10         0.00000E+00
    0.31537E-07        -0.15565E-10         0.00000E+00
    0.31541E-07        -0.15811E-10         0.00000E+00
    0.31545E-07        -0.15888E-10         0.00000E+00
    0.31549E-07        -0.15790E-10         0.00000E+00
    0.31552E-07        -0.15508E-10         0.00000E+00
    0.31556E-07        -0.15037E-10         0.00000E+00
    0.31559E-07        -0.14370E-10         0.00000E+00
    0.31561E-07        -0.13501E-10         0.00000E+00
    0.31564E-07        -0.12425E-10         0.00000E+00
    0.31566E-07        -0.11135E-10         0.00000E+00
    0.31568E-07        -0.96273E-11         0.00000E+00
    0.31569E-07        -0.78967E-11         0.00000E+00
    0.31570E-07        -0.59388E-11         0.00000E+00
    0.31571E-07        -0.37495E-11         0.00000E+00
    0.31571E-07        -0.13250E-11         0.00000E+00
    0.33130E-07         0.52932E-12         0.00000E+00
    0.33131E-07         0.12835E-11         0.00000E+00
    0.33132E-07         0.16444E-11         0.00000E+00
    0.33133E-07         0.16464E-11         0.00000E+00
    0.33135E-07         0.13223E-11         0.00000E+00
    0.33137E-07         0.70409E-12         0.00000E+00
    0.33140E-07        -0.17757E-12         0.00000E+00
    0.33143E-07        -0.12932E-11         0.00000E+00
    0.33146E-07        -0.26144E-11         0.00000E+00
    0.33150E-07        -0.41138E-11         0.00000E+00
    0.33154E-07        -0.57652E-11         0.00000E+00
    0.33158E-07        -0.75433E-11         0.00000E+00
    0.33163E-07        -0.94241E-11         0.00000E+00
    0.33167E-07        -0.11384E-10         0.00000E+00
    0.33172E-07        -0.13401E-10         0.00000E+00
    0.33177E-07        -0.15454E-10         0.00000E+00
    0.33183E-07        -0.17522E-10         0.00000E+00
    0.33188E-07        -0.19585E-10         0.00000E+00
    0.33194E-07        -0.21626E-10         0.00000E+00
    0.33200E-07        -0.23625E-10         0.00000E+00
    0.33206E-07        -0.25566E-10         0.00000E+00
    0.33212E-07        -0.27432E-10         0.00000E+00
    0.33218E-07        -0.29208E-10         0.00000E+00
    0.33224E-07        -0.30878E-10         0.00000E+00
    0.33230E-07        -0.32429E-10         0.00000E+00
    0.33236E-07        -0.33847E-10         0.00000E+00
    0.33242E-07        -0.35119E-10         0.00000E+00
    0.33248E-07        -0.36232E-10         0.00000E+00
    0.33254E-07        -0.37176E-10         0.00000E+00
    0.33259E-07        -0.37938E-10         0.00000E+00
    0.33265E-07        -0.38508E-10         0.00000E+00
    0.33271E-07        -0.38877E-10         0.00000E+00
    0.33276E-07        -0.39034E-10         0.00000E+00
    0.33282E-07        -0.38972E-10         0.00000E+00
    0.33287E-07        -0.38680E-10         0.00000E+00
    0.33292E-07        -0.38152E-10         0.00000E+00
    0.33296E-07        -0.37379E-10         0.00000E+00
    0.33301E-07        -0.36355E-10         0.00000E+00
    0.33305E-07        -0.35072E-10         0.00000E+00
    0.33309E-07        -0.33525E-10         0.00000E+00
    0.33313E-07        -0.31708E-10         0.00000E+00
    0.33316E-07        -0.29615E-10         0.00000E+00
    0.33319E-07        -0.27240E-10         0.00000E+00
    0.33322E-07        -0.24579E-10         0.00000E+00
    0.33325E-07        -0.21628E-10         0.00000E+00
    0.33327E-07        -0.18382E-10         0.00000E+00
    0.33328E-07        -0.14837E-10         0.00000E+00
    0.33330E-07        -0.10991E-10         0.00000E+00
    0.33331E-07        -0.68382E-11         0.00000E+00
    0.33331E-07        -0.23774E-11         0.00000E+00
    0.34984E-07        -0.81550E-12         0.00000E+00
    0.34985E-07        -0.26704E-11         0.00000E+00
    0.34986E-07        -0.48064E-11         0.00000E+00
    0.34988E-07        -0.71884E-11         0.00000E+00
    0.34990E-07        -0.97827E-11         0.00000E+00
    0.34992E-07        -0.12557E-10         0.00000E+00
    0.34996E-07        -0.15480E-10         0.00000E+00
    0.34999E-07        -0.18522E-10         0.00000E+00
    0.35003E-07        -0.21655E-10         0.00000E+00
    0.35007E-07        -0.24851E-10         0.00000E+00
    0.35012E-07        -0.28083E-10         0.00000E+00
    0.35017E-07        -0.31328E-10         0.00000E+00
    0.35022E-07        -0.34560E-10         0.00000E+00
    0.35028E-07        -0.37758E-10         0.00000E+00
    0.35033E-07        -0.40898E-10         0.00000E+00
    0.35040E-07        -0.43960E-10         0.00000E+00
    0.35046E-07        -0.46925E-10         0.00000E+00
    0.35052E-07        -0.49772E-10         0.00000E+00
    0.35059E-07        -0.52485E-10         0.00000E+00
    0.35065E-07        -0.55045E-10         0.00000E+00
    0.35072E-07        -0.57436E-10         0.00000E+00
    0.35079E-07        -0.59643E-10         0.00000E+00
    0.35086E-07        -0.61651E-10         0.00000E+00
    0.35093E-07        -0.63446E-10         0.00000E+00
    0.35100E-07        -0.65014E-10         0.00000E+00
    0.35107E-07        -0.66343E-10         0.00000E+00
    0.35114E-07        -0.67421E-10         0.00000E+00
    0.35121E-07        -0.68236E-10         0.00000E+00
    0.35128E-07        -0.68778E-10         0.00000E+00
    0.35134E-07        -0.69036E-10         0.00000E+00
    0.35141E-07        -0.69002E-10         0.00000E+00
    0.35147E-07        -0.68666E-10         0.00000E+00
    0.35154E-07        -0.68019E-10         0.00000E+00
    0.35160E-07        -0.67054E-10         0.00000E+00
    0.35166E-07        -0.65764E-10         0.00000E+00
    0.35171E-07        -0.64141E-10         0.00000E+00
    0.35177E-07        -0.62179E-10         0.00000E+00
    0.35182E-07        -0.59871E-10         0.00000E+00
    0.35187E-07        -0.57213E-10         0.00000E+00
    0.35191E-07        -0.54199E-10         0.00000E+00
    0.35195E-07        -0.50823E-10         0.00000E+00
    0.35199E-07        -0.47083E-10         0.00000E+00
    0.35203E-07        -0.42973E-10         0.00000E+00
    0.35206E-07        -0.38489E-10         0.00000E+00
    0.35209E-07        -0.33629E-10         0.00000E+00
    0.35211E-07        -0.28389E-10         0.00000E+00
    0.35213E-07        -0.22766E-10         0.00000E+00
    0.35214E-07        -0.16758E-10         0.00000E+00
    0.35215E-07        -0.10362E-10         0.00000E+00
    0.35216E-07        -0.35773E-11         0.00000E+00
    0.36966E-07        -0.23955E-11         0.00000E+00
    0.36967E-07        -0.73097E-11         0.00000E+00
    0.36968E-07        -0.12366E-10         0.00000E+00
    0.36970E-07        -0.17528E-10         0.00000E+00
    0.36972E-07        -0.22762E-10         0.00000E+00
    0.36976E-07        -0.28038E-10         0.00000E+00
    0.36979E-07        -0.33322E-10         0.00000E+00
    0.36983E-07        -0.38587E-10         0.00000E+00
    0.36988E-07        -0.43803E-10         0.00000E+00
    0.36993E-07        -0.48945E-10         0.00000E+00
    0.36998E-07        -0.53986E-10         0.00000E+00
    0.37004E-07        -0.58902E-10         0.00000E+00
    0.37010E-07        -0.63670E-10         0.00000E+00
    0.37016E-07        -0.68268E-10         0.00000E+00
    0.37023E-07        -0.72675E-10         0.00000E+00
    0.37030E-07        -0.76870E-10         0.00000E+00
    0.37037E-07        -0.80836E-10         0.00000E+00
    0.37044E-07        -0.84554E-10         0.00000E+00
    0.37052E-07        -0.88007E-10         0.00000E+00
    0.37059E-07        -0.91179E-10         0.00000E+00
    0.37067E-07        -0.94055E-10         0.00000E+00
    0.37075E-07        -0.96621E-10         0.00000E+00
    0.37083E-07        -0.98863E-10         0.00000E+00
    0.37091E-07        -0.10077E-09         0.00000E+00
    0.37099E-07        -0.10232E-09         0.00000E+00
    0.37107E-07        -0.10352E-09         0.00000E+00
    0.37115E-07        -0.10435E-09         0.00000E+00
    0.37122E-07        -0.10479E-09         0.00000E+00
    0.37130E-07        -0.10485E-09         0.00000E+00
    0.37138E-07        -0.10450E-09         0.00000E+00
    0.37145E-07        -0.10375E-09         0.00000E+00
    0.37152E-07        -0.10259E-09         0.00000E+00
    0.37160E-07        -0.10100E-09         0.00000E+00
    0.37166E-07        -0.98990E-10         0.00000E+00
    0.37173E-07        -0.96543E-10         0.00000E+00
    0.37179E-07        -0.93656E-10         0.00000E+00
    0.37186E-07        -0.90325E-10         0.00000E+00
    0.37191E-07        -0.86544E-10         0.00000E+00
    0.37197E-07        -0.82310E-10         0.00000E+00
    0.37202E-07        -0.77618E-10         0.00000E+00
    0.37207E-07        -0.72465E-10         0.00000E+00
    0.37211E-07        -0.66848E-10         0.00000E+00
    0.37215E-07        -0.60764E-10         0.00000E+00
    0.37219E-07        -0.54211E-10         0.00000E+00
    0.37222E-07        -0.47186E-10         0.00000E+00
    0.37224E-07        -0.39687E-10         0.00000E+00
    0.37227E-07        -0.31713E-10         0.00000E+00
    0.37228E-07        -0.23263E-10         0.00000E+00
    0.37229E-07        -0.14335E-10         0.00000E+00
    0.37230E-07        -0.49292E-11         0.00000E+00
    0.39079E-07        -0.42239E-11         0.00000E+00
    0.39080E-07        -0.12672E-10         0.00000E+00
    0.39081E-07        -0.21093E-10         0.00000E+00
    0.39084E-07        -0.29451E-10         0.00000E+00
    0.39086E-07        -0.37713E-10         0.00000E+00
    0.39090E-07        -0.45849E-10         0.00000E+00
    0.39094E-07        -0.53828E-10         0.00000E+00
    0.39099E-07        -0.61622E-10         0.00000E+00
    0.39104E-07        -0.69203E-10         0.00000E+00
    0.39110E-07        -0.76547E-10         0.00000E+00
    0.39116E-07        -0.83629E-10         0.00000E+00
    0.39122E-07        -0.90427E-10         0.00000E+00
    0.39129E-07        -0.96917E-10         0.00000E+00
    0.39136E-07        -0.10308E-09         0.00000E+00
    0.39144E-07        -0.10890E-09         0.00000E+00
    0.39152E-07        -0.11435E-09         0.00000E+00
    0.39160E-07        -0.11942E-09         0.00000E+00
    0.39168E-07        -0.12409E-09         0.00000E+00
    0.39176E-07        -0.12835E-09         0.00000E+00
    0.39185E-07        -0.13219E-09         0.00000E+00
    0.39194E-07        -0.13558E-09         0.00000E+00
    0.39203E-07        -0.13852E-09         0.00000E+00
    0.39212E-07        -0.14099E-09         0.00000E+00
    0.39220E-07        -0.14298E-09         0.00000E+00
    0.39229E-07        -0.14449E-09         0.00000E+00
    0.39238E-07        -0.14551E-09         0.00000E+00
    0.39247E-07        -0.14602E-09         0.00000E+00
    0.39256E-07        -0.14602E-09         0.00000E+00
    0.39265E-07        -0.14550E-09         0.00000E+00
    0.39273E-07        -0.14445E-09         0.00000E+00
    0.39281E-07        -0.14286E-09         0.00000E+00
    0.39290E-07        -0.14074E-09         0.00000E+00
    0.39298E-07        -0.13808E-09         0.00000E+00
    0.39305E-07        -0.13486E-09         0.00000E+00
    0.39313E-07        -0.13109E-09         0.00000E+00
    0.39320E-07        -0.12677E-09         0.00000E+00
    0.39327E-07        -0.12188E-09         0.00000E+00
    0.39333E-07        -0.11643E-09         0.00000E+00
    0.39339E-07        -0.11042E-09         0.00000E+00
    0.39345E-07        -0.10383E-09         0.00000E+00
    0.39350E-07        -0.96676E-10         0.00000E+00
    0.39355E-07        -0.88949E-10         0.00000E+00
    0.39360E-07        -0.80648E-10         0.00000E+00
    0.39364E-07        -0.71772E-10         0.00000E+00
    0.39367E-07        -0.62322E-10         0.00000E+00
    0.39370E-07        -0.52296E-10         0.00000E+00
    0.39372E-07        -0.41694E-10         0.00000E+00
    0.39374E-07        -0.30516E-10         0.00000E+00
    0.39375E-07        -0.18763E-10         0.00000E+00
    0.39376E-07        -0.64350E-11         0.00000E+00
    0.41327E-07        -0.63110E-11         0.00000E+00
    0.41328E-07        -0.18787E-10         0.00000E+00
    0.41329E-07        -0.31033E-10         0.00000E+00
    0.41332E-07        -0.43016E-10         0.00000E+00
    0.41335E-07        -0.54705E-10         0.00000E+00
    0.41339E-07        -0.66070E-10         0.00000E+00
    0.41344E-07        -0.77083E-10         0.00000E+00
    0.41349E-07        -0.87719E-10         0.00000E+00
    0.41355E-07        -0.97951E-10         0.00000E+00
    0.41361E-07        -0.10776E-09         0.00000E+00
    0.41368E-07        -0.11711E-09         0.00000E+00
    0.41375E-07        -0.12600E-09         0.00000E+00
    0.41383E-07        -0.13440E-09         0.00000E+00
    0.41391E-07        -0.14230E-09         0.00000E+00
    0.41399E-07        -0.14967E-09         0.00000E+00
    0.41408E-07        -0.15650E-09         0.00000E+00
    0.41417E-07        -0.16277E-09         0.00000E+00
    0.41426E-07        -0.16848E-09         0.00000E+00
    0.41436E-07        -0.17361E-09         0.00000E+00
    0.41445E-07        -0.17814E-09         0.00000E+00
    0.41455E-07        -0.18207E-09         0.00000E+00
    0.41465E-07        -0.18539E-09         0.00000E+00
    0.41475E-07        -0.18809E-09         0.00000E+00
    0.41485E-07        -0.19015E-09         0.00000E+00
    0.41495E-07        -0.19157E-09         0.00000E+00
    0.41505E-07        -0.19235E-09         0.00000E+00
    0.41514E-07        -0.19248E-09         0.00000E+00
    0.41524E-07        -0.19195E-09         0.00000E+00
    0.41534E-07        -0.19075E-09         0.00000E+00
    0.41543E-07        -0.18889E-09         0.00000E+00
    0.41552E-07        -0.18635E-09         0.00000E+00
    0.41561E-07        -0.18314E-09         0.00000E+00
    0.41570E-07        -0.17925E-09         0.00000E+00
    0.41579E-07        -0.17467E-09         0.00000E+00
    0.41587E-07        -0.16942E-09         0.00000E+00
    0.41595E-07        -0.16348E-09         0.00000E+00
    0.41602E-07        -0.15685E-09         0.00000E+00
    0.41609E-07        -0.14953E-09         0.00000E+00
    0.41616E-07        -0.14153E-09         0.00000E+00
    0.41622E-07        -0.13283E-09         0.00000E+00
    0.41628E-07        -0.12345E-09         0.00000E+00
    0.41634E-07        -0.11338E-09         0.00000E+00
    0.41638E-07        -0.10261E-09         0.00000E+00
    0.41643E-07        -0.91165E-10         0.00000E+00
    0.41647E-07        -0.79029E-10         0.00000E+00
    0.41650E-07        -0.66207E-10         0.00000E+00
    0.41652E-07        -0.52701E-10         0.00000E+00
    0.41654E-07        -0.38512E-10         0.00000E+00
    0.41656E-07        -0.23642E-10         0.00000E+00
    0.41656E-07        -0.80937E-11         0.00000E+00
    0.43711E-07        -0.86629E-11         0.00000E+00
    0.43712E-07        -0.25670E-10         0.00000E+00
    0.43714E-07        -0.42210E-10         0.00000E+00
    0.43717E-07        -0.58253E-10         0.00000E+00
    0.43720E-07        -0.73771E-10         0.00000E+00
    0.43725E-07        -0.88737E-10         0.00000E+00
    0.43730E-07        -0.10313E-09         0.00000E+00
    0.43736E-07        -0.11691E-09         0.00000E+00
    0.43742E-07        -0.13008E-09         0.00000E+00
    0.43749E-07        -0.14260E-09         0.00000E+00
    0.43757E-07        -0.15447E-09         0.00000E+00
    0.43765E-07        -0.16565E-09         0.00000E+00
    0.43773E-07        -0.17614E-09         0.00000E+00
    0.43782E-07        -0.18592E-09         0.00000E+00
    0.43792E-07        -0.19498E-09         0.00000E+00
    0.43801E-07        -0.20330E-09         0.00000E+00
    0.43811E-07        -0.21088E-09         0.00000E+00
    0.43822E-07        -0.21769E-09         0.00000E+00
    0.43832E-07        -0.22374E-09         0.00000E+00
    0.43843E-07        -0.22901E-09         0.00000E+00
    0.43853E-07        -0.23350E-09         0.00000E+00
    0.43864E-07        -0.23720E-09         0.00000E+00
    0.43875E-07        -0.24011E-09         0.00000E+00
    0.43886E-07        -0.24221E-09         0.00000E+00
    0.43897E-07        -0.24350E-09         0.00000E+00
    0.43908E-07        -0.24398E-09         0.00000E+00
    0.43918E-07        -0.24365E-09         0.00000E+00
    0.43929E-07        -0.24250E-09         0.00000E+00
    0.43939E-07        -0.24053E-09         0.00000E+00
    0.43950E-07        -0.23774E-09         0.00000E+00
    0.43960E-07        -0.23413E-09         0.00000E+00
    0.43970E-07        -0.22969E-09         0.00000E+00
    0.43979E-07        -0.22443E-09         0.00000E+00
    0.43989E-07        -0.21834E-09         0.00000E+00
    0.43997E-07        -0.21143E-09         0.00000E+00
    0.44006E-07        -0.20370E-09         0.00000E+00
    0.44014E-07        -0.19514E-09         0.00000E+00
    0.44022E-07        -0.18576E-09         0.00000E+00
    0.44029E-07        -0.17556E-09         0.00000E+00
    0.44036E-07        -0.16455E-09         0.00000E+00
    0.44043E-07        -0.15271E-09         0.00000E+00
    0.44048E-07        -0.14006E-09         0.00000E+00
    0.44054E-07        -0.12660E-09         0.00000E+00
    0.44058E-07        -0.11234E-09         0.00000E+00
    0.44062E-07        -0.97260E-10         0.00000E+00
    0.44066E-07        -0.81382E-10         0.00000E+00
    0.44069E-07        -0.64703E-10         0.00000E+00
    0.44071E-07        -0.47228E-10         0.00000E+00
    0.44072E-07        -0.28959E-10         0.00000E+00
    0.44073E-07        -0.99005E-11         0.00000E+00
    0.46234E-07        -0.11280E-10         0.00000E+00
    0.46235E-07        -0.33321E-10         0.00000E+00
    0.46237E-07        -0.54622E-10         0.00000E+00
    0.46240E-07        -0.75156E-10         0.00000E+00
    0.46244E-07        -0.94900E-10         0.00000E+00
    0.46249E-07        -0.11383E-09         0.00000E+00
    0.46255E-07        -0.13193E-09         0.00000E+00
    0.46261E-07        -0.14917E-09         0.00000E+00
    0.46268E-07        -0.16554E-09         0.00000E+00
    0.46276E-07        -0.18103E-09         0.00000E+00
    0.46284E-07        -0.19562E-09         0.00000E+00
    0.46293E-07        -0.20930E-09         0.00000E+00
    0.46302E-07        -0.22204E-09         0.00000E+00
    0.46312E-07        -0.23386E-09         0.00000E+00
    0.46322E-07        -0.24473E-09         0.00000E+00
    0.46333E-07        -0.25464E-09         0.00000E+00
    0.46344E-07        -0.26360E-09         0.00000E+00
    0.46355E-07        -0.27159E-09         0.00000E+00
    0.46366E-07        -0.27860E-09         0.00000E+00
    0.46378E-07        -0.28464E-09         0.00000E+00
    0.46389E-07        -0.28970E-09         0.00000E+00
    0.46401E-07        -0.29377E-09         0.00000E+00
    0.46413E-07        -0.29686E-09         0.00000E+00
    0.46425E-07        -0.29896E-09         0.00000E+00
    0.46436E-07        -0.30007E-09         0.00000E+00
    0.46448E-07        -0.30019E-09         0.00000E+00
    0.46460E-07        -0.29933E-09         0.00000E+00
    0.46471E-07        -0.29747E-09         0.00000E+00
    0.46483E-07        -0.29463E-09         0.00000E+00
    0.46494E-07        -0.29080E-09         0.00000E+00
    0.46505E-07        -0.28599E-09         0.00000E+00
    0.46515E-07        -0.28019E-09         0.00000E+00
    0.46526E-07        -0.27342E-09         0.00000E+00
    0.46536E-07        -0.26566E-09         0.00000E+00
    0.46545E-07        -0.25694E-09         0.00000E+00
    0.46554E-07        -0.24724E-09         0.00000E+00
    0.46563E-07        -0.23657E-09         0.00000E+00
    0.46572E-07        -0.22495E-09         0.00000E+00
    0.46579E-07        -0.21236E-09         0.00000E+00
    0.46587E-07        -0.19881E-09         0.00000E+00
    0.46594E-07        -0.18432E-09         0.00000E+00
    0.46600E-07        -0.16888E-09         0.00000E+00
    0.46606E-07        -0.15250E-09         0.00000E+00
    0.46611E-07        -0.13518E-09         0.00000E+00
    0.46615E-07        -0.11692E-09         0.00000E+00
    0.46619E-07        -0.97743E-10         0.00000E+00
    0.46622E-07        -0.77640E-10         0.00000E+00
    0.46624E-07        -0.56619E-10         0.00000E+00
    0.46626E-07        -0.34686E-10         0.00000E+00
    0.46626E-07        -0.11846E-10         0.00000E+00
    0.48895E-07        -0.14156E-10         0.00000E+00
    0.48897E-07        -0.41720E-10         0.00000E+00
    0.48899E-07        -0.68232E-10         0.00000E+00
    0.48902E-07        -0.93671E-10         0.00000E+00
    0.48907E-07        -0.11802E-09         0.00000E+00
    0.48912E-07        -0.14126E-09         0.00000E+00
    0.48918E-07        -0.16338E-09         0.00000E+00
    0.48925E-07        -0.18436E-09         0.00000E+00
    0.48933E-07        -0.20420E-09         0.00000E+00
    0.48941E-07        -0.22288E-09         0.00000E+00
    0.48950E-07        -0.24039E-09         0.00000E+00
    0.48960E-07        -0.25673E-09         0.00000E+00
    0.48970E-07        -0.27189E-09         0.00000E+00
    0.48980E-07        -0.28586E-09         0.00000E+00
    0.48991E-07        -0.29865E-09         0.00000E+00
    0.49003E-07        -0.31025E-09         0.00000E+00
    0.49014E-07        -0.32065E-09         0.00000E+00
    0.49026E-07        -0.32986E-09         0.00000E+00
    0.49038E-07        -0.33787E-09         0.00000E+00
    0.49051E-07        -0.34469E-09         0.00000E+00
    0.49063E-07        -0.35031E-09         0.00000E+00
    0.49076E-07        -0.35475E-09         0.00000E+00
    0.49088E-07        -0.35799E-09         0.00000E+00
    0.49101E-07        -0.36005E-09         0.00000E+00
    0.49114E-07        -0.36092E-09         0.00000E+00
    0.49126E-07        -0.36062E-09         0.00000E+00
    0.49139E-07        -0.35914E-09         0.00000E+00
    0.49151E-07        -0.35649E-09         0.00000E+00
    0.49163E-07        -0.35267E-09         0.00000E+00
    0.49175E-07        -0.34770E-09         0.00000E+00
    0.49186E-07        -0.34156E-09         0.00000E+00
    0.49198E-07        -0.33428E-09         0.00000E+00
    0.49209E-07        -0.32586E-09         0.00000E+00
    0.49219E-07        -0.31629E-09         0.00000E+00
    0.49230E-07        -0.30560E-09         0.00000E+00
    0.49239E-07        -0.29378E-09         0.00000E+00
    0.49249E-07        -0.28084E-09         0.00000E+00
    0.49258E-07        -0.26679E-09         0.00000E+00
    0.49266E-07        -0.25164E-09         0.00000E+00
    0.49274E-07        -0.23538E-09         0.00000E+00
    0.49281E-07        -0.21804E-09         0.00000E+00
    0.49288E-07        -0.19960E-09         0.00000E+00
    0.49294E-07        -0.18010E-09         0.00000E+00
    0.49299E-07        -0.15951E-09         0.00000E+00
    0.49304E-07        -0.13787E-09         0.00000E+00
    0.49308E-07        -0.11517E-09         0.00000E+00
    0.49311E-07        -0.91412E-10         0.00000E+00
    0.49313E-07        -0.66614E-10         0.00000E+00
    0.49315E-07        -0.40780E-10         0.00000E+00
    0.49316E-07        -0.13915E-10         0.00000E+00
    0.51695E-07        -0.17275E-10         0.00000E+00
    0.51697E-07        -0.50821E-10         0.00000E+00
    0.51699E-07        -0.82963E-10         0.00000E+00
    0.51703E-07        -0.11369E-09         0.00000E+00
    0.51707E-07        -0.14299E-09         0.00000E+00
    0.51713E-07        -0.17085E-09         0.00000E+00
    0.51719E-07        -0.19727E-09         0.00000E+00
    0.51727E-07        -0.22225E-09         0.00000E+00
    0.51735E-07        -0.24577E-09         0.00000E+00
    0.51744E-07        -0.26783E-09         0.00000E+00
    0.51754E-07        -0.28844E-09         0.00000E+00
    0.51764E-07        -0.30760E-09         0.00000E+00
    0.51775E-07        -0.32529E-09         0.00000E+00
    0.51786E-07        -0.34153E-09         0.00000E+00
    0.51798E-07        -0.35632E-09         0.00000E+00
    0.51810E-07        -0.36966E-09         0.00000E+00
    0.51822E-07        -0.38156E-09         0.00000E+00
    0.51835E-07        -0.39202E-09         0.00000E+00
    0.51848E-07        -0.40104E-09         0.00000E+00
    0.51861E-07        -0.40864E-09         0.00000E+00
    0.51874E-07        -0.41482E-09         0.00000E+00
    0.51887E-07        -0.41959E-09         0.00000E+00
    0.51900E-07        -0.42295E-09         0.00000E+00
    0.51914E-07        -0.42492E-09         0.00000E+00
    0.51927E-07        -0.42549E-09         0.00000E+00
    0.51940E-07        -0.42469E-09         0.00000E+00
    0.51953E-07        -0.42252E-09         0.00000E+00
    0.51966E-07        -0.41899E-09         0.00000E+00
    0.51979E-07        -0.41410E-09         0.00000E+00
    0.51991E-07        -0.40787E-09         0.00000E+00
    0.52004E-07        -0.40031E-09         0.00000E+00
    0.52015E-07        -0.39143E-09         0.00000E+00
    0.52027E-07        -0.38123E-09         0.00000E+00
    0.52038E-07        -0.36973E-09         0.00000E+00
    0.52049E-07        -0.35693E-09         0.00000E+00
    0.52059E-07        -0.34285E-09         0.00000E+00
    0.52069E-07        -0.32750E-09         0.00000E+00
    0.52078E-07        -0.31088E-09         0.00000E+00
    0.52087E-07        -0.29300E-09         0.00000E+00
    0.52095E-07        -0.27388E-09         0.00000E+00
    0.52103E-07        -0.25352E-09         0.00000E+00
    0.52110E-07        -0.23193E-09         0.00000E+00
    0.52116E-07        -0.20912E-09         0.00000E+00
    0.52121E-07        -0.18510E-09         0.00000E+00
    0.52126E-07        -0.15988E-09         0.00000E+00
    0.52130E-07        -0.13347E-09         0.00000E+00
    0.52134E-07        -0.10588E-09         0.00000E+00
    0.52136E-07        -0.77112E-10         0.00000E+00
    0.52138E-07        -0.47179E-10         0.00000E+00
    0.52139E-07        -0.16088E-10         0.00000E+00
    0.54631E-07        -0.20613E-10         0.00000E+00
    0.54632E-07        -0.60545E-10         0.00000E+00
    0.54635E-07        -0.98685E-10         0.00000E+00
    0.54639E-07        -0.13503E-09         0.00000E+00
    0.54643E-07        -0.16958E-09         0.00000E+00
    0.54649E-07        -0.20233E-09         0.00000E+00
    0.54656E-07        -0.23329E-09         0.00000E+00
    0.54664E-07        -0.26246E-09         0.00000E+00
    0.54673E-07        -0.28985E-09         0.00000E+00
    0.54682E-07        -0.31545E-09         0.00000E+00
    0.54692E-07        -0.33929E-09         0.00000E+00
    0.54703E-07        -0.36136E-09         0.00000E+00
    0.54714E-07        -0.38168E-09         0.00000E+00
    0.54726E-07        -0.40026E-09         0.00000E+00
    0.54738E-07        -0.41710E-09         0.00000E+00
    0.54751E-07        -0.43222E-09         0.00000E+00
    0.54764E-07        -0.44563E-09         0.00000E+00
    0.54777E-07        -0.45735E-09         0.00000E+00
    0.54791E-07        -0.46738E-09         0.00000E+00
    0.54804E-07        -0.47574E-09         0.00000E+00
    0.54818E-07        -0.48245E-09         0.00000E+00
    0.54832E-07        -0.48751E-09         0.00000E+00
    0.54846E-07        -0.49095E-09         0.00000E+00
    0.54859E-07        -0.49276E-09         0.00000E+00
    0.54873E-07        -0.49298E-09         0.00000E+00
    0.54887E-07        -0.49161E-09         0.00000E+00
    0.54900E-07        -0.48867E-09         0.00000E+00
    0.54914E-07        -0.48418E-09         0.00000E+00
    0.54927E-07        -0.47814E-09         0.00000E+00
    0.54940E-07        -0.47057E-09         0.00000E+00
    0.54952E-07        -0.46148E-09         0.00000E+00
    0.54965E-07        -0.45090E-09         0.00000E+00
    0.54977E-07        -0.43883E-09         0.00000E+00
    0.54988E-07        -0.42528E-09         0.00000E+00
    0.54999E-07        -0.41028E-09         0.00000E+00
    0.55010E-07        -0.39382E-09         0.00000E+00
    0.55020E-07        -0.37593E-09         0.00000E+00
    0.55029E-07        -0.35663E-09         0.00000E+00
    0.55038E-07        -0.33591E-09         0.00000E+00
    0.55047E-07        -0.31379E-09         0.00000E+00
    0.55055E-07        -0.29029E-09         0.00000E+00
    0.55062E-07        -0.26542E-09         0.00000E+00
    0.55068E-07        -0.23919E-09         0.00000E+00
    0.55074E-07        -0.21160E-09         0.00000E+00
    0.55079E-07        -0.18268E-09         0.00000E+00
    0.55083E-07        -0.15242E-09         0.00000E+00
    0.55086E-07        -0.12085E-09         0.00000E+00
    0.55089E-07        -0.87975E-10         0.00000E+00
    0.55091E-07        -0.53799E-10         0.00000E+00
    0.55092E-07        -0.18335E-10         0.00000E+00
    0.57698E-07        -0.24129E-10         0.00000E+00
    0.57699E-07        -0.70780E-10         0.00000E+00
    0.57702E-07        -0.11521E-09         0.00000E+00
    0.57706E-07        -0.15743E-09         0.00000E+00
    0.57711E-07        -0.19746E-09         0.00000E+00
    0.57717E-07        -0.23530E-09         0.00000E+00
    0.57725E-07        -0.27096E-09         0.00000E+00
    0.57733E-07        -0.30447E-09         0.00000E+00
    0.57742E-07        -0.33584E-09         0.00000E+00
    0.57751E-07        -0.36509E-09         0.00000E+00
    0.57762E-07        -0.39223E-09         0.00000E+00
    0.57773E-07        -0.41728E-09         0.00000E+00
    0.57785E-07        -0.44027E-09         0.00000E+00
    0.57797E-07        -0.46121E-09         0.00000E+00
    0.57809E-07        -0.48012E-09         0.00000E+00
    0.57822E-07        -0.49702E-09         0.00000E+00
    0.57835E-07        -0.51194E-09         0.00000E+00
    0.57849E-07        -0.52489E-09         0.00000E+00
    0.57863E-07        -0.53590E-09         0.00000E+00
    0.57877E-07        -0.54499E-09         0.00000E+00
    0.57891E-07        -0.55217E-09         0.00000E+00
    0.57905E-07        -0.55748E-09         0.00000E+00
    0.57919E-07        -0.56093E-09         0.00000E+00
    0.57933E-07        -0.56254E-09         0.00000E+00
    0.57947E-07        -0.56233E-09         0.00000E+00
    0.57961E-07        -0.56033E-09         0.00000E+00
    0.57975E-07        -0.55656E-09         0.00000E+00
    0.57988E-07        -0.55102E-09         0.00000E+00
    0.58002E-07        -0.54376E-09         0.00000E+00
    0.58015E-07        -0.53477E-09         0.00000E+00
    0.58028E-07        -0.52409E-09         0.00000E+00
    0.58040E-07        -0.51173E-09         0.00000E+00
    0.58052E-07        -0.49771E-09         0.00000E+00
    0.58064E-07        -0.48204E-09         0.00000E+00
    0.58075E-07        -0.46475E-09         0.00000E+00
    0.58086E-07        -0.44585E-09         0.00000E+00
    0.58096E-07        -0.42536E-09         0.00000E+00
    0.58106E-07        -0.40329E-09         0.00000E+00
    0.58115E-07        -0.37965E-09         0.00000E+00
    0.58123E-07        -0.35448E-09         0.00000E+00
    0.58131E-07        -0.32777E-09         0.00000E+00
    0.58138E-07        -0.29954E-09         0.00000E+00
    0.58145E-07        -0.26980E-09         0.00000E+00
    0.58150E-07        -0.23858E-09         0.00000E+00
    0.58155E-07        -0.20588E-09         0.00000E+00
    0.58160E-07        -0.17171E-09         0.00000E+00
    0.58163E-07        -0.13609E-09         0.00000E+00
    0.58166E-07        -0.99028E-10         0.00000E+00
    0.58168E-07        -0.60535E-10         0.00000E+00
    0.58169E-07        -0.20622E-10         0.00000E+00
    0.60891E-07        -0.27772E-10         0.00000E+00
    0.60892E-07        -0.81369E-10         0.00000E+00
    0.60895E-07        -0.13229E-09         0.00000E+00
    0.60899E-07        -0.18055E-09         0.00000E+00
    0.60904E-07        -0.22618E-09         0.00000E+00
    0.60911E-07        -0.26922E-09         0.00000E+00
    0.60918E-07        -0.30967E-09         0.00000E+00
    0.60926E-07        -0.34759E-09         0.00000E+00
    0.60935E-07        -0.38298E-09         0.00000E+00
    0.60945E-07        -0.41589E-09         0.00000E+00
    0.60956E-07        -0.44635E-09         0.00000E+00
    0.60967E-07        -0.47438E-09         0.00000E+00
    0.60979E-07        -0.50001E-09         0.00000E+00
    0.60991E-07        -0.52329E-09         0.00000E+00
    0.61003E-07        -0.54423E-09         0.00000E+00
    0.61017E-07        -0.56287E-09         0.00000E+00
    0.61030E-07        -0.57924E-09         0.00000E+00
    0.61043E-07        -0.59338E-09         0.00000E+00
    0.61057E-07        -0.60531E-09         0.00000E+00
    0.61071E-07        -0.61506E-09         0.00000E+00
    0.61085E-07        -0.62266E-09         0.00000E+00
    0.61099E-07        -0.62815E-09         0.00000E+00
    0.61114E-07        -0.63155E-09         0.00000E+00
    0.61128E-07        -0.63289E-09         0.00000E+00
    0.61142E-07        -0.63219E-09         0.00000E+00
    0.61156E-07        -0.62950E-09         0.00000E+00
    0.61169E-07        -0.62483E-09         0.00000E+00
    0.61183E-07        -0.61820E-09         0.00000E+00
    0.61196E-07        -0.60965E-09         0.00000E+00
    0.61209E-07        -0.59920E-09         0.00000E+00
    0.61222E-07        -0.58688E-09         0.00000E+00
    0.61234E-07        -0.57270E-09         0.00000E+00
    0.61246E-07        -0.55669E-09         0.00000E+00
    0.61257E-07        -0.53887E-09         0.00000E+00
    0.61269E-07        -0.51926E-09         0.00000E+00
    0.61279E-07        -0.49789E-09         0.00000E+00
    0.61289E-07        -0.47477E-09         0.00000E+00
    0.61299E-07        -0.44992E-09         0.00000E+00
    0.61308E-07        -0.42336E-09         0.00000E+00
    0.61316E-07        -0.39511E-09         0.00000E+00
    0.61324E-07        -0.36518E-09         0.00000E+00
    0.61331E-07        -0.33359E-09         0.00000E+00
    0.61337E-07        -0.30036E-09         0.00000E+00
    0.61343E-07        -0.26550E-09         0.00000E+00
    0.61348E-07        -0.22903E-09         0.00000E+00
    0.61352E-07        -0.19095E-09         0.00000E+00
    0.61356E-07        -0.15129E-09         0.00000E+00
    0.61358E-07        -0.11005E-09         0.00000E+00
    0.61360E-07        -0.67253E-10         0.00000E+00
    0.61361E-07        -0.22902E-10         0.00000E+00
    0.64200E-07        -0.31473E-10         0.00000E+00
    0.64202E-07        -0.92107E-10         0.00000E+00
    0.64205E-07        -0.14957E-09         0.00000E+00
    0.64209E-07        -0.20392E-09         0.00000E+00
    0.64214E-07        -0.25517E-09         0.00000E+00
    0.64220E-07        -0.30339E-09         0.00000E+00
    0.64228E-07        -0.34862E-09         0.00000E+00
    0.64236E-07        -0.39090E-09         0.00000E+00
    0.64245E-07        -0.43027E-09         0.00000E+00
    0.64255E-07        -0.46678E-09         0.00000E+00
    0.64265E-07        -0.50047E-09         0.00000E+00
    0.64276E-07        -0.53140E-09         0.00000E+00
    0.64288E-07        -0.55960E-09         0.00000E+00
    0.64300E-07        -0.58512E-09         0.00000E+00
    0.64312E-07        -0.60800E-09         0.00000E+00
    0.64325E-07        -0.62828E-09         0.00000E+00
    0.64338E-07        -0.64602E-09         0.00000E+00
    0.64351E-07        -0.66124E-09         0.00000E+00
    0.64365E-07        -0.67399E-09         0.00000E+00
    0.64378E-07        -0.68432E-09         0.00000E+00
    0.64392E-07        -0.69226E-09         0.00000E+00
    0.64406E-07        -0.69785E-09         0.00000E+00
    0.64420E-07        -0.70112E-09         0.00000E+00
    0.64433E-07        -0.70213E-09         0.00000E+00
    0.64447E-07        -0.70089E-09         0.00000E+00
    0.64460E-07        -0.69745E-09         0.00000E+00
    0.64474E-07        -0.69183E-09         0.00000E+00
    0.64487E-07        -0.68408E-09         0.00000E+00
    0.64500E-07        -0.67422E-09         0.00000E+00
    0.64512E-07        -0.66229E-09         0.00000E+00
    0.64524E-07        -0.64831E-09         0.00000E+00
    0.64536E-07        -0.63231E-09         0.00000E+00
    0.64548E-07        -0.61432E-09         0.00000E+00
    0.64559E-07        -0.59437E-09         0.00000E+00
    0.64569E-07        -0.57247E-09         0.00000E+00
    0.64580E-07        -0.54866E-09         0.00000E+00
    0.64589E-07        -0.52295E-09         0.00000E+00
    0.64599E-07        -0.49537E-09         0.00000E+00
    0.64607E-07        -0.46595E-09         0.00000E+00
    0.64615E-07        -0.43469E-09         0.00000E+00
    0.64623E-07        -0.40162E-09         0.00000E+00
    0.64630E-07        -0.36675E-09         0.00000E+00
    0.64636E-07        -0.33011E-09         0.00000E+00
    0.64641E-07        -0.29171E-09         0.00000E+00
    0.64646E-07        -0.25156E-09         0.00000E+00
    0.64650E-07        -0.20968E-09         0.00000E+00
    0.64653E-07        -0.16608E-09         0.00000E+00
    0.64656E-07        -0.12078E-09         0.00000E+00
    0.64657E-07        -0.73792E-10         0.00000E+00
    0.64658E-07        -0.25123E-10         0.00000E+00
    0.67616E-07        -0.35143E-10         0.00000E+00
    0.67617E-07        -0.10274E-09         0.00000E+00
    0.67620E-07        -0.16665E-09         0.00000E+00
    0.67624E-07        -0.22696E-09         0.00000E+00
    0.67629E-07        -0.28371E-09         0.00000E+00
    0.67635E-07        -0.33697E-09         0.00000E+00
    0.67642E-07        -0.38681E-09         0.00000E+00
    0.67650E-07        -0.43328E-09         0.00000E+00
    0.67659E-07        -0.47646E-09         0.00000E+00
    0.67668E-07        -0.51640E-09         0.00000E+00
    0.67678E-07        -0.55317E-09         0.00000E+00
    0.67689E-07        -0.58681E-09         0.00000E+00
    0.67700E-07        -0.61741E-09         0.00000E+00
    0.67711E-07        -0.64500E-09         0.00000E+00
    0.67723E-07        -0.66966E-09         0.00000E+00
    0.67736E-07        -0.69143E-09         0.00000E+00
    0.67748E-07        -0.71038E-09         0.00000E+00
    0.67761E-07        -0.72656E-09         0.00000E+00
    0.67773E-07        -0.74001E-09         0.00000E+00
    0.67786E-07        -0.75080E-09         0.00000E+00
    0.67799E-07        -0.75896E-09         0.00000E+00
    0.67812E-07        -0.76456E-09         0.00000E+00
    0.67825E-07        -0.76764E-09         0.00000E+00
    0.67838E-07        -0.76824E-09         0.00000E+00
    0.67851E-07        -0.76640E-09         0.00000E+00
    0.67863E-07        -0.76217E-09         0.00000E+00
    0.67876E-07        -0.75560E-09         0.00000E+00
    0.67888E-07        -0.74671E-09         0.00000E+00
    0.67900E-07        -0.73555E-09         0.00000E+00
    0.67911E-07        -0.72215E-09         0.00000E+00
    0.67923E-07        -0.70656E-09         0.00000E+00
    0.67934E-07        -0.68879E-09         0.00000E+00
    0.67945E-07        -0.66888E-09         0.00000E+00
    0.67955E-07        -0.64687E-09         0.00000E+00
    0.67965E-07        -0.62278E-09         0.00000E+00
    0.67974E-07        -0.59664E-09         0.00000E+00
    0.67983E-07        -0.56847E-09         0.00000E+00
    0.67992E-07        -0.53829E-09         0.00000E+00
    0.68000E-07        -0.50614E-09         0.00000E+00
    0.68007E-07        -0.47203E-09         0.00000E+00
    0.68014E-07        -0.43599E-09         0.00000E+00
    0.68020E-07        -0.39803E-09         0.00000E+00
    0.68026E-07        -0.35816E-09         0.00000E+00
    0.68031E-07        -0.31642E-09         0.00000E+00
    0.68036E-07        -0.27281E-09         0.00000E+00
    0.68039E-07        -0.22734E-09         0.00000E+00
    0.68042E-07        -0.18004E-09         0.00000E+00
    0.68045E-07        -0.13091E-09         0.00000E+00
    0.68046E-07        -0.79964E-10         0.00000E+00
    0.68047E-07        -0.27219E-10         0.00000E+00
    0.71123E-07        -0.38676E-10         0.00000E+00
    0.71125E-07        -0.11294E-09         0.00000E+00
    0.71127E-07        -0.18301E-09         0.00000E+00
    0.71131E-07        -0.24897E-09         0.00000E+00
    0.71136E-07        -0.31090E-09         0.00000E+00
    0.71141E-07        -0.36889E-09         0.00000E+00
    0.71148E-07        -0.42303E-09         0.00000E+00
    0.71155E-07        -0.47340E-09         0.00000E+00
    0.71163E-07        -0.52007E-09         0.00000E+00
    0.71172E-07        -0.56314E-09         0.00000E+00
    0.71181E-07        -0.60269E-09         0.00000E+00
    0.71191E-07        -0.63878E-09         0.00000E+00
    0.71201E-07        -0.67150E-09         0.00000E+00
    0.71212E-07        -0.70092E-09         0.00000E+00
    0.71223E-07        -0.72711E-09         0.00000E+00
    0.71234E-07        -0.75016E-09         0.00000E+00
    0.71245E-07        -0.77011E-09         0.00000E+00
    0.71256E-07        -0.78705E-09         0.00000E+00
    0.71268E-07        -0.80104E-09         0.00000E+00
    0.71279E-07        -0.81214E-09         0.00000E+00
    0.71291E-07        -0.82041E-09         0.00000E+00
    0.71303E-07        -0.82591E-09         0.00000E+00
    0.71314E-07        -0.82870E-09         0.00000E+00
    0.71326E-07        -0.82883E-09         0.00000E+00
    0.71337E-07        -0.82636E-09         0.00000E+00
    0.71348E-07        -0.82133E-09         0.00000E+00
    0.71359E-07        -0.81380E-09         0.00000E+00
    0.71370E-07        -0.80380E-09         0.00000E+00
    0.71381E-07        -0.79139E-09         0.00000E+00
    0.71391E-07        -0.77660E-09         0.00000E+00
    0.71401E-07        -0.75947E-09         0.00000E+00
    0.71411E-07        -0.74005E-09         0.00000E+00
    0.71421E-07        -0.71836E-09         0.00000E+00
    0.71430E-07        -0.69445E-09         0.00000E+00
    0.71438E-07        -0.66834E-09         0.00000E+00
    0.71447E-07        -0.64005E-09         0.00000E+00
    0.71455E-07        -0.60963E-09         0.00000E+00
    0.71462E-07        -0.57710E-09         0.00000E+00
    0.71469E-07        -0.54247E-09         0.00000E+00
    0.71476E-07        -0.50578E-09         0.00000E+00
    0.71482E-07        -0.46704E-09         0.00000E+00
    0.71487E-07        -0.42628E-09         0.00000E+00
    0.71492E-07        -0.38351E-09         0.00000E+00
    0.71497E-07        -0.33874E-09         0.00000E+00
    0.71501E-07        -0.29200E-09         0.00000E+00
    0.71504E-07        -0.24330E-09         0.00000E+00
    0.71507E-07        -0.19265E-09         0.00000E+00
    0.71509E-07        -0.14006E-09         0.00000E+00
    0.71510E-07        -0.85549E-10         0.00000E+00
    0.71511E-07        -0.29117E-10         0.00000E+00
    0.74705E-07        -0.41940E-10         0.00000E+00
    0.74707E-07        -0.12235E-09         0.00000E+00
    0.74709E-07        -0.19804E-09         0.00000E+00
    0.74712E-07        -0.26912E-09         0.00000E+00
    0.74717E-07        -0.33571E-09         0.00000E+00
    0.74722E-07        -0.39793E-09         0.00000E+00
    0.74727E-07        -0.45587E-09         0.00000E+00
    0.74734E-07        -0.50964E-09         0.00000E+00
    0.74741E-07        -0.55935E-09         0.00000E+00
    0.74748E-07        -0.60511E-09         0.00000E+00
    0.74756E-07        -0.64701E-09         0.00000E+00
    0.74765E-07        -0.68514E-09         0.00000E+00
    0.74774E-07        -0.71961E-09         0.00000E+00
    0.74783E-07        -0.75051E-09         0.00000E+00
    0.74792E-07        -0.77792E-09         0.00000E+00
    0.74801E-07        -0.80193E-09         0.00000E+00
    0.74811E-07        -0.82263E-09         0.00000E+00
    0.74821E-07        -0.84010E-09         0.00000E+00
    0.74830E-07        -0.85441E-09         0.00000E+00
    0.74840E-07        -0.86565E-09         0.00000E+00
    0.74850E-07        -0.87387E-09         0.00000E+00
    0.74860E-07        -0.87916E-09         0.00000E+00
    0.74869E-07        -0.88158E-09         0.00000E+00
    0.74879E-07        -0.88119E-09         0.00000E+00
    0.74888E-07        -0.87806E-09         0.00000E+00
    0.74898E-07        -0.87224E-09         0.00000E+00
    0.74907E-07        -0.86378E-09         0.00000E+00
    0.74916E-07        -0.85274E-09         0.00000E+00
    0.74924E-07        -0.83917E-09         0.00000E+00
    0.74933E-07        -0.82312E-09         0.00000E+00
    0.74941E-07        -0.80463E-09         0.00000E+00
    0.74949E-07        -0.78373E-09         0.00000E+00
    0.74957E-07        -0.76048E-09         0.00000E+00
    0.74964E-07        -0.73490E-09         0.00000E+00
    0.74971E-07        -0.70704E-09         0.00000E+00
    0.74978E-07        -0.67691E-09         0.00000E+00
    0.74985E-07        -0.64456E-09         0.00000E+00
    0.74991E-07        -0.61000E-09         0.00000E+00
    0.74996E-07        -0.57327E-09         0.00000E+00
    0.75002E-07        -0.53438E-09         0.00000E+00
    0.75007E-07        -0.49336E-09         0.00000E+00
    0.75011E-07        -0.45022E-09         0.00000E+00
    0.75015E-07        -0.40499E-09         0.00000E+00
    0.75019E-07        -0.35767E-09         0.00000E+00
    0.75022E-07        -0.30829E-09         0.00000E+00
    0.75025E-07        -0.25685E-09         0.00000E+00
    0.75027E-07        -0.20337E-09         0.00000E+00
    0.75028E-07        -0.14785E-09         0.00000E+00
    0.75030E-07        -0.90302E-10         0.00000E+00
    0.75030E-07        -0.30735E-10         0.00000E+00
    0.78342E-07        -0.44788E-10         0.00000E+00
    0.78343E-07        -0.13051E-09         0.00000E+00
    0.78344E-07        -0.21101E-09         0.00000E+00
    0.78347E-07        -0.28644E-09         0.00000E+00
    0.78351E-07        -0.35693E-09         0.00000E+00
    0.78355E-07        -0.42263E-09         0.00000E+00
    0.78360E-07        -0.48367E-09         0.00000E+00
    0.78365E-07        -0.54018E-09         0.00000E+00
    0.78370E-07        -0.59229E-09         0.00000E+00
    0.78376E-07        -0.64013E-09         0.00000E+00
    0.78383E-07        -0.68381E-09         0.00000E+00
    0.78389E-07        -0.72346E-09         0.00000E+00
    0.78396E-07        -0.75918E-09         0.00000E+00
    0.78403E-07        -0.79110E-09         0.00000E+00
    0.78410E-07        -0.81931E-09         0.00000E+00
    0.78418E-07        -0.84392E-09         0.00000E+00
    0.78425E-07        -0.86503E-09         0.00000E+00
    0.78432E-07        -0.88273E-09         0.00000E+00
    0.78439E-07        -0.89712E-09         0.00000E+00
    0.78447E-07        -0.90828E-09         0.00000E+00
    0.78454E-07        -0.91630E-09         0.00000E+00
    0.78461E-07        -0.92125E-09         0.00000E+00
    0.78468E-07        -0.92321E-09         0.00000E+00
    0.78475E-07        -0.92226E-09         0.00000E+00
    0.78482E-07        -0.91847E-09         0.00000E+00
    0.78489E-07        -0.91189E-09         0.00000E+00
    0.78495E-07        -0.90259E-09         0.00000E+00
    0.78502E-07        -0.89063E-09         0.00000E+00
    0.78508E-07        -0.87607E-09         0.00000E+00
    0.78514E-07        -0.85894E-09         0.00000E+00
    0.78520E-07        -0.83931E-09         0.00000E+00
    0.78526E-07        -0.81722E-09         0.00000E+00
    0.78531E-07        -0.79270E-09         0.00000E+00
    0.78536E-07        -0.76580E-09         0.00000E+00
    0.78541E-07        -0.73656E-09         0.00000E+00
    0.78546E-07        -0.70499E-09         0.00000E+00
    0.78550E-07        -0.67114E-09         0.00000E+00
    0.78555E-07        -0.63503E-09         0.00000E+00
    0.78559E-07        -0.59668E-09         0.00000E+00
    0.78562E-07        -0.55612E-09         0.00000E+00
    0.78566E-07        -0.51336E-09         0.00000E+00
    0.78569E-07        -0.46843E-09         0.00000E+00
    0.78572E-07        -0.42134E-09         0.00000E+00
    0.78574E-07        -0.37209E-09         0.00000E+00
    0.78577E-07        -0.32071E-09         0.00000E+00
    0.78578E-07        -0.26720E-09         0.00000E+00
    0.78580E-07        -0.21156E-09         0.00000E+00
    0.78581E-07        -0.15381E-09         0.00000E+00
    0.78582E-07        -0.93952E-10         0.00000E+00
    0.78582E-07        -0.31981E-10         0.00000E+00
    0.82007E-07        -0.47045E-10         0.00000E+00
    0.82008E-07        -0.13693E-09         0.00000E+00
    0.82010E-07        -0.22113E-09         0.00000E+00
    0.82011E-07        -0.29983E-09         0.00000E+00
    0.82014E-07        -0.37320E-09         0.00000E+00
    0.82017E-07        -0.44140E-09         0.00000E+00
    0.82020E-07        -0.50460E-09         0.00000E+00
    0.82024E-07        -0.56296E-09         0.00000E+00
    0.82027E-07        -0.61664E-09         0.00000E+00
    0.82031E-07        -0.66577E-09         0.00000E+00
    0.82035E-07        -0.71051E-09         0.00000E+00
    0.82040E-07        -0.75099E-09         0.00000E+00
    0.82044E-07        -0.78735E-09         0.00000E+00
    0.82048E-07        -0.81972E-09         0.00000E+00
    0.82053E-07        -0.84822E-09         0.00000E+00
    0.82057E-07        -0.87298E-09         0.00000E+00
    0.82061E-07        -0.89409E-09         0.00000E+00
    0.82066E-07        -0.91169E-09         0.00000E+00
    0.82070E-07        -0.92586E-09         0.00000E+00
    0.82074E-07        -0.93671E-09         0.00000E+00
    0.82078E-07        -0.94433E-09         0.00000E+00
    0.82082E-07        -0.94882E-09         0.00000E+00
    0.82086E-07        -0.95026E-09         0.00000E+00
    0.82090E-07        -0.94873E-09         0.00000E+00
    0.82093E-07        -0.94430E-09         0.00000E+00
    0.82097E-07        -0.93704E-09         0.00000E+00
    0.82100E-07        -0.92704E-09         0.00000E+00
    0.82103E-07        -0.91433E-09         0.00000E+00
    0.82106E-07        -0.89900E-09         0.00000E+00
    0.82109E-07        -0.88108E-09         0.00000E+00
    0.82112E-07        -0.86063E-09         0.00000E+00
    0.82115E-07        -0.83770E-09         0.00000E+00
    0.82118E-07        -0.81232E-09         0.00000E+00
    0.82120E-07        -0.78455E-09         0.00000E+00
    0.82122E-07        -0.75440E-09         0.00000E+00
    0.82125E-07        -0.72192E-09         0.00000E+00
    0.82127E-07        -0.68714E-09         0.00000E+00
    0.82129E-07        -0.65007E-09         0.00000E+00
    0.82130E-07        -0.61075E-09         0.00000E+00
    0.82132E-07        -0.56918E-09         0.00000E+00
    0.82134E-07        -0.52540E-09         0.00000E+00
    0.82135E-07        -0.47940E-09         0.00000E+00
    0.82136E-07        -0.43120E-09         0.00000E+00
    0.82138E-07        -0.38082E-09         0.00000E+00
    0.82139E-07        -0.32825E-09         0.00000E+00
    0.82140E-07        -0.27350E-09         0.00000E+00
    0.82140E-07        -0.21658E-09         0.00000E+00
    0.82141E-07        -0.15748E-09         0.00000E+00
    0.82141E-07        -0.96211E-10         0.00000E+00
    0.82142E-07        -0.32758E-10         0.00000E+00
    0.85675E-07        -0.48523E-10         0.00000E+00
    0.85675E-07        -0.14105E-09         0.00000E+00
    0.85676E-07        -0.22750E-09         0.00000E+00
    0.85677E-07        -0.30809E-09         0.00000E+00
    0.85678E-07        -0.38301E-09         0.00000E+00
    0.85679E-07        -0.45247E-09         0.00000E+00
    0.85681E-07        -0.51665E-09         0.00000E+00
    0.85682E-07        -0.57575E-09         0.00000E+00
    0.85684E-07        -0.62995E-09         0.00000E+00
    0.85685E-07        -0.67942E-09         0.00000E+00
    0.85686E-07        -0.72432E-09         0.00000E+00
    0.85688E-07        -0.76481E-09         0.00000E+00
    0.85689E-07        -0.80106E-09         0.00000E+00
    0.85690E-07        -0.83321E-09         0.00000E+00
    0.85691E-07        -0.86139E-09         0.00000E+00
    0.85692E-07        -0.88575E-09         0.00000E+00
    0.85693E-07        -0.90642E-09         0.00000E+00
    0.85693E-07        -0.92351E-09         0.00000E+00
    0.85693E-07        -0.93714E-09         0.00000E+00
    0.85694E-07        -0.94743E-09         0.00000E+00
    0.85694E-07        -0.95447E-09         0.00000E+00
    0.85694E-07        -0.95837E-09         0.00000E+00
    0.85694E-07        -0.95922E-09         0.00000E+00
    0.85693E-07        -0.95710E-09         0.00000E+00
    0.85693E-07        -0.95211E-09         0.00000E+00
    0.85693E-07        -0.94431E-09         0.00000E+00
    0.85692E-07        -0.93377E-09         0.00000E+00
    0.85691E-07        -0.92057E-09         0.00000E+00
    0.85691E-07        -0.90476E-09         0.00000E+00
    0.85690E-07        -0.88641E-09         0.00000E+00
    0.85689E-07        -0.86555E-09         0.00000E+00
    0.85688E-07        -0.84224E-09         0.00000E+00
    0.85688E-07        -0.81652E-09         0.00000E+00
    0.85687E-07        -0.78843E-09         0.00000E+00
    0.85686E-07        -0.75800E-09         0.00000E+00
    0.85685E-07        -0.72526E-09         0.00000E+00
    0.85684E-07        -0.69024E-09         0.00000E+00
    0.85683E-07        -0.65296E-09         0.00000E+00
    0.85683E-07        -0.61343E-09         0.00000E+00
    0.85682E-07        -0.57169E-09         0.00000E+00
    0.85681E-07        -0.52772E-09         0.00000E+00
    0.85681E-07        -0.48155E-09         0.00000E+00
    0.85680E-07        -0.43319E-09         0.00000E+00
    0.85680E-07        -0.38262E-09         0.00000E+00
    0.85680E-07        -0.32986E-09         0.00000E+00
    0.85679E-07        -0.27490E-09         0.00000E+00
    0.85679E-07        -0.21774E-09         0.00000E+00
    0.85679E-07        -0.15837E-09         0.00000E+00
    0.85679E-07        -0.96779E-10         0.00000E+00
    0.85679E-07        -0.32965E-10         0.00000E+00
    0.89312E-07        -0.49016E-10         0.00000E+00
    0.89312E-07        -0.14229E-09         0.00000E+00
    0.89312E-07        -0.22918E-09         0.00000E+00
    0.89312E-07        -0.30992E-09         0.00000E+00
    0.89311E-07        -0.38478E-09         0.00000E+00
    0.89311E-07        -0.45396E-09         0.00000E+00
    0.89310E-07        -0.51769E-09         0.00000E+00
    0.89309E-07        -0.57620E-09         0.00000E+00
    0.89307E-07        -0.62967E-09         0.00000E+00
    0.89306E-07        -0.67832E-09         0.00000E+00
    0.89304E-07        -0.72233E-09         0.00000E+00
    0.89301E-07        -0.76188E-09         0.00000E+00
    0.89299E-07        -0.79714E-09         0.00000E+00
    0.89296E-07        -0.82828E-09         0.00000E+00
    0.89293E-07        -0.85546E-09         0.00000E+00
    0.89289E-07        -0.87882E-09         0.00000E+00
    0.89286E-07        -0.89851E-09         0.00000E+00
    0.89282E-07        -0.91467E-09         0.00000E+00
    0.89278E-07        -0.92741E-09         0.00000E+00
    0.89273E-07        -0.93686E-09         0.00000E+00
    0.89269E-07        -0.94314E-09         0.00000E+00
    0.89264E-07        -0.94634E-09         0.00000E+00
    0.89259E-07        -0.94656E-09         0.00000E+00
    0.89255E-07        -0.94391E-09         0.00000E+00
    0.89250E-07        -0.93845E-09         0.00000E+00
    0.89244E-07        -0.93029E-09         0.00000E+00
    0.89239E-07        -0.91948E-09         0.00000E+00
    0.89234E-07        -0.90609E-09         0.00000E+00
    0.89229E-07        -0.89019E-09         0.00000E+00
    0.89224E-07        -0.87184E-09         0.00000E+00
    0.89219E-07        -0.85107E-09         0.00000E+00
    0.89214E-07        -0.82795E-09         0.00000E+00
    0.89209E-07        -0.80250E-09         0.00000E+00
    0.89205E-07        -0.77477E-09         0.00000E+00
    0.89200E-07        -0.74478E-09         0.00000E+00
    0.89196E-07        -0.71257E-09         0.00000E+00
    0.89192E-07        -0.67814E-09         0.00000E+00
    0.89188E-07        -0.64153E-09         0.00000E+00
    0.89184E-07        -0.60273E-09         0.00000E+00
    0.89180E-07        -0.56177E-09         0.00000E+00
    0.89177E-07        -0.51864E-09         0.00000E+00
    0.89174E-07        -0.47336E-09         0.00000E+00
    0.89172E-07        -0.42591E-09         0.00000E+00
    0.89170E-07        -0.37629E-09         0.00000E+00
    0.89168E-07        -0.32450E-09         0.00000E+00
    0.89166E-07        -0.27053E-09         0.00000E+00
    0.89165E-07        -0.21436E-09         0.00000E+00
    0.89164E-07        -0.15598E-09         0.00000E+00
    0.89163E-07        -0.95364E-10         0.00000E+00
    0.89163E-07        -0.32502E-10         0.00000E+00
    0.92883E-07        -0.48309E-10         0.00000E+00
    0.92883E-07        -0.14002E-09         0.00000E+00
    0.92882E-07        -0.22516E-09         0.00000E+00
    0.92880E-07        -0.30402E-09         0.00000E+00
    0.92878E-07        -0.37687E-09         0.00000E+00
    0.92875E-07        -0.44397E-09         0.00000E+00
    0.92871E-07        -0.50558E-09         0.00000E+00
    0.92867E-07        -0.56192E-09         0.00000E+00
    0.92862E-07        -0.61324E-09         0.00000E+00
    0.92857E-07        -0.65974E-09         0.00000E+00
    0.92851E-07        -0.70165E-09         0.00000E+00
    0.92845E-07        -0.73916E-09         0.00000E+00
    0.92838E-07        -0.77246E-09         0.00000E+00
    0.92830E-07        -0.80173E-09         0.00000E+00
    0.92823E-07        -0.82714E-09         0.00000E+00
    0.92814E-07        -0.84885E-09         0.00000E+00
    0.92806E-07        -0.86701E-09         0.00000E+00
    0.92797E-07        -0.88177E-09         0.00000E+00
    0.92787E-07        -0.89326E-09         0.00000E+00
    0.92778E-07        -0.90161E-09         0.00000E+00
    0.92768E-07        -0.90694E-09         0.00000E+00
    0.92758E-07        -0.90936E-09         0.00000E+00
    0.92748E-07        -0.90896E-09         0.00000E+00
    0.92738E-07        -0.90584E-09         0.00000E+00
    0.92727E-07        -0.90010E-09         0.00000E+00
    0.92717E-07        -0.89181E-09         0.00000E+00
    0.92707E-07        -0.88104E-09         0.00000E+00
    0.92697E-07        -0.86786E-09         0.00000E+00
    0.92687E-07        -0.85233E-09         0.00000E+00
    0.92677E-07        -0.83451E-09         0.00000E+00
    0.92667E-07        -0.81444E-09         0.00000E+00
    0.92657E-07        -0.79216E-09         0.00000E+00
    0.92648E-07        -0.76771E-09         0.00000E+00
    0.92639E-07        -0.74113E-09         0.00000E+00
    0.92630E-07        -0.71243E-09         0.00000E+00
    0.92622E-07        -0.68163E-09         0.00000E+00
    0.92614E-07        -0.64875E-09         0.00000E+00
    0.92607E-07        -0.61381E-09         0.00000E+00
    0.92600E-07        -0.57680E-09         0.00000E+00
    0.92593E-07        -0.53773E-09         0.00000E+00
    0.92587E-07        -0.49659E-09         0.00000E+00
    0.92582E-07        -0.45339E-09         0.00000E+00
    0.92577E-07        -0.40810E-09         0.00000E+00
    0.92572E-07        -0.36072E-09         0.00000E+00
    0.92568E-07        -0.31123E-09         0.00000E+00
    0.92565E-07        -0.25960E-09         0.00000E+00
    0.92563E-07        -0.20582E-09         0.00000E+00
    0.92561E-07        -0.14986E-09         0.00000E+00
    0.92559E-07        -0.91689E-10         0.00000E+00
    0.92559E-07        -0.31278E-10         0.00000E+00
    0.96349E-07        -0.46191E-10         0.00000E+00
    0.96347E-07        -0.13363E-09         0.00000E+00
    0.96345E-07        -0.21449E-09         0.00000E+00
    0.96342E-07        -0.28909E-09         0.00000E+00
    0.96337E-07        -0.35772E-09         0.00000E+00
    0.96332E-07        -0.42068E-09         0.00000E+00
    0.96325E-07        -0.47825E-09         0.00000E+00
    0.96318E-07        -0.53068E-09         0.00000E+00
    0.96309E-07        -0.57823E-09         0.00000E+00
    0.96300E-07        -0.62113E-09         0.00000E+00
    0.96289E-07        -0.65962E-09         0.00000E+00
    0.96278E-07        -0.69390E-09         0.00000E+00
    0.96267E-07        -0.72418E-09         0.00000E+00
    0.96254E-07        -0.75064E-09         0.00000E+00
    0.96241E-07        -0.77348E-09         0.00000E+00
    0.96227E-07        -0.79285E-09         0.00000E+00
    0.96213E-07        -0.80891E-09         0.00000E+00
    0.96199E-07        -0.82183E-09         0.00000E+00
    0.96184E-07        -0.83172E-09         0.00000E+00
    0.96168E-07        -0.83873E-09         0.00000E+00
    0.96153E-07        -0.84296E-09         0.00000E+00
    0.96137E-07        -0.84454E-09         0.00000E+00
    0.96121E-07        -0.84357E-09         0.00000E+00
    0.96105E-07        -0.84013E-09         0.00000E+00
    0.96089E-07        -0.83432E-09         0.00000E+00
    0.96073E-07        -0.82621E-09         0.00000E+00
    0.96057E-07        -0.81587E-09         0.00000E+00
    0.96041E-07        -0.80336E-09         0.00000E+00
    0.96026E-07        -0.78874E-09         0.00000E+00
    0.96011E-07        -0.77206E-09         0.00000E+00
    0.95996E-07        -0.75337E-09         0.00000E+00
    0.95981E-07        -0.73268E-09         0.00000E+00
    0.95967E-07        -0.71005E-09         0.00000E+00
    0.95953E-07        -0.68548E-09         0.00000E+00
    0.95940E-07        -0.65900E-09         0.00000E+00
    0.95928E-07        -0.63062E-09         0.00000E+00
    0.95916E-07        -0.60035E-09         0.00000E+00
    0.95904E-07        -0.56818E-09         0.00000E+00
    0.95894E-07        -0.53412E-09         0.00000E+00
    0.95884E-07        -0.49816E-09         0.00000E+00
    0.95875E-07        -0.46028E-09         0.00000E+00
    0.95866E-07        -0.42048E-09         0.00000E+00
    0.95859E-07        -0.37872E-09         0.00000E+00
    0.95852E-07        -0.33498E-09         0.00000E+00
    0.95846E-07        -0.28923E-09         0.00000E+00
    0.95841E-07        -0.24145E-09         0.00000E+00
    0.95838E-07        -0.19160E-09         0.00000E+00
    0.95835E-07        -0.13964E-09         0.00000E+00
    0.95833E-07        -0.85524E-10         0.00000E+00
    0.95832E-07        -0.29213E-10         0.00000E+00
    0.99664E-07        -0.42466E-10         0.00000E+00
    0.99663E-07        -0.12258E-09         0.00000E+00
    0.99659E-07        -0.19630E-09         0.00000E+00
    0.99654E-07        -0.26398E-09         0.00000E+00
    0.99647E-07        -0.32594E-09         0.00000E+00
    0.99639E-07        -0.38249E-09         0.00000E+00
    0.99629E-07        -0.43394E-09         0.00000E+00
    0.99617E-07        -0.48056E-09         0.00000E+00
    0.99605E-07        -0.52262E-09         0.00000E+00
    0.99591E-07        -0.56036E-09         0.00000E+00
    0.99576E-07        -0.59403E-09         0.00000E+00
    0.99560E-07        -0.62385E-09         0.00000E+00
    0.99543E-07        -0.65002E-09         0.00000E+00
    0.99525E-07        -0.67274E-09         0.00000E+00
    0.99506E-07        -0.69220E-09         0.00000E+00
    0.99487E-07        -0.70856E-09         0.00000E+00
    0.99466E-07        -0.72199E-09         0.00000E+00
    0.99446E-07        -0.73263E-09         0.00000E+00
    0.99425E-07        -0.74062E-09         0.00000E+00
    0.99403E-07        -0.74608E-09         0.00000E+00
    0.99382E-07        -0.74914E-09         0.00000E+00
    0.99360E-07        -0.74990E-09         0.00000E+00
    0.99338E-07        -0.74846E-09         0.00000E+00
    0.99316E-07        -0.74490E-09         0.00000E+00
    0.99294E-07        -0.73930E-09         0.00000E+00
    0.99272E-07        -0.73174E-09         0.00000E+00
    0.99250E-07        -0.72228E-09         0.00000E+00
    0.99229E-07        -0.71097E-09         0.00000E+00
    0.99207E-07        -0.69787E-09         0.00000E+00
    0.99187E-07        -0.68301E-09         0.00000E+00
    0.99166E-07        -0.66643E-09         0.00000E+00
    0.99147E-07        -0.64815E-09         0.00000E+00
    0.99128E-07        -0.62820E-09         0.00000E+00
    0.99109E-07        -0.60659E-09         0.00000E+00
    0.99091E-07        -0.58333E-09         0.00000E+00
    0.99074E-07        -0.55843E-09         0.00000E+00
    0.99058E-07        -0.53187E-09         0.00000E+00
    0.99043E-07        -0.50366E-09         0.00000E+00
    0.99028E-07        -0.47377E-09         0.00000E+00
    0.99015E-07        -0.44220E-09         0.00000E+00
    0.99003E-07        -0.40891E-09         0.00000E+00
    0.98992E-07        -0.37388E-09         0.00000E+00
    0.98981E-07        -0.33708E-09         0.00000E+00
    0.98972E-07        -0.29847E-09         0.00000E+00
    0.98965E-07        -0.25801E-09         0.00000E+00
    0.98958E-07        -0.21565E-09         0.00000E+00
    0.98953E-07        -0.17135E-09         0.00000E+00
    0.98949E-07        -0.12506E-09         0.00000E+00
    0.98946E-07        -0.76710E-10         0.00000E+00
    0.98945E-07        -0.26253E-10         0.00000E+00
    0.10278E-06        -0.36973E-10         0.00000E+00
    0.10278E-06        -0.10641E-09         0.00000E+00
    0.10278E-06        -0.16989E-09         0.00000E+00
    0.10277E-06        -0.22780E-09         0.00000E+00
    0.10276E-06        -0.28047E-09         0.00000E+00
    0.10275E-06        -0.32823E-09         0.00000E+00
    0.10273E-06        -0.37139E-09         0.00000E+00
    0.10272E-06        -0.41023E-09         0.00000E+00
    0.10270E-06        -0.44504E-09         0.00000E+00
    0.10268E-06        -0.47606E-09         0.00000E+00
    0.10266E-06        -0.50353E-09         0.00000E+00
    0.10264E-06        -0.52767E-09         0.00000E+00
    0.10262E-06        -0.54869E-09         0.00000E+00
    0.10260E-06        -0.56679E-09         0.00000E+00
    0.10257E-06        -0.58213E-09         0.00000E+00
    0.10255E-06        -0.59489E-09         0.00000E+00
    0.10252E-06        -0.60521E-09         0.00000E+00
    0.10249E-06        -0.61325E-09         0.00000E+00
    0.10247E-06        -0.61911E-09         0.00000E+00
    0.10244E-06        -0.62293E-09         0.00000E+00
    0.10241E-06        -0.62481E-09         0.00000E+00
    0.10238E-06        -0.62484E-09         0.00000E+00
    0.10236E-06        -0.62311E-09         0.00000E+00
    0.10233E-06        -0.61970E-09         0.00000E+00
    0.10230E-06        -0.61468E-09         0.00000E+00
    0.10227E-06        -0.60810E-09         0.00000E+00
    0.10225E-06        -0.60003E-09         0.00000E+00
    0.10222E-06        -0.59050E-09         0.00000E+00
    0.10219E-06        -0.57956E-09         0.00000E+00
    0.10217E-06        -0.56722E-09         0.00000E+00
    0.10214E-06        -0.55353E-09         0.00000E+00
    0.10212E-06        -0.53848E-09         0.00000E+00
    0.10209E-06        -0.52211E-09         0.00000E+00
    0.10207E-06        -0.50440E-09         0.00000E+00
    0.10205E-06        -0.48536E-09         0.00000E+00
    0.10202E-06        -0.46498E-09         0.00000E+00
    0.10200E-06        -0.44325E-09         0.00000E+00
    0.10198E-06        -0.42015E-09         0.00000E+00
    0.10197E-06        -0.39566E-09         0.00000E+00
    0.10195E-06        -0.36974E-09         0.00000E+00
    0.10193E-06        -0.34236E-09         0.00000E+00
    0.10192E-06        -0.31349E-09         0.00000E+00
    0.10191E-06        -0.28308E-09         0.00000E+00
    0.10190E-06        -0.25108E-09         0.00000E+00
    0.10189E-06        -0.21743E-09         0.00000E+00
    0.10188E-06        -0.18208E-09         0.00000E+00
    0.10187E-06        -0.14497E-09         0.00000E+00
    0.10187E-06        -0.10603E-09         0.00000E+00
    0.10186E-06        -0.65193E-10         0.00000E+00
    0.10186E-06        -0.22376E-10         0.00000E+00
    0.10566E-06        -0.29610E-10         0.00000E+00
    0.10565E-06        -0.84847E-10         0.00000E+00
    0.10565E-06        -0.13488E-09         0.00000E+00
    0.10564E-06        -0.18009E-09         0.00000E+00
    0.10563E-06        -0.22082E-09         0.00000E+00
    0.10561E-06        -0.25740E-09         0.00000E+00
    0.10560E-06        -0.29014E-09         0.00000E+00
    0.10558E-06        -0.31932E-09         0.00000E+00
    0.10555E-06        -0.34520E-09         0.00000E+00
    0.10553E-06        -0.36804E-09         0.00000E+00
    0.10551E-06        -0.38805E-09         0.00000E+00
    0.10548E-06        -0.40545E-09         0.00000E+00
    0.10545E-06        -0.42043E-09         0.00000E+00
    0.10542E-06        -0.43317E-09         0.00000E+00
    0.10539E-06        -0.44382E-09         0.00000E+00
    0.10536E-06        -0.45254E-09         0.00000E+00
    0.10533E-06        -0.45945E-09         0.00000E+00
    0.10530E-06        -0.46469E-09         0.00000E+00
    0.10527E-06        -0.46835E-09         0.00000E+00
    0.10523E-06        -0.47055E-09         0.00000E+00
    0.10520E-06        -0.47136E-09         0.00000E+00
    0.10517E-06        -0.47086E-09         0.00000E+00
    0.10513E-06        -0.46913E-09         0.00000E+00
    0.10510E-06        -0.46623E-09         0.00000E+00
    0.10507E-06        -0.46220E-09         0.00000E+00
    0.10503E-06        -0.45709E-09         0.00000E+00
    0.10500E-06        -0.45094E-09         0.00000E+00
    0.10497E-06        -0.44378E-09         0.00000E+00
    0.10494E-06        -0.43564E-09         0.00000E+00
    0.10491E-06        -0.42652E-09         0.00000E+00
    0.10488E-06        -0.41645E-09         0.00000E+00
    0.10485E-06        -0.40543E-09         0.00000E+00
    0.10482E-06        -0.39346E-09         0.00000E+00
    0.10479E-06        -0.38052E-09         0.00000E+00
    0.10477E-06        -0.36662E-09         0.00000E+00
    0.10474E-06        -0.35173E-09         0.00000E+00
    0.10472E-06        -0.33584E-09         0.00000E+00
    0.10469E-06        -0.31891E-09         0.00000E+00
    0.10467E-06        -0.30091E-09         0.00000E+00
    0.10465E-06        -0.28180E-09         0.00000E+00
    0.10463E-06        -0.26155E-09         0.00000E+00
    0.10462E-06        -0.24009E-09         0.00000E+00
    0.10460E-06        -0.21738E-09         0.00000E+00
    0.10459E-06        -0.19335E-09         0.00000E+00
    0.10458E-06        -0.16795E-09         0.00000E+00
    0.10457E-06        -0.14110E-09         0.00000E+00
    0.10456E-06        -0.11272E-09         0.00000E+00
    0.10455E-06        -0.82739E-10         0.00000E+00
    0.10455E-06        -0.51066E-10         0.00000E+00
    0.10455E-06        -0.17612E-10         0.00000E+00
    0.10823E-06        -0.20367E-10         0.00000E+00
    0.10823E-06        -0.57912E-10         0.00000E+00
    0.10822E-06        -0.91352E-10         0.00000E+00
    0.10821E-06        -0.12105E-09         0.00000E+00
    0.10820E-06        -0.14735E-09         0.00000E+00
    0.10818E-06        -0.17056E-09         0.00000E+00
    0.10816E-06        -0.19096E-09         0.00000E+00
    0.10813E-06        -0.20882E-09         0.00000E+00
    0.10811E-06        -0.22438E-09         0.00000E+00
    0.10808E-06        -0.23786E-09         0.00000E+00
    0.10805E-06        -0.24944E-09         0.00000E+00
    0.10802E-06        -0.25933E-09         0.00000E+00
    0.10799E-06        -0.26766E-09         0.00000E+00
    0.10796E-06        -0.27460E-09         0.00000E+00
    0.10792E-06        -0.28026E-09         0.00000E+00
    0.10789E-06        -0.28477E-09         0.00000E+00
    0.10785E-06        -0.28822E-09         0.00000E+00
    0.10781E-06        -0.29071E-09         0.00000E+00
    0.10778E-06        -0.29231E-09         0.00000E+00
    0.10774E-06        -0.29309E-09         0.00000E+00
    0.10770E-06        -0.29312E-09         0.00000E+00
    0.10766E-06        -0.29244E-09         0.00000E+00
    0.10763E-06        -0.29110E-09         0.00000E+00
    0.10759E-06        -0.28913E-09         0.00000E+00
    0.10755E-06        -0.28657E-09         0.00000E+00
    0.10751E-06        -0.28343E-09         0.00000E+00
    0.10748E-06        -0.27974E-09         0.00000E+00
    0.10744E-06        -0.27551E-09         0.00000E+00
    0.10741E-06        -0.27074E-09         0.00000E+00
    0.10737E-06        -0.26545E-09         0.00000E+00
    0.10734E-06        -0.25963E-09         0.00000E+00
    0.10731E-06        -0.25327E-09         0.00000E+00
    0.10728E-06        -0.24636E-09         0.00000E+00
    0.10724E-06        -0.23889E-09         0.00000E+00
    0.10722E-06        -0.23085E-09         0.00000E+00
    0.10719E-06        -0.22219E-09         0.00000E+00
    0.10716E-06        -0.21291E-09         0.00000E+00
    0.10714E-06        -0.20296E-09         0.00000E+00
    0.10711E-06        -0.19231E-09         0.00000E+00
    0.10709E-06        -0.18091E-09         0.00000E+00
    0.10707E-06        -0.16871E-09         0.00000E+00
    0.10705E-06        -0.15566E-09         0.00000E+00
    0.10703E-06        -0.14170E-09         0.00000E+00
    0.10702E-06        -0.12676E-09         0.00000E+00
    0.10701E-06        -0.11077E-09         0.00000E+00
    0.10699E-06        -0.93652E-10         0.00000E+00
    0.10699E-06        -0.75314E-10         0.00000E+00
    0.10698E-06        -0.55667E-10         0.00000E+00
    0.10697E-06        -0.34614E-10         0.00000E+00
    0.10697E-06        -0.12048E-10         0.00000E+00
    0.11046E-06        -0.93670E-11         0.00000E+00
    0.11045E-06        -0.26012E-10         0.00000E+00
    0.11044E-06        -0.40053E-10         0.00000E+00
    0.11043E-06        -0.51823E-10         0.00000E+00
    0.11041E-06        -0.61621E-10         0.00000E+00
    0.11039E-06        -0.69719E-10         0.00000E+00
    0.11037E-06        -0.76358E-10         0.00000E+00
    0.11034E-06        -0.81753E-10         0.00000E+00
    0.11032E-06        -0.86094E-10         0.00000E+00
    0.11029E-06        -0.89546E-10         0.00000E+00
    0.11025E-06        -0.92256E-10         0.00000E+00
    0.11022E-06        -0.94347E-10         0.00000E+00
    0.11019E-06        -0.95927E-10         0.00000E+00
    0.11015E-06        -0.97087E-10         0.00000E+00
    0.11011E-06        -0.97904E-10         0.00000E+00
    0.11007E-06        -0.98440E-10         0.00000E+00
    0.11003E-06        -0.98748E-10         0.00000E+00
    0.10999E-06        -0.98870E-10         0.00000E+00
    0.10995E-06        -0.98839E-10         0.00000E+00
    0.10991E-06        -0.98680E-10         0.00000E+00
    0.10987E-06        -0.98414E-10         0.00000E+00
    0.10983E-06        -0.98053E-10         0.00000E+00
    0.10979E-06        -0.97607E-10         0.00000E+00
    0.10976E-06        -0.97080E-10         0.00000E+00
    0.10972E-06        -0.96474E-10         0.00000E+00
    0.10968E-06        -0.95788E-10         0.00000E+00
    0.10964E-06        -0.95017E-10         0.00000E+00
    0.10960E-06        -0.94155E-10         0.00000E+00
    0.10957E-06        -0.93194E-10         0.00000E+00
    0.10953E-06        -0.92124E-10         0.00000E+00
    0.10949E-06        -0.90932E-10         0.00000E+00
    0.10946E-06        -0.89604E-10         0.00000E+00
    0.10943E-06        -0.88123E-10         0.00000E+00
    0.10940E-06        -0.86471E-10         0.00000E+00
    0.10937E-06        -0.84626E-10         0.00000E+00
    0.10934E-06        -0.82564E-10         0.00000E+00
    0.10931E-06        -0.80256E-10         0.00000E+00
    0.10928E-06        -0.77670E-10         0.00000E+00
    0.10926E-06        -0.74770E-10         0.00000E+00
    0.10923E-06        -0.71516E-10         0.00000E+00
    0.10921E-06        -0.67859E-10         0.00000E+00
    0.10919E-06        -0.63748E-10         0.00000E+00
    0.10917E-06        -0.59124E-10         0.00000E+00
    0.10916E-06        -0.53921E-10         0.00000E+00
    0.10914E-06        -0.48065E-10         0.00000E+00
    0.10913E-06        -0.41475E-10         0.00000E+00
    0.10912E-06        -0.34062E-10         0.00000E+00
    0.10912E-06        -0.25727E-10         0.00000E+00
    0.10911E-06        -0.16363E-10         0.00000E+00
    0.10911E-06        -0.58536E-11         0.00000E+00
    0.11227E-06         0.30847E-11         0.00000E+00
    0.11227E-06         0.98800E-11         0.00000E+00
    0.11226E-06         0.17318E-10         0.00000E+00
    0.11224E-06         0.25132E-10         0.00000E+00
    0.11222E-06         0.33093E-10         0.00000E+00
    0.11220E-06         0.41005E-10         0.00000E+00
    0.11218E-06         0.48708E-10         0.00000E+00
    0.11215E-06         0.56070E-10         0.00000E+00
    0.11212E-06         0.62988E-10         0.00000E+00
    0.11209E-06         0.69383E-10         0.00000E+00
    0.11206E-06         0.75197E-10         0.00000E+00
    0.11202E-06         0.80390E-10         0.00000E+00
    0.11199E-06         0.84942E-10         0.00000E+00
    0.11195E-06         0.88843E-10         0.00000E+00
    0.11191E-06         0.92097E-10         0.00000E+00
    0.11187E-06         0.94717E-10         0.00000E+00
    0.11184E-06         0.96723E-10         0.00000E+00
    0.11180E-06         0.98139E-10         0.00000E+00
    0.11176E-06         0.98997E-10         0.00000E+00
    0.11172E-06         0.99328E-10         0.00000E+00
    0.11168E-06         0.99165E-10         0.00000E+00
    0.11164E-06         0.98544E-10         0.00000E+00
    0.11160E-06         0.97497E-10         0.00000E+00
    0.11156E-06         0.96058E-10         0.00000E+00
    0.11153E-06         0.94257E-10         0.00000E+00
    0.11149E-06         0.92124E-10         0.00000E+00
    0.11145E-06         0.89687E-10         0.00000E+00
    0.11142E-06         0.86970E-10         0.00000E+00
    0.11138E-06         0.83997E-10         0.00000E+00
    0.11135E-06         0.80788E-10         0.00000E+00
    0.11131E-06         0.77362E-10         0.00000E+00
    0.11128E-06         0.73737E-10         0.00000E+00
    0.11125E-06         0.69927E-10         0.00000E+00
    0.11122E-06         0.65949E-10         0.00000E+00
    0.11119E-06         0.61818E-10         0.00000E+00
    0.11116E-06         0.57548E-10         0.00000E+00
    0.11114E-06         0.53158E-10         0.00000E+00
    0.11111E-06         0.48665E-10         0.00000E+00
    0.11109E-06         0.44091E-10         0.00000E+00
    0.11106E-06         0.39462E-10         0.00000E+00
    0.11104E-06         0.34809E-10         0.00000E+00
    0.11102E-06         0.30169E-10         0.00000E+00
    0.11100E-06         0.25585E-10         0.00000E+00
    0.11099E-06         0.21109E-10         0.00000E+00
    0.11097E-06         0.16803E-10         0.00000E+00
    0.11096E-06         0.12738E-10         0.00000E+00
    0.11095E-06         0.89948E-11         0.00000E+00
    0.11095E-06         0.56694E-11         0.00000E+00
    0.11094E-06         0.28693E-11         0.00000E+00
    0.11094E-06         0.71486E-12         0.00000E+00
    0.11362E-06         0.16392E-10         0.00000E+00
    0.11362E-06         0.47973E-10         0.00000E+00
    0.11361E-06         0.77703E-10         0.00000E+00
    0.11359E-06         0.10542E-09         0.00000E+00
    0.11358E-06         0.13103E-09         0.00000E+00
    0.11355E-06         0.15447E-09         0.00000E+00
    0.11353E-06         0.17571E-09         0.00000E+00
    0.11350E-06         0.19475E-09         0.00000E+00
    0.11348E-06         0.21165E-09         0.00000E+00
    0.11345E-06         0.22644E-09         0.00000E+00
    0.11342E-06         0.23921E-09         0.00000E+00
    0.11338E-06         0.25006E-09         0.00000E+00
    0.11335E-06         0.25909E-09         0.00000E+00
    0.11332E-06         0.26640E-09         0.00000E+00
    0.11328E-06         0.27213E-09         0.00000E+00
    0.11325E-06         0.27637E-09         0.00000E+00
    0.11322E-06         0.27926E-09         0.00000E+00
    0.11318E-06         0.28089E-09         0.00000E+00
    0.11315E-06         0.28138E-09         0.00000E+00
    0.11311E-06         0.28084E-09         0.00000E+00
    0.11308E-06         0.27934E-09         0.00000E+00
    0.11305E-06         0.27699E-09         0.00000E+00
    0.11302E-06         0.27386E-09         0.00000E+00
    0.11298E-06         0.27003E-09         0.00000E+00
    0.11295E-06         0.26555E-09         0.00000E+00
    0.11292E-06         0.26048E-09         0.00000E+00
    0.11289E-06         0.25487E-09         0.00000E+00
    0.11286E-06         0.24877E-09         0.00000E+00
    0.11283E-06         0.24219E-09         0.00000E+00
    0.11280E-06         0.23517E-09         0.00000E+00
    0.11278E-06         0.22773E-09         0.00000E+00
    0.11275E-06         0.21988E-09         0.00000E+00
    0.11272E-06         0.21161E-09         0.00000E+00
    0.11270E-06         0.20295E-09         0.00000E+00
    0.11267E-06         0.19387E-09         0.00000E+00
    0.11265E-06         0.18438E-09         0.00000E+00
    0.11263E-06         0.17446E-09         0.00000E+00
    0.11260E-06         0.16411E-09         0.00000E+00
    0.11258E-06         0.15331E-09         0.00000E+00
    0.11256E-06         0.14205E-09         0.00000E+00
    0.11255E-06         0.13034E-09         0.00000E+00
    0.11253E-06         0.11816E-09         0.00000E+00
    0.11251E-06         0.10552E-09         0.00000E+00
    0.11250E-06         0.92444E-10         0.00000E+00
    0.11249E-06         0.78956E-10         0.00000E+00
    0.11247E-06         0.65096E-10         0.00000E+00
    0.11247E-06         0.50918E-10         0.00000E+00
    0.11246E-06         0.36491E-10         0.00000E+00
    0.11245E-06         0.21904E-10         0.00000E+00
    0.11245E-06         0.72677E-11         0.00000E+00
    0.11445E-06         0.29662E-10         0.00000E+00
    0.11445E-06         0.85269E-10         0.00000E+00
    0.11444E-06         0.13588E-09         0.00000E+00
    0.11443E-06         0.18158E-09         0.00000E+00
    0.11441E-06         0.22248E-09         0.00000E+00
    0.11439E-06         0.25872E-09         0.00000E+00
    0.11437E-06         0.29050E-09         0.00000E+00
    0.11435E-06         0.31805E-09         0.00000E+00
    0.11433E-06         0.34163E-09         0.00000E+00
    0.11431E-06         0.36152E-09         0.00000E+00
    0.11428E-06         0.37802E-09         0.00000E+00
    0.11426E-06         0.39141E-09         0.00000E+00
    0.11423E-06         0.40198E-09         0.00000E+00
    0.11421E-06         0.40999E-09         0.00000E+00
    0.11419E-06         0.41571E-09         0.00000E+00
    0.11416E-06         0.41936E-09         0.00000E+00
    0.11414E-06         0.42119E-09         0.00000E+00
    0.11412E-06         0.42138E-09         0.00000E+00
    0.11410E-06         0.42012E-09         0.00000E+00
    0.11407E-06         0.41759E-09         0.00000E+00
    0.11405E-06         0.41393E-09         0.00000E+00
    0.11403E-06         0.40927E-09         0.00000E+00
    0.11401E-06         0.40373E-09         0.00000E+00
    0.11399E-06         0.39741E-09         0.00000E+00
    0.11397E-06         0.39040E-09         0.00000E+00
    0.11396E-06         0.38277E-09         0.00000E+00
    0.11394E-06         0.37457E-09         0.00000E+00
    0.11392E-06         0.36586E-09         0.00000E+00
    0.11390E-06         0.35667E-09         0.00000E+00
    0.11389E-06         0.34702E-09         0.00000E+00
    0.11387E-06         0.33691E-09         0.00000E+00
    0.11385E-06         0.32636E-09         0.00000E+00
    0.11384E-06         0.31534E-09         0.00000E+00
    0.11382E-06         0.30384E-09         0.00000E+00
    0.11381E-06         0.29183E-09         0.00000E+00
    0.11379E-06         0.27927E-09         0.00000E+00
    0.11378E-06         0.26610E-09         0.00000E+00
    0.11376E-06         0.25228E-09         0.00000E+00
    0.11375E-06         0.23773E-09         0.00000E+00
    0.11374E-06         0.22240E-09         0.00000E+00
    0.11372E-06         0.20621E-09         0.00000E+00
    0.11371E-06         0.18908E-09         0.00000E+00
    0.11370E-06         0.17096E-09         0.00000E+00
    0.11369E-06         0.15179E-09         0.00000E+00
    0.11368E-06         0.13150E-09         0.00000E+00
    0.11367E-06         0.11009E-09         0.00000E+00
    0.11366E-06         0.87533E-10         0.00000E+00
    0.11366E-06         0.63864E-10         0.00000E+00
    0.11365E-06         0.39124E-10         0.00000E+00
    0.11365E-06         0.13361E-10         0.00000E+00
    0.11471E-06         0.40709E-10         0.00000E+00
    0.11470E-06         0.11598E-09         0.00000E+00
    0.11470E-06         0.18253E-09         0.00000E+00
    0.11469E-06         0.24055E-09         0.00000E+00
    0.11468E-06         0.29048E-09         0.00000E+00
    0.11467E-06         0.33294E-09         0.00000E+00
    0.11466E-06         0.36861E-09         0.00000E+00
    0.11465E-06         0.39817E-09         0.00000E+00
    0.11464E-06         0.42229E-09         0.00000E+00
    0.11463E-06         0.44161E-09         0.00000E+00
    0.11462E-06         0.45668E-09         0.00000E+00
    0.11461E-06         0.46805E-09         0.00000E+00
    0.11461E-06         0.47618E-09         0.00000E+00
    0.11460E-06         0.48150E-09         0.00000E+00
    0.11460E-06         0.48439E-09         0.00000E+00
    0.11459E-06         0.48517E-09         0.00000E+00
    0.11459E-06         0.48414E-09         0.00000E+00
    0.11459E-06         0.48155E-09         0.00000E+00
    0.11459E-06         0.47765E-09         0.00000E+00
    0.11459E-06         0.47261E-09         0.00000E+00
    0.11459E-06         0.46661E-09         0.00000E+00
    0.11459E-06         0.45980E-09         0.00000E+00
    0.11459E-06         0.45229E-09         0.00000E+00
    0.11459E-06         0.44420E-09         0.00000E+00
    0.11459E-06         0.43561E-09         0.00000E+00
    0.11459E-06         0.42660E-09         0.00000E+00
    0.11459E-06         0.41721E-09         0.00000E+00
    0.11459E-06         0.40748E-09         0.00000E+00
    0.11459E-06         0.39745E-09         0.00000E+00
    0.11459E-06         0.38713E-09         0.00000E+00
    0.11459E-06         0.37651E-09         0.00000E+00
    0.11459E-06         0.36559E-09         0.00000E+00
    0.11459E-06         0.35433E-09         0.00000E+00
    0.11459E-06         0.34270E-09         0.00000E+00
    0.11459E-06         0.33065E-09         0.00000E+00
    0.11459E-06         0.31811E-09         0.00000E+00
    0.11459E-06         0.30500E-09         0.00000E+00
    0.11459E-06         0.29122E-09         0.00000E+00
    0.11459E-06         0.27665E-09         0.00000E+00
    0.11459E-06         0.26117E-09         0.00000E+00
    0.11458E-06         0.24463E-09         0.00000E+00
    0.11458E-06         0.22686E-09         0.00000E+00
    0.11458E-06         0.20768E-09         0.00000E+00
    0.11457E-06         0.18688E-09         0.00000E+00
    0.11457E-06         0.16427E-09         0.00000E+00
    0.11456E-06         0.13963E-09         0.00000E+00
    0.11456E-06         0.11277E-09         0.00000E+00
    0.11456E-06         0.83553E-10         0.00000E+00
    0.11456E-06         0.51911E-10         0.00000E+00
    0.11455E-06         0.17938E-10         0.00000E+00
    0.11431E-06         0.48116E-10         0.00000E+00
    0.11431E-06         0.13137E-09         0.00000E+00
    0.11431E-06         0.19917E-09         0.00000E+00
    0.11431E-06         0.25404E-09         0.00000E+00
    0.11432E-06         0.29813E-09         0.00000E+00
    0.11433E-06         0.33325E-09         0.00000E+00
    0.11434E-06         0.36089E-09         0.00000E+00
    0.11435E-06         0.38229E-09         0.00000E+00
    0.11437E-06         0.39848E-09         0.00000E+00
    0.11439E-06         0.41032E-09         0.00000E+00
    0.11441E-06         0.41853E-09         0.00000E+00
    0.11444E-06         0.42371E-09         0.00000E+00
    0.11446E-06         0.42635E-09         0.00000E+00
    0.11449E-06         0.42689E-09         0.00000E+00
    0.11451E-06         0.42568E-09         0.00000E+00
    0.11454E-06         0.42303E-09         0.00000E+00
    0.11457E-06         0.41917E-09         0.00000E+00
    0.11460E-06         0.41434E-09         0.00000E+00
    0.11463E-06         0.40871E-09         0.00000E+00
    0.11466E-06         0.40244E-09         0.00000E+00
    0.11469E-06         0.39566E-09         0.00000E+00
    0.11471E-06         0.38847E-09         0.00000E+00
    0.11474E-06         0.38097E-09         0.00000E+00
    0.11477E-06         0.37323E-09         0.00000E+00
    0.11480E-06         0.36531E-09         0.00000E+00
    0.11483E-06         0.35725E-09         0.00000E+00
    0.11485E-06         0.34910E-09         0.00000E+00
    0.11488E-06         0.34087E-09         0.00000E+00
    0.11490E-06         0.33259E-09         0.00000E+00
    0.11493E-06         0.32425E-09         0.00000E+00
    0.11495E-06         0.31585E-09         0.00000E+00
    0.11498E-06         0.30738E-09         0.00000E+00
    0.11500E-06         0.29880E-09         0.00000E+00
    0.11502E-06         0.29009E-09         0.00000E+00
    0.11504E-06         0.28118E-09         0.00000E+00
    0.11506E-06         0.27204E-09         0.00000E+00
    0.11508E-06         0.26256E-09         0.00000E+00
    0.11510E-06         0.25266E-09         0.00000E+00
    0.11511E-06         0.24223E-09         0.00000E+00
    0.11513E-06         0.23113E-09         0.00000E+00
    0.11514E-06         0.21918E-09         0.00000E+00
    0.11515E-06         0.20619E-09         0.00000E+00
    0.11517E-06         0.19191E-09         0.00000E+00
    0.11517E-06         0.17604E-09         0.00000E+00
    0.11518E-06         0.15823E-09         0.00000E+00
    0.11519E-06         0.13804E-09         0.00000E+00
    0.11519E-06         0.11493E-09         0.00000E+00
    0.11519E-06         0.88268E-10         0.00000E+00
    0.11519E-06         0.57278E-10         0.00000E+00
    0.11519E-06         0.21053E-10         0.00000E+00
    0.11314E-06         0.25488E-10         0.00000E+00
    0.11315E-06         0.67022E-10         0.00000E+00
    0.11319E-06         0.98426E-10         0.00000E+00
    0.11323E-06         0.12221E-09         0.00000E+00
    0.11328E-06         0.14018E-09         0.00000E+00
    0.11334E-06         0.15365E-09         0.00000E+00
    0.11341E-06         0.16360E-09         0.00000E+00
    0.11347E-06         0.17078E-09         0.00000E+00
    0.11354E-06         0.17575E-09         0.00000E+00
    0.11361E-06         0.17896E-09         0.00000E+00
    0.11368E-06         0.18074E-09         0.00000E+00
    0.11376E-06         0.18139E-09         0.00000E+00
    0.11383E-06         0.18112E-09         0.00000E+00
    0.11390E-06         0.18011E-09         0.00000E+00
    0.11397E-06         0.17851E-09         0.00000E+00
    0.11404E-06         0.17644E-09         0.00000E+00
    0.11411E-06         0.17400E-09         0.00000E+00
    0.11418E-06         0.17127E-09         0.00000E+00
    0.11425E-06         0.16831E-09         0.00000E+00
    0.11432E-06         0.16518E-09         0.00000E+00
    0.11438E-06         0.16194E-09         0.00000E+00
    0.11445E-06         0.15860E-09         0.00000E+00
    0.11451E-06         0.15522E-09         0.00000E+00
    0.11457E-06         0.15181E-09         0.00000E+00
    0.11463E-06         0.14839E-09         0.00000E+00
    0.11469E-06         0.14498E-09         0.00000E+00
    0.11475E-06         0.14159E-09         0.00000E+00
    0.11480E-06         0.13822E-09         0.00000E+00
    0.11486E-06         0.13489E-09         0.00000E+00
    0.11491E-06         0.13158E-09         0.00000E+00
    0.11496E-06         0.12831E-09         0.00000E+00
    0.11501E-06         0.12505E-09         0.00000E+00
    0.11506E-06         0.12180E-09         0.00000E+00
    0.11511E-06         0.11855E-09         0.00000E+00
    0.11516E-06         0.11528E-09         0.00000E+00
    0.11520E-06         0.11196E-09         0.00000E+00
    0.11525E-06         0.10856E-09         0.00000E+00
    0.11529E-06         0.10504E-09         0.00000E+00
    0.11533E-06         0.10136E-09         0.00000E+00
    0.11537E-06         0.97452E-10         0.00000E+00
    0.11541E-06         0.93250E-10         0.00000E+00
    0.11545E-06         0.88655E-10         0.00000E+00
    0.11548E-06         0.83550E-10         0.00000E+00
    0.11551E-06         0.77781E-10         0.00000E+00
    0.11554E-06         0.71145E-10         0.00000E+00
    0.11557E-06         0.63375E-10         0.00000E+00
    0.11559E-06         0.54109E-10         0.00000E+00
    0.11561E-06         0.42848E-10         0.00000E+00
    0.11563E-06         0.28892E-10         0.00000E+00
    0.11564E-06         0.11236E-10         0.00000E+00
POINT_DATA       5151
VECTORS vDarcyNodal double 
    0.77011E-07         0.00000E+00         0.00000E+00
    0.77016E-07         0.00000E+00         0.00000E+00
    0.77031E-07         0.00000E+00         0.00000E+00
    0.77055E-07         0.00000E+00         0.00000E+00
    0.77087E-07         0.00000E+00         0.00000E+00
    0.77125E-07         0.00000E+00         0.00000E+00
    0.77168E-07         0.00000E+00         0.00000E+00
    0.77212E-07         0.00000E+00         0.00000E+00
    0.77255E-07         0.00000E+00         0.00000E+00
    0.77298E-07         0.00000E+00         0.00000E+00
    0.77338E-07         0.00000E+00         0.00000E+00
    0.77377E-07         0.00000E+00         0.00000E+00
    0.77413E-07         0.00000E+00         0.00000E+00
    0.77447E-07         0.00000E+00         0.00000E+00
    0.77481E-07         0.00000E+00         0.00000E+00
    0.77516E-07         0.00000E+00         0.00000E+00
    0.77553E-07         0.00000E+00         0.00000E+00
    0.77592E-07         0.00000E+00         0.00000E+00
    0.77634E-07         0.00000E+00         0.00000E+00
    0.77680E-07         0.00000E+00         0.00000E+00
    0.77729E-07         0.00000E+00         0.00000E+00
    0.77781E-07         0.00000E+00         0.00000E+00
    0.77836E-07         0.00000E+00         0.00000E+00
    0.77894E-07         0.00000E+00         0.00000E+00
    0.77955E-07         0.00000E+00         0.00000E+00
    0.78020E-07         0.00000E+00         0.00000E+00
    0.78090E-07         0.00000E+00         0.00000E+00
    0.78164E-07         0.00000E+00         0.00000E+00
    0.78244E-07         0.00000E+00         0.00000E+00
    0.78331E-07         0.00000E+00         0.00000E+00
    0.78426E-07         0.00000E+00         0.00000E+00
    0.78532E-07         0.00000E+00         0.00000E+00
    0.78650E-07         0.00000E+00         0.00000E+00
    0.78784E-07         0.00000E+00         0.00000E+00
    0.78937E-07         0.00000E+00         0.00000E+00
    0.79111E-07         0.00000E+00         0.00000E+00
    0.79299E-07         0.00000E+00         0.00000E+00
    0.79497E-07         0.00000E+00         0.00000E+00
    0.79696E-07         0.00000E+00         0.00000E+00
    0.79884E-07         0.00000E+00         0.00000E+00
    0.80049E-07         0.00000E+00         0.00000E+00
    0.80183E-07         0.00000E+00         0.00000E+00
    0.80291E-07         0.00000E+00         0.00000E+00
    0.80373E-07         0.00000E+00         0.00000E+00
    0.80434E-07         0.00000E+00         0.00000E+00
    0.80475E-07         0.00000E+00         0.00000E+00
    0.80499E-07         0.00000E+00         0.00000E+00
    0.80510E-07         0.00000E+00         0.00000E+00
    0.80511E-07         0.00000E+00         0.00000E+00
    0.80506E-07         0.00000E+00         0.00000E+00
    0.80504E-07         0.00000E+00         0.00000E+00
    0.77259E-07        -0.26441E-10         0.00000E+00
    0.77262E-07        -0.50318E-10         0.00000E+00
    0.77271E-07        -0.95946E-10         0.00000E+00
    0.77284E-07        -0.13806E-09         0.00000E+00
    0.77301E-07        -0.17650E-09         0.00000E+00
    0.77322E-07        -0.20489E-09         0.00000E+00
    0.77345E-07        -0.21703E-09         0.00000E+00
    0.77370E-07        -0.21743E-09         0.00000E+00
    0.77397E-07        -0.21319E-09         0.00000E+00
    0.77425E-07        -0.20641E-09         0.00000E+00
    0.77454E-07        -0.19755E-09         0.00000E+00
    0.77484E-07        -0.18672E-09         0.00000E+00
    0.77514E-07        -0.17585E-09         0.00000E+00
    0.77545E-07        -0.17024E-09         0.00000E+00
    0.77578E-07        -0.17229E-09         0.00000E+00
    0.77611E-07        -0.17947E-09         0.00000E+00
    0.77646E-07        -0.19027E-09         0.00000E+00
    0.77682E-07        -0.20472E-09         0.00000E+00
    0.77720E-07        -0.22118E-09         0.00000E+00
    0.77759E-07        -0.23728E-09         0.00000E+00
    0.77801E-07        -0.25232E-09         0.00000E+00
    0.77844E-07        -0.26696E-09         0.00000E+00
    0.77890E-07        -0.28196E-09         0.00000E+00
    0.77939E-07        -0.29798E-09         0.00000E+00
    0.77990E-07        -0.31566E-09         0.00000E+00
    0.78044E-07        -0.33566E-09         0.00000E+00
    0.78102E-07        -0.35869E-09         0.00000E+00
    0.78163E-07        -0.38562E-09         0.00000E+00
    0.78229E-07        -0.41752E-09         0.00000E+00
    0.78299E-07        -0.45578E-09         0.00000E+00
    0.78375E-07        -0.50222E-09         0.00000E+00
    0.78457E-07        -0.55936E-09         0.00000E+00
    0.78545E-07        -0.63071E-09         0.00000E+00
    0.78641E-07        -0.71881E-09         0.00000E+00
    0.78744E-07        -0.81627E-09         0.00000E+00
    0.78857E-07        -0.90446E-09         0.00000E+00
    0.78979E-07        -0.96638E-09         0.00000E+00
    0.79111E-07        -0.99077E-09         0.00000E+00
    0.79249E-07        -0.96683E-09         0.00000E+00
    0.79387E-07        -0.88263E-09         0.00000E+00
    0.79519E-07        -0.74877E-09         0.00000E+00
    0.79637E-07        -0.60487E-09         0.00000E+00
    0.79736E-07        -0.47492E-09         0.00000E+00
    0.79815E-07        -0.35846E-09         0.00000E+00
    0.79876E-07        -0.25449E-09         0.00000E+00
    0.79921E-07        -0.16365E-09         0.00000E+00
    0.79953E-07        -0.87117E-10         0.00000E+00
    0.79973E-07        -0.27928E-10         0.00000E+00
    0.79985E-07         0.91082E-11         0.00000E+00
    0.79991E-07         0.16988E-10         0.00000E+00
    0.79992E-07         0.12595E-10         0.00000E+00
    0.77538E-07        -0.30197E-10         0.00000E+00
    0.77538E-07        -0.57849E-10         0.00000E+00
    0.77538E-07        -0.10926E-09         0.00000E+00
    0.77538E-07        -0.15288E-09         0.00000E+00
    0.77538E-07        -0.18881E-09         0.00000E+00
    0.77537E-07        -0.21802E-09         0.00000E+00
    0.77538E-07        -0.24175E-09         0.00000E+00
    0.77540E-07        -0.26027E-09         0.00000E+00
    0.77546E-07        -0.27399E-09         0.00000E+00
    0.77554E-07        -0.28423E-09         0.00000E+00
    0.77564E-07        -0.29250E-09         0.00000E+00
    0.77578E-07        -0.30037E-09         0.00000E+00
    0.77595E-07        -0.30900E-09         0.00000E+00
    0.77614E-07        -0.31863E-09         0.00000E+00
    0.77635E-07        -0.32928E-09         0.00000E+00
    0.77657E-07        -0.34126E-09         0.00000E+00
    0.77680E-07        -0.35473E-09         0.00000E+00
    0.77703E-07        -0.36965E-09         0.00000E+00
    0.77728E-07        -0.38620E-09         0.00000E+00
    0.77752E-07        -0.40466E-09         0.00000E+00
    0.77777E-07        -0.42505E-09         0.00000E+00
    0.77803E-07        -0.44729E-09         0.00000E+00
    0.77831E-07        -0.47149E-09         0.00000E+00
    0.77859E-07        -0.49793E-09         0.00000E+00
    0.77889E-07        -0.52700E-09         0.00000E+00
    0.77921E-07        -0.55917E-09         0.00000E+00
    0.77954E-07        -0.59498E-09         0.00000E+00
    0.77988E-07        -0.63503E-09         0.00000E+00
    0.78023E-07        -0.67999E-09         0.00000E+00
    0.78060E-07        -0.73051E-09         0.00000E+00
    0.78097E-07        -0.78720E-09         0.00000E+00
    0.78134E-07        -0.85052E-09         0.00000E+00
    0.78170E-07        -0.92053E-09         0.00000E+00
    0.78204E-07        -0.99721E-09         0.00000E+00
    0.78235E-07        -0.10818E-08         0.00000E+00
    0.78263E-07        -0.11753E-08         0.00000E+00
    0.78290E-07        -0.12703E-08         0.00000E+00
    0.78320E-07        -0.13464E-08         0.00000E+00
    0.78357E-07        -0.13792E-08         0.00000E+00
    0.78408E-07        -0.13519E-08         0.00000E+00
    0.78476E-07        -0.12524E-08         0.00000E+00
    0.78555E-07        -0.10847E-08         0.00000E+00
    0.78637E-07        -0.88725E-09         0.00000E+00
    0.78711E-07        -0.69980E-09         0.00000E+00
    0.78773E-07        -0.53220E-09         0.00000E+00
    0.78823E-07        -0.38505E-09         0.00000E+00
    0.78862E-07        -0.26103E-09         0.00000E+00
    0.78892E-07        -0.16097E-09         0.00000E+00
    0.78914E-07        -0.85313E-10         0.00000E+00
    0.78928E-07        -0.33929E-10         0.00000E+00
    0.78933E-07        -0.14182E-10         0.00000E+00
    0.77419E-07        -0.26210E-10         0.00000E+00
    0.77417E-07        -0.50158E-10         0.00000E+00
    0.77414E-07        -0.95451E-10         0.00000E+00
    0.77410E-07        -0.13585E-09         0.00000E+00
    0.77405E-07        -0.17191E-09         0.00000E+00
    0.77400E-07        -0.20393E-09         0.00000E+00
    0.77395E-07        -0.23219E-09         0.00000E+00
    0.77390E-07        -0.25729E-09         0.00000E+00
    0.77387E-07        -0.27986E-09         0.00000E+00
    0.77384E-07        -0.30036E-09         0.00000E+00
    0.77383E-07        -0.31926E-09         0.00000E+00
    0.77383E-07        -0.33698E-09         0.00000E+00
    0.77385E-07        -0.35397E-09         0.00000E+00
    0.77388E-07        -0.37077E-09         0.00000E+00
    0.77392E-07        -0.38785E-09         0.00000E+00
    0.77397E-07        -0.40545E-09         0.00000E+00
    0.77402E-07        -0.42381E-09         0.00000E+00
    0.77409E-07        -0.44320E-09         0.00000E+00
    0.77416E-07        -0.46381E-09         0.00000E+00
    0.77423E-07        -0.48576E-09         0.00000E+00
    0.77431E-07        -0.50926E-09         0.00000E+00
    0.77440E-07        -0.53451E-09         0.00000E+00
    0.77448E-07        -0.56171E-09         0.00000E+00
    0.77457E-07        -0.59104E-09         0.00000E+00
    0.77467E-07        -0.62270E-09         0.00000E+00
    0.77476E-07        -0.65689E-09         0.00000E+00
    0.77485E-07        -0.69382E-09         0.00000E+00
    0.77494E-07        -0.73372E-09         0.00000E+00
    0.77502E-07        -0.77678E-09         0.00000E+00
    0.77509E-07        -0.82318E-09         0.00000E+00
    0.77514E-07        -0.87305E-09         0.00000E+00
    0.77518E-07        -0.92653E-09         0.00000E+00
    0.77519E-07        -0.98377E-09         0.00000E+00
    0.77518E-07        -0.10449E-08         0.00000E+00
    0.77513E-07        -0.11096E-08         0.00000E+00
    0.77504E-07        -0.11776E-08         0.00000E+00
    0.77490E-07        -0.12497E-08         0.00000E+00
    0.77472E-07        -0.13281E-08         0.00000E+00
    0.77453E-07        -0.14098E-08         0.00000E+00
    0.77439E-07        -0.14734E-08         0.00000E+00
    0.77437E-07        -0.14834E-08         0.00000E+00
    0.77455E-07        -0.14138E-08         0.00000E+00
    0.77496E-07        -0.12560E-08         0.00000E+00
    0.77553E-07        -0.10372E-08         0.00000E+00
    0.77615E-07        -0.81163E-09         0.00000E+00
    0.77672E-07        -0.60986E-09         0.00000E+00
    0.77718E-07        -0.43481E-09         0.00000E+00
    0.77752E-07        -0.28773E-09         0.00000E+00
    0.77776E-07        -0.16880E-09         0.00000E+00
    0.77789E-07        -0.75635E-10         0.00000E+00
    0.77793E-07        -0.35161E-10         0.00000E+00
    0.76933E-07        -0.18777E-10         0.00000E+00
    0.76932E-07        -0.36988E-10         0.00000E+00
    0.76928E-07        -0.72418E-10         0.00000E+00
    0.76922E-07        -0.10579E-09         0.00000E+00
    0.76915E-07        -0.13706E-09         0.00000E+00
    0.76907E-07        -0.16633E-09         0.00000E+00
    0.76898E-07        -0.19380E-09         0.00000E+00
    0.76888E-07        -0.21959E-09         0.00000E+00
    0.76879E-07        -0.24391E-09         0.00000E+00
    0.76869E-07        -0.26699E-09         0.00000E+00
    0.76860E-07        -0.28909E-09         0.00000E+00
    0.76850E-07        -0.31048E-09         0.00000E+00
    0.76841E-07        -0.33142E-09         0.00000E+00
    0.76833E-07        -0.35209E-09         0.00000E+00
    0.76825E-07        -0.37273E-09         0.00000E+00
    0.76817E-07        -0.39358E-09         0.00000E+00
    0.76809E-07        -0.41483E-09         0.00000E+00
    0.76802E-07        -0.43667E-09         0.00000E+00
    0.76795E-07        -0.45927E-09         0.00000E+00
    0.76788E-07        -0.48280E-09         0.00000E+00
    0.76781E-07        -0.50740E-09         0.00000E+00
    0.76774E-07        -0.53318E-09         0.00000E+00
    0.76767E-07        -0.56026E-09         0.00000E+00
    0.76760E-07        -0.58875E-09         0.00000E+00
    0.76752E-07        -0.61875E-09         0.00000E+00
    0.76744E-07        -0.65033E-09         0.00000E+00
    0.76735E-07        -0.68357E-09         0.00000E+00
    0.76725E-07        -0.71852E-09         0.00000E+00
    0.76714E-07        -0.75521E-09         0.00000E+00
    0.76701E-07        -0.79367E-09         0.00000E+00
    0.76687E-07        -0.83390E-09         0.00000E+00
    0.76671E-07        -0.87589E-09         0.00000E+00
    0.76652E-07        -0.91961E-09         0.00000E+00
    0.76631E-07        -0.96496E-09         0.00000E+00
    0.76607E-07        -0.10120E-08         0.00000E+00
    0.76579E-07        -0.10608E-08         0.00000E+00
    0.76548E-07        -0.11110E-08         0.00000E+00
    0.76512E-07        -0.11620E-08         0.00000E+00
    0.76472E-07        -0.12141E-08         0.00000E+00
    0.76426E-07        -0.12708E-08         0.00000E+00
    0.76378E-07        -0.13319E-08         0.00000E+00
    0.76336E-07        -0.13787E-08         0.00000E+00
    0.76307E-07        -0.13774E-08         0.00000E+00
    0.76302E-07        -0.12967E-08         0.00000E+00
    0.76322E-07        -0.11267E-08         0.00000E+00
    0.76362E-07        -0.89867E-09         0.00000E+00
    0.76411E-07        -0.66315E-09         0.00000E+00
    0.76459E-07        -0.45012E-09         0.00000E+00
    0.76495E-07        -0.26979E-09         0.00000E+00
    0.76516E-07        -0.12298E-09         0.00000E+00
    0.76523E-07        -0.57512E-10         0.00000E+00
    0.76098E-07        -0.12060E-10         0.00000E+00
    0.76096E-07        -0.24064E-10         0.00000E+00
    0.76093E-07        -0.47972E-10         0.00000E+00
    0.76087E-07        -0.71620E-10         0.00000E+00
    0.76079E-07        -0.94897E-10         0.00000E+00
    0.76069E-07        -0.11772E-09         0.00000E+00
    0.76058E-07        -0.14006E-09         0.00000E+00
    0.76046E-07        -0.16193E-09         0.00000E+00
    0.76033E-07        -0.18339E-09         0.00000E+00
    0.76020E-07        -0.20449E-09         0.00000E+00
    0.76005E-07        -0.22532E-09         0.00000E+00
    0.75991E-07        -0.24596E-09         0.00000E+00
    0.75975E-07        -0.26651E-09         0.00000E+00
    0.75960E-07        -0.28709E-09         0.00000E+00
    0.75944E-07        -0.30782E-09         0.00000E+00
    0.75928E-07        -0.32878E-09         0.00000E+00
    0.75911E-07        -0.35009E-09         0.00000E+00
    0.75895E-07        -0.37184E-09         0.00000E+00
    0.75878E-07        -0.39412E-09         0.00000E+00
    0.75861E-07        -0.41700E-09         0.00000E+00
    0.75844E-07        -0.44057E-09         0.00000E+00
    0.75826E-07        -0.46488E-09         0.00000E+00
    0.75807E-07        -0.48998E-09         0.00000E+00
    0.75788E-07        -0.51590E-09         0.00000E+00
    0.75769E-07        -0.54267E-09         0.00000E+00
    0.75749E-07        -0.57030E-09         0.00000E+00
    0.75727E-07        -0.59877E-09         0.00000E+00
    0.75705E-07        -0.62807E-09         0.00000E+00
    0.75682E-07        -0.65815E-09         0.00000E+00
    0.75657E-07        -0.68896E-09         0.00000E+00
    0.75631E-07        -0.72041E-09         0.00000E+00
    0.75603E-07        -0.75241E-09         0.00000E+00
    0.75573E-07        -0.78483E-09         0.00000E+00
    0.75541E-07        -0.81754E-09         0.00000E+00
    0.75507E-07        -0.85034E-09         0.00000E+00
    0.75470E-07        -0.88298E-09         0.00000E+00
    0.75430E-07        -0.91531E-09         0.00000E+00
    0.75387E-07        -0.94723E-09         0.00000E+00
    0.75341E-07        -0.97837E-09         0.00000E+00
    0.75291E-07        -0.10073E-08         0.00000E+00
    0.75236E-07        -0.10333E-08         0.00000E+00
    0.75175E-07        -0.10586E-08         0.00000E+00
    0.75112E-07        -0.10847E-08         0.00000E+00
    0.75051E-07        -0.11091E-08         0.00000E+00
    0.75002E-07        -0.11115E-08         0.00000E+00
    0.74973E-07        -0.10553E-08         0.00000E+00
    0.74966E-07        -0.92062E-09         0.00000E+00
    0.74978E-07        -0.71041E-09         0.00000E+00
    0.75003E-07        -0.45585E-09         0.00000E+00
    0.75028E-07        -0.21252E-09         0.00000E+00
    0.75039E-07        -0.10077E-09         0.00000E+00
    0.74951E-07        -0.55314E-11         0.00000E+00
    0.74949E-07        -0.11425E-10         0.00000E+00
    0.74946E-07        -0.23648E-10         0.00000E+00
    0.74940E-07        -0.36680E-10         0.00000E+00
    0.74932E-07        -0.50404E-10         0.00000E+00
    0.74922E-07        -0.64727E-10         0.00000E+00
    0.74910E-07        -0.79572E-10         0.00000E+00
    0.74897E-07        -0.94876E-10         0.00000E+00
    0.74883E-07        -0.11059E-09         0.00000E+00
    0.74867E-07        -0.12670E-09         0.00000E+00
    0.74850E-07        -0.14318E-09         0.00000E+00
    0.74833E-07        -0.16004E-09         0.00000E+00
    0.74814E-07        -0.17727E-09         0.00000E+00
    0.74795E-07        -0.19491E-09         0.00000E+00
    0.74775E-07        -0.21295E-09         0.00000E+00
    0.74754E-07        -0.23143E-09         0.00000E+00
    0.74732E-07        -0.25037E-09         0.00000E+00
    0.74710E-07        -0.26978E-09         0.00000E+00
    0.74687E-07        -0.28968E-09         0.00000E+00
    0.74664E-07        -0.31009E-09         0.00000E+00
    0.74640E-07        -0.33101E-09         0.00000E+00
    0.74615E-07        -0.35243E-09         0.00000E+00
    0.74590E-07        -0.37436E-09         0.00000E+00
    0.74564E-07        -0.39677E-09         0.00000E+00
    0.74537E-07        -0.41964E-09         0.00000E+00
    0.74509E-07        -0.44291E-09         0.00000E+00
    0.74481E-07        -0.46654E-09         0.00000E+00
    0.74451E-07        -0.49046E-09         0.00000E+00
    0.74420E-07        -0.51458E-09         0.00000E+00
    0.74388E-07        -0.53880E-09         0.00000E+00
    0.74355E-07        -0.56299E-09         0.00000E+00
    0.74320E-07        -0.58701E-09         0.00000E+00
    0.74284E-07        -0.61068E-09         0.00000E+00
    0.74247E-07        -0.63379E-09         0.00000E+00
    0.74207E-07        -0.65612E-09         0.00000E+00
    0.74165E-07        -0.67740E-09         0.00000E+00
    0.74122E-07        -0.69728E-09         0.00000E+00
    0.74076E-07        -0.71531E-09         0.00000E+00
    0.74028E-07        -0.73103E-09         0.00000E+00
    0.73977E-07        -0.74420E-09         0.00000E+00
    0.73924E-07        -0.75428E-09         0.00000E+00
    0.73867E-07        -0.75970E-09         0.00000E+00
    0.73808E-07        -0.75862E-09         0.00000E+00
    0.73744E-07        -0.74997E-09         0.00000E+00
    0.73675E-07        -0.73479E-09         0.00000E+00
    0.73606E-07        -0.71589E-09         0.00000E+00
    0.73541E-07        -0.68845E-09         0.00000E+00
    0.73488E-07        -0.63455E-09         0.00000E+00
    0.73453E-07        -0.52061E-09         0.00000E+00
    0.73434E-07        -0.30612E-09         0.00000E+00
    0.73429E-07        -0.16912E-09         0.00000E+00
    0.73531E-07         0.73136E-12         0.00000E+00
    0.73530E-07         0.82492E-12         0.00000E+00
    0.73526E-07         0.18208E-12         0.00000E+00
    0.73521E-07        -0.20540E-11         0.00000E+00
    0.73513E-07        -0.57559E-11         0.00000E+00
    0.73503E-07        -0.10806E-10         0.00000E+00
    0.73492E-07        -0.17099E-10         0.00000E+00
    0.73478E-07        -0.24541E-10         0.00000E+00
    0.73464E-07        -0.33048E-10         0.00000E+00
    0.73447E-07        -0.42543E-10         0.00000E+00
    0.73430E-07        -0.52961E-10         0.00000E+00
    0.73411E-07        -0.64241E-10         0.00000E+00
    0.73391E-07        -0.76334E-10         0.00000E+00
    0.73370E-07        -0.89192E-10         0.00000E+00
    0.73348E-07        -0.10277E-09         0.00000E+00
    0.73325E-07        -0.11704E-09         0.00000E+00
    0.73301E-07        -0.13196E-09         0.00000E+00
    0.73277E-07        -0.14748E-09         0.00000E+00
    0.73251E-07        -0.16358E-09         0.00000E+00
    0.73225E-07        -0.18021E-09         0.00000E+00
    0.73198E-07        -0.19734E-09         0.00000E+00
    0.73170E-07        -0.21490E-09         0.00000E+00
    0.73141E-07        -0.23286E-09         0.00000E+00
    0.73111E-07        -0.25114E-09         0.00000E+00
    0.73080E-07        -0.26969E-09         0.00000E+00
    0.73049E-07        -0.28841E-09         0.00000E+00
    0.73017E-07        -0.30723E-09         0.00000E+00
    0.72983E-07        -0.32604E-09         0.00000E+00
    0.72949E-07        -0.34472E-09         0.00000E+00
    0.72914E-07        -0.36314E-09         0.00000E+00
    0.72877E-07        -0.38115E-09         0.00000E+00
    0.72840E-07        -0.39858E-09         0.00000E+00
    0.72801E-07        -0.41522E-09         0.00000E+00
    0.72761E-07        -0.43085E-09         0.00000E+00
    0.72720E-07        -0.44521E-09         0.00000E+00
    0.72677E-07        -0.45801E-09         0.00000E+00
    0.72633E-07        -0.46889E-09         0.00000E+00
    0.72588E-07        -0.47748E-09         0.00000E+00
    0.72541E-07        -0.48331E-09         0.00000E+00
    0.72492E-07        -0.48577E-09         0.00000E+00
    0.72442E-07        -0.48416E-09         0.00000E+00
    0.72391E-07        -0.47793E-09         0.00000E+00
    0.72338E-07        -0.46648E-09         0.00000E+00
    0.72284E-07        -0.44872E-09         0.00000E+00
    0.72230E-07        -0.42255E-09         0.00000E+00
    0.72175E-07        -0.38458E-09         0.00000E+00
    0.72119E-07        -0.33261E-09         0.00000E+00
    0.72063E-07        -0.26620E-09         0.00000E+00
    0.72012E-07        -0.18563E-09         0.00000E+00
    0.71973E-07        -0.94409E-10         0.00000E+00
    0.71957E-07        -0.46890E-10         0.00000E+00
    0.71877E-07         0.66488E-11         0.00000E+00
    0.71876E-07         0.12437E-10         0.00000E+00
    0.71873E-07         0.22880E-10         0.00000E+00
    0.71867E-07         0.31128E-10         0.00000E+00
    0.71860E-07         0.37319E-10         0.00000E+00
    0.71851E-07         0.41585E-10         0.00000E+00
    0.71840E-07         0.44049E-10         0.00000E+00
    0.71827E-07         0.44831E-10         0.00000E+00
    0.71813E-07         0.44041E-10         0.00000E+00
    0.71797E-07         0.41783E-10         0.00000E+00
    0.71780E-07         0.38157E-10         0.00000E+00
    0.71761E-07         0.33256E-10         0.00000E+00
    0.71742E-07         0.27167E-10         0.00000E+00
    0.71721E-07         0.19975E-10         0.00000E+00
    0.71699E-07         0.11759E-10         0.00000E+00
    0.71676E-07         0.25971E-11         0.00000E+00
    0.71652E-07        -0.74349E-11         0.00000E+00
    0.71627E-07        -0.18263E-10         0.00000E+00
    0.71601E-07        -0.29812E-10         0.00000E+00
    0.71574E-07        -0.42007E-10         0.00000E+00
    0.71546E-07        -0.54771E-10         0.00000E+00
    0.71518E-07        -0.68024E-10         0.00000E+00
    0.71488E-07        -0.81683E-10         0.00000E+00
    0.71458E-07        -0.95658E-10         0.00000E+00
    0.71427E-07        -0.10986E-09         0.00000E+00
    0.71395E-07        -0.12418E-09         0.00000E+00
    0.71362E-07        -0.13851E-09         0.00000E+00
    0.71329E-07        -0.15273E-09         0.00000E+00
    0.71295E-07        -0.16672E-09         0.00000E+00
    0.71259E-07        -0.18033E-09         0.00000E+00
    0.71223E-07        -0.19340E-09         0.00000E+00
    0.71187E-07        -0.20577E-09         0.00000E+00
    0.71149E-07        -0.21724E-09         0.00000E+00
    0.71111E-07        -0.22761E-09         0.00000E+00
    0.71072E-07        -0.23664E-09         0.00000E+00
    0.71032E-07        -0.24410E-09         0.00000E+00
    0.70992E-07        -0.24969E-09         0.00000E+00
    0.70951E-07        -0.25311E-09         0.00000E+00
    0.70909E-07        -0.25404E-09         0.00000E+00
    0.70867E-07        -0.25215E-09         0.00000E+00
    0.70826E-07        -0.24708E-09         0.00000E+00
    0.70784E-07        -0.23839E-09         0.00000E+00
    0.70743E-07        -0.22562E-09         0.00000E+00
    0.70703E-07        -0.20841E-09         0.00000E+00
    0.70664E-07        -0.18672E-09         0.00000E+00
    0.70627E-07        -0.16105E-09         0.00000E+00
    0.70594E-07        -0.13190E-09         0.00000E+00
    0.70567E-07        -0.99804E-10         0.00000E+00
    0.70545E-07        -0.65866E-10         0.00000E+00
    0.70532E-07        -0.31714E-10         0.00000E+00
    0.70527E-07        -0.14823E-10         0.00000E+00
    0.70024E-07         0.12061E-10         0.00000E+00
    0.70023E-07         0.23082E-10         0.00000E+00
    0.70020E-07         0.43749E-10         0.00000E+00
    0.70015E-07         0.61739E-10         0.00000E+00
    0.70009E-07         0.77203E-10         0.00000E+00
    0.70000E-07         0.90287E-10         0.00000E+00
    0.69990E-07         0.10113E-09         0.00000E+00
    0.69979E-07         0.10986E-09         0.00000E+00
    0.69966E-07         0.11662E-09         0.00000E+00
    0.69951E-07         0.12152E-09         0.00000E+00
    0.69936E-07         0.12469E-09         0.00000E+00
    0.69919E-07         0.12624E-09         0.00000E+00
    0.69900E-07         0.12627E-09         0.00000E+00
    0.69881E-07         0.12490E-09         0.00000E+00
    0.69860E-07         0.12222E-09         0.00000E+00
    0.69839E-07         0.11834E-09         0.00000E+00
    0.69816E-07         0.11336E-09         0.00000E+00
    0.69793E-07         0.10737E-09         0.00000E+00
    0.69768E-07         0.10047E-09         0.00000E+00
    0.69743E-07         0.92748E-10         0.00000E+00
    0.69717E-07         0.84304E-10         0.00000E+00
    0.69690E-07         0.75232E-10         0.00000E+00
    0.69662E-07         0.65630E-10         0.00000E+00
    0.69634E-07         0.55598E-10         0.00000E+00
    0.69605E-07         0.45237E-10         0.00000E+00
    0.69575E-07         0.34653E-10         0.00000E+00
    0.69544E-07         0.23954E-10         0.00000E+00
    0.69513E-07         0.13255E-10         0.00000E+00
    0.69482E-07         0.26727E-11         0.00000E+00
    0.69450E-07        -0.76689E-11         0.00000E+00
    0.69417E-07        -0.17642E-10         0.00000E+00
    0.69384E-07        -0.27112E-10         0.00000E+00
    0.69351E-07        -0.35942E-10         0.00000E+00
    0.69317E-07        -0.43989E-10         0.00000E+00
    0.69283E-07        -0.51108E-10         0.00000E+00
    0.69250E-07        -0.57155E-10         0.00000E+00
    0.69216E-07        -0.61986E-10         0.00000E+00
    0.69182E-07        -0.65467E-10         0.00000E+00
    0.69149E-07        -0.67477E-10         0.00000E+00
    0.69117E-07        -0.67908E-10         0.00000E+00
    0.69085E-07        -0.66687E-10         0.00000E+00
    0.69054E-07        -0.63807E-10         0.00000E+00
    0.69026E-07        -0.59340E-10         0.00000E+00
    0.68999E-07        -0.53432E-10         0.00000E+00
    0.68974E-07        -0.46273E-10         0.00000E+00
    0.68952E-07        -0.38078E-10         0.00000E+00
    0.68934E-07        -0.29256E-10         0.00000E+00
    0.68919E-07        -0.20428E-10         0.00000E+00
    0.68909E-07        -0.12286E-10         0.00000E+00
    0.68902E-07        -0.54767E-11         0.00000E+00
    0.68900E-07        -0.24742E-11         0.00000E+00
    0.68007E-07         0.16806E-10         0.00000E+00
    0.68006E-07         0.32431E-10         0.00000E+00
    0.68004E-07         0.62112E-10         0.00000E+00
    0.68000E-07         0.88739E-10         0.00000E+00
    0.67994E-07         0.11247E-09         0.00000E+00
    0.67987E-07         0.13347E-09         0.00000E+00
    0.67978E-07         0.15187E-09         0.00000E+00
    0.67968E-07         0.16783E-09         0.00000E+00
    0.67957E-07         0.18149E-09         0.00000E+00
    0.67944E-07         0.19298E-09         0.00000E+00
    0.67930E-07         0.20243E-09         0.00000E+00
    0.67915E-07         0.20997E-09         0.00000E+00
    0.67899E-07         0.21572E-09         0.00000E+00
    0.67882E-07         0.21979E-09         0.00000E+00
    0.67864E-07         0.22230E-09         0.00000E+00
    0.67845E-07         0.22336E-09         0.00000E+00
    0.67825E-07         0.22308E-09         0.00000E+00
    0.67804E-07         0.22156E-09         0.00000E+00
    0.67783E-07         0.21891E-09         0.00000E+00
    0.67760E-07         0.21523E-09         0.00000E+00
    0.67737E-07         0.21061E-09         0.00000E+00
    0.67714E-07         0.20516E-09         0.00000E+00
    0.67689E-07         0.19898E-09         0.00000E+00
    0.67664E-07         0.19215E-09         0.00000E+00
    0.67639E-07         0.18477E-09         0.00000E+00
    0.67613E-07         0.17695E-09         0.00000E+00
    0.67586E-07         0.16877E-09         0.00000E+00
    0.67560E-07         0.16033E-09         0.00000E+00
    0.67533E-07         0.15172E-09         0.00000E+00
    0.67505E-07         0.14302E-09         0.00000E+00
    0.67478E-07         0.13435E-09         0.00000E+00
    0.67450E-07         0.12576E-09         0.00000E+00
    0.67422E-07         0.11736E-09         0.00000E+00
    0.67395E-07         0.10921E-09         0.00000E+00
    0.67368E-07         0.10138E-09         0.00000E+00
    0.67341E-07         0.93934E-10         0.00000E+00
    0.67314E-07         0.86914E-10         0.00000E+00
    0.67288E-07         0.80351E-10         0.00000E+00
    0.67263E-07         0.74253E-10         0.00000E+00
    0.67239E-07         0.68602E-10         0.00000E+00
    0.67216E-07         0.63354E-10         0.00000E+00
    0.67194E-07         0.58435E-10         0.00000E+00
    0.67174E-07         0.53742E-10         0.00000E+00
    0.67155E-07         0.49134E-10         0.00000E+00
    0.67139E-07         0.44423E-10         0.00000E+00
    0.67125E-07         0.39359E-10         0.00000E+00
    0.67113E-07         0.33690E-10         0.00000E+00
    0.67104E-07         0.27174E-10         0.00000E+00
    0.67097E-07         0.19575E-10         0.00000E+00
    0.67093E-07         0.10652E-10         0.00000E+00
    0.67092E-07         0.58265E-11         0.00000E+00
    0.65858E-07         0.20747E-10         0.00000E+00
    0.65857E-07         0.40209E-10         0.00000E+00
    0.65855E-07         0.77424E-10         0.00000E+00
    0.65852E-07         0.11131E-09         0.00000E+00
    0.65847E-07         0.14202E-09         0.00000E+00
    0.65841E-07         0.16973E-09         0.00000E+00
    0.65834E-07         0.19459E-09         0.00000E+00
    0.65826E-07         0.21675E-09         0.00000E+00
    0.65817E-07         0.23635E-09         0.00000E+00
    0.65806E-07         0.25353E-09         0.00000E+00
    0.65795E-07         0.26843E-09         0.00000E+00
    0.65782E-07         0.28118E-09         0.00000E+00
    0.65769E-07         0.29190E-09         0.00000E+00
    0.65755E-07         0.30071E-09         0.00000E+00
    0.65740E-07         0.30773E-09         0.00000E+00
    0.65724E-07         0.31307E-09         0.00000E+00
    0.65708E-07         0.31684E-09         0.00000E+00
    0.65690E-07         0.31915E-09         0.00000E+00
    0.65673E-07         0.32010E-09         0.00000E+00
    0.65654E-07         0.31978E-09         0.00000E+00
    0.65635E-07         0.31830E-09         0.00000E+00
    0.65615E-07         0.31574E-09         0.00000E+00
    0.65595E-07         0.31220E-09         0.00000E+00
    0.65574E-07         0.30775E-09         0.00000E+00
    0.65553E-07         0.30250E-09         0.00000E+00
    0.65532E-07         0.29651E-09         0.00000E+00
    0.65511E-07         0.28986E-09         0.00000E+00
    0.65489E-07         0.28263E-09         0.00000E+00
    0.65467E-07         0.27488E-09         0.00000E+00
    0.65445E-07         0.26668E-09         0.00000E+00
    0.65423E-07         0.25808E-09         0.00000E+00
    0.65401E-07         0.24914E-09         0.00000E+00
    0.65379E-07         0.23990E-09         0.00000E+00
    0.65358E-07         0.23039E-09         0.00000E+00
    0.65337E-07         0.22065E-09         0.00000E+00
    0.65316E-07         0.21069E-09         0.00000E+00
    0.65296E-07         0.20050E-09         0.00000E+00
    0.65277E-07         0.19009E-09         0.00000E+00
    0.65258E-07         0.17942E-09         0.00000E+00
    0.65240E-07         0.16845E-09         0.00000E+00
    0.65223E-07         0.15713E-09         0.00000E+00
    0.65208E-07         0.14538E-09         0.00000E+00
    0.65194E-07         0.13310E-09         0.00000E+00
    0.65181E-07         0.12019E-09         0.00000E+00
    0.65170E-07         0.10651E-09         0.00000E+00
    0.65160E-07         0.91932E-10         0.00000E+00
    0.65152E-07         0.76316E-10         0.00000E+00
    0.65145E-07         0.59493E-10         0.00000E+00
    0.65141E-07         0.41280E-10         0.00000E+00
    0.65138E-07         0.21477E-10         0.00000E+00
    0.65137E-07         0.11153E-10         0.00000E+00
    0.63606E-07         0.23798E-10         0.00000E+00
    0.63606E-07         0.46247E-10         0.00000E+00
    0.63604E-07         0.89347E-10         0.00000E+00
    0.63602E-07         0.12894E-09         0.00000E+00
    0.63598E-07         0.16518E-09         0.00000E+00
    0.63594E-07         0.19824E-09         0.00000E+00
    0.63588E-07         0.22827E-09         0.00000E+00
    0.63582E-07         0.25543E-09         0.00000E+00
    0.63575E-07         0.27984E-09         0.00000E+00
    0.63567E-07         0.30166E-09         0.00000E+00
    0.63558E-07         0.32100E-09         0.00000E+00
    0.63549E-07         0.33801E-09         0.00000E+00
    0.63539E-07         0.35280E-09         0.00000E+00
    0.63528E-07         0.36549E-09         0.00000E+00
    0.63516E-07         0.37620E-09         0.00000E+00
    0.63504E-07         0.38503E-09         0.00000E+00
    0.63491E-07         0.39209E-09         0.00000E+00
    0.63477E-07         0.39748E-09         0.00000E+00
    0.63464E-07         0.40130E-09         0.00000E+00
    0.63449E-07         0.40363E-09         0.00000E+00
    0.63434E-07         0.40457E-09         0.00000E+00
    0.63419E-07         0.40421E-09         0.00000E+00
    0.63403E-07         0.40262E-09         0.00000E+00
    0.63387E-07         0.39987E-09         0.00000E+00
    0.63371E-07         0.39605E-09         0.00000E+00
    0.63355E-07         0.39121E-09         0.00000E+00
    0.63338E-07         0.38542E-09         0.00000E+00
    0.63322E-07         0.37873E-09         0.00000E+00
    0.63305E-07         0.37120E-09         0.00000E+00
    0.63288E-07         0.36287E-09         0.00000E+00
    0.63271E-07         0.35379E-09         0.00000E+00
    0.63255E-07         0.34398E-09         0.00000E+00
    0.63239E-07         0.33346E-09         0.00000E+00
    0.63223E-07         0.32227E-09         0.00000E+00
    0.63207E-07         0.31040E-09         0.00000E+00
    0.63192E-07         0.29786E-09         0.00000E+00
    0.63177E-07         0.28463E-09         0.00000E+00
    0.63163E-07         0.27071E-09         0.00000E+00
    0.63150E-07         0.25606E-09         0.00000E+00
    0.63137E-07         0.24063E-09         0.00000E+00
    0.63125E-07         0.22440E-09         0.00000E+00
    0.63114E-07         0.20728E-09         0.00000E+00
    0.63104E-07         0.18923E-09         0.00000E+00
    0.63095E-07         0.17015E-09         0.00000E+00
    0.63087E-07         0.14997E-09         0.00000E+00
    0.63080E-07         0.12859E-09         0.00000E+00
    0.63075E-07         0.10590E-09         0.00000E+00
    0.63070E-07         0.81805E-10         0.00000E+00
    0.63067E-07         0.56188E-10         0.00000E+00
    0.63065E-07         0.28945E-10         0.00000E+00
    0.63065E-07         0.14903E-10         0.00000E+00
    0.61280E-07         0.25933E-10         0.00000E+00
    0.61280E-07         0.50492E-10         0.00000E+00
    0.61279E-07         0.97777E-10         0.00000E+00
    0.61277E-07         0.14147E-09         0.00000E+00
    0.61275E-07         0.18174E-09         0.00000E+00
    0.61272E-07         0.21874E-09         0.00000E+00
    0.61268E-07         0.25261E-09         0.00000E+00
    0.61264E-07         0.28350E-09         0.00000E+00
    0.61259E-07         0.31154E-09         0.00000E+00
    0.61254E-07         0.33687E-09         0.00000E+00
    0.61248E-07         0.35961E-09         0.00000E+00
    0.61241E-07         0.37988E-09         0.00000E+00
    0.61234E-07         0.39780E-09         0.00000E+00
    0.61226E-07         0.41348E-09         0.00000E+00
    0.61218E-07         0.42703E-09         0.00000E+00
    0.61209E-07         0.43856E-09         0.00000E+00
    0.61200E-07         0.44815E-09         0.00000E+00
    0.61190E-07         0.45590E-09         0.00000E+00
    0.61180E-07         0.46190E-09         0.00000E+00
    0.61170E-07         0.46625E-09         0.00000E+00
    0.61159E-07         0.46900E-09         0.00000E+00
    0.61149E-07         0.47025E-09         0.00000E+00
    0.61137E-07         0.47007E-09         0.00000E+00
    0.61126E-07         0.46851E-09         0.00000E+00
    0.61114E-07         0.46565E-09         0.00000E+00
    0.61102E-07         0.46153E-09         0.00000E+00
    0.61091E-07         0.45621E-09         0.00000E+00
    0.61079E-07         0.44975E-09         0.00000E+00
    0.61067E-07         0.44217E-09         0.00000E+00
    0.61055E-07         0.43351E-09         0.00000E+00
    0.61043E-07         0.42381E-09         0.00000E+00
    0.61031E-07         0.41309E-09         0.00000E+00
    0.61020E-07         0.40136E-09         0.00000E+00
    0.61009E-07         0.38864E-09         0.00000E+00
    0.60998E-07         0.37493E-09         0.00000E+00
    0.60987E-07         0.36024E-09         0.00000E+00
    0.60977E-07         0.34455E-09         0.00000E+00
    0.60967E-07         0.32784E-09         0.00000E+00
    0.60958E-07         0.31010E-09         0.00000E+00
    0.60949E-07         0.29129E-09         0.00000E+00
    0.60941E-07         0.27139E-09         0.00000E+00
    0.60934E-07         0.25034E-09         0.00000E+00
    0.60927E-07         0.22811E-09         0.00000E+00
    0.60921E-07         0.20463E-09         0.00000E+00
    0.60915E-07         0.17984E-09         0.00000E+00
    0.60911E-07         0.15369E-09         0.00000E+00
    0.60907E-07         0.12611E-09         0.00000E+00
    0.60904E-07         0.97018E-10         0.00000E+00
    0.60902E-07         0.66347E-10         0.00000E+00
    0.60901E-07         0.34016E-10         0.00000E+00
    0.60900E-07         0.17425E-10         0.00000E+00
    0.58906E-07         0.27184E-10         0.00000E+00
    0.58906E-07         0.53006E-10         0.00000E+00
    0.58906E-07         0.10283E-09         0.00000E+00
    0.58905E-07         0.14908E-09         0.00000E+00
    0.58904E-07         0.19191E-09         0.00000E+00
    0.58902E-07         0.23147E-09         0.00000E+00
    0.58900E-07         0.26788E-09         0.00000E+00
    0.58897E-07         0.30128E-09         0.00000E+00
    0.58895E-07         0.33179E-09         0.00000E+00
    0.58891E-07         0.35955E-09         0.00000E+00
    0.58888E-07         0.38465E-09         0.00000E+00
    0.58884E-07         0.40723E-09         0.00000E+00
    0.58880E-07         0.42738E-09         0.00000E+00
    0.58875E-07         0.44521E-09         0.00000E+00
    0.58870E-07         0.46081E-09         0.00000E+00
    0.58865E-07         0.47428E-09         0.00000E+00
    0.58859E-07         0.48572E-09         0.00000E+00
    0.58853E-07         0.49519E-09         0.00000E+00
    0.58847E-07         0.50279E-09         0.00000E+00
    0.58840E-07         0.50860E-09         0.00000E+00
    0.58833E-07         0.51268E-09         0.00000E+00
    0.58826E-07         0.51510E-09         0.00000E+00
    0.58819E-07         0.51592E-09         0.00000E+00
    0.58812E-07         0.51521E-09         0.00000E+00
    0.58805E-07         0.51302E-09         0.00000E+00
    0.58797E-07         0.50939E-09         0.00000E+00
    0.58789E-07         0.50438E-09         0.00000E+00
    0.58782E-07         0.49803E-09         0.00000E+00
    0.58774E-07         0.49036E-09         0.00000E+00
    0.58766E-07         0.48141E-09         0.00000E+00
    0.58759E-07         0.47121E-09         0.00000E+00
    0.58751E-07         0.45978E-09         0.00000E+00
    0.58744E-07         0.44712E-09         0.00000E+00
    0.58737E-07         0.43326E-09         0.00000E+00
    0.58730E-07         0.41821E-09         0.00000E+00
    0.58723E-07         0.40194E-09         0.00000E+00
    0.58717E-07         0.38448E-09         0.00000E+00
    0.58710E-07         0.36580E-09         0.00000E+00
    0.58704E-07         0.34589E-09         0.00000E+00
    0.58699E-07         0.32473E-09         0.00000E+00
    0.58694E-07         0.30230E-09         0.00000E+00
    0.58689E-07         0.27857E-09         0.00000E+00
    0.58685E-07         0.25351E-09         0.00000E+00
    0.58681E-07         0.22707E-09         0.00000E+00
    0.58678E-07         0.19923E-09         0.00000E+00
    0.58675E-07         0.16993E-09         0.00000E+00
    0.58673E-07         0.13913E-09         0.00000E+00
    0.58671E-07         0.10679E-09         0.00000E+00
    0.58670E-07         0.72844E-10         0.00000E+00
    0.58669E-07         0.37250E-10         0.00000E+00
    0.58669E-07         0.19034E-10         0.00000E+00
    0.56508E-07         0.27626E-10         0.00000E+00
    0.56508E-07         0.53935E-10         0.00000E+00
    0.56508E-07         0.10479E-09         0.00000E+00
    0.56507E-07         0.15217E-09         0.00000E+00
    0.56507E-07         0.19621E-09         0.00000E+00
    0.56507E-07         0.23705E-09         0.00000E+00
    0.56506E-07         0.27480E-09         0.00000E+00
    0.56505E-07         0.30958E-09         0.00000E+00
    0.56504E-07         0.34150E-09         0.00000E+00
    0.56503E-07         0.37068E-09         0.00000E+00
    0.56502E-07         0.39722E-09         0.00000E+00
    0.56501E-07         0.42122E-09         0.00000E+00
    0.56499E-07         0.44278E-09         0.00000E+00
    0.56497E-07         0.46199E-09         0.00000E+00
    0.56495E-07         0.47894E-09         0.00000E+00
    0.56492E-07         0.49371E-09         0.00000E+00
    0.56490E-07         0.50638E-09         0.00000E+00
    0.56487E-07         0.51703E-09         0.00000E+00
    0.56484E-07         0.52574E-09         0.00000E+00
    0.56481E-07         0.53257E-09         0.00000E+00
    0.56478E-07         0.53758E-09         0.00000E+00
    0.56474E-07         0.54084E-09         0.00000E+00
    0.56471E-07         0.54239E-09         0.00000E+00
    0.56467E-07         0.54231E-09         0.00000E+00
    0.56463E-07         0.54062E-09         0.00000E+00
    0.56459E-07         0.53739E-09         0.00000E+00
    0.56456E-07         0.53264E-09         0.00000E+00
    0.56452E-07         0.52641E-09         0.00000E+00
    0.56448E-07         0.51874E-09         0.00000E+00
    0.56444E-07         0.50966E-09         0.00000E+00
    0.56440E-07         0.49918E-09         0.00000E+00
    0.56436E-07         0.48733E-09         0.00000E+00
    0.56432E-07         0.47412E-09         0.00000E+00
    0.56428E-07         0.45957E-09         0.00000E+00
    0.56424E-07         0.44368E-09         0.00000E+00
    0.56421E-07         0.42646E-09         0.00000E+00
    0.56417E-07         0.40791E-09         0.00000E+00
    0.56414E-07         0.38802E-09         0.00000E+00
    0.56411E-07         0.36678E-09         0.00000E+00
    0.56408E-07         0.34418E-09         0.00000E+00
    0.56405E-07         0.32022E-09         0.00000E+00
    0.56403E-07         0.29487E-09         0.00000E+00
    0.56401E-07         0.26811E-09         0.00000E+00
    0.56399E-07         0.23991E-09         0.00000E+00
    0.56397E-07         0.21026E-09         0.00000E+00
    0.56396E-07         0.17911E-09         0.00000E+00
    0.56395E-07         0.14645E-09         0.00000E+00
    0.56394E-07         0.11224E-09         0.00000E+00
    0.56393E-07         0.76446E-10         0.00000E+00
    0.56393E-07         0.39028E-10         0.00000E+00
    0.56393E-07         0.19909E-10         0.00000E+00
    0.54106E-07         0.27365E-10         0.00000E+00
    0.54106E-07         0.53483E-10         0.00000E+00
    0.54106E-07         0.10404E-09         0.00000E+00
    0.54106E-07         0.15130E-09         0.00000E+00
    0.54107E-07         0.19537E-09         0.00000E+00
    0.54108E-07         0.23636E-09         0.00000E+00
    0.54108E-07         0.27439E-09         0.00000E+00
    0.54109E-07         0.30955E-09         0.00000E+00
    0.54110E-07         0.34194E-09         0.00000E+00
    0.54110E-07         0.37167E-09         0.00000E+00
    0.54111E-07         0.39881E-09         0.00000E+00
    0.54112E-07         0.42347E-09         0.00000E+00
    0.54112E-07         0.44572E-09         0.00000E+00
    0.54113E-07         0.46564E-09         0.00000E+00
    0.54113E-07         0.48332E-09         0.00000E+00
    0.54113E-07         0.49883E-09         0.00000E+00
    0.54113E-07         0.51224E-09         0.00000E+00
    0.54113E-07         0.52361E-09         0.00000E+00
    0.54113E-07         0.53301E-09         0.00000E+00
    0.54113E-07         0.54051E-09         0.00000E+00
    0.54113E-07         0.54615E-09         0.00000E+00
    0.54112E-07         0.55000E-09         0.00000E+00
    0.54112E-07         0.55209E-09         0.00000E+00
    0.54111E-07         0.55249E-09         0.00000E+00
    0.54111E-07         0.55122E-09         0.00000E+00
    0.54110E-07         0.54834E-09         0.00000E+00
    0.54109E-07         0.54387E-09         0.00000E+00
    0.54108E-07         0.53786E-09         0.00000E+00
    0.54107E-07         0.53032E-09         0.00000E+00
    0.54106E-07         0.52129E-09         0.00000E+00
    0.54105E-07         0.51079E-09         0.00000E+00
    0.54104E-07         0.49884E-09         0.00000E+00
    0.54103E-07         0.48545E-09         0.00000E+00
    0.54102E-07         0.47064E-09         0.00000E+00
    0.54101E-07         0.45442E-09         0.00000E+00
    0.54101E-07         0.43679E-09         0.00000E+00
    0.54100E-07         0.41776E-09         0.00000E+00
    0.54099E-07         0.39733E-09         0.00000E+00
    0.54098E-07         0.37549E-09         0.00000E+00
    0.54097E-07         0.35225E-09         0.00000E+00
    0.54097E-07         0.32759E-09         0.00000E+00
    0.54096E-07         0.30151E-09         0.00000E+00
    0.54096E-07         0.27398E-09         0.00000E+00
    0.54095E-07         0.24501E-09         0.00000E+00
    0.54095E-07         0.21456E-09         0.00000E+00
    0.54094E-07         0.18263E-09         0.00000E+00
    0.54094E-07         0.14920E-09         0.00000E+00
    0.54094E-07         0.11423E-09         0.00000E+00
    0.54094E-07         0.77722E-10         0.00000E+00
    0.54094E-07         0.39637E-10         0.00000E+00
    0.54094E-07         0.20198E-10         0.00000E+00
    0.51719E-07         0.26520E-10         0.00000E+00
    0.51719E-07         0.51881E-10         0.00000E+00
    0.51720E-07         0.10104E-09         0.00000E+00
    0.51721E-07         0.14712E-09         0.00000E+00
    0.51722E-07         0.19022E-09         0.00000E+00
    0.51724E-07         0.23042E-09         0.00000E+00
    0.51725E-07         0.26783E-09         0.00000E+00
    0.51727E-07         0.30252E-09         0.00000E+00
    0.51729E-07         0.33459E-09         0.00000E+00
    0.51732E-07         0.36410E-09         0.00000E+00
    0.51734E-07         0.39115E-09         0.00000E+00
    0.51736E-07         0.41580E-09         0.00000E+00
    0.51738E-07         0.43813E-09         0.00000E+00
    0.51741E-07         0.45821E-09         0.00000E+00
    0.51743E-07         0.47611E-09         0.00000E+00
    0.51746E-07         0.49188E-09         0.00000E+00
    0.51748E-07         0.50560E-09         0.00000E+00
    0.51750E-07         0.51731E-09         0.00000E+00
    0.51753E-07         0.52709E-09         0.00000E+00
    0.51755E-07         0.53497E-09         0.00000E+00
    0.51757E-07         0.54100E-09         0.00000E+00
    0.51759E-07         0.54524E-09         0.00000E+00
    0.51761E-07         0.54773E-09         0.00000E+00
    0.51763E-07         0.54851E-09         0.00000E+00
    0.51765E-07         0.54761E-09         0.00000E+00
    0.51767E-07         0.54508E-09         0.00000E+00
    0.51769E-07         0.54095E-09         0.00000E+00
    0.51770E-07         0.53524E-09         0.00000E+00
    0.51772E-07         0.52798E-09         0.00000E+00
    0.51774E-07         0.51920E-09         0.00000E+00
    0.51775E-07         0.50892E-09         0.00000E+00
    0.51776E-07         0.49715E-09         0.00000E+00
    0.51778E-07         0.48392E-09         0.00000E+00
    0.51779E-07         0.46924E-09         0.00000E+00
    0.51780E-07         0.45312E-09         0.00000E+00
    0.51782E-07         0.43556E-09         0.00000E+00
    0.51783E-07         0.41658E-09         0.00000E+00
    0.51784E-07         0.39618E-09         0.00000E+00
    0.51785E-07         0.37436E-09         0.00000E+00
    0.51786E-07         0.35111E-09         0.00000E+00
    0.51787E-07         0.32645E-09         0.00000E+00
    0.51788E-07         0.30036E-09         0.00000E+00
    0.51788E-07         0.27284E-09         0.00000E+00
    0.51789E-07         0.24388E-09         0.00000E+00
    0.51790E-07         0.21347E-09         0.00000E+00
    0.51790E-07         0.18160E-09         0.00000E+00
    0.51791E-07         0.14827E-09         0.00000E+00
    0.51791E-07         0.11345E-09         0.00000E+00
    0.51792E-07         0.77134E-10         0.00000E+00
    0.51792E-07         0.39309E-10         0.00000E+00
    0.51792E-07         0.20016E-10         0.00000E+00
    0.49365E-07         0.25211E-10         0.00000E+00
    0.49366E-07         0.49367E-10         0.00000E+00
    0.49366E-07         0.96248E-10         0.00000E+00
    0.49368E-07         0.14031E-09         0.00000E+00
    0.49370E-07         0.18163E-09         0.00000E+00
    0.49372E-07         0.22028E-09         0.00000E+00
    0.49374E-07         0.25633E-09         0.00000E+00
    0.49377E-07         0.28986E-09         0.00000E+00
    0.49380E-07         0.32094E-09         0.00000E+00
    0.49384E-07         0.34963E-09         0.00000E+00
    0.49387E-07         0.37600E-09         0.00000E+00
    0.49391E-07         0.40011E-09         0.00000E+00
    0.49395E-07         0.42202E-09         0.00000E+00
    0.49398E-07         0.44179E-09         0.00000E+00
    0.49403E-07         0.45948E-09         0.00000E+00
    0.49407E-07         0.47513E-09         0.00000E+00
    0.49411E-07         0.48881E-09         0.00000E+00
    0.49415E-07         0.50057E-09         0.00000E+00
    0.49419E-07         0.51044E-09         0.00000E+00
    0.49423E-07         0.51847E-09         0.00000E+00
    0.49427E-07         0.52471E-09         0.00000E+00
    0.49431E-07         0.52920E-09         0.00000E+00
    0.49436E-07         0.53197E-09         0.00000E+00
    0.49440E-07         0.53306E-09         0.00000E+00
    0.49444E-07         0.53251E-09         0.00000E+00
    0.49447E-07         0.53034E-09         0.00000E+00
    0.49451E-07         0.52658E-09         0.00000E+00
    0.49455E-07         0.52127E-09         0.00000E+00
    0.49459E-07         0.51442E-09         0.00000E+00
    0.49462E-07         0.50605E-09         0.00000E+00
    0.49466E-07         0.49620E-09         0.00000E+00
    0.49469E-07         0.48487E-09         0.00000E+00
    0.49472E-07         0.47208E-09         0.00000E+00
    0.49475E-07         0.45785E-09         0.00000E+00
    0.49478E-07         0.44218E-09         0.00000E+00
    0.49481E-07         0.42510E-09         0.00000E+00
    0.49484E-07         0.40660E-09         0.00000E+00
    0.49486E-07         0.38669E-09         0.00000E+00
    0.49489E-07         0.36537E-09         0.00000E+00
    0.49491E-07         0.34266E-09         0.00000E+00
    0.49493E-07         0.31855E-09         0.00000E+00
    0.49495E-07         0.29304E-09         0.00000E+00
    0.49497E-07         0.26613E-09         0.00000E+00
    0.49499E-07         0.23782E-09         0.00000E+00
    0.49501E-07         0.20811E-09         0.00000E+00
    0.49502E-07         0.17698E-09         0.00000E+00
    0.49503E-07         0.14444E-09         0.00000E+00
    0.49504E-07         0.11047E-09         0.00000E+00
    0.49504E-07         0.75075E-10         0.00000E+00
    0.49505E-07         0.38241E-10         0.00000E+00
    0.49505E-07         0.19463E-10         0.00000E+00
    0.47058E-07         0.23558E-10         0.00000E+00
    0.47059E-07         0.46170E-10         0.00000E+00
    0.47060E-07         0.90109E-10         0.00000E+00
    0.47061E-07         0.13151E-09         0.00000E+00
    0.47063E-07         0.17043E-09         0.00000E+00
    0.47066E-07         0.20693E-09         0.00000E+00
    0.47069E-07         0.24106E-09         0.00000E+00
    0.47073E-07         0.27289E-09         0.00000E+00
    0.47077E-07         0.30247E-09         0.00000E+00
    0.47081E-07         0.32985E-09         0.00000E+00
    0.47085E-07         0.35508E-09         0.00000E+00
    0.47090E-07         0.37822E-09         0.00000E+00
    0.47095E-07         0.39931E-09         0.00000E+00
    0.47100E-07         0.41840E-09         0.00000E+00
    0.47105E-07         0.43554E-09         0.00000E+00
    0.47111E-07         0.45077E-09         0.00000E+00
    0.47116E-07         0.46414E-09         0.00000E+00
    0.47122E-07         0.47568E-09         0.00000E+00
    0.47127E-07         0.48543E-09         0.00000E+00
    0.47133E-07         0.49343E-09         0.00000E+00
    0.47139E-07         0.49973E-09         0.00000E+00
    0.47144E-07         0.50434E-09         0.00000E+00
    0.47150E-07         0.50731E-09         0.00000E+00
    0.47155E-07         0.50866E-09         0.00000E+00
    0.47161E-07         0.50842E-09         0.00000E+00
    0.47166E-07         0.50662E-09         0.00000E+00
    0.47172E-07         0.50328E-09         0.00000E+00
    0.47177E-07         0.49844E-09         0.00000E+00
    0.47182E-07         0.49210E-09         0.00000E+00
    0.47187E-07         0.48429E-09         0.00000E+00
    0.47192E-07         0.47502E-09         0.00000E+00
    0.47197E-07         0.46433E-09         0.00000E+00
    0.47202E-07         0.45221E-09         0.00000E+00
    0.47206E-07         0.43868E-09         0.00000E+00
    0.47211E-07         0.42376E-09         0.00000E+00
    0.47215E-07         0.40745E-09         0.00000E+00
    0.47219E-07         0.38977E-09         0.00000E+00
    0.47222E-07         0.37072E-09         0.00000E+00
    0.47226E-07         0.35030E-09         0.00000E+00
    0.47229E-07         0.32853E-09         0.00000E+00
    0.47233E-07         0.30541E-09         0.00000E+00
    0.47235E-07         0.28094E-09         0.00000E+00
    0.47238E-07         0.25512E-09         0.00000E+00
    0.47240E-07         0.22795E-09         0.00000E+00
    0.47243E-07         0.19944E-09         0.00000E+00
    0.47244E-07         0.16958E-09         0.00000E+00
    0.47246E-07         0.13837E-09         0.00000E+00
    0.47247E-07         0.10580E-09         0.00000E+00
    0.47248E-07         0.71881E-10         0.00000E+00
    0.47249E-07         0.36603E-10         0.00000E+00
    0.47249E-07         0.18623E-10         0.00000E+00
    0.44810E-07         0.21666E-10         0.00000E+00
    0.44811E-07         0.42498E-10         0.00000E+00
    0.44812E-07         0.83028E-10         0.00000E+00
    0.44814E-07         0.12131E-09         0.00000E+00
    0.44816E-07         0.15739E-09         0.00000E+00
    0.44819E-07         0.19130E-09         0.00000E+00
    0.44823E-07         0.22310E-09         0.00000E+00
    0.44827E-07         0.25283E-09         0.00000E+00
    0.44831E-07         0.28052E-09         0.00000E+00
    0.44836E-07         0.30623E-09         0.00000E+00
    0.44841E-07         0.32998E-09         0.00000E+00
    0.44847E-07         0.35182E-09         0.00000E+00
    0.44852E-07         0.37178E-09         0.00000E+00
    0.44858E-07         0.38991E-09         0.00000E+00
    0.44864E-07         0.40624E-09         0.00000E+00
    0.44871E-07         0.42080E-09         0.00000E+00
    0.44877E-07         0.43364E-09         0.00000E+00
    0.44884E-07         0.44477E-09         0.00000E+00
    0.44890E-07         0.45424E-09         0.00000E+00
    0.44897E-07         0.46207E-09         0.00000E+00
    0.44904E-07         0.46829E-09         0.00000E+00
    0.44910E-07         0.47293E-09         0.00000E+00
    0.44917E-07         0.47602E-09         0.00000E+00
    0.44924E-07         0.47758E-09         0.00000E+00
    0.44931E-07         0.47763E-09         0.00000E+00
    0.44937E-07         0.47621E-09         0.00000E+00
    0.44944E-07         0.47332E-09         0.00000E+00
    0.44950E-07         0.46899E-09         0.00000E+00
    0.44956E-07         0.46323E-09         0.00000E+00
    0.44963E-07         0.45608E-09         0.00000E+00
    0.44969E-07         0.44753E-09         0.00000E+00
    0.44974E-07         0.43761E-09         0.00000E+00
    0.44980E-07         0.42633E-09         0.00000E+00
    0.44986E-07         0.41370E-09         0.00000E+00
    0.44991E-07         0.39973E-09         0.00000E+00
    0.44996E-07         0.38444E-09         0.00000E+00
    0.45001E-07         0.36783E-09         0.00000E+00
    0.45005E-07         0.34991E-09         0.00000E+00
    0.45010E-07         0.33069E-09         0.00000E+00
    0.45014E-07         0.31017E-09         0.00000E+00
    0.45018E-07         0.28837E-09         0.00000E+00
    0.45021E-07         0.26527E-09         0.00000E+00
    0.45025E-07         0.24090E-09         0.00000E+00
    0.45027E-07         0.21524E-09         0.00000E+00
    0.45030E-07         0.18831E-09         0.00000E+00
    0.45032E-07         0.16011E-09         0.00000E+00
    0.45034E-07         0.13063E-09         0.00000E+00
    0.45036E-07         0.99871E-10         0.00000E+00
    0.45037E-07         0.67842E-10         0.00000E+00
    0.45037E-07         0.34541E-10         0.00000E+00
    0.45038E-07         0.17571E-10         0.00000E+00
    0.42632E-07         0.19628E-10         0.00000E+00
    0.42632E-07         0.38536E-10         0.00000E+00
    0.42634E-07         0.75365E-10         0.00000E+00
    0.42636E-07         0.11024E-09         0.00000E+00
    0.42638E-07         0.14318E-09         0.00000E+00
    0.42641E-07         0.17423E-09         0.00000E+00
    0.42645E-07         0.20342E-09         0.00000E+00
    0.42649E-07         0.23077E-09         0.00000E+00
    0.42654E-07         0.25631E-09         0.00000E+00
    0.42659E-07         0.28009E-09         0.00000E+00
    0.42665E-07         0.30211E-09         0.00000E+00
    0.42671E-07         0.32242E-09         0.00000E+00
    0.42677E-07         0.34104E-09         0.00000E+00
    0.42683E-07         0.35799E-09         0.00000E+00
    0.42690E-07         0.37332E-09         0.00000E+00
    0.42697E-07         0.38703E-09         0.00000E+00
    0.42704E-07         0.39917E-09         0.00000E+00
    0.42711E-07         0.40975E-09         0.00000E+00
    0.42719E-07         0.41880E-09         0.00000E+00
    0.42726E-07         0.42634E-09         0.00000E+00
    0.42733E-07         0.43239E-09         0.00000E+00
    0.42741E-07         0.43698E-09         0.00000E+00
    0.42748E-07         0.44013E-09         0.00000E+00
    0.42756E-07         0.44186E-09         0.00000E+00
    0.42763E-07         0.44218E-09         0.00000E+00
    0.42771E-07         0.44111E-09         0.00000E+00
    0.42778E-07         0.43868E-09         0.00000E+00
    0.42785E-07         0.43490E-09         0.00000E+00
    0.42792E-07         0.42978E-09         0.00000E+00
    0.42799E-07         0.42333E-09         0.00000E+00
    0.42806E-07         0.41558E-09         0.00000E+00
    0.42812E-07         0.40654E-09         0.00000E+00
    0.42819E-07         0.39621E-09         0.00000E+00
    0.42825E-07         0.38461E-09         0.00000E+00
    0.42831E-07         0.37175E-09         0.00000E+00
    0.42837E-07         0.35764E-09         0.00000E+00
    0.42842E-07         0.34228E-09         0.00000E+00
    0.42847E-07         0.32569E-09         0.00000E+00
    0.42852E-07         0.30786E-09         0.00000E+00
    0.42857E-07         0.28882E-09         0.00000E+00
    0.42861E-07         0.26856E-09         0.00000E+00
    0.42865E-07         0.24709E-09         0.00000E+00
    0.42869E-07         0.22441E-09         0.00000E+00
    0.42872E-07         0.20053E-09         0.00000E+00
    0.42875E-07         0.17545E-09         0.00000E+00
    0.42877E-07         0.14918E-09         0.00000E+00
    0.42879E-07         0.12171E-09         0.00000E+00
    0.42881E-07         0.93057E-10         0.00000E+00
    0.42882E-07         0.63212E-10         0.00000E+00
    0.42883E-07         0.32182E-10         0.00000E+00
    0.42883E-07         0.16370E-10         0.00000E+00
    0.40531E-07         0.17526E-10         0.00000E+00
    0.40532E-07         0.34440E-10         0.00000E+00
    0.40533E-07         0.67426E-10         0.00000E+00
    0.40535E-07         0.98740E-10         0.00000E+00
    0.40538E-07         0.12840E-09         0.00000E+00
    0.40541E-07         0.15642E-09         0.00000E+00
    0.40545E-07         0.18283E-09         0.00000E+00
    0.40549E-07         0.20765E-09         0.00000E+00
    0.40554E-07         0.23088E-09         0.00000E+00
    0.40559E-07         0.25256E-09         0.00000E+00
    0.40565E-07         0.27270E-09         0.00000E+00
    0.40571E-07         0.29132E-09         0.00000E+00
    0.40578E-07         0.30845E-09         0.00000E+00
    0.40584E-07         0.32409E-09         0.00000E+00
    0.40591E-07         0.33828E-09         0.00000E+00
    0.40599E-07         0.35102E-09         0.00000E+00
    0.40606E-07         0.36234E-09         0.00000E+00
    0.40614E-07         0.37226E-09         0.00000E+00
    0.40621E-07         0.38079E-09         0.00000E+00
    0.40629E-07         0.38796E-09         0.00000E+00
    0.40637E-07         0.39377E-09         0.00000E+00
    0.40645E-07         0.39824E-09         0.00000E+00
    0.40653E-07         0.40140E-09         0.00000E+00
    0.40660E-07         0.40324E-09         0.00000E+00
    0.40668E-07         0.40380E-09         0.00000E+00
    0.40676E-07         0.40309E-09         0.00000E+00
    0.40684E-07         0.40111E-09         0.00000E+00
    0.40691E-07         0.39788E-09         0.00000E+00
    0.40699E-07         0.39341E-09         0.00000E+00
    0.40706E-07         0.38772E-09         0.00000E+00
    0.40713E-07         0.38081E-09         0.00000E+00
    0.40720E-07         0.37270E-09         0.00000E+00
    0.40727E-07         0.36340E-09         0.00000E+00
    0.40734E-07         0.35291E-09         0.00000E+00
    0.40740E-07         0.34124E-09         0.00000E+00
    0.40746E-07         0.32841E-09         0.00000E+00
    0.40752E-07         0.31442E-09         0.00000E+00
    0.40758E-07         0.29927E-09         0.00000E+00
    0.40763E-07         0.28298E-09         0.00000E+00
    0.40768E-07         0.26555E-09         0.00000E+00
    0.40772E-07         0.24699E-09         0.00000E+00
    0.40777E-07         0.22729E-09         0.00000E+00
    0.40781E-07         0.20647E-09         0.00000E+00
    0.40784E-07         0.18454E-09         0.00000E+00
    0.40787E-07         0.16149E-09         0.00000E+00
    0.40790E-07         0.13732E-09         0.00000E+00
    0.40792E-07         0.11205E-09         0.00000E+00
    0.40794E-07         0.85680E-10         0.00000E+00
    0.40795E-07         0.58207E-10         0.00000E+00
    0.40796E-07         0.29635E-10         0.00000E+00
    0.40796E-07         0.15076E-10         0.00000E+00
    0.38515E-07         0.15425E-10         0.00000E+00
    0.38515E-07         0.30339E-10         0.00000E+00
    0.38517E-07         0.59466E-10         0.00000E+00
    0.38519E-07         0.87190E-10         0.00000E+00
    0.38521E-07         0.11352E-09         0.00000E+00
    0.38525E-07         0.13847E-09         0.00000E+00
    0.38528E-07         0.16204E-09         0.00000E+00
    0.38533E-07         0.18424E-09         0.00000E+00
    0.38538E-07         0.20509E-09         0.00000E+00
    0.38543E-07         0.22460E-09         0.00000E+00
    0.38549E-07         0.24278E-09         0.00000E+00
    0.38555E-07         0.25963E-09         0.00000E+00
    0.38561E-07         0.27518E-09         0.00000E+00
    0.38568E-07         0.28943E-09         0.00000E+00
    0.38575E-07         0.30239E-09         0.00000E+00
    0.38582E-07         0.31409E-09         0.00000E+00
    0.38590E-07         0.32452E-09         0.00000E+00
    0.38598E-07         0.33370E-09         0.00000E+00
    0.38605E-07         0.34165E-09         0.00000E+00
    0.38613E-07         0.34837E-09         0.00000E+00
    0.38621E-07         0.35388E-09         0.00000E+00
    0.38629E-07         0.35819E-09         0.00000E+00
    0.38637E-07         0.36130E-09         0.00000E+00
    0.38645E-07         0.36324E-09         0.00000E+00
    0.38653E-07         0.36400E-09         0.00000E+00
    0.38661E-07         0.36361E-09         0.00000E+00
    0.38669E-07         0.36207E-09         0.00000E+00
    0.38677E-07         0.35938E-09         0.00000E+00
    0.38685E-07         0.35557E-09         0.00000E+00
    0.38692E-07         0.35063E-09         0.00000E+00
    0.38699E-07         0.34458E-09         0.00000E+00
    0.38707E-07         0.33743E-09         0.00000E+00
    0.38714E-07         0.32918E-09         0.00000E+00
    0.38720E-07         0.31983E-09         0.00000E+00
    0.38727E-07         0.30941E-09         0.00000E+00
    0.38733E-07         0.29791E-09         0.00000E+00
    0.38739E-07         0.28534E-09         0.00000E+00
    0.38745E-07         0.27170E-09         0.00000E+00
    0.38750E-07         0.25701E-09         0.00000E+00
    0.38755E-07         0.24127E-09         0.00000E+00
    0.38760E-07         0.22448E-09         0.00000E+00
    0.38764E-07         0.20664E-09         0.00000E+00
    0.38768E-07         0.18777E-09         0.00000E+00
    0.38772E-07         0.16787E-09         0.00000E+00
    0.38775E-07         0.14694E-09         0.00000E+00
    0.38778E-07         0.12498E-09         0.00000E+00
    0.38780E-07         0.10201E-09         0.00000E+00
    0.38782E-07         0.78013E-10         0.00000E+00
    0.38783E-07         0.53007E-10         0.00000E+00
    0.38784E-07         0.26992E-10         0.00000E+00
    0.38784E-07         0.13733E-10         0.00000E+00
    0.36588E-07         0.13377E-10         0.00000E+00
    0.36589E-07         0.26339E-10         0.00000E+00
    0.36590E-07         0.51688E-10         0.00000E+00
    0.36592E-07         0.75888E-10         0.00000E+00
    0.36594E-07         0.98937E-10         0.00000E+00
    0.36597E-07         0.12084E-09         0.00000E+00
    0.36601E-07         0.14159E-09         0.00000E+00
    0.36605E-07         0.16120E-09         0.00000E+00
    0.36610E-07         0.17966E-09         0.00000E+00
    0.36615E-07         0.19699E-09         0.00000E+00
    0.36621E-07         0.21318E-09         0.00000E+00
    0.36627E-07         0.22825E-09         0.00000E+00
    0.36633E-07         0.24219E-09         0.00000E+00
    0.36640E-07         0.25501E-09         0.00000E+00
    0.36647E-07         0.26671E-09         0.00000E+00
    0.36654E-07         0.27732E-09         0.00000E+00
    0.36661E-07         0.28682E-09         0.00000E+00
    0.36669E-07         0.29522E-09         0.00000E+00
    0.36677E-07         0.30254E-09         0.00000E+00
    0.36684E-07         0.30878E-09         0.00000E+00
    0.36692E-07         0.31395E-09         0.00000E+00
    0.36700E-07         0.31805E-09         0.00000E+00
    0.36708E-07         0.32109E-09         0.00000E+00
    0.36716E-07         0.32308E-09         0.00000E+00
    0.36724E-07         0.32402E-09         0.00000E+00
    0.36732E-07         0.32392E-09         0.00000E+00
    0.36740E-07         0.32278E-09         0.00000E+00
    0.36747E-07         0.32062E-09         0.00000E+00
    0.36755E-07         0.31744E-09         0.00000E+00
    0.36763E-07         0.31325E-09         0.00000E+00
    0.36770E-07         0.30804E-09         0.00000E+00
    0.36777E-07         0.30184E-09         0.00000E+00
    0.36784E-07         0.29463E-09         0.00000E+00
    0.36791E-07         0.28644E-09         0.00000E+00
    0.36797E-07         0.27725E-09         0.00000E+00
    0.36804E-07         0.26709E-09         0.00000E+00
    0.36810E-07         0.25595E-09         0.00000E+00
    0.36815E-07         0.24384E-09         0.00000E+00
    0.36821E-07         0.23077E-09         0.00000E+00
    0.36826E-07         0.21673E-09         0.00000E+00
    0.36830E-07         0.20173E-09         0.00000E+00
    0.36835E-07         0.18578E-09         0.00000E+00
    0.36839E-07         0.16888E-09         0.00000E+00
    0.36842E-07         0.15103E-09         0.00000E+00
    0.36845E-07         0.13225E-09         0.00000E+00
    0.36848E-07         0.11252E-09         0.00000E+00
    0.36850E-07         0.91867E-10         0.00000E+00
    0.36852E-07         0.70280E-10         0.00000E+00
    0.36853E-07         0.47766E-10         0.00000E+00
    0.36854E-07         0.24330E-10         0.00000E+00
    0.36854E-07         0.12381E-10         0.00000E+00
    0.34754E-07         0.11423E-10         0.00000E+00
    0.34755E-07         0.22519E-10         0.00000E+00
    0.34756E-07         0.44252E-10         0.00000E+00
    0.34757E-07         0.65066E-10         0.00000E+00
    0.34760E-07         0.84955E-10         0.00000E+00
    0.34763E-07         0.10391E-09         0.00000E+00
    0.34766E-07         0.12193E-09         0.00000E+00
    0.34771E-07         0.13901E-09         0.00000E+00
    0.34775E-07         0.15515E-09         0.00000E+00
    0.34780E-07         0.17034E-09         0.00000E+00
    0.34785E-07         0.18459E-09         0.00000E+00
    0.34791E-07         0.19788E-09         0.00000E+00
    0.34797E-07         0.21023E-09         0.00000E+00
    0.34804E-07         0.22163E-09         0.00000E+00
    0.34810E-07         0.23208E-09         0.00000E+00
    0.34817E-07         0.24158E-09         0.00000E+00
    0.34824E-07         0.25014E-09         0.00000E+00
    0.34832E-07         0.25775E-09         0.00000E+00
    0.34839E-07         0.26442E-09         0.00000E+00
    0.34846E-07         0.27016E-09         0.00000E+00
    0.34854E-07         0.27495E-09         0.00000E+00
    0.34862E-07         0.27882E-09         0.00000E+00
    0.34869E-07         0.28175E-09         0.00000E+00
    0.34877E-07         0.28376E-09         0.00000E+00
    0.34885E-07         0.28484E-09         0.00000E+00
    0.34892E-07         0.28500E-09         0.00000E+00
    0.34900E-07         0.28424E-09         0.00000E+00
    0.34908E-07         0.28257E-09         0.00000E+00
    0.34915E-07         0.27999E-09         0.00000E+00
    0.34922E-07         0.27650E-09         0.00000E+00
    0.34929E-07         0.27211E-09         0.00000E+00
    0.34936E-07         0.26682E-09         0.00000E+00
    0.34943E-07         0.26064E-09         0.00000E+00
    0.34950E-07         0.25356E-09         0.00000E+00
    0.34956E-07         0.24559E-09         0.00000E+00
    0.34962E-07         0.23674E-09         0.00000E+00
    0.34968E-07         0.22700E-09         0.00000E+00
    0.34974E-07         0.21639E-09         0.00000E+00
    0.34979E-07         0.20490E-09         0.00000E+00
    0.34984E-07         0.19254E-09         0.00000E+00
    0.34988E-07         0.17931E-09         0.00000E+00
    0.34992E-07         0.16522E-09         0.00000E+00
    0.34996E-07         0.15026E-09         0.00000E+00
    0.35000E-07         0.13445E-09         0.00000E+00
    0.35003E-07         0.11778E-09         0.00000E+00
    0.35006E-07         0.10025E-09         0.00000E+00
    0.35008E-07         0.81882E-10         0.00000E+00
    0.35009E-07         0.62665E-10         0.00000E+00
    0.35011E-07         0.42607E-10         0.00000E+00
    0.35011E-07         0.21709E-10         0.00000E+00
    0.35012E-07         0.11051E-10         0.00000E+00
    0.33016E-07         0.95941E-11         0.00000E+00
    0.33016E-07         0.18938E-10         0.00000E+00
    0.33017E-07         0.37274E-10         0.00000E+00
    0.33019E-07         0.54899E-10         0.00000E+00
    0.33021E-07         0.71802E-10         0.00000E+00
    0.33024E-07         0.87972E-10         0.00000E+00
    0.33027E-07         0.10340E-09         0.00000E+00
    0.33031E-07         0.11807E-09         0.00000E+00
    0.33035E-07         0.13198E-09         0.00000E+00
    0.33040E-07         0.14513E-09         0.00000E+00
    0.33045E-07         0.15750E-09         0.00000E+00
    0.33050E-07         0.16908E-09         0.00000E+00
    0.33056E-07         0.17989E-09         0.00000E+00
    0.33062E-07         0.18990E-09         0.00000E+00
    0.33068E-07         0.19912E-09         0.00000E+00
    0.33075E-07         0.20755E-09         0.00000E+00
    0.33081E-07         0.21517E-09         0.00000E+00
    0.33088E-07         0.22200E-09         0.00000E+00
    0.33095E-07         0.22802E-09         0.00000E+00
    0.33102E-07         0.23324E-09         0.00000E+00
    0.33110E-07         0.23765E-09         0.00000E+00
    0.33117E-07         0.24126E-09         0.00000E+00
    0.33124E-07         0.24406E-09         0.00000E+00
    0.33131E-07         0.24606E-09         0.00000E+00
    0.33139E-07         0.24725E-09         0.00000E+00
    0.33146E-07         0.24764E-09         0.00000E+00
    0.33153E-07         0.24722E-09         0.00000E+00
    0.33160E-07         0.24600E-09         0.00000E+00
    0.33168E-07         0.24398E-09         0.00000E+00
    0.33174E-07         0.24115E-09         0.00000E+00
    0.33181E-07         0.23753E-09         0.00000E+00
    0.33188E-07         0.23311E-09         0.00000E+00
    0.33194E-07         0.22789E-09         0.00000E+00
    0.33201E-07         0.22187E-09         0.00000E+00
    0.33207E-07         0.21507E-09         0.00000E+00
    0.33213E-07         0.20747E-09         0.00000E+00
    0.33218E-07         0.19908E-09         0.00000E+00
    0.33223E-07         0.18990E-09         0.00000E+00
    0.33228E-07         0.17994E-09         0.00000E+00
    0.33233E-07         0.16920E-09         0.00000E+00
    0.33238E-07         0.15767E-09         0.00000E+00
    0.33242E-07         0.14537E-09         0.00000E+00
    0.33245E-07         0.13229E-09         0.00000E+00
    0.33249E-07         0.11843E-09         0.00000E+00
    0.33252E-07         0.10380E-09         0.00000E+00
    0.33254E-07         0.88406E-10         0.00000E+00
    0.33256E-07         0.72243E-10         0.00000E+00
    0.33258E-07         0.55316E-10         0.00000E+00
    0.33259E-07         0.37628E-10         0.00000E+00
    0.33260E-07         0.19181E-10         0.00000E+00
    0.33260E-07         0.97685E-11         0.00000E+00
    0.31374E-07         0.79102E-11         0.00000E+00
    0.31374E-07         0.15639E-10         0.00000E+00
    0.31375E-07         0.30838E-10         0.00000E+00
    0.31376E-07         0.45511E-10         0.00000E+00
    0.31379E-07         0.59643E-10         0.00000E+00
    0.31381E-07         0.73217E-10         0.00000E+00
    0.31384E-07         0.86221E-10         0.00000E+00
    0.31388E-07         0.98641E-10         0.00000E+00
    0.31392E-07         0.11047E-09         0.00000E+00
    0.31396E-07         0.12168E-09         0.00000E+00
    0.31401E-07         0.13228E-09         0.00000E+00
    0.31406E-07         0.14226E-09         0.00000E+00
    0.31411E-07         0.15160E-09         0.00000E+00
    0.31416E-07         0.16029E-09         0.00000E+00
    0.31422E-07         0.16834E-09         0.00000E+00
    0.31428E-07         0.17572E-09         0.00000E+00
    0.31434E-07         0.18245E-09         0.00000E+00
    0.31441E-07         0.18851E-09         0.00000E+00
    0.31447E-07         0.19389E-09         0.00000E+00
    0.31454E-07         0.19860E-09         0.00000E+00
    0.31461E-07         0.20263E-09         0.00000E+00
    0.31467E-07         0.20597E-09         0.00000E+00
    0.31474E-07         0.20862E-09         0.00000E+00
    0.31481E-07         0.21058E-09         0.00000E+00
    0.31488E-07         0.21186E-09         0.00000E+00
    0.31495E-07         0.21243E-09         0.00000E+00
    0.31501E-07         0.21231E-09         0.00000E+00
    0.31508E-07         0.21150E-09         0.00000E+00
    0.31515E-07         0.20998E-09         0.00000E+00
    0.31521E-07         0.20776E-09         0.00000E+00
    0.31528E-07         0.20485E-09         0.00000E+00
    0.31534E-07         0.20123E-09         0.00000E+00
    0.31540E-07         0.19691E-09         0.00000E+00
    0.31546E-07         0.19189E-09         0.00000E+00
    0.31552E-07         0.18617E-09         0.00000E+00
    0.31557E-07         0.17975E-09         0.00000E+00
    0.31562E-07         0.17263E-09         0.00000E+00
    0.31567E-07         0.16481E-09         0.00000E+00
    0.31572E-07         0.15629E-09         0.00000E+00
    0.31576E-07         0.14707E-09         0.00000E+00
    0.31580E-07         0.13716E-09         0.00000E+00
    0.31584E-07         0.12654E-09         0.00000E+00
    0.31588E-07         0.11524E-09         0.00000E+00
    0.31591E-07         0.10324E-09         0.00000E+00
    0.31594E-07         0.90550E-10         0.00000E+00
    0.31596E-07         0.77169E-10         0.00000E+00
    0.31598E-07         0.63100E-10         0.00000E+00
    0.31600E-07         0.48345E-10         0.00000E+00
    0.31601E-07         0.32905E-10         0.00000E+00
    0.31601E-07         0.16783E-10         0.00000E+00
    0.31602E-07         0.85518E-11         0.00000E+00
    0.29829E-07         0.63848E-11         0.00000E+00
    0.29829E-07         0.12648E-10         0.00000E+00
    0.29830E-07         0.24996E-10         0.00000E+00
    0.29831E-07         0.36980E-10         0.00000E+00
    0.29833E-07         0.48582E-10         0.00000E+00
    0.29836E-07         0.59781E-10         0.00000E+00
    0.29838E-07         0.70563E-10         0.00000E+00
    0.29842E-07         0.80910E-10         0.00000E+00
    0.29845E-07         0.90808E-10         0.00000E+00
    0.29849E-07         0.10024E-09         0.00000E+00
    0.29853E-07         0.10920E-09         0.00000E+00
    0.29858E-07         0.11767E-09         0.00000E+00
    0.29863E-07         0.12564E-09         0.00000E+00
    0.29868E-07         0.13310E-09         0.00000E+00
    0.29873E-07         0.14004E-09         0.00000E+00
    0.29878E-07         0.14645E-09         0.00000E+00
    0.29884E-07         0.15232E-09         0.00000E+00
    0.29890E-07         0.15765E-09         0.00000E+00
    0.29896E-07         0.16242E-09         0.00000E+00
    0.29902E-07         0.16663E-09         0.00000E+00
    0.29908E-07         0.17028E-09         0.00000E+00
    0.29914E-07         0.17335E-09         0.00000E+00
    0.29920E-07         0.17584E-09         0.00000E+00
    0.29927E-07         0.17775E-09         0.00000E+00
    0.29933E-07         0.17907E-09         0.00000E+00
    0.29939E-07         0.17981E-09         0.00000E+00
    0.29946E-07         0.17994E-09         0.00000E+00
    0.29952E-07         0.17948E-09         0.00000E+00
    0.29958E-07         0.17842E-09         0.00000E+00
    0.29964E-07         0.17675E-09         0.00000E+00
    0.29970E-07         0.17447E-09         0.00000E+00
    0.29975E-07         0.17159E-09         0.00000E+00
    0.29981E-07         0.16810E-09         0.00000E+00
    0.29986E-07         0.16399E-09         0.00000E+00
    0.29992E-07         0.15927E-09         0.00000E+00
    0.29997E-07         0.15394E-09         0.00000E+00
    0.30002E-07         0.14799E-09         0.00000E+00
    0.30006E-07         0.14142E-09         0.00000E+00
    0.30011E-07         0.13424E-09         0.00000E+00
    0.30015E-07         0.12644E-09         0.00000E+00
    0.30018E-07         0.11802E-09         0.00000E+00
    0.30022E-07         0.10898E-09         0.00000E+00
    0.30025E-07         0.99333E-10         0.00000E+00
    0.30028E-07         0.89064E-10         0.00000E+00
    0.30031E-07         0.78179E-10         0.00000E+00
    0.30033E-07         0.66678E-10         0.00000E+00
    0.30035E-07         0.54564E-10         0.00000E+00
    0.30036E-07         0.41835E-10         0.00000E+00
    0.30037E-07         0.28495E-10         0.00000E+00
    0.30038E-07         0.14544E-10         0.00000E+00
    0.30038E-07         0.74155E-11         0.00000E+00
    0.28381E-07         0.50245E-11         0.00000E+00
    0.28381E-07         0.99779E-11         0.00000E+00
    0.28382E-07         0.19777E-10         0.00000E+00
    0.28383E-07         0.29351E-10         0.00000E+00
    0.28385E-07         0.38678E-10         0.00000E+00
    0.28387E-07         0.47738E-10         0.00000E+00
    0.28389E-07         0.56512E-10         0.00000E+00
    0.28392E-07         0.64983E-10         0.00000E+00
    0.28395E-07         0.73132E-10         0.00000E+00
    0.28399E-07         0.80945E-10         0.00000E+00
    0.28402E-07         0.88406E-10         0.00000E+00
    0.28407E-07         0.95500E-10         0.00000E+00
    0.28411E-07         0.10221E-09         0.00000E+00
    0.28415E-07         0.10854E-09         0.00000E+00
    0.28420E-07         0.11445E-09         0.00000E+00
    0.28425E-07         0.11995E-09         0.00000E+00
    0.28430E-07         0.12503E-09         0.00000E+00
    0.28435E-07         0.12967E-09         0.00000E+00
    0.28441E-07         0.13386E-09         0.00000E+00
    0.28446E-07         0.13760E-09         0.00000E+00
    0.28452E-07         0.14087E-09         0.00000E+00
    0.28457E-07         0.14367E-09         0.00000E+00
    0.28463E-07         0.14600E-09         0.00000E+00
    0.28469E-07         0.14784E-09         0.00000E+00
    0.28474E-07         0.14919E-09         0.00000E+00
    0.28480E-07         0.15004E-09         0.00000E+00
    0.28486E-07         0.15040E-09         0.00000E+00
    0.28491E-07         0.15024E-09         0.00000E+00
    0.28497E-07         0.14957E-09         0.00000E+00
    0.28502E-07         0.14839E-09         0.00000E+00
    0.28507E-07         0.14669E-09         0.00000E+00
    0.28513E-07         0.14446E-09         0.00000E+00
    0.28518E-07         0.14171E-09         0.00000E+00
    0.28523E-07         0.13843E-09         0.00000E+00
    0.28528E-07         0.13462E-09         0.00000E+00
    0.28532E-07         0.13027E-09         0.00000E+00
    0.28537E-07         0.12538E-09         0.00000E+00
    0.28541E-07         0.11996E-09         0.00000E+00
    0.28545E-07         0.11400E-09         0.00000E+00
    0.28548E-07         0.10749E-09         0.00000E+00
    0.28552E-07         0.10044E-09         0.00000E+00
    0.28555E-07         0.92850E-10         0.00000E+00
    0.28558E-07         0.84713E-10         0.00000E+00
    0.28561E-07         0.76031E-10         0.00000E+00
    0.28563E-07         0.66803E-10         0.00000E+00
    0.28565E-07         0.57029E-10         0.00000E+00
    0.28567E-07         0.46710E-10         0.00000E+00
    0.28568E-07         0.35846E-10         0.00000E+00
    0.28569E-07         0.24437E-10         0.00000E+00
    0.28570E-07         0.12483E-10         0.00000E+00
    0.28570E-07         0.63696E-11         0.00000E+00
    0.27028E-07         0.38310E-11         0.00000E+00
    0.27029E-07         0.76335E-11         0.00000E+00
    0.27029E-07         0.15190E-10         0.00000E+00
    0.27030E-07         0.22637E-10         0.00000E+00
    0.27032E-07         0.29952E-10         0.00000E+00
    0.27034E-07         0.37115E-10         0.00000E+00
    0.27036E-07         0.44105E-10         0.00000E+00
    0.27038E-07         0.50903E-10         0.00000E+00
    0.27041E-07         0.57490E-10         0.00000E+00
    0.27044E-07         0.63850E-10         0.00000E+00
    0.27047E-07         0.69964E-10         0.00000E+00
    0.27051E-07         0.75819E-10         0.00000E+00
    0.27055E-07         0.81398E-10         0.00000E+00
    0.27059E-07         0.86687E-10         0.00000E+00
    0.27063E-07         0.91674E-10         0.00000E+00
    0.27067E-07         0.96344E-10         0.00000E+00
    0.27072E-07         0.10069E-09         0.00000E+00
    0.27077E-07         0.10469E-09         0.00000E+00
    0.27081E-07         0.10834E-09         0.00000E+00
    0.27086E-07         0.11164E-09         0.00000E+00
    0.27091E-07         0.11456E-09         0.00000E+00
    0.27096E-07         0.11710E-09         0.00000E+00
    0.27101E-07         0.11926E-09         0.00000E+00
    0.27106E-07         0.12102E-09         0.00000E+00
    0.27111E-07         0.12237E-09         0.00000E+00
    0.27116E-07         0.12332E-09         0.00000E+00
    0.27121E-07         0.12384E-09         0.00000E+00
    0.27126E-07         0.12395E-09         0.00000E+00
    0.27131E-07         0.12362E-09         0.00000E+00
    0.27136E-07         0.12286E-09         0.00000E+00
    0.27141E-07         0.12166E-09         0.00000E+00
    0.27145E-07         0.12001E-09         0.00000E+00
    0.27150E-07         0.11792E-09         0.00000E+00
    0.27154E-07         0.11537E-09         0.00000E+00
    0.27159E-07         0.11236E-09         0.00000E+00
    0.27163E-07         0.10889E-09         0.00000E+00
    0.27167E-07         0.10496E-09         0.00000E+00
    0.27171E-07         0.10056E-09         0.00000E+00
    0.27174E-07         0.95689E-10         0.00000E+00
    0.27177E-07         0.90347E-10         0.00000E+00
    0.27181E-07         0.84532E-10         0.00000E+00
    0.27183E-07         0.78240E-10         0.00000E+00
    0.27186E-07         0.71471E-10         0.00000E+00
    0.27188E-07         0.64222E-10         0.00000E+00
    0.27191E-07         0.56493E-10         0.00000E+00
    0.27192E-07         0.48282E-10         0.00000E+00
    0.27194E-07         0.39589E-10         0.00000E+00
    0.27195E-07         0.30414E-10         0.00000E+00
    0.27196E-07         0.20755E-10         0.00000E+00
    0.27196E-07         0.10612E-10         0.00000E+00
    0.27197E-07         0.54203E-11         0.00000E+00
    0.25771E-07         0.28019E-11         0.00000E+00
    0.25771E-07         0.56101E-11         0.00000E+00
    0.25771E-07         0.11226E-10         0.00000E+00
    0.25772E-07         0.16828E-10         0.00000E+00
    0.25773E-07         0.22395E-10         0.00000E+00
    0.25775E-07         0.27903E-10         0.00000E+00
    0.25777E-07         0.33334E-10         0.00000E+00
    0.25779E-07         0.38665E-10         0.00000E+00
    0.25781E-07         0.43879E-10         0.00000E+00
    0.25784E-07         0.48957E-10         0.00000E+00
    0.25787E-07         0.53882E-10         0.00000E+00
    0.25790E-07         0.58637E-10         0.00000E+00
    0.25793E-07         0.63206E-10         0.00000E+00
    0.25797E-07         0.67574E-10         0.00000E+00
    0.25800E-07         0.71727E-10         0.00000E+00
    0.25804E-07         0.75650E-10         0.00000E+00
    0.25808E-07         0.79331E-10         0.00000E+00
    0.25812E-07         0.82758E-10         0.00000E+00
    0.25816E-07         0.85918E-10         0.00000E+00
    0.25820E-07         0.88799E-10         0.00000E+00
    0.25825E-07         0.91393E-10         0.00000E+00
    0.25829E-07         0.93687E-10         0.00000E+00
    0.25833E-07         0.95673E-10         0.00000E+00
    0.25838E-07         0.97341E-10         0.00000E+00
    0.25842E-07         0.98684E-10         0.00000E+00
    0.25847E-07         0.99691E-10         0.00000E+00
    0.25851E-07         0.10036E-09         0.00000E+00
    0.25856E-07         0.10067E-09         0.00000E+00
    0.25860E-07         0.10063E-09         0.00000E+00
    0.25864E-07         0.10023E-09         0.00000E+00
    0.25868E-07         0.99457E-10         0.00000E+00
    0.25872E-07         0.98310E-10         0.00000E+00
    0.25876E-07         0.96783E-10         0.00000E+00
    0.25880E-07         0.94871E-10         0.00000E+00
    0.25884E-07         0.92569E-10         0.00000E+00
    0.25888E-07         0.89873E-10         0.00000E+00
    0.25891E-07         0.86778E-10         0.00000E+00
    0.25895E-07         0.83282E-10         0.00000E+00
    0.25898E-07         0.79379E-10         0.00000E+00
    0.25901E-07         0.75068E-10         0.00000E+00
    0.25904E-07         0.70345E-10         0.00000E+00
    0.25906E-07         0.65208E-10         0.00000E+00
    0.25908E-07         0.59653E-10         0.00000E+00
    0.25911E-07         0.53680E-10         0.00000E+00
    0.25912E-07         0.47285E-10         0.00000E+00
    0.25914E-07         0.40467E-10         0.00000E+00
    0.25915E-07         0.33225E-10         0.00000E+00
    0.25916E-07         0.25557E-10         0.00000E+00
    0.25917E-07         0.17462E-10         0.00000E+00
    0.25918E-07         0.89392E-11         0.00000E+00
    0.25918E-07         0.45708E-11         0.00000E+00
    0.24605E-07         0.19315E-11         0.00000E+00
    0.24605E-07         0.38971E-11         0.00000E+00
    0.24606E-07         0.78659E-11         0.00000E+00
    0.24607E-07         0.11898E-10         0.00000E+00
    0.24608E-07         0.15972E-10         0.00000E+00
    0.24609E-07         0.20065E-10         0.00000E+00
    0.24610E-07         0.24156E-10         0.00000E+00
    0.24612E-07         0.28225E-10         0.00000E+00
    0.24614E-07         0.32253E-10         0.00000E+00
    0.24617E-07         0.36221E-10         0.00000E+00
    0.24619E-07         0.40112E-10         0.00000E+00
    0.24622E-07         0.43909E-10         0.00000E+00
    0.24624E-07         0.47594E-10         0.00000E+00
    0.24627E-07         0.51153E-10         0.00000E+00
    0.24630E-07         0.54571E-10         0.00000E+00
    0.24634E-07         0.57833E-10         0.00000E+00
    0.24637E-07         0.60926E-10         0.00000E+00
    0.24640E-07         0.63836E-10         0.00000E+00
    0.24644E-07         0.66551E-10         0.00000E+00
    0.24648E-07         0.69059E-10         0.00000E+00
    0.24651E-07         0.71348E-10         0.00000E+00
    0.24655E-07         0.73409E-10         0.00000E+00
    0.24659E-07         0.75230E-10         0.00000E+00
    0.24663E-07         0.76802E-10         0.00000E+00
    0.24666E-07         0.78115E-10         0.00000E+00
    0.24670E-07         0.79160E-10         0.00000E+00
    0.24674E-07         0.79929E-10         0.00000E+00
    0.24678E-07         0.80414E-10         0.00000E+00
    0.24681E-07         0.80607E-10         0.00000E+00
    0.24685E-07         0.80501E-10         0.00000E+00
    0.24689E-07         0.80089E-10         0.00000E+00
    0.24692E-07         0.79365E-10         0.00000E+00
    0.24696E-07         0.78322E-10         0.00000E+00
    0.24699E-07         0.76955E-10         0.00000E+00
    0.24703E-07         0.75259E-10         0.00000E+00
    0.24706E-07         0.73228E-10         0.00000E+00
    0.24709E-07         0.70857E-10         0.00000E+00
    0.24712E-07         0.68142E-10         0.00000E+00
    0.24714E-07         0.65079E-10         0.00000E+00
    0.24717E-07         0.61663E-10         0.00000E+00
    0.24719E-07         0.57892E-10         0.00000E+00
    0.24722E-07         0.53762E-10         0.00000E+00
    0.24724E-07         0.49269E-10         0.00000E+00
    0.24725E-07         0.44411E-10         0.00000E+00
    0.24727E-07         0.39186E-10         0.00000E+00
    0.24728E-07         0.33590E-10         0.00000E+00
    0.24730E-07         0.27622E-10         0.00000E+00
    0.24731E-07         0.21279E-10         0.00000E+00
    0.24731E-07         0.14561E-10         0.00000E+00
    0.24732E-07         0.74646E-11         0.00000E+00
    0.24732E-07         0.38219E-11         0.00000E+00
    0.23530E-07         0.12122E-11         0.00000E+00
    0.23530E-07         0.24796E-11         0.00000E+00
    0.23531E-07         0.50818E-11         0.00000E+00
    0.23531E-07         0.78071E-11         0.00000E+00
    0.23532E-07         0.10633E-10         0.00000E+00
    0.23533E-07         0.13539E-10         0.00000E+00
    0.23535E-07         0.16504E-10         0.00000E+00
    0.23536E-07         0.19509E-10         0.00000E+00
    0.23538E-07         0.22533E-10         0.00000E+00
    0.23540E-07         0.25558E-10         0.00000E+00
    0.23542E-07         0.28568E-10         0.00000E+00
    0.23544E-07         0.31544E-10         0.00000E+00
    0.23546E-07         0.34471E-10         0.00000E+00
    0.23549E-07         0.37333E-10         0.00000E+00
    0.23551E-07         0.40114E-10         0.00000E+00
    0.23554E-07         0.42800E-10         0.00000E+00
    0.23557E-07         0.45378E-10         0.00000E+00
    0.23560E-07         0.47833E-10         0.00000E+00
    0.23562E-07         0.50153E-10         0.00000E+00
    0.23565E-07         0.52327E-10         0.00000E+00
    0.23569E-07         0.54341E-10         0.00000E+00
    0.23572E-07         0.56185E-10         0.00000E+00
    0.23575E-07         0.57848E-10         0.00000E+00
    0.23578E-07         0.59320E-10         0.00000E+00
    0.23581E-07         0.60590E-10         0.00000E+00
    0.23585E-07         0.61651E-10         0.00000E+00
    0.23588E-07         0.62492E-10         0.00000E+00
    0.23591E-07         0.63105E-10         0.00000E+00
    0.23594E-07         0.63483E-10         0.00000E+00
    0.23597E-07         0.63616E-10         0.00000E+00
    0.23600E-07         0.63499E-10         0.00000E+00
    0.23603E-07         0.63123E-10         0.00000E+00
    0.23606E-07         0.62483E-10         0.00000E+00
    0.23609E-07         0.61572E-10         0.00000E+00
    0.23612E-07         0.60384E-10         0.00000E+00
    0.23615E-07         0.58913E-10         0.00000E+00
    0.23617E-07         0.57155E-10         0.00000E+00
    0.23620E-07         0.55104E-10         0.00000E+00
    0.23622E-07         0.52755E-10         0.00000E+00
    0.23624E-07         0.50104E-10         0.00000E+00
    0.23626E-07         0.47147E-10         0.00000E+00
    0.23628E-07         0.43879E-10         0.00000E+00
    0.23630E-07         0.40298E-10         0.00000E+00
    0.23631E-07         0.36400E-10         0.00000E+00
    0.23633E-07         0.32181E-10         0.00000E+00
    0.23634E-07         0.27638E-10         0.00000E+00
    0.23635E-07         0.22770E-10         0.00000E+00
    0.23636E-07         0.17574E-10         0.00000E+00
    0.23636E-07         0.12046E-10         0.00000E+00
    0.23637E-07         0.61857E-11         0.00000E+00
    0.23637E-07         0.31721E-11         0.00000E+00
    0.22544E-07         0.63443E-12         0.00000E+00
    0.22544E-07         0.13395E-11         0.00000E+00
    0.22544E-07         0.28386E-11         0.00000E+00
    0.22544E-07         0.45046E-11         0.00000E+00
    0.22545E-07         0.63162E-11         0.00000E+00
    0.22546E-07         0.82527E-11         0.00000E+00
    0.22547E-07         0.10294E-10         0.00000E+00
    0.22548E-07         0.12421E-10         0.00000E+00
    0.22550E-07         0.14616E-10         0.00000E+00
    0.22551E-07         0.16859E-10         0.00000E+00
    0.22553E-07         0.19134E-10         0.00000E+00
    0.22554E-07         0.21424E-10         0.00000E+00
    0.22556E-07         0.23713E-10         0.00000E+00
    0.22558E-07         0.25985E-10         0.00000E+00
    0.22560E-07         0.28226E-10         0.00000E+00
    0.22563E-07         0.30421E-10         0.00000E+00
    0.22565E-07         0.32556E-10         0.00000E+00
    0.22567E-07         0.34618E-10         0.00000E+00
    0.22570E-07         0.36594E-10         0.00000E+00
    0.22572E-07         0.38472E-10         0.00000E+00
    0.22575E-07         0.40240E-10         0.00000E+00
    0.22577E-07         0.41886E-10         0.00000E+00
    0.22580E-07         0.43400E-10         0.00000E+00
    0.22582E-07         0.44771E-10         0.00000E+00
    0.22585E-07         0.45990E-10         0.00000E+00
    0.22588E-07         0.47046E-10         0.00000E+00
    0.22590E-07         0.47931E-10         0.00000E+00
    0.22593E-07         0.48636E-10         0.00000E+00
    0.22596E-07         0.49152E-10         0.00000E+00
    0.22598E-07         0.49471E-10         0.00000E+00
    0.22601E-07         0.49586E-10         0.00000E+00
    0.22603E-07         0.49489E-10         0.00000E+00
    0.22606E-07         0.49174E-10         0.00000E+00
    0.22608E-07         0.48634E-10         0.00000E+00
    0.22610E-07         0.47862E-10         0.00000E+00
    0.22613E-07         0.46853E-10         0.00000E+00
    0.22615E-07         0.45600E-10         0.00000E+00
    0.22617E-07         0.44099E-10         0.00000E+00
    0.22619E-07         0.42344E-10         0.00000E+00
    0.22621E-07         0.40331E-10         0.00000E+00
    0.22622E-07         0.38054E-10         0.00000E+00
    0.22624E-07         0.35511E-10         0.00000E+00
    0.22625E-07         0.32695E-10         0.00000E+00
    0.22627E-07         0.29605E-10         0.00000E+00
    0.22628E-07         0.26236E-10         0.00000E+00
    0.22629E-07         0.22584E-10         0.00000E+00
    0.22630E-07         0.18647E-10         0.00000E+00
    0.22630E-07         0.14422E-10         0.00000E+00
    0.22631E-07         0.99061E-11         0.00000E+00
    0.22631E-07         0.50968E-11         0.00000E+00
    0.22631E-07         0.26184E-11         0.00000E+00
    0.21643E-07         0.18797E-12         0.00000E+00
    0.21643E-07         0.45675E-12         0.00000E+00
    0.21643E-07         0.10978E-11         0.00000E+00
    0.21643E-07         0.19353E-11         0.00000E+00
    0.21644E-07         0.29492E-11         0.00000E+00
    0.21645E-07         0.41196E-11         0.00000E+00
    0.21645E-07         0.54276E-11         0.00000E+00
    0.21646E-07         0.68548E-11         0.00000E+00
    0.21647E-07         0.83832E-11         0.00000E+00
    0.21648E-07         0.99955E-11         0.00000E+00
    0.21650E-07         0.11675E-10         0.00000E+00
    0.21651E-07         0.13406E-10         0.00000E+00
    0.21653E-07         0.15172E-10         0.00000E+00
    0.21654E-07         0.16959E-10         0.00000E+00
    0.21656E-07         0.18752E-10         0.00000E+00
    0.21657E-07         0.20537E-10         0.00000E+00
    0.21659E-07         0.22300E-10         0.00000E+00
    0.21661E-07         0.24029E-10         0.00000E+00
    0.21663E-07         0.25710E-10         0.00000E+00
    0.21665E-07         0.27332E-10         0.00000E+00
    0.21667E-07         0.28883E-10         0.00000E+00
    0.21669E-07         0.30351E-10         0.00000E+00
    0.21671E-07         0.31727E-10         0.00000E+00
    0.21673E-07         0.32999E-10         0.00000E+00
    0.21675E-07         0.34158E-10         0.00000E+00
    0.21677E-07         0.35193E-10         0.00000E+00
    0.21679E-07         0.36097E-10         0.00000E+00
    0.21682E-07         0.36859E-10         0.00000E+00
    0.21684E-07         0.37472E-10         0.00000E+00
    0.21686E-07         0.37928E-10         0.00000E+00
    0.21688E-07         0.38218E-10         0.00000E+00
    0.21690E-07         0.38335E-10         0.00000E+00
    0.21692E-07         0.38272E-10         0.00000E+00
    0.21694E-07         0.38023E-10         0.00000E+00
    0.21696E-07         0.37580E-10         0.00000E+00
    0.21697E-07         0.36938E-10         0.00000E+00
    0.21699E-07         0.36091E-10         0.00000E+00
    0.21701E-07         0.35032E-10         0.00000E+00
    0.21702E-07         0.33758E-10         0.00000E+00
    0.21704E-07         0.32262E-10         0.00000E+00
    0.21705E-07         0.30540E-10         0.00000E+00
    0.21707E-07         0.28587E-10         0.00000E+00
    0.21708E-07         0.26400E-10         0.00000E+00
    0.21709E-07         0.23973E-10         0.00000E+00
    0.21710E-07         0.21303E-10         0.00000E+00
    0.21711E-07         0.18387E-10         0.00000E+00
    0.21711E-07         0.15220E-10         0.00000E+00
    0.21712E-07         0.11800E-10         0.00000E+00
    0.21712E-07         0.81245E-11         0.00000E+00
    0.21713E-07         0.41894E-11         0.00000E+00
    0.21713E-07         0.21568E-11         0.00000E+00
    0.20825E-07        -0.13810E-12         0.00000E+00
    0.20825E-07        -0.18984E-12         0.00000E+00
    0.20826E-07        -0.18166E-12         0.00000E+00
    0.20826E-07         0.40183E-13         0.00000E+00
    0.20826E-07         0.45665E-12         0.00000E+00
    0.20827E-07         0.10492E-11         0.00000E+00
    0.20827E-07         0.18000E-11         0.00000E+00
    0.20828E-07         0.26916E-11         0.00000E+00
    0.20829E-07         0.37070E-11         0.00000E+00
    0.20830E-07         0.48300E-11         0.00000E+00
    0.20830E-07         0.60446E-11         0.00000E+00
    0.20831E-07         0.73355E-11         0.00000E+00
    0.20833E-07         0.86878E-11         0.00000E+00
    0.20834E-07         0.10087E-10         0.00000E+00
    0.20835E-07         0.11520E-10         0.00000E+00
    0.20836E-07         0.12972E-10         0.00000E+00
    0.20837E-07         0.14430E-10         0.00000E+00
    0.20839E-07         0.15883E-10         0.00000E+00
    0.20840E-07         0.17317E-10         0.00000E+00
    0.20842E-07         0.18722E-10         0.00000E+00
    0.20843E-07         0.20085E-10         0.00000E+00
    0.20845E-07         0.21396E-10         0.00000E+00
    0.20846E-07         0.22645E-10         0.00000E+00
    0.20848E-07         0.23821E-10         0.00000E+00
    0.20850E-07         0.24914E-10         0.00000E+00
    0.20851E-07         0.25915E-10         0.00000E+00
    0.20853E-07         0.26815E-10         0.00000E+00
    0.20854E-07         0.27606E-10         0.00000E+00
    0.20856E-07         0.28278E-10         0.00000E+00
    0.20858E-07         0.28824E-10         0.00000E+00
    0.20859E-07         0.29237E-10         0.00000E+00
    0.20861E-07         0.29508E-10         0.00000E+00
    0.20862E-07         0.29631E-10         0.00000E+00
    0.20864E-07         0.29598E-10         0.00000E+00
    0.20865E-07         0.29404E-10         0.00000E+00
    0.20867E-07         0.29042E-10         0.00000E+00
    0.20868E-07         0.28506E-10         0.00000E+00
    0.20869E-07         0.27790E-10         0.00000E+00
    0.20871E-07         0.26889E-10         0.00000E+00
    0.20872E-07         0.25798E-10         0.00000E+00
    0.20873E-07         0.24512E-10         0.00000E+00
    0.20874E-07         0.23026E-10         0.00000E+00
    0.20875E-07         0.21336E-10         0.00000E+00
    0.20876E-07         0.19437E-10         0.00000E+00
    0.20877E-07         0.17326E-10         0.00000E+00
    0.20877E-07         0.14998E-10         0.00000E+00
    0.20878E-07         0.12450E-10         0.00000E+00
    0.20878E-07         0.96790E-11         0.00000E+00
    0.20878E-07         0.66811E-11         0.00000E+00
    0.20879E-07         0.34535E-11         0.00000E+00
    0.20879E-07         0.17820E-11         0.00000E+00
    0.20089E-07        -0.35483E-12         0.00000E+00
    0.20089E-07        -0.62179E-12         0.00000E+00
    0.20089E-07        -0.10414E-11         0.00000E+00
    0.20090E-07        -0.12412E-11         0.00000E+00
    0.20090E-07        -0.12390E-11         0.00000E+00
    0.20090E-07        -0.10519E-11         0.00000E+00
    0.20090E-07        -0.69668E-12         0.00000E+00
    0.20091E-07        -0.18949E-12         0.00000E+00
    0.20091E-07         0.45385E-12         0.00000E+00
    0.20092E-07         0.12180E-11         0.00000E+00
    0.20093E-07         0.20881E-11         0.00000E+00
    0.20093E-07         0.30498E-11         0.00000E+00
    0.20094E-07         0.40889E-11         0.00000E+00
    0.20095E-07         0.51920E-11         0.00000E+00
    0.20095E-07         0.63459E-11         0.00000E+00
    0.20096E-07         0.75377E-11         0.00000E+00
    0.20097E-07         0.87553E-11         0.00000E+00
    0.20098E-07         0.99865E-11         0.00000E+00
    0.20099E-07         0.11220E-10         0.00000E+00
    0.20100E-07         0.12444E-10         0.00000E+00
    0.20101E-07         0.13649E-10         0.00000E+00
    0.20102E-07         0.14823E-10         0.00000E+00
    0.20104E-07         0.15957E-10         0.00000E+00
    0.20105E-07         0.17040E-10         0.00000E+00
    0.20106E-07         0.18064E-10         0.00000E+00
    0.20107E-07         0.19019E-10         0.00000E+00
    0.20108E-07         0.19897E-10         0.00000E+00
    0.20109E-07         0.20689E-10         0.00000E+00
    0.20110E-07         0.21387E-10         0.00000E+00
    0.20112E-07         0.21984E-10         0.00000E+00
    0.20113E-07         0.22471E-10         0.00000E+00
    0.20114E-07         0.22841E-10         0.00000E+00
    0.20115E-07         0.23088E-10         0.00000E+00
    0.20116E-07         0.23205E-10         0.00000E+00
    0.20117E-07         0.23185E-10         0.00000E+00
    0.20118E-07         0.23022E-10         0.00000E+00
    0.20119E-07         0.22711E-10         0.00000E+00
    0.20120E-07         0.22245E-10         0.00000E+00
    0.20121E-07         0.21620E-10         0.00000E+00
    0.20122E-07         0.20829E-10         0.00000E+00
    0.20123E-07         0.19869E-10         0.00000E+00
    0.20124E-07         0.18735E-10         0.00000E+00
    0.20124E-07         0.17421E-10         0.00000E+00
    0.20125E-07         0.15924E-10         0.00000E+00
    0.20126E-07         0.14240E-10         0.00000E+00
    0.20126E-07         0.12364E-10         0.00000E+00
    0.20127E-07         0.10293E-10         0.00000E+00
    0.20127E-07         0.80243E-11         0.00000E+00
    0.20127E-07         0.55535E-11         0.00000E+00
    0.20127E-07         0.28777E-11         0.00000E+00
    0.20127E-07         0.14883E-11         0.00000E+00
    0.19432E-07        -0.47314E-12         0.00000E+00
    0.19432E-07        -0.86041E-12         0.00000E+00
    0.19432E-07        -0.15228E-11         0.00000E+00
    0.19432E-07        -0.19690E-11         0.00000E+00
    0.19432E-07        -0.22153E-11         0.00000E+00
    0.19432E-07        -0.22774E-11         0.00000E+00
    0.19432E-07        -0.21708E-11         0.00000E+00
    0.19433E-07        -0.19103E-11         0.00000E+00
    0.19433E-07        -0.15106E-11         0.00000E+00
    0.19433E-07        -0.98580E-12         0.00000E+00
    0.19434E-07        -0.34974E-12         0.00000E+00
    0.19434E-07         0.38422E-12         0.00000E+00
    0.19434E-07         0.12030E-11         0.00000E+00
    0.19435E-07         0.20941E-11         0.00000E+00
    0.19435E-07         0.30451E-11         0.00000E+00
    0.19436E-07         0.40442E-11         0.00000E+00
    0.19436E-07         0.50798E-11         0.00000E+00
    0.19437E-07         0.61407E-11         0.00000E+00
    0.19437E-07         0.72160E-11         0.00000E+00
    0.19438E-07         0.82952E-11         0.00000E+00
    0.19439E-07         0.93682E-11         0.00000E+00
    0.19439E-07         0.10425E-10         0.00000E+00
    0.19440E-07         0.11456E-10         0.00000E+00
    0.19441E-07         0.12453E-10         0.00000E+00
    0.19442E-07         0.13405E-10         0.00000E+00
    0.19442E-07         0.14305E-10         0.00000E+00
    0.19443E-07         0.15144E-10         0.00000E+00
    0.19444E-07         0.15915E-10         0.00000E+00
    0.19445E-07         0.16609E-10         0.00000E+00
    0.19445E-07         0.17219E-10         0.00000E+00
    0.19446E-07         0.17737E-10         0.00000E+00
    0.19447E-07         0.18158E-10         0.00000E+00
    0.19448E-07         0.18474E-10         0.00000E+00
    0.19448E-07         0.18678E-10         0.00000E+00
    0.19449E-07         0.18765E-10         0.00000E+00
    0.19450E-07         0.18728E-10         0.00000E+00
    0.19450E-07         0.18563E-10         0.00000E+00
    0.19451E-07         0.18262E-10         0.00000E+00
    0.19452E-07         0.17822E-10         0.00000E+00
    0.19452E-07         0.17237E-10         0.00000E+00
    0.19453E-07         0.16502E-10         0.00000E+00
    0.19453E-07         0.15613E-10         0.00000E+00
    0.19454E-07         0.14564E-10         0.00000E+00
    0.19454E-07         0.13353E-10         0.00000E+00
    0.19455E-07         0.11975E-10         0.00000E+00
    0.19455E-07         0.10426E-10         0.00000E+00
    0.19455E-07         0.87022E-11         0.00000E+00
    0.19456E-07         0.68005E-11         0.00000E+00
    0.19456E-07         0.47174E-11         0.00000E+00
    0.19456E-07         0.24498E-11         0.00000E+00
    0.19456E-07         0.12695E-11         0.00000E+00
    0.18851E-07        -0.50364E-12         0.00000E+00
    0.18851E-07        -0.92647E-12         0.00000E+00
    0.18851E-07        -0.16663E-11         0.00000E+00
    0.18851E-07        -0.22019E-11         0.00000E+00
    0.18851E-07        -0.25480E-11         0.00000E+00
    0.18851E-07        -0.27189E-11         0.00000E+00
    0.18851E-07        -0.27286E-11         0.00000E+00
    0.18851E-07        -0.25907E-11         0.00000E+00
    0.18851E-07        -0.23186E-11         0.00000E+00
    0.18851E-07        -0.19252E-11         0.00000E+00
    0.18851E-07        -0.14231E-11         0.00000E+00
    0.18852E-07        -0.82461E-12         0.00000E+00
    0.18852E-07        -0.14160E-12         0.00000E+00
    0.18852E-07         0.61428E-12         0.00000E+00
    0.18852E-07         0.14317E-11         0.00000E+00
    0.18852E-07         0.22998E-11         0.00000E+00
    0.18852E-07         0.32078E-11         0.00000E+00
    0.18853E-07         0.41454E-11         0.00000E+00
    0.18853E-07         0.51026E-11         0.00000E+00
    0.18853E-07         0.60696E-11         0.00000E+00
    0.18853E-07         0.70369E-11         0.00000E+00
    0.18854E-07         0.79954E-11         0.00000E+00
    0.18854E-07         0.89363E-11         0.00000E+00
    0.18854E-07         0.98508E-11         0.00000E+00
    0.18855E-07         0.10731E-10         0.00000E+00
    0.18855E-07         0.11568E-10         0.00000E+00
    0.18855E-07         0.12355E-10         0.00000E+00
    0.18856E-07         0.13084E-10         0.00000E+00
    0.18856E-07         0.13747E-10         0.00000E+00
    0.18857E-07         0.14339E-10         0.00000E+00
    0.18857E-07         0.14851E-10         0.00000E+00
    0.18857E-07         0.15278E-10         0.00000E+00
    0.18858E-07         0.15613E-10         0.00000E+00
    0.18858E-07         0.15849E-10         0.00000E+00
    0.18859E-07         0.15982E-10         0.00000E+00
    0.18859E-07         0.16006E-10         0.00000E+00
    0.18859E-07         0.15914E-10         0.00000E+00
    0.18860E-07         0.15703E-10         0.00000E+00
    0.18860E-07         0.15366E-10         0.00000E+00
    0.18861E-07         0.14899E-10         0.00000E+00
    0.18861E-07         0.14298E-10         0.00000E+00
    0.18861E-07         0.13557E-10         0.00000E+00
    0.18862E-07         0.12674E-10         0.00000E+00
    0.18862E-07         0.11643E-10         0.00000E+00
    0.18862E-07         0.10460E-10         0.00000E+00
    0.18862E-07         0.91232E-11         0.00000E+00
    0.18862E-07         0.76276E-11         0.00000E+00
    0.18863E-07         0.59701E-11         0.00000E+00
    0.18863E-07         0.41476E-11         0.00000E+00
    0.18863E-07         0.21569E-11         0.00000E+00
    0.18863E-07         0.11192E-11         0.00000E+00
    0.18345E-07        -0.45651E-12         0.00000E+00
    0.18345E-07        -0.83983E-12         0.00000E+00
    0.18345E-07        -0.15106E-11         0.00000E+00
    0.18345E-07        -0.19963E-11         0.00000E+00
    0.18345E-07        -0.23100E-11         0.00000E+00
    0.18345E-07        -0.24647E-11         0.00000E+00
    0.18345E-07        -0.24730E-11         0.00000E+00
    0.18344E-07        -0.23470E-11         0.00000E+00
    0.18344E-07        -0.20988E-11         0.00000E+00
    0.18344E-07        -0.17400E-11         0.00000E+00
    0.18344E-07        -0.12821E-11         0.00000E+00
    0.18344E-07        -0.73606E-12         0.00000E+00
    0.18344E-07        -0.11277E-12         0.00000E+00
    0.18344E-07         0.57725E-12         0.00000E+00
    0.18344E-07         0.13238E-11         0.00000E+00
    0.18343E-07         0.21168E-11         0.00000E+00
    0.18343E-07         0.29467E-11         0.00000E+00
    0.18343E-07         0.38040E-11         0.00000E+00
    0.18343E-07         0.46796E-11         0.00000E+00
    0.18343E-07         0.55645E-11         0.00000E+00
    0.18343E-07         0.64502E-11         0.00000E+00
    0.18343E-07         0.73282E-11         0.00000E+00
    0.18343E-07         0.81905E-11         0.00000E+00
    0.18343E-07         0.90291E-11         0.00000E+00
    0.18343E-07         0.98364E-11         0.00000E+00
    0.18343E-07         0.10605E-10         0.00000E+00
    0.18343E-07         0.11328E-10         0.00000E+00
    0.18343E-07         0.11998E-10         0.00000E+00
    0.18343E-07         0.12608E-10         0.00000E+00
    0.18343E-07         0.13153E-10         0.00000E+00
    0.18343E-07         0.13625E-10         0.00000E+00
    0.18344E-07         0.14019E-10         0.00000E+00
    0.18344E-07         0.14329E-10         0.00000E+00
    0.18344E-07         0.14549E-10         0.00000E+00
    0.18344E-07         0.14674E-10         0.00000E+00
    0.18344E-07         0.14698E-10         0.00000E+00
    0.18344E-07         0.14617E-10         0.00000E+00
    0.18344E-07         0.14425E-10         0.00000E+00
    0.18344E-07         0.14119E-10         0.00000E+00
    0.18345E-07         0.13693E-10         0.00000E+00
    0.18345E-07         0.13143E-10         0.00000E+00
    0.18345E-07         0.12464E-10         0.00000E+00
    0.18345E-07         0.11654E-10         0.00000E+00
    0.18345E-07         0.10708E-10         0.00000E+00
    0.18345E-07         0.96229E-11         0.00000E+00
    0.18345E-07         0.83944E-11         0.00000E+00
    0.18345E-07         0.70197E-11         0.00000E+00
    0.18346E-07         0.54954E-11         0.00000E+00
    0.18346E-07         0.38185E-11         0.00000E+00
    0.18346E-07         0.19861E-11         0.00000E+00
    0.18346E-07         0.10307E-11         0.00000E+00
    0.17912E-07        -0.34134E-12         0.00000E+00
    0.17912E-07        -0.61937E-12         0.00000E+00
    0.17912E-07        -0.10926E-11         0.00000E+00
    0.17912E-07        -0.14059E-11         0.00000E+00
    0.17911E-07        -0.15711E-11         0.00000E+00
    0.17911E-07        -0.15995E-11         0.00000E+00
    0.17911E-07        -0.15022E-11         0.00000E+00
    0.17911E-07        -0.12903E-11         0.00000E+00
    0.17910E-07        -0.97414E-12         0.00000E+00
    0.17910E-07        -0.56428E-12         0.00000E+00
    0.17910E-07        -0.70815E-13         0.00000E+00
    0.17909E-07         0.49638E-12         0.00000E+00
    0.17909E-07         0.11277E-11         0.00000E+00
    0.17909E-07         0.18137E-11         0.00000E+00
    0.17908E-07         0.25452E-11         0.00000E+00
    0.17908E-07         0.33134E-11         0.00000E+00
    0.17908E-07         0.41095E-11         0.00000E+00
    0.17907E-07         0.49252E-11         0.00000E+00
    0.17907E-07         0.57522E-11         0.00000E+00
    0.17907E-07         0.65826E-11         0.00000E+00
    0.17906E-07         0.74085E-11         0.00000E+00
    0.17906E-07         0.82226E-11         0.00000E+00
    0.17906E-07         0.90173E-11         0.00000E+00
    0.17905E-07         0.97858E-11         0.00000E+00
    0.17905E-07         0.10521E-10         0.00000E+00
    0.17905E-07         0.11216E-10         0.00000E+00
    0.17904E-07         0.11865E-10         0.00000E+00
    0.17904E-07         0.12462E-10         0.00000E+00
    0.17904E-07         0.12999E-10         0.00000E+00
    0.17904E-07         0.13472E-10         0.00000E+00
    0.17904E-07         0.13875E-10         0.00000E+00
    0.17903E-07         0.14202E-10         0.00000E+00
    0.17903E-07         0.14449E-10         0.00000E+00
    0.17903E-07         0.14608E-10         0.00000E+00
    0.17903E-07         0.14677E-10         0.00000E+00
    0.17903E-07         0.14650E-10         0.00000E+00
    0.17903E-07         0.14523E-10         0.00000E+00
    0.17903E-07         0.14291E-10         0.00000E+00
    0.17903E-07         0.13949E-10         0.00000E+00
    0.17903E-07         0.13495E-10         0.00000E+00
    0.17903E-07         0.12923E-10         0.00000E+00
    0.17903E-07         0.12230E-10         0.00000E+00
    0.17903E-07         0.11412E-10         0.00000E+00
    0.17902E-07         0.10467E-10         0.00000E+00
    0.17902E-07         0.93897E-11         0.00000E+00
    0.17902E-07         0.81779E-11         0.00000E+00
    0.17902E-07         0.68284E-11         0.00000E+00
    0.17902E-07         0.53381E-11         0.00000E+00
    0.17902E-07         0.37044E-11         0.00000E+00
    0.17902E-07         0.19245E-11         0.00000E+00
    0.17902E-07         0.99762E-12         0.00000E+00
    0.17550E-07        -0.16720E-12         0.00000E+00
    0.17550E-07        -0.28281E-12         0.00000E+00
    0.17549E-07        -0.44680E-12         0.00000E+00
    0.17549E-07        -0.48143E-12         0.00000E+00
    0.17549E-07        -0.39686E-12         0.00000E+00
    0.17549E-07        -0.20301E-12         0.00000E+00
    0.17548E-07         0.90416E-13         0.00000E+00
    0.17548E-07         0.47391E-12         0.00000E+00
    0.17548E-07         0.93818E-12         0.00000E+00
    0.17547E-07         0.14742E-11         0.00000E+00
    0.17547E-07         0.20730E-11         0.00000E+00
    0.17546E-07         0.27261E-11         0.00000E+00
    0.17546E-07         0.34249E-11         0.00000E+00
    0.17545E-07         0.41613E-11         0.00000E+00
    0.17544E-07         0.49272E-11         0.00000E+00
    0.17544E-07         0.57148E-11         0.00000E+00
    0.17543E-07         0.65165E-11         0.00000E+00
    0.17543E-07         0.73248E-11         0.00000E+00
    0.17542E-07         0.81327E-11         0.00000E+00
    0.17541E-07         0.89330E-11         0.00000E+00
    0.17541E-07         0.97189E-11         0.00000E+00
    0.17540E-07         0.10484E-10         0.00000E+00
    0.17540E-07         0.11221E-10         0.00000E+00
    0.17539E-07         0.11925E-10         0.00000E+00
    0.17539E-07         0.12589E-10         0.00000E+00
    0.17538E-07         0.13208E-10         0.00000E+00
    0.17538E-07         0.13775E-10         0.00000E+00
    0.17537E-07         0.14285E-10         0.00000E+00
    0.17537E-07         0.14733E-10         0.00000E+00
    0.17536E-07         0.15113E-10         0.00000E+00
    0.17536E-07         0.15421E-10         0.00000E+00
    0.17535E-07         0.15652E-10         0.00000E+00
    0.17535E-07         0.15801E-10         0.00000E+00
    0.17535E-07         0.15863E-10         0.00000E+00
    0.17534E-07         0.15834E-10         0.00000E+00
    0.17534E-07         0.15710E-10         0.00000E+00
    0.17534E-07         0.15487E-10         0.00000E+00
    0.17533E-07         0.15161E-10         0.00000E+00
    0.17533E-07         0.14728E-10         0.00000E+00
    0.17533E-07         0.14184E-10         0.00000E+00
    0.17533E-07         0.13526E-10         0.00000E+00
    0.17533E-07         0.12751E-10         0.00000E+00
    0.17532E-07         0.11855E-10         0.00000E+00
    0.17532E-07         0.10835E-10         0.00000E+00
    0.17532E-07         0.96887E-11         0.00000E+00
    0.17532E-07         0.84126E-11         0.00000E+00
    0.17532E-07         0.70041E-11         0.00000E+00
    0.17532E-07         0.54606E-11         0.00000E+00
    0.17532E-07         0.37797E-11         0.00000E+00
    0.17532E-07         0.19589E-11         0.00000E+00
    0.17532E-07         0.10133E-11         0.00000E+00
    0.17257E-07         0.57464E-13         0.00000E+00
    0.17257E-07         0.15321E-12         0.00000E+00
    0.17257E-07         0.39413E-12         0.00000E+00
    0.17257E-07         0.72954E-12         0.00000E+00
    0.17256E-07         0.11508E-11         0.00000E+00
    0.17256E-07         0.16494E-11         0.00000E+00
    0.17256E-07         0.22171E-11         0.00000E+00
    0.17255E-07         0.28457E-11         0.00000E+00
    0.17255E-07         0.35273E-11         0.00000E+00
    0.17254E-07         0.42542E-11         0.00000E+00
    0.17253E-07         0.50188E-11         0.00000E+00
    0.17253E-07         0.58137E-11         0.00000E+00
    0.17252E-07         0.66316E-11         0.00000E+00
    0.17251E-07         0.74655E-11         0.00000E+00
    0.17251E-07         0.83086E-11         0.00000E+00
    0.17250E-07         0.91541E-11         0.00000E+00
    0.17249E-07         0.99955E-11         0.00000E+00
    0.17248E-07         0.10827E-10         0.00000E+00
    0.17247E-07         0.11641E-10         0.00000E+00
    0.17247E-07         0.12433E-10         0.00000E+00
    0.17246E-07         0.13196E-10         0.00000E+00
    0.17245E-07         0.13925E-10         0.00000E+00
    0.17244E-07         0.14614E-10         0.00000E+00
    0.17243E-07         0.15259E-10         0.00000E+00
    0.17243E-07         0.15853E-10         0.00000E+00
    0.17242E-07         0.16391E-10         0.00000E+00
    0.17241E-07         0.16870E-10         0.00000E+00
    0.17240E-07         0.17283E-10         0.00000E+00
    0.17240E-07         0.17627E-10         0.00000E+00
    0.17239E-07         0.17897E-10         0.00000E+00
    0.17239E-07         0.18088E-10         0.00000E+00
    0.17238E-07         0.18197E-10         0.00000E+00
    0.17237E-07         0.18220E-10         0.00000E+00
    0.17237E-07         0.18151E-10         0.00000E+00
    0.17236E-07         0.17989E-10         0.00000E+00
    0.17236E-07         0.17729E-10         0.00000E+00
    0.17235E-07         0.17368E-10         0.00000E+00
    0.17235E-07         0.16901E-10         0.00000E+00
    0.17234E-07         0.16327E-10         0.00000E+00
    0.17234E-07         0.15642E-10         0.00000E+00
    0.17234E-07         0.14843E-10         0.00000E+00
    0.17233E-07         0.13927E-10         0.00000E+00
    0.17233E-07         0.12891E-10         0.00000E+00
    0.17233E-07         0.11732E-10         0.00000E+00
    0.17233E-07         0.10449E-10         0.00000E+00
    0.17232E-07         0.90385E-11         0.00000E+00
    0.17232E-07         0.74981E-11         0.00000E+00
    0.17232E-07         0.58258E-11         0.00000E+00
    0.17232E-07         0.40193E-11         0.00000E+00
    0.17232E-07         0.20768E-11         0.00000E+00
    0.17232E-07         0.10712E-11         0.00000E+00
    0.17033E-07         0.32473E-12         0.00000E+00
    0.17033E-07         0.67314E-12         0.00000E+00
    0.17033E-07         0.13998E-11         0.00000E+00
    0.17033E-07         0.21823E-11         0.00000E+00
    0.17033E-07         0.30137E-11         0.00000E+00
    0.17032E-07         0.38869E-11         0.00000E+00
    0.17032E-07         0.47949E-11         0.00000E+00
    0.17031E-07         0.57310E-11         0.00000E+00
    0.17030E-07         0.66886E-11         0.00000E+00
    0.17030E-07         0.76614E-11         0.00000E+00
    0.17029E-07         0.86429E-11         0.00000E+00
    0.17028E-07         0.96270E-11         0.00000E+00
    0.17027E-07         0.10608E-10         0.00000E+00
    0.17026E-07         0.11579E-10         0.00000E+00
    0.17025E-07         0.12536E-10         0.00000E+00
    0.17025E-07         0.13472E-10         0.00000E+00
    0.17024E-07         0.14383E-10         0.00000E+00
    0.17023E-07         0.15262E-10         0.00000E+00
    0.17022E-07         0.16105E-10         0.00000E+00
    0.17021E-07         0.16906E-10         0.00000E+00
    0.17020E-07         0.17661E-10         0.00000E+00
    0.17019E-07         0.18366E-10         0.00000E+00
    0.17018E-07         0.19015E-10         0.00000E+00
    0.17017E-07         0.19604E-10         0.00000E+00
    0.17016E-07         0.20129E-10         0.00000E+00
    0.17015E-07         0.20586E-10         0.00000E+00
    0.17014E-07         0.20970E-10         0.00000E+00
    0.17013E-07         0.21278E-10         0.00000E+00
    0.17012E-07         0.21506E-10         0.00000E+00
    0.17011E-07         0.21650E-10         0.00000E+00
    0.17011E-07         0.21707E-10         0.00000E+00
    0.17010E-07         0.21672E-10         0.00000E+00
    0.17009E-07         0.21544E-10         0.00000E+00
    0.17008E-07         0.21318E-10         0.00000E+00
    0.17008E-07         0.20992E-10         0.00000E+00
    0.17007E-07         0.20562E-10         0.00000E+00
    0.17006E-07         0.20026E-10         0.00000E+00
    0.17006E-07         0.19381E-10         0.00000E+00
    0.17005E-07         0.18624E-10         0.00000E+00
    0.17005E-07         0.17753E-10         0.00000E+00
    0.17004E-07         0.16766E-10         0.00000E+00
    0.17004E-07         0.15659E-10         0.00000E+00
    0.17003E-07         0.14431E-10         0.00000E+00
    0.17003E-07         0.13079E-10         0.00000E+00
    0.17003E-07         0.11602E-10         0.00000E+00
    0.17003E-07         0.99969E-11         0.00000E+00
    0.17002E-07         0.82626E-11         0.00000E+00
    0.17002E-07         0.63971E-11         0.00000E+00
    0.17002E-07         0.43986E-11         0.00000E+00
    0.17002E-07         0.22655E-11         0.00000E+00
    0.17002E-07         0.11651E-11         0.00000E+00
    0.16877E-07         0.62721E-12         0.00000E+00
    0.16877E-07         0.12624E-11         0.00000E+00
    0.16877E-07         0.25415E-11         0.00000E+00
    0.16877E-07         0.38350E-11         0.00000E+00
    0.16876E-07         0.51373E-11         0.00000E+00
    0.16876E-07         0.64427E-11         0.00000E+00
    0.16875E-07         0.77456E-11         0.00000E+00
    0.16874E-07         0.90408E-11         0.00000E+00
    0.16874E-07         0.10323E-10         0.00000E+00
    0.16873E-07         0.11587E-10         0.00000E+00
    0.16872E-07         0.12828E-10         0.00000E+00
    0.16871E-07         0.14041E-10         0.00000E+00
    0.16870E-07         0.15221E-10         0.00000E+00
    0.16869E-07         0.16363E-10         0.00000E+00
    0.16868E-07         0.17463E-10         0.00000E+00
    0.16867E-07         0.18517E-10         0.00000E+00
    0.16866E-07         0.19521E-10         0.00000E+00
    0.16865E-07         0.20469E-10         0.00000E+00
    0.16864E-07         0.21359E-10         0.00000E+00
    0.16863E-07         0.22185E-10         0.00000E+00
    0.16862E-07         0.22945E-10         0.00000E+00
    0.16861E-07         0.23635E-10         0.00000E+00
    0.16859E-07         0.24250E-10         0.00000E+00
    0.16858E-07         0.24788E-10         0.00000E+00
    0.16857E-07         0.25245E-10         0.00000E+00
    0.16856E-07         0.25618E-10         0.00000E+00
    0.16855E-07         0.25904E-10         0.00000E+00
    0.16854E-07         0.26099E-10         0.00000E+00
    0.16853E-07         0.26200E-10         0.00000E+00
    0.16852E-07         0.26206E-10         0.00000E+00
    0.16851E-07         0.26112E-10         0.00000E+00
    0.16850E-07         0.25917E-10         0.00000E+00
    0.16849E-07         0.25617E-10         0.00000E+00
    0.16848E-07         0.25211E-10         0.00000E+00
    0.16848E-07         0.24696E-10         0.00000E+00
    0.16847E-07         0.24069E-10         0.00000E+00
    0.16846E-07         0.23328E-10         0.00000E+00
    0.16845E-07         0.22472E-10         0.00000E+00
    0.16845E-07         0.21498E-10         0.00000E+00
    0.16844E-07         0.20405E-10         0.00000E+00
    0.16844E-07         0.19190E-10         0.00000E+00
    0.16843E-07         0.17851E-10         0.00000E+00
    0.16843E-07         0.16387E-10         0.00000E+00
    0.16842E-07         0.14797E-10         0.00000E+00
    0.16842E-07         0.13078E-10         0.00000E+00
    0.16842E-07         0.11230E-10         0.00000E+00
    0.16841E-07         0.92507E-11         0.00000E+00
    0.16841E-07         0.71389E-11         0.00000E+00
    0.16841E-07         0.48933E-11         0.00000E+00
    0.16841E-07         0.25128E-11         0.00000E+00
    0.16841E-07         0.12886E-11         0.00000E+00
    0.16788E-07         0.95790E-12         0.00000E+00
    0.16788E-07         0.19072E-11         0.00000E+00
    0.16788E-07         0.37923E-11         0.00000E+00
    0.16787E-07         0.56479E-11         0.00000E+00
    0.16787E-07         0.74697E-11         0.00000E+00
    0.16786E-07         0.92535E-11         0.00000E+00
    0.16786E-07         0.10995E-10         0.00000E+00
    0.16785E-07         0.12691E-10         0.00000E+00
    0.16784E-07         0.14336E-10         0.00000E+00
    0.16783E-07         0.15928E-10         0.00000E+00
    0.16782E-07         0.17462E-10         0.00000E+00
    0.16781E-07         0.18935E-10         0.00000E+00
    0.16780E-07         0.20343E-10         0.00000E+00
    0.16779E-07         0.21682E-10         0.00000E+00
    0.16778E-07         0.22951E-10         0.00000E+00
    0.16777E-07         0.24144E-10         0.00000E+00
    0.16776E-07         0.25260E-10         0.00000E+00
    0.16775E-07         0.26294E-10         0.00000E+00
    0.16773E-07         0.27245E-10         0.00000E+00
    0.16772E-07         0.28109E-10         0.00000E+00
    0.16771E-07         0.28883E-10         0.00000E+00
    0.16770E-07         0.29565E-10         0.00000E+00
    0.16768E-07         0.30151E-10         0.00000E+00
    0.16767E-07         0.30641E-10         0.00000E+00
    0.16766E-07         0.31031E-10         0.00000E+00
    0.16765E-07         0.31318E-10         0.00000E+00
    0.16764E-07         0.31501E-10         0.00000E+00
    0.16763E-07         0.31577E-10         0.00000E+00
    0.16761E-07         0.31545E-10         0.00000E+00
    0.16760E-07         0.31401E-10         0.00000E+00
    0.16759E-07         0.31146E-10         0.00000E+00
    0.16758E-07         0.30775E-10         0.00000E+00
    0.16757E-07         0.30288E-10         0.00000E+00
    0.16756E-07         0.29683E-10         0.00000E+00
    0.16755E-07         0.28958E-10         0.00000E+00
    0.16754E-07         0.28112E-10         0.00000E+00
    0.16754E-07         0.27143E-10         0.00000E+00
    0.16753E-07         0.26050E-10         0.00000E+00
    0.16752E-07         0.24832E-10         0.00000E+00
    0.16751E-07         0.23486E-10         0.00000E+00
    0.16751E-07         0.22012E-10         0.00000E+00
    0.16750E-07         0.20409E-10         0.00000E+00
    0.16750E-07         0.18675E-10         0.00000E+00
    0.16749E-07         0.16810E-10         0.00000E+00
    0.16749E-07         0.14813E-10         0.00000E+00
    0.16749E-07         0.12682E-10         0.00000E+00
    0.16748E-07         0.10416E-10         0.00000E+00
    0.16748E-07         0.80159E-11         0.00000E+00
    0.16748E-07         0.54796E-11         0.00000E+00
    0.16748E-07         0.28065E-11         0.00000E+00
    0.16748E-07         0.14358E-11         0.00000E+00
    0.16765E-07         0.13102E-11         0.00000E+00
    0.16765E-07         0.25946E-11         0.00000E+00
    0.16765E-07         0.51265E-11         0.00000E+00
    0.16765E-07         0.75831E-11         0.00000E+00
    0.16764E-07         0.99616E-11         0.00000E+00
    0.16764E-07         0.12259E-10         0.00000E+00
    0.16763E-07         0.14473E-10         0.00000E+00
    0.16762E-07         0.16600E-10         0.00000E+00
    0.16761E-07         0.18638E-10         0.00000E+00
    0.16760E-07         0.20585E-10         0.00000E+00
    0.16759E-07         0.22438E-10         0.00000E+00
    0.16758E-07         0.24194E-10         0.00000E+00
    0.16757E-07         0.25852E-10         0.00000E+00
    0.16756E-07         0.27409E-10         0.00000E+00
    0.16755E-07         0.28863E-10         0.00000E+00
    0.16754E-07         0.30212E-10         0.00000E+00
    0.16752E-07         0.31454E-10         0.00000E+00
    0.16751E-07         0.32587E-10         0.00000E+00
    0.16750E-07         0.33610E-10         0.00000E+00
    0.16749E-07         0.34519E-10         0.00000E+00
    0.16747E-07         0.35315E-10         0.00000E+00
    0.16746E-07         0.35994E-10         0.00000E+00
    0.16745E-07         0.36556E-10         0.00000E+00
    0.16743E-07         0.36999E-10         0.00000E+00
    0.16742E-07         0.37321E-10         0.00000E+00
    0.16741E-07         0.37522E-10         0.00000E+00
    0.16739E-07         0.37599E-10         0.00000E+00
    0.16738E-07         0.37552E-10         0.00000E+00
    0.16737E-07         0.37379E-10         0.00000E+00
    0.16736E-07         0.37079E-10         0.00000E+00
    0.16735E-07         0.36651E-10         0.00000E+00
    0.16734E-07         0.36094E-10         0.00000E+00
    0.16732E-07         0.35407E-10         0.00000E+00
    0.16731E-07         0.34590E-10         0.00000E+00
    0.16730E-07         0.33640E-10         0.00000E+00
    0.16730E-07         0.32558E-10         0.00000E+00
    0.16729E-07         0.31342E-10         0.00000E+00
    0.16728E-07         0.29993E-10         0.00000E+00
    0.16727E-07         0.28508E-10         0.00000E+00
    0.16726E-07         0.26888E-10         0.00000E+00
    0.16726E-07         0.25133E-10         0.00000E+00
    0.16725E-07         0.23240E-10         0.00000E+00
    0.16724E-07         0.21211E-10         0.00000E+00
    0.16724E-07         0.19044E-10         0.00000E+00
    0.16723E-07         0.16739E-10         0.00000E+00
    0.16723E-07         0.14296E-10         0.00000E+00
    0.16723E-07         0.11714E-10         0.00000E+00
    0.16723E-07         0.89937E-11         0.00000E+00
    0.16722E-07         0.61340E-11         0.00000E+00
    0.16722E-07         0.31348E-11         0.00000E+00
    0.16722E-07         0.16004E-11         0.00000E+00
    0.16809E-07         0.16777E-11         0.00000E+00
    0.16809E-07         0.33119E-11         0.00000E+00
    0.16809E-07         0.65194E-11         0.00000E+00
    0.16808E-07         0.96043E-11         0.00000E+00
    0.16808E-07         0.12565E-10         0.00000E+00
    0.16807E-07         0.15401E-10         0.00000E+00
    0.16807E-07         0.18109E-10         0.00000E+00
    0.16806E-07         0.20690E-10         0.00000E+00
    0.16805E-07         0.23141E-10         0.00000E+00
    0.16804E-07         0.25462E-10         0.00000E+00
    0.16803E-07         0.27651E-10         0.00000E+00
    0.16802E-07         0.29707E-10         0.00000E+00
    0.16801E-07         0.31630E-10         0.00000E+00
    0.16800E-07         0.33417E-10         0.00000E+00
    0.16798E-07         0.35069E-10         0.00000E+00
    0.16797E-07         0.36585E-10         0.00000E+00
    0.16796E-07         0.37963E-10         0.00000E+00
    0.16794E-07         0.39202E-10         0.00000E+00
    0.16793E-07         0.40303E-10         0.00000E+00
    0.16792E-07         0.41265E-10         0.00000E+00
    0.16790E-07         0.42086E-10         0.00000E+00
    0.16789E-07         0.42766E-10         0.00000E+00
    0.16788E-07         0.43305E-10         0.00000E+00
    0.16786E-07         0.43702E-10         0.00000E+00
    0.16785E-07         0.43957E-10         0.00000E+00
    0.16784E-07         0.44068E-10         0.00000E+00
    0.16782E-07         0.44037E-10         0.00000E+00
    0.16781E-07         0.43863E-10         0.00000E+00
    0.16780E-07         0.43544E-10         0.00000E+00
    0.16778E-07         0.43082E-10         0.00000E+00
    0.16777E-07         0.42475E-10         0.00000E+00
    0.16776E-07         0.41724E-10         0.00000E+00
    0.16775E-07         0.40829E-10         0.00000E+00
    0.16774E-07         0.39788E-10         0.00000E+00
    0.16773E-07         0.38603E-10         0.00000E+00
    0.16772E-07         0.37273E-10         0.00000E+00
    0.16771E-07         0.35799E-10         0.00000E+00
    0.16770E-07         0.34179E-10         0.00000E+00
    0.16769E-07         0.32415E-10         0.00000E+00
    0.16769E-07         0.30505E-10         0.00000E+00
    0.16768E-07         0.28452E-10         0.00000E+00
    0.16767E-07         0.26253E-10         0.00000E+00
    0.16767E-07         0.23910E-10         0.00000E+00
    0.16766E-07         0.21424E-10         0.00000E+00
    0.16766E-07         0.18793E-10         0.00000E+00
    0.16765E-07         0.16018E-10         0.00000E+00
    0.16765E-07         0.13100E-10         0.00000E+00
    0.16765E-07         0.10038E-10         0.00000E+00
    0.16764E-07         0.68333E-11         0.00000E+00
    0.16764E-07         0.34859E-11         0.00000E+00
    0.16764E-07         0.17765E-11         0.00000E+00
    0.16920E-07         0.20542E-11         0.00000E+00
    0.16919E-07         0.40468E-11         0.00000E+00
    0.16919E-07         0.79467E-11         0.00000E+00
    0.16919E-07         0.11676E-10         0.00000E+00
    0.16918E-07         0.15234E-10         0.00000E+00
    0.16918E-07         0.18621E-10         0.00000E+00
    0.16917E-07         0.21838E-10         0.00000E+00
    0.16916E-07         0.24884E-10         0.00000E+00
    0.16915E-07         0.27760E-10         0.00000E+00
    0.16914E-07         0.30464E-10         0.00000E+00
    0.16913E-07         0.32999E-10         0.00000E+00
    0.16912E-07         0.35364E-10         0.00000E+00
    0.16911E-07         0.37558E-10         0.00000E+00
    0.16910E-07         0.39584E-10         0.00000E+00
    0.16909E-07         0.41440E-10         0.00000E+00
    0.16907E-07         0.43127E-10         0.00000E+00
    0.16906E-07         0.44645E-10         0.00000E+00
    0.16905E-07         0.45995E-10         0.00000E+00
    0.16903E-07         0.47178E-10         0.00000E+00
    0.16902E-07         0.48193E-10         0.00000E+00
    0.16901E-07         0.49041E-10         0.00000E+00
    0.16899E-07         0.49723E-10         0.00000E+00
    0.16898E-07         0.50239E-10         0.00000E+00
    0.16896E-07         0.50590E-10         0.00000E+00
    0.16895E-07         0.50776E-10         0.00000E+00
    0.16894E-07         0.50798E-10         0.00000E+00
    0.16892E-07         0.50657E-10         0.00000E+00
    0.16891E-07         0.50352E-10         0.00000E+00
    0.16890E-07         0.49885E-10         0.00000E+00
    0.16888E-07         0.49256E-10         0.00000E+00
    0.16887E-07         0.48466E-10         0.00000E+00
    0.16886E-07         0.47516E-10         0.00000E+00
    0.16885E-07         0.46407E-10         0.00000E+00
    0.16884E-07         0.45138E-10         0.00000E+00
    0.16883E-07         0.43711E-10         0.00000E+00
    0.16882E-07         0.42127E-10         0.00000E+00
    0.16881E-07         0.40386E-10         0.00000E+00
    0.16880E-07         0.38489E-10         0.00000E+00
    0.16879E-07         0.36437E-10         0.00000E+00
    0.16878E-07         0.34230E-10         0.00000E+00
    0.16878E-07         0.31870E-10         0.00000E+00
    0.16877E-07         0.29357E-10         0.00000E+00
    0.16876E-07         0.26692E-10         0.00000E+00
    0.16876E-07         0.23875E-10         0.00000E+00
    0.16875E-07         0.20909E-10         0.00000E+00
    0.16875E-07         0.17792E-10         0.00000E+00
    0.16875E-07         0.14527E-10         0.00000E+00
    0.16874E-07         0.11114E-10         0.00000E+00
    0.16874E-07         0.75541E-11         0.00000E+00
    0.16874E-07         0.38478E-11         0.00000E+00
    0.16874E-07         0.19581E-11         0.00000E+00
    0.17097E-07         0.24335E-11         0.00000E+00
    0.17097E-07         0.47871E-11         0.00000E+00
    0.17097E-07         0.93842E-11         0.00000E+00
    0.17096E-07         0.13762E-10         0.00000E+00
    0.17096E-07         0.17921E-10         0.00000E+00
    0.17095E-07         0.21864E-10         0.00000E+00
    0.17095E-07         0.25592E-10         0.00000E+00
    0.17094E-07         0.29106E-10         0.00000E+00
    0.17093E-07         0.32407E-10         0.00000E+00
    0.17092E-07         0.35498E-10         0.00000E+00
    0.17091E-07         0.38380E-10         0.00000E+00
    0.17090E-07         0.41054E-10         0.00000E+00
    0.17089E-07         0.43521E-10         0.00000E+00
    0.17088E-07         0.45785E-10         0.00000E+00
    0.17086E-07         0.47845E-10         0.00000E+00
    0.17085E-07         0.49703E-10         0.00000E+00
    0.17084E-07         0.51362E-10         0.00000E+00
    0.17082E-07         0.52822E-10         0.00000E+00
    0.17081E-07         0.54085E-10         0.00000E+00
    0.17080E-07         0.55153E-10         0.00000E+00
    0.17078E-07         0.56028E-10         0.00000E+00
    0.17077E-07         0.56710E-10         0.00000E+00
    0.17075E-07         0.57202E-10         0.00000E+00
    0.17074E-07         0.57505E-10         0.00000E+00
    0.17073E-07         0.57621E-10         0.00000E+00
    0.17071E-07         0.57551E-10         0.00000E+00
    0.17070E-07         0.57297E-10         0.00000E+00
    0.17069E-07         0.56860E-10         0.00000E+00
    0.17067E-07         0.56243E-10         0.00000E+00
    0.17066E-07         0.55446E-10         0.00000E+00
    0.17065E-07         0.54471E-10         0.00000E+00
    0.17064E-07         0.53320E-10         0.00000E+00
    0.17063E-07         0.51995E-10         0.00000E+00
    0.17062E-07         0.50496E-10         0.00000E+00
    0.17061E-07         0.48826E-10         0.00000E+00
    0.17060E-07         0.46986E-10         0.00000E+00
    0.17059E-07         0.44977E-10         0.00000E+00
    0.17058E-07         0.42801E-10         0.00000E+00
    0.17057E-07         0.40460E-10         0.00000E+00
    0.17056E-07         0.37955E-10         0.00000E+00
    0.17056E-07         0.35287E-10         0.00000E+00
    0.17055E-07         0.32459E-10         0.00000E+00
    0.17054E-07         0.29470E-10         0.00000E+00
    0.17054E-07         0.26324E-10         0.00000E+00
    0.17053E-07         0.23022E-10         0.00000E+00
    0.17053E-07         0.19564E-10         0.00000E+00
    0.17053E-07         0.15952E-10         0.00000E+00
    0.17052E-07         0.12188E-10         0.00000E+00
    0.17052E-07         0.82731E-11         0.00000E+00
    0.17052E-07         0.42086E-11         0.00000E+00
    0.17052E-07         0.21392E-11         0.00000E+00
    0.17343E-07         0.28093E-11         0.00000E+00
    0.17343E-07         0.55204E-11         0.00000E+00
    0.17342E-07         0.10808E-10         0.00000E+00
    0.17342E-07         0.15827E-10         0.00000E+00
    0.17342E-07         0.20580E-10         0.00000E+00
    0.17341E-07         0.25071E-10         0.00000E+00
    0.17340E-07         0.29302E-10         0.00000E+00
    0.17339E-07         0.33277E-10         0.00000E+00
    0.17339E-07         0.36998E-10         0.00000E+00
    0.17338E-07         0.40467E-10         0.00000E+00
    0.17337E-07         0.43689E-10         0.00000E+00
    0.17336E-07         0.46666E-10         0.00000E+00
    0.17334E-07         0.49400E-10         0.00000E+00
    0.17333E-07         0.51895E-10         0.00000E+00
    0.17332E-07         0.54153E-10         0.00000E+00
    0.17331E-07         0.56177E-10         0.00000E+00
    0.17330E-07         0.57970E-10         0.00000E+00
    0.17328E-07         0.59535E-10         0.00000E+00
    0.17327E-07         0.60875E-10         0.00000E+00
    0.17326E-07         0.61991E-10         0.00000E+00
    0.17324E-07         0.62888E-10         0.00000E+00
    0.17323E-07         0.63567E-10         0.00000E+00
    0.17322E-07         0.64031E-10         0.00000E+00
    0.17320E-07         0.64284E-10         0.00000E+00
    0.17319E-07         0.64327E-10         0.00000E+00
    0.17318E-07         0.64164E-10         0.00000E+00
    0.17316E-07         0.63796E-10         0.00000E+00
    0.17315E-07         0.63227E-10         0.00000E+00
    0.17314E-07         0.62459E-10         0.00000E+00
    0.17313E-07         0.61494E-10         0.00000E+00
    0.17311E-07         0.60335E-10         0.00000E+00
    0.17310E-07         0.58985E-10         0.00000E+00
    0.17309E-07         0.57445E-10         0.00000E+00
    0.17308E-07         0.55719E-10         0.00000E+00
    0.17307E-07         0.53808E-10         0.00000E+00
    0.17306E-07         0.51715E-10         0.00000E+00
    0.17305E-07         0.49443E-10         0.00000E+00
    0.17305E-07         0.46993E-10         0.00000E+00
    0.17304E-07         0.44369E-10         0.00000E+00
    0.17303E-07         0.41571E-10         0.00000E+00
    0.17302E-07         0.38603E-10         0.00000E+00
    0.17302E-07         0.35466E-10         0.00000E+00
    0.17301E-07         0.32163E-10         0.00000E+00
    0.17301E-07         0.28695E-10         0.00000E+00
    0.17300E-07         0.25066E-10         0.00000E+00
    0.17300E-07         0.21276E-10         0.00000E+00
    0.17300E-07         0.17328E-10         0.00000E+00
    0.17299E-07         0.13224E-10         0.00000E+00
    0.17299E-07         0.89665E-11         0.00000E+00
    0.17299E-07         0.45563E-11         0.00000E+00
    0.17299E-07         0.23135E-11         0.00000E+00
    0.17657E-07         0.31751E-11         0.00000E+00
    0.17657E-07         0.62338E-11         0.00000E+00
    0.17657E-07         0.12192E-10         0.00000E+00
    0.17656E-07         0.17833E-10         0.00000E+00
    0.17656E-07         0.23161E-10         0.00000E+00
    0.17655E-07         0.28182E-10         0.00000E+00
    0.17655E-07         0.32899E-10         0.00000E+00
    0.17654E-07         0.37317E-10         0.00000E+00
    0.17653E-07         0.41441E-10         0.00000E+00
    0.17652E-07         0.45274E-10         0.00000E+00
    0.17651E-07         0.48820E-10         0.00000E+00
    0.17650E-07         0.52085E-10         0.00000E+00
    0.17649E-07         0.55072E-10         0.00000E+00
    0.17648E-07         0.57785E-10         0.00000E+00
    0.17647E-07         0.60229E-10         0.00000E+00
    0.17646E-07         0.62408E-10         0.00000E+00
    0.17645E-07         0.64325E-10         0.00000E+00
    0.17643E-07         0.65985E-10         0.00000E+00
    0.17642E-07         0.67392E-10         0.00000E+00
    0.17641E-07         0.68549E-10         0.00000E+00
    0.17639E-07         0.69461E-10         0.00000E+00
    0.17638E-07         0.70131E-10         0.00000E+00
    0.17637E-07         0.70563E-10         0.00000E+00
    0.17636E-07         0.70761E-10         0.00000E+00
    0.17634E-07         0.70729E-10         0.00000E+00
    0.17633E-07         0.70470E-10         0.00000E+00
    0.17632E-07         0.69988E-10         0.00000E+00
    0.17631E-07         0.69286E-10         0.00000E+00
    0.17630E-07         0.68368E-10         0.00000E+00
    0.17629E-07         0.67238E-10         0.00000E+00
    0.17628E-07         0.65898E-10         0.00000E+00
    0.17626E-07         0.64352E-10         0.00000E+00
    0.17625E-07         0.62605E-10         0.00000E+00
    0.17624E-07         0.60657E-10         0.00000E+00
    0.17624E-07         0.58514E-10         0.00000E+00
    0.17623E-07         0.56178E-10         0.00000E+00
    0.17622E-07         0.53652E-10         0.00000E+00
    0.17621E-07         0.50940E-10         0.00000E+00
    0.17620E-07         0.48043E-10         0.00000E+00
    0.17620E-07         0.44967E-10         0.00000E+00
    0.17619E-07         0.41712E-10         0.00000E+00
    0.17619E-07         0.38283E-10         0.00000E+00
    0.17618E-07         0.34681E-10         0.00000E+00
    0.17618E-07         0.30910E-10         0.00000E+00
    0.17617E-07         0.26973E-10         0.00000E+00
    0.17617E-07         0.22871E-10         0.00000E+00
    0.17617E-07         0.18609E-10         0.00000E+00
    0.17616E-07         0.14187E-10         0.00000E+00
    0.17616E-07         0.96098E-11         0.00000E+00
    0.17616E-07         0.48785E-11         0.00000E+00
    0.17616E-07         0.24747E-11         0.00000E+00
    0.18042E-07         0.35241E-11         0.00000E+00
    0.18042E-07         0.69138E-11         0.00000E+00
    0.18042E-07         0.13510E-10         0.00000E+00
    0.18041E-07         0.19741E-10         0.00000E+00
    0.18041E-07         0.25614E-10         0.00000E+00
    0.18040E-07         0.31135E-10         0.00000E+00
    0.18040E-07         0.36309E-10         0.00000E+00
    0.18039E-07         0.41143E-10         0.00000E+00
    0.18038E-07         0.45643E-10         0.00000E+00
    0.18037E-07         0.49814E-10         0.00000E+00
    0.18036E-07         0.53661E-10         0.00000E+00
    0.18035E-07         0.57191E-10         0.00000E+00
    0.18034E-07         0.60409E-10         0.00000E+00
    0.18033E-07         0.63321E-10         0.00000E+00
    0.18032E-07         0.65932E-10         0.00000E+00
    0.18031E-07         0.68248E-10         0.00000E+00
    0.18030E-07         0.70273E-10         0.00000E+00
    0.18029E-07         0.72014E-10         0.00000E+00
    0.18028E-07         0.73475E-10         0.00000E+00
    0.18027E-07         0.74661E-10         0.00000E+00
    0.18026E-07         0.75579E-10         0.00000E+00
    0.18024E-07         0.76231E-10         0.00000E+00
    0.18023E-07         0.76625E-10         0.00000E+00
    0.18022E-07         0.76763E-10         0.00000E+00
    0.18021E-07         0.76652E-10         0.00000E+00
    0.18020E-07         0.76295E-10         0.00000E+00
    0.18019E-07         0.75698E-10         0.00000E+00
    0.18018E-07         0.74865E-10         0.00000E+00
    0.18017E-07         0.73801E-10         0.00000E+00
    0.18016E-07         0.72509E-10         0.00000E+00
    0.18015E-07         0.70995E-10         0.00000E+00
    0.18014E-07         0.69262E-10         0.00000E+00
    0.18013E-07         0.67315E-10         0.00000E+00
    0.18012E-07         0.65158E-10         0.00000E+00
    0.18011E-07         0.62795E-10         0.00000E+00
    0.18010E-07         0.60230E-10         0.00000E+00
    0.18010E-07         0.57467E-10         0.00000E+00
    0.18009E-07         0.54509E-10         0.00000E+00
    0.18008E-07         0.51361E-10         0.00000E+00
    0.18008E-07         0.48026E-10         0.00000E+00
    0.18007E-07         0.44508E-10         0.00000E+00
    0.18007E-07         0.40810E-10         0.00000E+00
    0.18006E-07         0.36936E-10         0.00000E+00
    0.18006E-07         0.32889E-10         0.00000E+00
    0.18006E-07         0.28673E-10         0.00000E+00
    0.18005E-07         0.24290E-10         0.00000E+00
    0.18005E-07         0.19745E-10         0.00000E+00
    0.18005E-07         0.15040E-10         0.00000E+00
    0.18005E-07         0.10178E-10         0.00000E+00
    0.18005E-07         0.51623E-11         0.00000E+00
    0.18005E-07         0.26164E-11         0.00000E+00
    0.18499E-07         0.38490E-11         0.00000E+00
    0.18498E-07         0.75462E-11         0.00000E+00
    0.18498E-07         0.14733E-10         0.00000E+00
    0.18498E-07         0.21510E-10         0.00000E+00
    0.18498E-07         0.27884E-10         0.00000E+00
    0.18497E-07         0.33863E-10         0.00000E+00
    0.18497E-07         0.39454E-10         0.00000E+00
    0.18496E-07         0.44666E-10         0.00000E+00
    0.18495E-07         0.49504E-10         0.00000E+00
    0.18494E-07         0.53978E-10         0.00000E+00
    0.18494E-07         0.58093E-10         0.00000E+00
    0.18493E-07         0.61857E-10         0.00000E+00
    0.18492E-07         0.65277E-10         0.00000E+00
    0.18491E-07         0.68360E-10         0.00000E+00
    0.18490E-07         0.71113E-10         0.00000E+00
    0.18489E-07         0.73542E-10         0.00000E+00
    0.18488E-07         0.75654E-10         0.00000E+00
    0.18487E-07         0.77456E-10         0.00000E+00
    0.18486E-07         0.78955E-10         0.00000E+00
    0.18485E-07         0.80155E-10         0.00000E+00
    0.18484E-07         0.81065E-10         0.00000E+00
    0.18483E-07         0.81690E-10         0.00000E+00
    0.18482E-07         0.82035E-10         0.00000E+00
    0.18481E-07         0.82108E-10         0.00000E+00
    0.18480E-07         0.81914E-10         0.00000E+00
    0.18479E-07         0.81458E-10         0.00000E+00
    0.18478E-07         0.80746E-10         0.00000E+00
    0.18477E-07         0.79785E-10         0.00000E+00
    0.18476E-07         0.78578E-10         0.00000E+00
    0.18475E-07         0.77133E-10         0.00000E+00
    0.18475E-07         0.75453E-10         0.00000E+00
    0.18474E-07         0.73545E-10         0.00000E+00
    0.18473E-07         0.71413E-10         0.00000E+00
    0.18472E-07         0.69062E-10         0.00000E+00
    0.18472E-07         0.66497E-10         0.00000E+00
    0.18471E-07         0.63723E-10         0.00000E+00
    0.18470E-07         0.60745E-10         0.00000E+00
    0.18470E-07         0.57567E-10         0.00000E+00
    0.18469E-07         0.54193E-10         0.00000E+00
    0.18469E-07         0.50629E-10         0.00000E+00
    0.18468E-07         0.46878E-10         0.00000E+00
    0.18468E-07         0.42945E-10         0.00000E+00
    0.18468E-07         0.38834E-10         0.00000E+00
    0.18467E-07         0.34548E-10         0.00000E+00
    0.18467E-07         0.30093E-10         0.00000E+00
    0.18467E-07         0.25471E-10         0.00000E+00
    0.18467E-07         0.20687E-10         0.00000E+00
    0.18467E-07         0.15743E-10         0.00000E+00
    0.18466E-07         0.10645E-10         0.00000E+00
    0.18466E-07         0.53945E-11         0.00000E+00
    0.18466E-07         0.27319E-11         0.00000E+00
    0.19029E-07         0.41420E-11         0.00000E+00
    0.19029E-07         0.81154E-11         0.00000E+00
    0.19029E-07         0.15833E-10         0.00000E+00
    0.19029E-07         0.23095E-10         0.00000E+00
    0.19028E-07         0.29913E-10         0.00000E+00
    0.19028E-07         0.36295E-10         0.00000E+00
    0.19027E-07         0.42251E-10         0.00000E+00
    0.19027E-07         0.47789E-10         0.00000E+00
    0.19026E-07         0.52919E-10         0.00000E+00
    0.19026E-07         0.57649E-10         0.00000E+00
    0.19025E-07         0.61989E-10         0.00000E+00
    0.19024E-07         0.65947E-10         0.00000E+00
    0.19023E-07         0.69531E-10         0.00000E+00
    0.19023E-07         0.72750E-10         0.00000E+00
    0.19022E-07         0.75612E-10         0.00000E+00
    0.19021E-07         0.78125E-10         0.00000E+00
    0.19020E-07         0.80297E-10         0.00000E+00
    0.19019E-07         0.82136E-10         0.00000E+00
    0.19019E-07         0.83650E-10         0.00000E+00
    0.19018E-07         0.84847E-10         0.00000E+00
    0.19017E-07         0.85733E-10         0.00000E+00
    0.19016E-07         0.86316E-10         0.00000E+00
    0.19015E-07         0.86604E-10         0.00000E+00
    0.19014E-07         0.86604E-10         0.00000E+00
    0.19014E-07         0.86321E-10         0.00000E+00
    0.19013E-07         0.85765E-10         0.00000E+00
    0.19012E-07         0.84940E-10         0.00000E+00
    0.19011E-07         0.83853E-10         0.00000E+00
    0.19011E-07         0.82512E-10         0.00000E+00
    0.19010E-07         0.80922E-10         0.00000E+00
    0.19009E-07         0.79090E-10         0.00000E+00
    0.19009E-07         0.77021E-10         0.00000E+00
    0.19008E-07         0.74722E-10         0.00000E+00
    0.19008E-07         0.72198E-10         0.00000E+00
    0.19007E-07         0.69455E-10         0.00000E+00
    0.19007E-07         0.66499E-10         0.00000E+00
    0.19006E-07         0.63335E-10         0.00000E+00
    0.19006E-07         0.59968E-10         0.00000E+00
    0.19005E-07         0.56405E-10         0.00000E+00
    0.19005E-07         0.52649E-10         0.00000E+00
    0.19005E-07         0.48705E-10         0.00000E+00
    0.19004E-07         0.44580E-10         0.00000E+00
    0.19004E-07         0.40277E-10         0.00000E+00
    0.19004E-07         0.35801E-10         0.00000E+00
    0.19004E-07         0.31157E-10         0.00000E+00
    0.19004E-07         0.26348E-10         0.00000E+00
    0.19004E-07         0.21381E-10         0.00000E+00
    0.19003E-07         0.16257E-10         0.00000E+00
    0.19003E-07         0.10983E-10         0.00000E+00
    0.19003E-07         0.55612E-11         0.00000E+00
    0.19003E-07         0.28140E-11         0.00000E+00
    0.19636E-07         0.43945E-11         0.00000E+00
    0.19636E-07         0.86046E-11         0.00000E+00
    0.19636E-07         0.16774E-10         0.00000E+00
    0.19636E-07         0.24448E-10         0.00000E+00
    0.19635E-07         0.31637E-10         0.00000E+00
    0.19635E-07         0.38353E-10         0.00000E+00
    0.19635E-07         0.44607E-10         0.00000E+00
    0.19634E-07         0.50410E-10         0.00000E+00
    0.19634E-07         0.55771E-10         0.00000E+00
    0.19633E-07         0.60702E-10         0.00000E+00
    0.19633E-07         0.65213E-10         0.00000E+00
    0.19632E-07         0.69314E-10         0.00000E+00
    0.19631E-07         0.73016E-10         0.00000E+00
    0.19631E-07         0.76327E-10         0.00000E+00
    0.19630E-07         0.79258E-10         0.00000E+00
    0.19630E-07         0.81819E-10         0.00000E+00
    0.19629E-07         0.84018E-10         0.00000E+00
    0.19628E-07         0.85865E-10         0.00000E+00
    0.19628E-07         0.87369E-10         0.00000E+00
    0.19627E-07         0.88538E-10         0.00000E+00
    0.19626E-07         0.89382E-10         0.00000E+00
    0.19626E-07         0.89909E-10         0.00000E+00
    0.19625E-07         0.90127E-10         0.00000E+00
    0.19625E-07         0.90045E-10         0.00000E+00
    0.19624E-07         0.89670E-10         0.00000E+00
    0.19624E-07         0.89011E-10         0.00000E+00
    0.19623E-07         0.88075E-10         0.00000E+00
    0.19623E-07         0.86869E-10         0.00000E+00
    0.19622E-07         0.85402E-10         0.00000E+00
    0.19622E-07         0.83681E-10         0.00000E+00
    0.19621E-07         0.81712E-10         0.00000E+00
    0.19621E-07         0.79502E-10         0.00000E+00
    0.19621E-07         0.77059E-10         0.00000E+00
    0.19620E-07         0.74388E-10         0.00000E+00
    0.19620E-07         0.71498E-10         0.00000E+00
    0.19620E-07         0.68392E-10         0.00000E+00
    0.19619E-07         0.65079E-10         0.00000E+00
    0.19619E-07         0.61564E-10         0.00000E+00
    0.19619E-07         0.57853E-10         0.00000E+00
    0.19619E-07         0.53952E-10         0.00000E+00
    0.19619E-07         0.49866E-10         0.00000E+00
    0.19618E-07         0.45601E-10         0.00000E+00
    0.19618E-07         0.41162E-10         0.00000E+00
    0.19618E-07         0.36555E-10         0.00000E+00
    0.19618E-07         0.31784E-10         0.00000E+00
    0.19618E-07         0.26855E-10         0.00000E+00
    0.19618E-07         0.21772E-10         0.00000E+00
    0.19618E-07         0.16540E-10         0.00000E+00
    0.19618E-07         0.11164E-10         0.00000E+00
    0.19618E-07         0.56479E-11         0.00000E+00
    0.19618E-07         0.28555E-11         0.00000E+00
    0.20322E-07         0.45972E-11         0.00000E+00
    0.20322E-07         0.89955E-11         0.00000E+00
    0.20322E-07         0.17522E-10         0.00000E+00
    0.20321E-07         0.25515E-10         0.00000E+00
    0.20321E-07         0.32989E-10         0.00000E+00
    0.20321E-07         0.39954E-10         0.00000E+00
    0.20321E-07         0.46426E-10         0.00000E+00
    0.20320E-07         0.52416E-10         0.00000E+00
    0.20320E-07         0.57936E-10         0.00000E+00
    0.20320E-07         0.63000E-10         0.00000E+00
    0.20319E-07         0.67617E-10         0.00000E+00
    0.20319E-07         0.71802E-10         0.00000E+00
    0.20318E-07         0.75565E-10         0.00000E+00
    0.20318E-07         0.78917E-10         0.00000E+00
    0.20318E-07         0.81870E-10         0.00000E+00
    0.20317E-07         0.84434E-10         0.00000E+00
    0.20317E-07         0.86621E-10         0.00000E+00
    0.20317E-07         0.88440E-10         0.00000E+00
    0.20316E-07         0.89903E-10         0.00000E+00
    0.20316E-07         0.91019E-10         0.00000E+00
    0.20315E-07         0.91798E-10         0.00000E+00
    0.20315E-07         0.92251E-10         0.00000E+00
    0.20315E-07         0.92386E-10         0.00000E+00
    0.20315E-07         0.92212E-10         0.00000E+00
    0.20314E-07         0.91740E-10         0.00000E+00
    0.20314E-07         0.90978E-10         0.00000E+00
    0.20314E-07         0.89934E-10         0.00000E+00
    0.20314E-07         0.88617E-10         0.00000E+00
    0.20313E-07         0.87036E-10         0.00000E+00
    0.20313E-07         0.85199E-10         0.00000E+00
    0.20313E-07         0.83113E-10         0.00000E+00
    0.20313E-07         0.80787E-10         0.00000E+00
    0.20313E-07         0.78228E-10         0.00000E+00
    0.20313E-07         0.75444E-10         0.00000E+00
    0.20313E-07         0.72441E-10         0.00000E+00
    0.20313E-07         0.69228E-10         0.00000E+00
    0.20313E-07         0.65810E-10         0.00000E+00
    0.20313E-07         0.62195E-10         0.00000E+00
    0.20313E-07         0.58388E-10         0.00000E+00
    0.20313E-07         0.54398E-10         0.00000E+00
    0.20313E-07         0.50229E-10         0.00000E+00
    0.20313E-07         0.45888E-10         0.00000E+00
    0.20313E-07         0.41381E-10         0.00000E+00
    0.20313E-07         0.36713E-10         0.00000E+00
    0.20313E-07         0.31890E-10         0.00000E+00
    0.20313E-07         0.26918E-10         0.00000E+00
    0.20313E-07         0.21802E-10         0.00000E+00
    0.20313E-07         0.16547E-10         0.00000E+00
    0.20313E-07         0.11158E-10         0.00000E+00
    0.20313E-07         0.56393E-11         0.00000E+00
    0.20313E-07         0.28485E-11         0.00000E+00
    0.21089E-07         0.47399E-11         0.00000E+00
    0.21089E-07         0.92680E-11         0.00000E+00
    0.21089E-07         0.18037E-10         0.00000E+00
    0.21089E-07         0.26240E-10         0.00000E+00
    0.21089E-07         0.33891E-10         0.00000E+00
    0.21089E-07         0.41006E-10         0.00000E+00
    0.21088E-07         0.47600E-10         0.00000E+00
    0.21088E-07         0.53686E-10         0.00000E+00
    0.21088E-07         0.59279E-10         0.00000E+00
    0.21088E-07         0.64394E-10         0.00000E+00
    0.21088E-07         0.69042E-10         0.00000E+00
    0.21088E-07         0.73239E-10         0.00000E+00
    0.21087E-07         0.76997E-10         0.00000E+00
    0.21087E-07         0.80328E-10         0.00000E+00
    0.21087E-07         0.83247E-10         0.00000E+00
    0.21087E-07         0.85764E-10         0.00000E+00
    0.21087E-07         0.87893E-10         0.00000E+00
    0.21087E-07         0.89644E-10         0.00000E+00
    0.21087E-07         0.91030E-10         0.00000E+00
    0.21087E-07         0.92063E-10         0.00000E+00
    0.21087E-07         0.92752E-10         0.00000E+00
    0.21087E-07         0.93110E-10         0.00000E+00
    0.21087E-07         0.93146E-10         0.00000E+00
    0.21087E-07         0.92872E-10         0.00000E+00
    0.21087E-07         0.92297E-10         0.00000E+00
    0.21087E-07         0.91432E-10         0.00000E+00
    0.21087E-07         0.90285E-10         0.00000E+00
    0.21087E-07         0.88867E-10         0.00000E+00
    0.21087E-07         0.87187E-10         0.00000E+00
    0.21087E-07         0.85254E-10         0.00000E+00
    0.21087E-07         0.83077E-10         0.00000E+00
    0.21088E-07         0.80664E-10         0.00000E+00
    0.21088E-07         0.78023E-10         0.00000E+00
    0.21088E-07         0.75164E-10         0.00000E+00
    0.21088E-07         0.72093E-10         0.00000E+00
    0.21088E-07         0.68819E-10         0.00000E+00
    0.21089E-07         0.65349E-10         0.00000E+00
    0.21089E-07         0.61691E-10         0.00000E+00
    0.21089E-07         0.57852E-10         0.00000E+00
    0.21089E-07         0.53838E-10         0.00000E+00
    0.21090E-07         0.49657E-10         0.00000E+00
    0.21090E-07         0.45315E-10         0.00000E+00
    0.21090E-07         0.40818E-10         0.00000E+00
    0.21090E-07         0.36173E-10         0.00000E+00
    0.21090E-07         0.31387E-10         0.00000E+00
    0.21091E-07         0.26463E-10         0.00000E+00
    0.21091E-07         0.21410E-10         0.00000E+00
    0.21091E-07         0.16231E-10         0.00000E+00
    0.21091E-07         0.10932E-10         0.00000E+00
    0.21091E-07         0.55194E-11         0.00000E+00
    0.21091E-07         0.27850E-11         0.00000E+00
    0.21941E-07         0.48114E-11         0.00000E+00
    0.21941E-07         0.94001E-11         0.00000E+00
    0.21941E-07         0.18276E-10         0.00000E+00
    0.21941E-07         0.26558E-10         0.00000E+00
    0.21941E-07         0.34264E-10         0.00000E+00
    0.21941E-07         0.41410E-10         0.00000E+00
    0.21941E-07         0.48012E-10         0.00000E+00
    0.21941E-07         0.54088E-10         0.00000E+00
    0.21941E-07         0.59654E-10         0.00000E+00
    0.21941E-07         0.64724E-10         0.00000E+00
    0.21941E-07         0.69314E-10         0.00000E+00
    0.21941E-07         0.73440E-10         0.00000E+00
    0.21941E-07         0.77116E-10         0.00000E+00
    0.21942E-07         0.80357E-10         0.00000E+00
    0.21942E-07         0.83176E-10         0.00000E+00
    0.21942E-07         0.85588E-10         0.00000E+00
    0.21942E-07         0.87606E-10         0.00000E+00
    0.21942E-07         0.89243E-10         0.00000E+00
    0.21943E-07         0.90512E-10         0.00000E+00
    0.21943E-07         0.91426E-10         0.00000E+00
    0.21943E-07         0.91997E-10         0.00000E+00
    0.21944E-07         0.92238E-10         0.00000E+00
    0.21944E-07         0.92160E-10         0.00000E+00
    0.21944E-07         0.91774E-10         0.00000E+00
    0.21945E-07         0.91091E-10         0.00000E+00
    0.21945E-07         0.90124E-10         0.00000E+00
    0.21946E-07         0.88882E-10         0.00000E+00
    0.21946E-07         0.87375E-10         0.00000E+00
    0.21947E-07         0.85614E-10         0.00000E+00
    0.21947E-07         0.83609E-10         0.00000E+00
    0.21948E-07         0.81370E-10         0.00000E+00
    0.21948E-07         0.78905E-10         0.00000E+00
    0.21949E-07         0.76223E-10         0.00000E+00
    0.21949E-07         0.73335E-10         0.00000E+00
    0.21950E-07         0.70247E-10         0.00000E+00
    0.21951E-07         0.66970E-10         0.00000E+00
    0.21951E-07         0.63510E-10         0.00000E+00
    0.21952E-07         0.59876E-10         0.00000E+00
    0.21952E-07         0.56075E-10         0.00000E+00
    0.21953E-07         0.52116E-10         0.00000E+00
    0.21953E-07         0.48005E-10         0.00000E+00
    0.21953E-07         0.43749E-10         0.00000E+00
    0.21954E-07         0.39355E-10         0.00000E+00
    0.21954E-07         0.34830E-10         0.00000E+00
    0.21955E-07         0.30180E-10         0.00000E+00
    0.21955E-07         0.25412E-10         0.00000E+00
    0.21955E-07         0.20531E-10         0.00000E+00
    0.21955E-07         0.15543E-10         0.00000E+00
    0.21956E-07         0.10455E-10         0.00000E+00
    0.21956E-07         0.52715E-11         0.00000E+00
    0.21956E-07         0.26564E-11         0.00000E+00
    0.22881E-07         0.47995E-11         0.00000E+00
    0.22881E-07         0.93678E-11         0.00000E+00
    0.22881E-07         0.18192E-10         0.00000E+00
    0.22881E-07         0.26402E-10         0.00000E+00
    0.22882E-07         0.34017E-10         0.00000E+00
    0.22882E-07         0.41056E-10         0.00000E+00
    0.22882E-07         0.47537E-10         0.00000E+00
    0.22882E-07         0.53479E-10         0.00000E+00
    0.22882E-07         0.58900E-10         0.00000E+00
    0.22883E-07         0.63817E-10         0.00000E+00
    0.22883E-07         0.68247E-10         0.00000E+00
    0.22883E-07         0.72207E-10         0.00000E+00
    0.22884E-07         0.75713E-10         0.00000E+00
    0.22884E-07         0.78782E-10         0.00000E+00
    0.22885E-07         0.81428E-10         0.00000E+00
    0.22885E-07         0.83667E-10         0.00000E+00
    0.22886E-07         0.85515E-10         0.00000E+00
    0.22887E-07         0.86985E-10         0.00000E+00
    0.22887E-07         0.88092E-10         0.00000E+00
    0.22888E-07         0.88850E-10         0.00000E+00
    0.22889E-07         0.89271E-10         0.00000E+00
    0.22890E-07         0.89370E-10         0.00000E+00
    0.22890E-07         0.89159E-10         0.00000E+00
    0.22891E-07         0.88650E-10         0.00000E+00
    0.22892E-07         0.87857E-10         0.00000E+00
    0.22893E-07         0.86790E-10         0.00000E+00
    0.22894E-07         0.85461E-10         0.00000E+00
    0.22895E-07         0.83881E-10         0.00000E+00
    0.22896E-07         0.82062E-10         0.00000E+00
    0.22897E-07         0.80014E-10         0.00000E+00
    0.22898E-07         0.77747E-10         0.00000E+00
    0.22899E-07         0.75271E-10         0.00000E+00
    0.22900E-07         0.72596E-10         0.00000E+00
    0.22900E-07         0.69732E-10         0.00000E+00
    0.22901E-07         0.66688E-10         0.00000E+00
    0.22902E-07         0.63472E-10         0.00000E+00
    0.22903E-07         0.60094E-10         0.00000E+00
    0.22904E-07         0.56562E-10         0.00000E+00
    0.22905E-07         0.52883E-10         0.00000E+00
    0.22906E-07         0.49067E-10         0.00000E+00
    0.22906E-07         0.45120E-10         0.00000E+00
    0.22907E-07         0.41050E-10         0.00000E+00
    0.22908E-07         0.36864E-10         0.00000E+00
    0.22908E-07         0.32569E-10         0.00000E+00
    0.22909E-07         0.28172E-10         0.00000E+00
    0.22909E-07         0.23680E-10         0.00000E+00
    0.22910E-07         0.19098E-10         0.00000E+00
    0.22910E-07         0.14434E-10         0.00000E+00
    0.22910E-07         0.96917E-11         0.00000E+00
    0.22910E-07         0.48780E-11         0.00000E+00
    0.22910E-07         0.24540E-11         0.00000E+00
    0.23913E-07         0.46909E-11         0.00000E+00
    0.23914E-07         0.91451E-11         0.00000E+00
    0.23914E-07         0.17735E-10         0.00000E+00
    0.23914E-07         0.25697E-10         0.00000E+00
    0.23914E-07         0.33055E-10         0.00000E+00
    0.23914E-07         0.39828E-10         0.00000E+00
    0.23915E-07         0.46038E-10         0.00000E+00
    0.23915E-07         0.51704E-10         0.00000E+00
    0.23916E-07         0.56847E-10         0.00000E+00
    0.23916E-07         0.61486E-10         0.00000E+00
    0.23917E-07         0.65639E-10         0.00000E+00
    0.23918E-07         0.69325E-10         0.00000E+00
    0.23918E-07         0.72562E-10         0.00000E+00
    0.23919E-07         0.75367E-10         0.00000E+00
    0.23920E-07         0.77757E-10         0.00000E+00
    0.23921E-07         0.79749E-10         0.00000E+00
    0.23922E-07         0.81360E-10         0.00000E+00
    0.23923E-07         0.82605E-10         0.00000E+00
    0.23925E-07         0.83499E-10         0.00000E+00
    0.23926E-07         0.84057E-10         0.00000E+00
    0.23927E-07         0.84294E-10         0.00000E+00
    0.23928E-07         0.84225E-10         0.00000E+00
    0.23929E-07         0.83862E-10         0.00000E+00
    0.23931E-07         0.83220E-10         0.00000E+00
    0.23932E-07         0.82312E-10         0.00000E+00
    0.23934E-07         0.81150E-10         0.00000E+00
    0.23935E-07         0.79746E-10         0.00000E+00
    0.23936E-07         0.78112E-10         0.00000E+00
    0.23938E-07         0.76261E-10         0.00000E+00
    0.23939E-07         0.74203E-10         0.00000E+00
    0.23941E-07         0.71950E-10         0.00000E+00
    0.23942E-07         0.69512E-10         0.00000E+00
    0.23943E-07         0.66899E-10         0.00000E+00
    0.23945E-07         0.64121E-10         0.00000E+00
    0.23946E-07         0.61188E-10         0.00000E+00
    0.23947E-07         0.58110E-10         0.00000E+00
    0.23949E-07         0.54895E-10         0.00000E+00
    0.23950E-07         0.51553E-10         0.00000E+00
    0.23951E-07         0.48091E-10         0.00000E+00
    0.23952E-07         0.44519E-10         0.00000E+00
    0.23953E-07         0.40843E-10         0.00000E+00
    0.23954E-07         0.37073E-10         0.00000E+00
    0.23955E-07         0.33214E-10         0.00000E+00
    0.23956E-07         0.29275E-10         0.00000E+00
    0.23957E-07         0.25263E-10         0.00000E+00
    0.23957E-07         0.21183E-10         0.00000E+00
    0.23958E-07         0.17043E-10         0.00000E+00
    0.23958E-07         0.12848E-10         0.00000E+00
    0.23959E-07         0.86059E-11         0.00000E+00
    0.23959E-07         0.43210E-11         0.00000E+00
    0.23959E-07         0.21686E-11         0.00000E+00
    0.25041E-07         0.44713E-11         0.00000E+00
    0.25041E-07         0.87039E-11         0.00000E+00
    0.25042E-07         0.16848E-10         0.00000E+00
    0.25042E-07         0.24364E-10         0.00000E+00
    0.25042E-07         0.31274E-10         0.00000E+00
    0.25043E-07         0.37601E-10         0.00000E+00
    0.25043E-07         0.43369E-10         0.00000E+00
    0.25044E-07         0.48599E-10         0.00000E+00
    0.25045E-07         0.53313E-10         0.00000E+00
    0.25046E-07         0.57532E-10         0.00000E+00
    0.25047E-07         0.61277E-10         0.00000E+00
    0.25048E-07         0.64567E-10         0.00000E+00
    0.25049E-07         0.67422E-10         0.00000E+00
    0.25051E-07         0.69862E-10         0.00000E+00
    0.25052E-07         0.71903E-10         0.00000E+00
    0.25053E-07         0.73565E-10         0.00000E+00
    0.25055E-07         0.74864E-10         0.00000E+00
    0.25056E-07         0.75819E-10         0.00000E+00
    0.25058E-07         0.76444E-10         0.00000E+00
    0.25060E-07         0.76757E-10         0.00000E+00
    0.25062E-07         0.76773E-10         0.00000E+00
    0.25063E-07         0.76507E-10         0.00000E+00
    0.25065E-07         0.75974E-10         0.00000E+00
    0.25067E-07         0.75187E-10         0.00000E+00
    0.25069E-07         0.74162E-10         0.00000E+00
    0.25071E-07         0.72910E-10         0.00000E+00
    0.25073E-07         0.71447E-10         0.00000E+00
    0.25075E-07         0.69783E-10         0.00000E+00
    0.25077E-07         0.67931E-10         0.00000E+00
    0.25079E-07         0.65903E-10         0.00000E+00
    0.25081E-07         0.63711E-10         0.00000E+00
    0.25083E-07         0.61365E-10         0.00000E+00
    0.25085E-07         0.58877E-10         0.00000E+00
    0.25086E-07         0.56256E-10         0.00000E+00
    0.25088E-07         0.53513E-10         0.00000E+00
    0.25090E-07         0.50658E-10         0.00000E+00
    0.25092E-07         0.47699E-10         0.00000E+00
    0.25093E-07         0.44647E-10         0.00000E+00
    0.25095E-07         0.41509E-10         0.00000E+00
    0.25096E-07         0.38295E-10         0.00000E+00
    0.25098E-07         0.35012E-10         0.00000E+00
    0.25099E-07         0.31668E-10         0.00000E+00
    0.25100E-07         0.28271E-10         0.00000E+00
    0.25101E-07         0.24828E-10         0.00000E+00
    0.25102E-07         0.21346E-10         0.00000E+00
    0.25103E-07         0.17832E-10         0.00000E+00
    0.25104E-07         0.14292E-10         0.00000E+00
    0.25104E-07         0.10733E-10         0.00000E+00
    0.25105E-07         0.71612E-11         0.00000E+00
    0.25105E-07         0.35816E-11         0.00000E+00
    0.25105E-07         0.17907E-11         0.00000E+00
    0.26269E-07         0.41254E-11         0.00000E+00
    0.26269E-07         0.80143E-11         0.00000E+00
    0.26269E-07         0.15475E-10         0.00000E+00
    0.26270E-07         0.22316E-10         0.00000E+00
    0.26270E-07         0.28563E-10         0.00000E+00
    0.26271E-07         0.34241E-10         0.00000E+00
    0.26272E-07         0.39374E-10         0.00000E+00
    0.26273E-07         0.43988E-10         0.00000E+00
    0.26274E-07         0.48104E-10         0.00000E+00
    0.26276E-07         0.51745E-10         0.00000E+00
    0.26277E-07         0.54935E-10         0.00000E+00
    0.26278E-07         0.57694E-10         0.00000E+00
    0.26280E-07         0.60043E-10         0.00000E+00
    0.26282E-07         0.62002E-10         0.00000E+00
    0.26284E-07         0.63592E-10         0.00000E+00
    0.26286E-07         0.64831E-10         0.00000E+00
    0.26288E-07         0.65739E-10         0.00000E+00
    0.26290E-07         0.66332E-10         0.00000E+00
    0.26292E-07         0.66629E-10         0.00000E+00
    0.26295E-07         0.66646E-10         0.00000E+00
    0.26297E-07         0.66400E-10         0.00000E+00
    0.26299E-07         0.65908E-10         0.00000E+00
    0.26302E-07         0.65184E-10         0.00000E+00
    0.26304E-07         0.64243E-10         0.00000E+00
    0.26307E-07         0.63100E-10         0.00000E+00
    0.26309E-07         0.61769E-10         0.00000E+00
    0.26312E-07         0.60263E-10         0.00000E+00
    0.26315E-07         0.58596E-10         0.00000E+00
    0.26317E-07         0.56780E-10         0.00000E+00
    0.26320E-07         0.54828E-10         0.00000E+00
    0.26322E-07         0.52751E-10         0.00000E+00
    0.26325E-07         0.50561E-10         0.00000E+00
    0.26327E-07         0.48269E-10         0.00000E+00
    0.26329E-07         0.45885E-10         0.00000E+00
    0.26332E-07         0.43420E-10         0.00000E+00
    0.26334E-07         0.40884E-10         0.00000E+00
    0.26336E-07         0.38286E-10         0.00000E+00
    0.26338E-07         0.35636E-10         0.00000E+00
    0.26340E-07         0.32942E-10         0.00000E+00
    0.26342E-07         0.30213E-10         0.00000E+00
    0.26344E-07         0.27456E-10         0.00000E+00
    0.26345E-07         0.24681E-10         0.00000E+00
    0.26347E-07         0.21894E-10         0.00000E+00
    0.26348E-07         0.19103E-10         0.00000E+00
    0.26350E-07         0.16315E-10         0.00000E+00
    0.26351E-07         0.13536E-10         0.00000E+00
    0.26351E-07         0.10773E-10         0.00000E+00
    0.26352E-07         0.80328E-11         0.00000E+00
    0.26353E-07         0.53202E-11         0.00000E+00
    0.26353E-07         0.26412E-11         0.00000E+00
    0.26353E-07         0.13108E-11         0.00000E+00
    0.27601E-07         0.36369E-11         0.00000E+00
    0.27601E-07         0.70445E-11         0.00000E+00
    0.27601E-07         0.13554E-10         0.00000E+00
    0.27602E-07         0.19466E-10         0.00000E+00
    0.27603E-07         0.24808E-10         0.00000E+00
    0.27604E-07         0.29608E-10         0.00000E+00
    0.27605E-07         0.33892E-10         0.00000E+00
    0.27606E-07         0.37687E-10         0.00000E+00
    0.27608E-07         0.41016E-10         0.00000E+00
    0.27609E-07         0.43905E-10         0.00000E+00
    0.27611E-07         0.46377E-10         0.00000E+00
    0.27613E-07         0.48455E-10         0.00000E+00
    0.27616E-07         0.50160E-10         0.00000E+00
    0.27618E-07         0.51515E-10         0.00000E+00
    0.27620E-07         0.52541E-10         0.00000E+00
    0.27623E-07         0.53257E-10         0.00000E+00
    0.27626E-07         0.53683E-10         0.00000E+00
    0.27628E-07         0.53839E-10         0.00000E+00
    0.27631E-07         0.53742E-10         0.00000E+00
    0.27634E-07         0.53410E-10         0.00000E+00
    0.27637E-07         0.52861E-10         0.00000E+00
    0.27640E-07         0.52111E-10         0.00000E+00
    0.27643E-07         0.51176E-10         0.00000E+00
    0.27647E-07         0.50071E-10         0.00000E+00
    0.27650E-07         0.48812E-10         0.00000E+00
    0.27653E-07         0.47413E-10         0.00000E+00
    0.27656E-07         0.45888E-10         0.00000E+00
    0.27660E-07         0.44250E-10         0.00000E+00
    0.27663E-07         0.42513E-10         0.00000E+00
    0.27666E-07         0.40689E-10         0.00000E+00
    0.27669E-07         0.38789E-10         0.00000E+00
    0.27672E-07         0.36826E-10         0.00000E+00
    0.27675E-07         0.34811E-10         0.00000E+00
    0.27678E-07         0.32754E-10         0.00000E+00
    0.27681E-07         0.30665E-10         0.00000E+00
    0.27684E-07         0.28556E-10         0.00000E+00
    0.27687E-07         0.26434E-10         0.00000E+00
    0.27689E-07         0.24310E-10         0.00000E+00
    0.27692E-07         0.22192E-10         0.00000E+00
    0.27694E-07         0.20089E-10         0.00000E+00
    0.27696E-07         0.18008E-10         0.00000E+00
    0.27698E-07         0.15958E-10         0.00000E+00
    0.27700E-07         0.13946E-10         0.00000E+00
    0.27702E-07         0.11979E-10         0.00000E+00
    0.27703E-07         0.10063E-10         0.00000E+00
    0.27704E-07         0.82063E-11         0.00000E+00
    0.27705E-07         0.64137E-11         0.00000E+00
    0.27706E-07         0.46915E-11         0.00000E+00
    0.27707E-07         0.30454E-11         0.00000E+00
    0.27707E-07         0.14807E-11         0.00000E+00
    0.27707E-07         0.71934E-12         0.00000E+00
    0.29041E-07         0.29889E-11         0.00000E+00
    0.29041E-07         0.57614E-11         0.00000E+00
    0.29042E-07         0.11019E-10         0.00000E+00
    0.29043E-07         0.15718E-10         0.00000E+00
    0.29044E-07         0.19887E-10         0.00000E+00
    0.29045E-07         0.23557E-10         0.00000E+00
    0.29046E-07         0.26754E-10         0.00000E+00
    0.29048E-07         0.29507E-10         0.00000E+00
    0.29050E-07         0.31843E-10         0.00000E+00
    0.29052E-07         0.33785E-10         0.00000E+00
    0.29055E-07         0.35361E-10         0.00000E+00
    0.29057E-07         0.36593E-10         0.00000E+00
    0.29060E-07         0.37505E-10         0.00000E+00
    0.29063E-07         0.38120E-10         0.00000E+00
    0.29066E-07         0.38459E-10         0.00000E+00
    0.29069E-07         0.38543E-10         0.00000E+00
    0.29072E-07         0.38393E-10         0.00000E+00
    0.29076E-07         0.38029E-10         0.00000E+00
    0.29079E-07         0.37469E-10         0.00000E+00
    0.29083E-07         0.36732E-10         0.00000E+00
    0.29087E-07         0.35835E-10         0.00000E+00
    0.29091E-07         0.34796E-10         0.00000E+00
    0.29095E-07         0.33630E-10         0.00000E+00
    0.29098E-07         0.32354E-10         0.00000E+00
    0.29102E-07         0.30983E-10         0.00000E+00
    0.29106E-07         0.29532E-10         0.00000E+00
    0.29110E-07         0.28014E-10         0.00000E+00
    0.29114E-07         0.26443E-10         0.00000E+00
    0.29118E-07         0.24833E-10         0.00000E+00
    0.29122E-07         0.23195E-10         0.00000E+00
    0.29126E-07         0.21543E-10         0.00000E+00
    0.29130E-07         0.19886E-10         0.00000E+00
    0.29133E-07         0.18237E-10         0.00000E+00
    0.29137E-07         0.16607E-10         0.00000E+00
    0.29141E-07         0.15004E-10         0.00000E+00
    0.29144E-07         0.13440E-10         0.00000E+00
    0.29147E-07         0.11923E-10         0.00000E+00
    0.29150E-07         0.10462E-10         0.00000E+00
    0.29153E-07         0.90661E-11         0.00000E+00
    0.29156E-07         0.77433E-11         0.00000E+00
    0.29159E-07         0.65014E-11         0.00000E+00
    0.29161E-07         0.53478E-11         0.00000E+00
    0.29163E-07         0.42895E-11         0.00000E+00
    0.29165E-07         0.33335E-11         0.00000E+00
    0.29167E-07         0.24860E-11         0.00000E+00
    0.29169E-07         0.17533E-11         0.00000E+00
    0.29170E-07         0.11411E-11         0.00000E+00
    0.29171E-07         0.65500E-12         0.00000E+00
    0.29172E-07         0.30019E-12         0.00000E+00
    0.29172E-07         0.81644E-13         0.00000E+00
    0.29172E-07         0.70378E-14         0.00000E+00
    0.30594E-07         0.21641E-11         0.00000E+00
    0.30595E-07         0.41312E-11         0.00000E+00
    0.30595E-07         0.78059E-11         0.00000E+00
    0.30596E-07         0.10978E-10         0.00000E+00
    0.30597E-07         0.13679E-10         0.00000E+00
    0.30599E-07         0.15939E-10         0.00000E+00
    0.30601E-07         0.17789E-10         0.00000E+00
    0.30603E-07         0.19257E-10         0.00000E+00
    0.30605E-07         0.20370E-10         0.00000E+00
    0.30608E-07         0.21157E-10         0.00000E+00
    0.30611E-07         0.21642E-10         0.00000E+00
    0.30614E-07         0.21850E-10         0.00000E+00
    0.30617E-07         0.21807E-10         0.00000E+00
    0.30621E-07         0.21534E-10         0.00000E+00
    0.30625E-07         0.21055E-10         0.00000E+00
    0.30629E-07         0.20392E-10         0.00000E+00
    0.30633E-07         0.19564E-10         0.00000E+00
    0.30637E-07         0.18593E-10         0.00000E+00
    0.30641E-07         0.17497E-10         0.00000E+00
    0.30646E-07         0.16295E-10         0.00000E+00
    0.30650E-07         0.15006E-10         0.00000E+00
    0.30655E-07         0.13645E-10         0.00000E+00
    0.30660E-07         0.12231E-10         0.00000E+00
    0.30664E-07         0.10778E-10         0.00000E+00
    0.30669E-07         0.93017E-11         0.00000E+00
    0.30674E-07         0.78171E-11         0.00000E+00
    0.30679E-07         0.63381E-11         0.00000E+00
    0.30683E-07         0.48779E-11         0.00000E+00
    0.30688E-07         0.34496E-11         0.00000E+00
    0.30693E-07         0.20654E-11         0.00000E+00
    0.30697E-07         0.73717E-12         0.00000E+00
    0.30702E-07        -0.52391E-12         0.00000E+00
    0.30706E-07        -0.17070E-11         0.00000E+00
    0.30710E-07        -0.28019E-11         0.00000E+00
    0.30715E-07        -0.37987E-11         0.00000E+00
    0.30719E-07        -0.46881E-11         0.00000E+00
    0.30722E-07        -0.54610E-11         0.00000E+00
    0.30726E-07        -0.61092E-11         0.00000E+00
    0.30730E-07        -0.66243E-11         0.00000E+00
    0.30733E-07        -0.69988E-11         0.00000E+00
    0.30736E-07        -0.72253E-11         0.00000E+00
    0.30739E-07        -0.72969E-11         0.00000E+00
    0.30742E-07        -0.72070E-11         0.00000E+00
    0.30744E-07        -0.69494E-11         0.00000E+00
    0.30746E-07        -0.65181E-11         0.00000E+00
    0.30748E-07        -0.59077E-11         0.00000E+00
    0.30749E-07        -0.51129E-11         0.00000E+00
    0.30751E-07        -0.41286E-11         0.00000E+00
    0.30751E-07        -0.29503E-11         0.00000E+00
    0.30752E-07        -0.15735E-11         0.00000E+00
    0.30752E-07        -0.83502E-12         0.00000E+00
    0.32265E-07         0.11448E-11         0.00000E+00
    0.32265E-07         0.21196E-11         0.00000E+00
    0.32266E-07         0.38477E-11         0.00000E+00
    0.32267E-07         0.51498E-11         0.00000E+00
    0.32268E-07         0.60590E-11         0.00000E+00
    0.32270E-07         0.66074E-11         0.00000E+00
    0.32273E-07         0.68257E-11         0.00000E+00
    0.32275E-07         0.67438E-11         0.00000E+00
    0.32278E-07         0.63904E-11         0.00000E+00
    0.32281E-07         0.57932E-11         0.00000E+00
    0.32285E-07         0.49787E-11         0.00000E+00
    0.32289E-07         0.39727E-11         0.00000E+00
    0.32293E-07         0.27998E-11         0.00000E+00
    0.32297E-07         0.14837E-11         0.00000E+00
    0.32301E-07         0.47231E-13         0.00000E+00
    0.32306E-07        -0.14877E-11         0.00000E+00
    0.32311E-07        -0.31000E-11         0.00000E+00
    0.32316E-07        -0.47695E-11         0.00000E+00
    0.32321E-07        -0.64769E-11         0.00000E+00
    0.32326E-07        -0.82036E-11         0.00000E+00
    0.32332E-07        -0.99317E-11         0.00000E+00
    0.32337E-07        -0.11644E-10         0.00000E+00
    0.32343E-07        -0.13325E-10         0.00000E+00
    0.32348E-07        -0.14958E-10         0.00000E+00
    0.32354E-07        -0.16529E-10         0.00000E+00
    0.32360E-07        -0.18023E-10         0.00000E+00
    0.32365E-07        -0.19426E-10         0.00000E+00
    0.32371E-07        -0.20727E-10         0.00000E+00
    0.32376E-07        -0.21911E-10         0.00000E+00
    0.32382E-07        -0.22968E-10         0.00000E+00
    0.32387E-07        -0.23886E-10         0.00000E+00
    0.32392E-07        -0.24655E-10         0.00000E+00
    0.32398E-07        -0.25264E-10         0.00000E+00
    0.32403E-07        -0.25703E-10         0.00000E+00
    0.32407E-07        -0.25964E-10         0.00000E+00
    0.32412E-07        -0.26037E-10         0.00000E+00
    0.32417E-07        -0.25915E-10         0.00000E+00
    0.32421E-07        -0.25590E-10         0.00000E+00
    0.32425E-07        -0.25053E-10         0.00000E+00
    0.32429E-07        -0.24299E-10         0.00000E+00
    0.32433E-07        -0.23320E-10         0.00000E+00
    0.32436E-07        -0.22111E-10         0.00000E+00
    0.32439E-07        -0.20665E-10         0.00000E+00
    0.32442E-07        -0.18977E-10         0.00000E+00
    0.32444E-07        -0.17042E-10         0.00000E+00
    0.32446E-07        -0.14855E-10         0.00000E+00
    0.32448E-07        -0.12411E-10         0.00000E+00
    0.32449E-07        -0.97069E-11         0.00000E+00
    0.32450E-07        -0.67380E-11         0.00000E+00
    0.32451E-07        -0.35010E-11         0.00000E+00
    0.32451E-07        -0.18150E-11         0.00000E+00
    0.34057E-07        -0.86129E-13         0.00000E+00
    0.34057E-07        -0.30672E-12         0.00000E+00
    0.34058E-07        -0.91973E-12         0.00000E+00
    0.34059E-07        -0.18590E-11         0.00000E+00
    0.34061E-07        -0.30904E-11         0.00000E+00
    0.34063E-07        -0.45810E-11         0.00000E+00
    0.34066E-07        -0.62992E-11         0.00000E+00
    0.34069E-07        -0.82146E-11         0.00000E+00
    0.34073E-07        -0.10298E-10         0.00000E+00
    0.34076E-07        -0.12521E-10         0.00000E+00
    0.34081E-07        -0.14858E-10         0.00000E+00
    0.34085E-07        -0.17281E-10         0.00000E+00
    0.34090E-07        -0.19767E-10         0.00000E+00
    0.34095E-07        -0.22292E-10         0.00000E+00
    0.34100E-07        -0.24833E-10         0.00000E+00
    0.34106E-07        -0.27367E-10         0.00000E+00
    0.34111E-07        -0.29876E-10         0.00000E+00
    0.34117E-07        -0.32338E-10         0.00000E+00
    0.34123E-07        -0.34734E-10         0.00000E+00
    0.34129E-07        -0.37047E-10         0.00000E+00
    0.34136E-07        -0.39259E-10         0.00000E+00
    0.34142E-07        -0.41354E-10         0.00000E+00
    0.34149E-07        -0.43315E-10         0.00000E+00
    0.34155E-07        -0.45128E-10         0.00000E+00
    0.34162E-07        -0.46779E-10         0.00000E+00
    0.34168E-07        -0.48254E-10         0.00000E+00
    0.34175E-07        -0.49540E-10         0.00000E+00
    0.34181E-07        -0.50625E-10         0.00000E+00
    0.34187E-07        -0.51497E-10         0.00000E+00
    0.34194E-07        -0.52146E-10         0.00000E+00
    0.34200E-07        -0.52560E-10         0.00000E+00
    0.34206E-07        -0.52731E-10         0.00000E+00
    0.34212E-07        -0.52648E-10         0.00000E+00
    0.34218E-07        -0.52303E-10         0.00000E+00
    0.34223E-07        -0.51688E-10         0.00000E+00
    0.34229E-07        -0.50794E-10         0.00000E+00
    0.34234E-07        -0.49615E-10         0.00000E+00
    0.34239E-07        -0.48144E-10         0.00000E+00
    0.34244E-07        -0.46374E-10         0.00000E+00
    0.34248E-07        -0.44299E-10         0.00000E+00
    0.34252E-07        -0.41913E-10         0.00000E+00
    0.34256E-07        -0.39212E-10         0.00000E+00
    0.34260E-07        -0.36190E-10         0.00000E+00
    0.34263E-07        -0.32842E-10         0.00000E+00
    0.34265E-07        -0.29166E-10         0.00000E+00
    0.34268E-07        -0.25155E-10         0.00000E+00
    0.34270E-07        -0.20808E-10         0.00000E+00
    0.34271E-07        -0.16121E-10         0.00000E+00
    0.34273E-07        -0.11091E-10         0.00000E+00
    0.34273E-07        -0.57146E-11         0.00000E+00
    0.34274E-07        -0.29398E-11         0.00000E+00
    0.35975E-07        -0.15449E-11         0.00000E+00
    0.35975E-07        -0.31792E-11         0.00000E+00
    0.35976E-07        -0.65570E-11         0.00000E+00
    0.35978E-07        -0.10136E-10         0.00000E+00
    0.35980E-07        -0.13881E-10         0.00000E+00
    0.35982E-07        -0.17759E-10         0.00000E+00
    0.35986E-07        -0.21738E-10         0.00000E+00
    0.35989E-07        -0.25788E-10         0.00000E+00
    0.35993E-07        -0.29879E-10         0.00000E+00
    0.35998E-07        -0.33984E-10         0.00000E+00
    0.36002E-07        -0.38076E-10         0.00000E+00
    0.36008E-07        -0.42130E-10         0.00000E+00
    0.36013E-07        -0.46121E-10         0.00000E+00
    0.36019E-07        -0.50026E-10         0.00000E+00
    0.36025E-07        -0.53823E-10         0.00000E+00
    0.36031E-07        -0.57490E-10         0.00000E+00
    0.36038E-07        -0.61009E-10         0.00000E+00
    0.36045E-07        -0.64359E-10         0.00000E+00
    0.36052E-07        -0.67522E-10         0.00000E+00
    0.36059E-07        -0.70482E-10         0.00000E+00
    0.36066E-07        -0.73222E-10         0.00000E+00
    0.36073E-07        -0.75726E-10         0.00000E+00
    0.36081E-07        -0.77980E-10         0.00000E+00
    0.36088E-07        -0.79969E-10         0.00000E+00
    0.36096E-07        -0.81681E-10         0.00000E+00
    0.36103E-07        -0.83104E-10         0.00000E+00
    0.36111E-07        -0.84224E-10         0.00000E+00
    0.36118E-07        -0.85032E-10         0.00000E+00
    0.36125E-07        -0.85517E-10         0.00000E+00
    0.36132E-07        -0.85669E-10         0.00000E+00
    0.36140E-07        -0.85478E-10         0.00000E+00
    0.36146E-07        -0.84937E-10         0.00000E+00
    0.36153E-07        -0.84037E-10         0.00000E+00
    0.36160E-07        -0.82770E-10         0.00000E+00
    0.36166E-07        -0.81130E-10         0.00000E+00
    0.36172E-07        -0.79110E-10         0.00000E+00
    0.36178E-07        -0.76704E-10         0.00000E+00
    0.36184E-07        -0.73905E-10         0.00000E+00
    0.36189E-07        -0.70710E-10         0.00000E+00
    0.36194E-07        -0.67113E-10         0.00000E+00
    0.36199E-07        -0.63109E-10         0.00000E+00
    0.36203E-07        -0.58694E-10         0.00000E+00
    0.36207E-07        -0.53866E-10         0.00000E+00
    0.36211E-07        -0.48620E-10         0.00000E+00
    0.36214E-07        -0.42953E-10         0.00000E+00
    0.36217E-07        -0.36863E-10         0.00000E+00
    0.36219E-07        -0.30347E-10         0.00000E+00
    0.36221E-07        -0.23403E-10         0.00000E+00
    0.36222E-07        -0.16030E-10         0.00000E+00
    0.36223E-07        -0.82252E-11         0.00000E+00
    0.36223E-07        -0.42149E-11         0.00000E+00
    0.38022E-07        -0.32460E-11         0.00000E+00
    0.38023E-07        -0.65260E-11         0.00000E+00
    0.38024E-07        -0.13118E-10         0.00000E+00
    0.38026E-07        -0.19757E-10         0.00000E+00
    0.38028E-07        -0.26409E-10         0.00000E+00
    0.38031E-07        -0.33041E-10         0.00000E+00
    0.38035E-07        -0.39622E-10         0.00000E+00
    0.38039E-07        -0.46121E-10         0.00000E+00
    0.38043E-07        -0.52511E-10         0.00000E+00
    0.38048E-07        -0.58764E-10         0.00000E+00
    0.38054E-07        -0.64854E-10         0.00000E+00
    0.38060E-07        -0.70758E-10         0.00000E+00
    0.38066E-07        -0.76451E-10         0.00000E+00
    0.38073E-07        -0.81912E-10         0.00000E+00
    0.38080E-07        -0.87120E-10         0.00000E+00
    0.38087E-07        -0.92054E-10         0.00000E+00
    0.38094E-07        -0.96697E-10         0.00000E+00
    0.38102E-07        -0.10103E-09         0.00000E+00
    0.38110E-07        -0.10504E-09         0.00000E+00
    0.38118E-07        -0.10870E-09         0.00000E+00
    0.38126E-07        -0.11201E-09         0.00000E+00
    0.38135E-07        -0.11495E-09         0.00000E+00
    0.38143E-07        -0.11750E-09         0.00000E+00
    0.38151E-07        -0.11966E-09         0.00000E+00
    0.38160E-07        -0.12141E-09         0.00000E+00
    0.38168E-07        -0.12274E-09         0.00000E+00
    0.38177E-07        -0.12364E-09         0.00000E+00
    0.38185E-07        -0.12411E-09         0.00000E+00
    0.38193E-07        -0.12412E-09         0.00000E+00
    0.38201E-07        -0.12368E-09         0.00000E+00
    0.38209E-07        -0.12278E-09         0.00000E+00
    0.38217E-07        -0.12141E-09         0.00000E+00
    0.38225E-07        -0.11956E-09         0.00000E+00
    0.38232E-07        -0.11722E-09         0.00000E+00
    0.38239E-07        -0.11440E-09         0.00000E+00
    0.38246E-07        -0.11109E-09         0.00000E+00
    0.38253E-07        -0.10728E-09         0.00000E+00
    0.38259E-07        -0.10296E-09         0.00000E+00
    0.38265E-07        -0.98144E-10         0.00000E+00
    0.38271E-07        -0.92815E-10         0.00000E+00
    0.38276E-07        -0.86975E-10         0.00000E+00
    0.38281E-07        -0.80619E-10         0.00000E+00
    0.38285E-07        -0.73747E-10         0.00000E+00
    0.38289E-07        -0.66356E-10         0.00000E+00
    0.38293E-07        -0.58444E-10         0.00000E+00
    0.38296E-07        -0.50010E-10         0.00000E+00
    0.38298E-07        -0.41054E-10         0.00000E+00
    0.38300E-07        -0.31573E-10         0.00000E+00
    0.38302E-07        -0.21569E-10         0.00000E+00
    0.38303E-07        -0.11039E-10         0.00000E+00
    0.38303E-07        -0.56436E-11         0.00000E+00
    0.40203E-07        -0.52017E-11         0.00000E+00
    0.40203E-07        -0.10370E-10         0.00000E+00
    0.40204E-07        -0.20647E-10         0.00000E+00
    0.40206E-07        -0.30786E-10         0.00000E+00
    0.40209E-07        -0.40755E-10         0.00000E+00
    0.40212E-07        -0.50521E-10         0.00000E+00
    0.40216E-07        -0.60055E-10         0.00000E+00
    0.40221E-07        -0.69328E-10         0.00000E+00
    0.40226E-07        -0.78314E-10         0.00000E+00
    0.40232E-07        -0.86986E-10         0.00000E+00
    0.40238E-07        -0.95322E-10         0.00000E+00
    0.40245E-07        -0.10330E-09         0.00000E+00
    0.40252E-07        -0.11089E-09         0.00000E+00
    0.40260E-07        -0.11809E-09         0.00000E+00
    0.40267E-07        -0.12486E-09         0.00000E+00
    0.40276E-07        -0.13120E-09         0.00000E+00
    0.40284E-07        -0.13708E-09         0.00000E+00
    0.40293E-07        -0.14249E-09         0.00000E+00
    0.40302E-07        -0.14741E-09         0.00000E+00
    0.40311E-07        -0.15184E-09         0.00000E+00
    0.40320E-07        -0.15575E-09         0.00000E+00
    0.40329E-07        -0.15914E-09         0.00000E+00
    0.40339E-07        -0.16200E-09         0.00000E+00
    0.40348E-07        -0.16431E-09         0.00000E+00
    0.40357E-07        -0.16607E-09         0.00000E+00
    0.40367E-07        -0.16726E-09         0.00000E+00
    0.40376E-07        -0.16789E-09         0.00000E+00
    0.40385E-07        -0.16793E-09         0.00000E+00
    0.40395E-07        -0.16739E-09         0.00000E+00
    0.40404E-07        -0.16626E-09         0.00000E+00
    0.40413E-07        -0.16453E-09         0.00000E+00
    0.40421E-07        -0.16220E-09         0.00000E+00
    0.40430E-07        -0.15926E-09         0.00000E+00
    0.40438E-07        -0.15571E-09         0.00000E+00
    0.40446E-07        -0.15155E-09         0.00000E+00
    0.40454E-07        -0.14677E-09         0.00000E+00
    0.40461E-07        -0.14137E-09         0.00000E+00
    0.40468E-07        -0.13535E-09         0.00000E+00
    0.40475E-07        -0.12870E-09         0.00000E+00
    0.40481E-07        -0.12143E-09         0.00000E+00
    0.40487E-07        -0.11353E-09         0.00000E+00
    0.40492E-07        -0.10501E-09         0.00000E+00
    0.40497E-07        -0.95849E-10         0.00000E+00
    0.40501E-07        -0.86064E-10         0.00000E+00
    0.40505E-07        -0.75650E-10         0.00000E+00
    0.40508E-07        -0.64607E-10         0.00000E+00
    0.40511E-07        -0.52935E-10         0.00000E+00
    0.40513E-07        -0.40636E-10         0.00000E+00
    0.40515E-07        -0.27710E-10         0.00000E+00
    0.40516E-07        -0.14159E-10         0.00000E+00
    0.40516E-07        -0.72265E-11         0.00000E+00
    0.42519E-07        -0.74203E-11         0.00000E+00
    0.42519E-07        -0.14728E-10         0.00000E+00
    0.42520E-07        -0.29173E-10         0.00000E+00
    0.42523E-07        -0.43263E-10         0.00000E+00
    0.42526E-07        -0.56966E-10         0.00000E+00
    0.42530E-07        -0.70254E-10         0.00000E+00
    0.42534E-07        -0.83099E-10         0.00000E+00
    0.42539E-07        -0.95474E-10         0.00000E+00
    0.42545E-07        -0.10736E-09         0.00000E+00
    0.42552E-07        -0.11872E-09         0.00000E+00
    0.42559E-07        -0.12955E-09         0.00000E+00
    0.42566E-07        -0.13982E-09         0.00000E+00
    0.42574E-07        -0.14951E-09         0.00000E+00
    0.42582E-07        -0.15861E-09         0.00000E+00
    0.42591E-07        -0.16710E-09         0.00000E+00
    0.42600E-07        -0.17497E-09         0.00000E+00
    0.42609E-07        -0.18219E-09         0.00000E+00
    0.42619E-07        -0.18877E-09         0.00000E+00
    0.42629E-07        -0.19468E-09         0.00000E+00
    0.42639E-07        -0.19991E-09         0.00000E+00
    0.42649E-07        -0.20446E-09         0.00000E+00
    0.42659E-07        -0.20832E-09         0.00000E+00
    0.42670E-07        -0.21148E-09         0.00000E+00
    0.42680E-07        -0.21392E-09         0.00000E+00
    0.42691E-07        -0.21566E-09         0.00000E+00
    0.42701E-07        -0.21666E-09         0.00000E+00
    0.42711E-07        -0.21694E-09         0.00000E+00
    0.42721E-07        -0.21649E-09         0.00000E+00
    0.42732E-07        -0.21531E-09         0.00000E+00
    0.42742E-07        -0.21338E-09         0.00000E+00
    0.42751E-07        -0.21071E-09         0.00000E+00
    0.42761E-07        -0.20729E-09         0.00000E+00
    0.42770E-07        -0.20312E-09         0.00000E+00
    0.42779E-07        -0.19821E-09         0.00000E+00
    0.42788E-07        -0.19254E-09         0.00000E+00
    0.42796E-07        -0.18612E-09         0.00000E+00
    0.42804E-07        -0.17895E-09         0.00000E+00
    0.42812E-07        -0.17103E-09         0.00000E+00
    0.42819E-07        -0.16235E-09         0.00000E+00
    0.42826E-07        -0.15293E-09         0.00000E+00
    0.42832E-07        -0.14275E-09         0.00000E+00
    0.42838E-07        -0.13182E-09         0.00000E+00
    0.42844E-07        -0.12014E-09         0.00000E+00
    0.42848E-07        -0.10771E-09         0.00000E+00
    0.42853E-07        -0.94544E-10         0.00000E+00
    0.42856E-07        -0.80629E-10         0.00000E+00
    0.42859E-07        -0.65972E-10         0.00000E+00
    0.42862E-07        -0.50576E-10         0.00000E+00
    0.42864E-07        -0.34444E-10         0.00000E+00
    0.42865E-07        -0.17577E-10         0.00000E+00
    0.42865E-07        -0.89609E-11         0.00000E+00
    0.44972E-07        -0.99055E-11         0.00000E+00
    0.44973E-07        -0.19605E-10         0.00000E+00
    0.44974E-07        -0.38707E-10         0.00000E+00
    0.44977E-07        -0.57201E-10         0.00000E+00
    0.44980E-07        -0.75058E-10         0.00000E+00
    0.44984E-07        -0.92254E-10         0.00000E+00
    0.44989E-07        -0.10876E-09         0.00000E+00
    0.44995E-07        -0.12457E-09         0.00000E+00
    0.45002E-07        -0.13964E-09         0.00000E+00
    0.45009E-07        -0.15396E-09         0.00000E+00
    0.45016E-07        -0.16752E-09         0.00000E+00
    0.45025E-07        -0.18030E-09         0.00000E+00
    0.45033E-07        -0.19228E-09         0.00000E+00
    0.45042E-07        -0.20345E-09         0.00000E+00
    0.45052E-07        -0.21380E-09         0.00000E+00
    0.45062E-07        -0.22331E-09         0.00000E+00
    0.45072E-07        -0.23198E-09         0.00000E+00
    0.45083E-07        -0.23980E-09         0.00000E+00
    0.45094E-07        -0.24676E-09         0.00000E+00
    0.45105E-07        -0.25284E-09         0.00000E+00
    0.45116E-07        -0.25805E-09         0.00000E+00
    0.45127E-07        -0.26239E-09         0.00000E+00
    0.45138E-07        -0.26583E-09         0.00000E+00
    0.45150E-07        -0.26839E-09         0.00000E+00
    0.45161E-07        -0.27005E-09         0.00000E+00
    0.45172E-07        -0.27082E-09         0.00000E+00
    0.45183E-07        -0.27069E-09         0.00000E+00
    0.45195E-07        -0.26966E-09         0.00000E+00
    0.45206E-07        -0.26773E-09         0.00000E+00
    0.45216E-07        -0.26490E-09         0.00000E+00
    0.45227E-07        -0.26116E-09         0.00000E+00
    0.45237E-07        -0.25653E-09         0.00000E+00
    0.45248E-07        -0.25100E-09         0.00000E+00
    0.45257E-07        -0.24456E-09         0.00000E+00
    0.45267E-07        -0.23723E-09         0.00000E+00
    0.45276E-07        -0.22901E-09         0.00000E+00
    0.45285E-07        -0.21989E-09         0.00000E+00
    0.45293E-07        -0.20987E-09         0.00000E+00
    0.45301E-07        -0.19897E-09         0.00000E+00
    0.45308E-07        -0.18718E-09         0.00000E+00
    0.45315E-07        -0.17451E-09         0.00000E+00
    0.45321E-07        -0.16096E-09         0.00000E+00
    0.45327E-07        -0.14653E-09         0.00000E+00
    0.45332E-07        -0.13123E-09         0.00000E+00
    0.45337E-07        -0.11505E-09         0.00000E+00
    0.45341E-07        -0.98014E-10         0.00000E+00
    0.45344E-07        -0.80113E-10         0.00000E+00
    0.45347E-07        -0.61355E-10         0.00000E+00
    0.45348E-07        -0.41743E-10         0.00000E+00
    0.45350E-07        -0.21282E-10         0.00000E+00
    0.45350E-07        -0.10840E-10         0.00000E+00
    0.47564E-07        -0.12655E-10         0.00000E+00
    0.47565E-07        -0.24996E-10         0.00000E+00
    0.47567E-07        -0.49236E-10         0.00000E+00
    0.47569E-07        -0.72577E-10         0.00000E+00
    0.47573E-07        -0.94998E-10         0.00000E+00
    0.47578E-07        -0.11648E-09         0.00000E+00
    0.47583E-07        -0.13699E-09         0.00000E+00
    0.47589E-07        -0.15653E-09         0.00000E+00
    0.47596E-07        -0.17508E-09         0.00000E+00
    0.47604E-07        -0.19261E-09         0.00000E+00
    0.47613E-07        -0.20913E-09         0.00000E+00
    0.47622E-07        -0.22462E-09         0.00000E+00
    0.47631E-07        -0.23906E-09         0.00000E+00
    0.47641E-07        -0.25245E-09         0.00000E+00
    0.47651E-07        -0.26479E-09         0.00000E+00
    0.47662E-07        -0.27606E-09         0.00000E+00
    0.47673E-07        -0.28626E-09         0.00000E+00
    0.47685E-07        -0.29538E-09         0.00000E+00
    0.47696E-07        -0.30343E-09         0.00000E+00
    0.47708E-07        -0.31040E-09         0.00000E+00
    0.47720E-07        -0.31628E-09         0.00000E+00
    0.47732E-07        -0.32108E-09         0.00000E+00
    0.47745E-07        -0.32480E-09         0.00000E+00
    0.47757E-07        -0.32743E-09         0.00000E+00
    0.47769E-07        -0.32898E-09         0.00000E+00
    0.47781E-07        -0.32945E-09         0.00000E+00
    0.47793E-07        -0.32883E-09         0.00000E+00
    0.47805E-07        -0.32714E-09         0.00000E+00
    0.47817E-07        -0.32437E-09         0.00000E+00
    0.47829E-07        -0.32053E-09         0.00000E+00
    0.47840E-07        -0.31562E-09         0.00000E+00
    0.47851E-07        -0.30965E-09         0.00000E+00
    0.47862E-07        -0.30261E-09         0.00000E+00
    0.47872E-07        -0.29451E-09         0.00000E+00
    0.47883E-07        -0.28537E-09         0.00000E+00
    0.47892E-07        -0.27517E-09         0.00000E+00
    0.47902E-07        -0.26393E-09         0.00000E+00
    0.47910E-07        -0.25165E-09         0.00000E+00
    0.47919E-07        -0.23833E-09         0.00000E+00
    0.47927E-07        -0.22399E-09         0.00000E+00
    0.47934E-07        -0.20862E-09         0.00000E+00
    0.47941E-07        -0.19224E-09         0.00000E+00
    0.47947E-07        -0.17485E-09         0.00000E+00
    0.47952E-07        -0.15645E-09         0.00000E+00
    0.47957E-07        -0.13705E-09         0.00000E+00
    0.47961E-07        -0.11665E-09         0.00000E+00
    0.47965E-07        -0.95270E-10         0.00000E+00
    0.47968E-07        -0.72904E-10         0.00000E+00
    0.47970E-07        -0.49562E-10         0.00000E+00
    0.47971E-07        -0.25250E-10         0.00000E+00
    0.47971E-07        -0.12852E-10         0.00000E+00
    0.50295E-07        -0.15657E-10         0.00000E+00
    0.50296E-07        -0.30880E-10         0.00000E+00
    0.50297E-07        -0.60716E-10         0.00000E+00
    0.50300E-07        -0.89326E-10         0.00000E+00
    0.50304E-07        -0.11669E-09         0.00000E+00
    0.50309E-07        -0.14280E-09         0.00000E+00
    0.50315E-07        -0.16765E-09         0.00000E+00
    0.50322E-07        -0.19121E-09         0.00000E+00
    0.50330E-07        -0.21348E-09         0.00000E+00
    0.50338E-07        -0.23446E-09         0.00000E+00
    0.50347E-07        -0.25413E-09         0.00000E+00
    0.50357E-07        -0.27250E-09         0.00000E+00
    0.50367E-07        -0.28956E-09         0.00000E+00
    0.50377E-07        -0.30530E-09         0.00000E+00
    0.50389E-07        -0.31973E-09         0.00000E+00
    0.50400E-07        -0.33284E-09         0.00000E+00
    0.50412E-07        -0.34464E-09         0.00000E+00
    0.50424E-07        -0.35513E-09         0.00000E+00
    0.50437E-07        -0.36430E-09         0.00000E+00
    0.50449E-07        -0.37216E-09         0.00000E+00
    0.50462E-07        -0.37872E-09         0.00000E+00
    0.50475E-07        -0.38398E-09         0.00000E+00
    0.50488E-07        -0.38794E-09         0.00000E+00
    0.50501E-07        -0.39061E-09         0.00000E+00
    0.50514E-07        -0.39199E-09         0.00000E+00
    0.50527E-07        -0.39210E-09         0.00000E+00
    0.50540E-07        -0.39092E-09         0.00000E+00
    0.50552E-07        -0.38849E-09         0.00000E+00
    0.50565E-07        -0.38479E-09         0.00000E+00
    0.50577E-07        -0.37983E-09         0.00000E+00
    0.50589E-07        -0.37364E-09         0.00000E+00
    0.50601E-07        -0.36620E-09         0.00000E+00
    0.50612E-07        -0.35753E-09         0.00000E+00
    0.50623E-07        -0.34764E-09         0.00000E+00
    0.50634E-07        -0.33653E-09         0.00000E+00
    0.50644E-07        -0.32421E-09         0.00000E+00
    0.50654E-07        -0.31070E-09         0.00000E+00
    0.50663E-07        -0.29599E-09         0.00000E+00
    0.50672E-07        -0.28010E-09         0.00000E+00
    0.50681E-07        -0.26303E-09         0.00000E+00
    0.50688E-07        -0.24479E-09         0.00000E+00
    0.50695E-07        -0.22540E-09         0.00000E+00
    0.50702E-07        -0.20485E-09         0.00000E+00
    0.50708E-07        -0.18316E-09         0.00000E+00
    0.50713E-07        -0.16034E-09         0.00000E+00
    0.50717E-07        -0.13638E-09         0.00000E+00
    0.50721E-07        -0.11131E-09         0.00000E+00
    0.50724E-07        -0.85122E-10         0.00000E+00
    0.50726E-07        -0.57832E-10         0.00000E+00
    0.50727E-07        -0.29445E-10         0.00000E+00
    0.50728E-07        -0.14979E-10         0.00000E+00
    0.53163E-07        -0.18893E-10         0.00000E+00
    0.53163E-07        -0.37216E-10         0.00000E+00
    0.53165E-07        -0.73067E-10         0.00000E+00
    0.53168E-07        -0.10733E-09         0.00000E+00
    0.53173E-07        -0.13998E-09         0.00000E+00
    0.53178E-07        -0.17104E-09         0.00000E+00
    0.53184E-07        -0.20048E-09         0.00000E+00
    0.53192E-07        -0.22831E-09         0.00000E+00
    0.53200E-07        -0.25454E-09         0.00000E+00
    0.53208E-07        -0.27914E-09         0.00000E+00
    0.53218E-07        -0.30214E-09         0.00000E+00
    0.53228E-07        -0.32354E-09         0.00000E+00
    0.53239E-07        -0.34333E-09         0.00000E+00
    0.53250E-07        -0.36152E-09         0.00000E+00
    0.53262E-07        -0.37812E-09         0.00000E+00
    0.53274E-07        -0.39314E-09         0.00000E+00
    0.53287E-07        -0.40658E-09         0.00000E+00
    0.53299E-07        -0.41845E-09         0.00000E+00
    0.53312E-07        -0.42876E-09         0.00000E+00
    0.53326E-07        -0.43752E-09         0.00000E+00
    0.53339E-07        -0.44474E-09         0.00000E+00
    0.53353E-07        -0.45043E-09         0.00000E+00
    0.53366E-07        -0.45460E-09         0.00000E+00
    0.53380E-07        -0.45726E-09         0.00000E+00
    0.53393E-07        -0.45842E-09         0.00000E+00
    0.53407E-07        -0.45809E-09         0.00000E+00
    0.53420E-07        -0.45629E-09         0.00000E+00
    0.53433E-07        -0.45302E-09         0.00000E+00
    0.53447E-07        -0.44830E-09         0.00000E+00
    0.53459E-07        -0.44214E-09         0.00000E+00
    0.53472E-07        -0.43455E-09         0.00000E+00
    0.53484E-07        -0.42555E-09         0.00000E+00
    0.53496E-07        -0.41513E-09         0.00000E+00
    0.53508E-07        -0.40333E-09         0.00000E+00
    0.53519E-07        -0.39014E-09         0.00000E+00
    0.53529E-07        -0.37558E-09         0.00000E+00
    0.53539E-07        -0.35966E-09         0.00000E+00
    0.53549E-07        -0.34239E-09         0.00000E+00
    0.53558E-07        -0.32378E-09         0.00000E+00
    0.53567E-07        -0.30385E-09         0.00000E+00
    0.53575E-07        -0.28260E-09         0.00000E+00
    0.53582E-07        -0.26004E-09         0.00000E+00
    0.53589E-07        -0.23619E-09         0.00000E+00
    0.53595E-07        -0.21106E-09         0.00000E+00
    0.53600E-07        -0.18465E-09         0.00000E+00
    0.53605E-07        -0.15697E-09         0.00000E+00
    0.53609E-07        -0.12804E-09         0.00000E+00
    0.53612E-07        -0.97869E-10         0.00000E+00
    0.53614E-07        -0.66458E-10         0.00000E+00
    0.53615E-07        -0.33821E-10         0.00000E+00
    0.53616E-07        -0.17197E-10         0.00000E+00
    0.56164E-07        -0.22332E-10         0.00000E+00
    0.56165E-07        -0.43942E-10         0.00000E+00
    0.56167E-07        -0.86163E-10         0.00000E+00
    0.56170E-07        -0.12639E-09         0.00000E+00
    0.56175E-07        -0.16462E-09         0.00000E+00
    0.56180E-07        -0.20087E-09         0.00000E+00
    0.56187E-07        -0.23514E-09         0.00000E+00
    0.56194E-07        -0.26744E-09         0.00000E+00
    0.56203E-07        -0.29777E-09         0.00000E+00
    0.56212E-07        -0.32615E-09         0.00000E+00
    0.56222E-07        -0.35260E-09         0.00000E+00
    0.56232E-07        -0.37711E-09         0.00000E+00
    0.56244E-07        -0.39971E-09         0.00000E+00
    0.56255E-07        -0.42042E-09         0.00000E+00
    0.56267E-07        -0.43923E-09         0.00000E+00
    0.56280E-07        -0.45618E-09         0.00000E+00
    0.56293E-07        -0.47128E-09         0.00000E+00
    0.56306E-07        -0.48454E-09         0.00000E+00
    0.56320E-07        -0.49597E-09         0.00000E+00
    0.56334E-07        -0.50561E-09         0.00000E+00
    0.56347E-07        -0.51345E-09         0.00000E+00
    0.56361E-07        -0.51953E-09         0.00000E+00
    0.56375E-07        -0.52386E-09         0.00000E+00
    0.56389E-07        -0.52645E-09         0.00000E+00
    0.56403E-07        -0.52733E-09         0.00000E+00
    0.56417E-07        -0.52651E-09         0.00000E+00
    0.56431E-07        -0.52400E-09         0.00000E+00
    0.56444E-07        -0.51983E-09         0.00000E+00
    0.56458E-07        -0.51401E-09         0.00000E+00
    0.56471E-07        -0.50657E-09         0.00000E+00
    0.56484E-07        -0.49750E-09         0.00000E+00
    0.56496E-07        -0.48684E-09         0.00000E+00
    0.56508E-07        -0.47459E-09         0.00000E+00
    0.56520E-07        -0.46078E-09         0.00000E+00
    0.56532E-07        -0.44542E-09         0.00000E+00
    0.56542E-07        -0.42852E-09         0.00000E+00
    0.56553E-07        -0.41010E-09         0.00000E+00
    0.56563E-07        -0.39017E-09         0.00000E+00
    0.56572E-07        -0.36875E-09         0.00000E+00
    0.56581E-07        -0.34585E-09         0.00000E+00
    0.56589E-07        -0.32149E-09         0.00000E+00
    0.56596E-07        -0.29567E-09         0.00000E+00
    0.56603E-07        -0.26841E-09         0.00000E+00
    0.56609E-07        -0.23973E-09         0.00000E+00
    0.56615E-07        -0.20963E-09         0.00000E+00
    0.56619E-07        -0.17813E-09         0.00000E+00
    0.56623E-07        -0.14523E-09         0.00000E+00
    0.56626E-07        -0.11096E-09         0.00000E+00
    0.56629E-07        -0.75316E-10         0.00000E+00
    0.56630E-07        -0.38314E-10         0.00000E+00
    0.56630E-07        -0.19474E-10         0.00000E+00
    0.59294E-07        -0.25927E-10         0.00000E+00
    0.59295E-07        -0.50967E-10         0.00000E+00
    0.59297E-07        -0.99828E-10         0.00000E+00
    0.59300E-07        -0.14626E-09         0.00000E+00
    0.59305E-07        -0.19027E-09         0.00000E+00
    0.59311E-07        -0.23188E-09         0.00000E+00
    0.59317E-07        -0.27112E-09         0.00000E+00
    0.59325E-07        -0.30800E-09         0.00000E+00
    0.59334E-07        -0.34255E-09         0.00000E+00
    0.59343E-07        -0.37478E-09         0.00000E+00
    0.59353E-07        -0.40472E-09         0.00000E+00
    0.59364E-07        -0.43240E-09         0.00000E+00
    0.59376E-07        -0.45784E-09         0.00000E+00
    0.59388E-07        -0.48106E-09         0.00000E+00
    0.59400E-07        -0.50209E-09         0.00000E+00
    0.59413E-07        -0.52095E-09         0.00000E+00
    0.59426E-07        -0.53768E-09         0.00000E+00
    0.59439E-07        -0.55229E-09         0.00000E+00
    0.59453E-07        -0.56482E-09         0.00000E+00
    0.59467E-07        -0.57528E-09         0.00000E+00
    0.59481E-07        -0.58370E-09         0.00000E+00
    0.59495E-07        -0.59012E-09         0.00000E+00
    0.59509E-07        -0.59455E-09         0.00000E+00
    0.59523E-07        -0.59701E-09         0.00000E+00
    0.59537E-07        -0.59754E-09         0.00000E+00
    0.59551E-07        -0.59616E-09         0.00000E+00
    0.59565E-07        -0.59288E-09         0.00000E+00
    0.59579E-07        -0.58775E-09         0.00000E+00
    0.59592E-07        -0.58076E-09         0.00000E+00
    0.59605E-07        -0.57196E-09         0.00000E+00
    0.59618E-07        -0.56136E-09         0.00000E+00
    0.59631E-07        -0.54898E-09         0.00000E+00
    0.59643E-07        -0.53484E-09         0.00000E+00
    0.59655E-07        -0.51896E-09         0.00000E+00
    0.59666E-07        -0.50137E-09         0.00000E+00
    0.59677E-07        -0.48208E-09         0.00000E+00
    0.59688E-07        -0.46111E-09         0.00000E+00
    0.59697E-07        -0.43847E-09         0.00000E+00
    0.59707E-07        -0.41419E-09         0.00000E+00
    0.59716E-07        -0.38828E-09         0.00000E+00
    0.59724E-07        -0.36075E-09         0.00000E+00
    0.59731E-07        -0.33163E-09         0.00000E+00
    0.59738E-07        -0.30093E-09         0.00000E+00
    0.59744E-07        -0.26866E-09         0.00000E+00
    0.59749E-07        -0.23483E-09         0.00000E+00
    0.59754E-07        -0.19946E-09         0.00000E+00
    0.59758E-07        -0.16257E-09         0.00000E+00
    0.59761E-07        -0.12416E-09         0.00000E+00
    0.59763E-07        -0.84247E-10         0.00000E+00
    0.59765E-07        -0.42843E-10         0.00000E+00
    0.59765E-07        -0.21770E-10         0.00000E+00
    0.62545E-07        -0.29618E-10         0.00000E+00
    0.62546E-07        -0.58174E-10         0.00000E+00
    0.62548E-07        -0.11383E-09         0.00000E+00
    0.62552E-07        -0.16658E-09         0.00000E+00
    0.62556E-07        -0.21646E-09         0.00000E+00
    0.62562E-07        -0.26352E-09         0.00000E+00
    0.62569E-07        -0.30777E-09         0.00000E+00
    0.62577E-07        -0.34926E-09         0.00000E+00
    0.62585E-07        -0.38802E-09         0.00000E+00
    0.62595E-07        -0.42410E-09         0.00000E+00
    0.62605E-07        -0.45752E-09         0.00000E+00
    0.62616E-07        -0.48833E-09         0.00000E+00
    0.62627E-07        -0.51655E-09         0.00000E+00
    0.62639E-07        -0.54224E-09         0.00000E+00
    0.62651E-07        -0.56543E-09         0.00000E+00
    0.62664E-07        -0.58615E-09         0.00000E+00
    0.62677E-07        -0.60443E-09         0.00000E+00
    0.62691E-07        -0.62033E-09         0.00000E+00
    0.62704E-07        -0.63387E-09         0.00000E+00
    0.62718E-07        -0.64508E-09         0.00000E+00
    0.62732E-07        -0.65401E-09         0.00000E+00
    0.62746E-07        -0.66069E-09         0.00000E+00
    0.62760E-07        -0.66515E-09         0.00000E+00
    0.62774E-07        -0.66742E-09         0.00000E+00
    0.62787E-07        -0.66754E-09         0.00000E+00
    0.62801E-07        -0.66553E-09         0.00000E+00
    0.62815E-07        -0.66144E-09         0.00000E+00
    0.62828E-07        -0.65528E-09         0.00000E+00
    0.62841E-07        -0.64709E-09         0.00000E+00
    0.62854E-07        -0.63689E-09         0.00000E+00
    0.62867E-07        -0.62472E-09         0.00000E+00
    0.62879E-07        -0.61059E-09         0.00000E+00
    0.62891E-07        -0.59454E-09         0.00000E+00
    0.62903E-07        -0.57659E-09         0.00000E+00
    0.62914E-07        -0.55676E-09         0.00000E+00
    0.62924E-07        -0.53507E-09         0.00000E+00
    0.62934E-07        -0.51155E-09         0.00000E+00
    0.62944E-07        -0.48621E-09         0.00000E+00
    0.62953E-07        -0.45909E-09         0.00000E+00
    0.62962E-07        -0.43019E-09         0.00000E+00
    0.62970E-07        -0.39953E-09         0.00000E+00
    0.62977E-07        -0.36714E-09         0.00000E+00
    0.62984E-07        -0.33302E-09         0.00000E+00
    0.62990E-07        -0.29720E-09         0.00000E+00
    0.62995E-07        -0.25970E-09         0.00000E+00
    0.62999E-07        -0.22051E-09         0.00000E+00
    0.63003E-07        -0.17967E-09         0.00000E+00
    0.63006E-07        -0.13718E-09         0.00000E+00
    0.63008E-07        -0.93058E-10         0.00000E+00
    0.63009E-07        -0.47312E-10         0.00000E+00
    0.63010E-07        -0.24035E-10         0.00000E+00
    0.65908E-07        -0.33328E-10         0.00000E+00
    0.65909E-07        -0.65407E-10         0.00000E+00
    0.65911E-07        -0.12785E-09         0.00000E+00
    0.65914E-07        -0.18691E-09         0.00000E+00
    0.65919E-07        -0.24263E-09         0.00000E+00
    0.65924E-07        -0.29505E-09         0.00000E+00
    0.65931E-07        -0.34425E-09         0.00000E+00
    0.65939E-07        -0.39026E-09         0.00000E+00
    0.65947E-07        -0.43314E-09         0.00000E+00
    0.65956E-07        -0.47295E-09         0.00000E+00
    0.65966E-07        -0.50973E-09         0.00000E+00
    0.65977E-07        -0.54355E-09         0.00000E+00
    0.65988E-07        -0.57444E-09         0.00000E+00
    0.66000E-07        -0.60247E-09         0.00000E+00
    0.66012E-07        -0.62769E-09         0.00000E+00
    0.66024E-07        -0.65013E-09         0.00000E+00
    0.66037E-07        -0.66986E-09         0.00000E+00
    0.66049E-07        -0.68693E-09         0.00000E+00
    0.66062E-07        -0.70137E-09         0.00000E+00
    0.66076E-07        -0.71323E-09         0.00000E+00
    0.66089E-07        -0.72257E-09         0.00000E+00
    0.66102E-07        -0.72942E-09         0.00000E+00
    0.66116E-07        -0.73382E-09         0.00000E+00
    0.66129E-07        -0.73583E-09         0.00000E+00
    0.66142E-07        -0.73548E-09         0.00000E+00
    0.66155E-07        -0.73280E-09         0.00000E+00
    0.66168E-07        -0.72784E-09         0.00000E+00
    0.66181E-07        -0.72063E-09         0.00000E+00
    0.66193E-07        -0.71122E-09         0.00000E+00
    0.66206E-07        -0.69962E-09         0.00000E+00
    0.66218E-07        -0.68588E-09         0.00000E+00
    0.66229E-07        -0.67003E-09         0.00000E+00
    0.66241E-07        -0.65209E-09         0.00000E+00
    0.66252E-07        -0.63210E-09         0.00000E+00
    0.66262E-07        -0.61008E-09         0.00000E+00
    0.66272E-07        -0.58606E-09         0.00000E+00
    0.66282E-07        -0.56006E-09         0.00000E+00
    0.66291E-07        -0.53211E-09         0.00000E+00
    0.66299E-07        -0.50223E-09         0.00000E+00
    0.66307E-07        -0.47045E-09         0.00000E+00
    0.66315E-07        -0.43677E-09         0.00000E+00
    0.66322E-07        -0.40123E-09         0.00000E+00
    0.66328E-07        -0.36384E-09         0.00000E+00
    0.66334E-07        -0.32461E-09         0.00000E+00
    0.66339E-07        -0.28356E-09         0.00000E+00
    0.66343E-07        -0.24072E-09         0.00000E+00
    0.66346E-07        -0.19609E-09         0.00000E+00
    0.66349E-07        -0.14968E-09         0.00000E+00
    0.66351E-07        -0.10152E-09         0.00000E+00
    0.66352E-07        -0.51603E-10         0.00000E+00
    0.66353E-07        -0.26210E-10         0.00000E+00
    0.69369E-07        -0.36959E-10         0.00000E+00
    0.69370E-07        -0.72474E-10         0.00000E+00
    0.69372E-07        -0.14154E-09         0.00000E+00
    0.69375E-07        -0.20670E-09         0.00000E+00
    0.69380E-07        -0.26804E-09         0.00000E+00
    0.69385E-07        -0.32562E-09         0.00000E+00
    0.69392E-07        -0.37953E-09         0.00000E+00
    0.69399E-07        -0.42984E-09         0.00000E+00
    0.69407E-07        -0.47661E-09         0.00000E+00
    0.69416E-07        -0.51991E-09         0.00000E+00
    0.69425E-07        -0.55983E-09         0.00000E+00
    0.69435E-07        -0.59643E-09         0.00000E+00
    0.69445E-07        -0.62978E-09         0.00000E+00
    0.69456E-07        -0.65993E-09         0.00000E+00
    0.69467E-07        -0.68697E-09         0.00000E+00
    0.69479E-07        -0.71096E-09         0.00000E+00
    0.69490E-07        -0.73195E-09         0.00000E+00
    0.69502E-07        -0.75001E-09         0.00000E+00
    0.69515E-07        -0.76520E-09         0.00000E+00
    0.69527E-07        -0.77758E-09         0.00000E+00
    0.69539E-07        -0.78719E-09         0.00000E+00
    0.69551E-07        -0.79411E-09         0.00000E+00
    0.69564E-07        -0.79838E-09         0.00000E+00
    0.69576E-07        -0.80004E-09         0.00000E+00
    0.69588E-07        -0.79916E-09         0.00000E+00
    0.69600E-07        -0.79577E-09         0.00000E+00
    0.69612E-07        -0.78993E-09         0.00000E+00
    0.69623E-07        -0.78167E-09         0.00000E+00
    0.69635E-07        -0.77105E-09         0.00000E+00
    0.69646E-07        -0.75808E-09         0.00000E+00
    0.69657E-07        -0.74283E-09         0.00000E+00
    0.69667E-07        -0.72532E-09         0.00000E+00
    0.69678E-07        -0.70558E-09         0.00000E+00
    0.69688E-07        -0.68366E-09         0.00000E+00
    0.69697E-07        -0.65957E-09         0.00000E+00
    0.69706E-07        -0.63336E-09         0.00000E+00
    0.69715E-07        -0.60504E-09         0.00000E+00
    0.69723E-07        -0.57465E-09         0.00000E+00
    0.69731E-07        -0.54220E-09         0.00000E+00
    0.69738E-07        -0.50773E-09         0.00000E+00
    0.69745E-07        -0.47125E-09         0.00000E+00
    0.69751E-07        -0.43279E-09         0.00000E+00
    0.69757E-07        -0.39236E-09         0.00000E+00
    0.69762E-07        -0.34997E-09         0.00000E+00
    0.69766E-07        -0.30566E-09         0.00000E+00
    0.69770E-07        -0.25943E-09         0.00000E+00
    0.69773E-07        -0.21129E-09         0.00000E+00
    0.69776E-07        -0.16126E-09         0.00000E+00
    0.69778E-07        -0.10935E-09         0.00000E+00
    0.69779E-07        -0.55580E-10         0.00000E+00
    0.69779E-07        -0.28227E-10         0.00000E+00
    0.72914E-07        -0.40392E-10         0.00000E+00
    0.72915E-07        -0.79145E-10         0.00000E+00
    0.72917E-07        -0.15442E-09         0.00000E+00
    0.72920E-07        -0.22528E-09         0.00000E+00
    0.72924E-07        -0.29183E-09         0.00000E+00
    0.72929E-07        -0.35417E-09         0.00000E+00
    0.72934E-07        -0.41239E-09         0.00000E+00
    0.72941E-07        -0.46659E-09         0.00000E+00
    0.72948E-07        -0.51687E-09         0.00000E+00
    0.72956E-07        -0.56331E-09         0.00000E+00
    0.72965E-07        -0.60600E-09         0.00000E+00
    0.72973E-07        -0.64503E-09         0.00000E+00
    0.72983E-07        -0.68050E-09         0.00000E+00
    0.72992E-07        -0.71248E-09         0.00000E+00
    0.73002E-07        -0.74106E-09         0.00000E+00
    0.73012E-07        -0.76631E-09         0.00000E+00
    0.73023E-07        -0.78832E-09         0.00000E+00
    0.73033E-07        -0.80716E-09         0.00000E+00
    0.73044E-07        -0.82289E-09         0.00000E+00
    0.73054E-07        -0.83561E-09         0.00000E+00
    0.73065E-07        -0.84536E-09         0.00000E+00
    0.73076E-07        -0.85221E-09         0.00000E+00
    0.73087E-07        -0.85624E-09         0.00000E+00
    0.73097E-07        -0.85750E-09         0.00000E+00
    0.73108E-07        -0.85604E-09         0.00000E+00
    0.73118E-07        -0.85192E-09         0.00000E+00
    0.73128E-07        -0.84520E-09         0.00000E+00
    0.73138E-07        -0.83593E-09         0.00000E+00
    0.73148E-07        -0.82414E-09         0.00000E+00
    0.73157E-07        -0.80990E-09         0.00000E+00
    0.73167E-07        -0.79324E-09         0.00000E+00
    0.73176E-07        -0.77421E-09         0.00000E+00
    0.73185E-07        -0.75283E-09         0.00000E+00
    0.73193E-07        -0.72916E-09         0.00000E+00
    0.73201E-07        -0.70321E-09         0.00000E+00
    0.73209E-07        -0.67503E-09         0.00000E+00
    0.73216E-07        -0.64465E-09         0.00000E+00
    0.73223E-07        -0.61208E-09         0.00000E+00
    0.73230E-07        -0.57737E-09         0.00000E+00
    0.73236E-07        -0.54052E-09         0.00000E+00
    0.73242E-07        -0.50157E-09         0.00000E+00
    0.73247E-07        -0.46054E-09         0.00000E+00
    0.73252E-07        -0.41743E-09         0.00000E+00
    0.73256E-07        -0.37228E-09         0.00000E+00
    0.73260E-07        -0.32509E-09         0.00000E+00
    0.73263E-07        -0.27588E-09         0.00000E+00
    0.73266E-07        -0.22467E-09         0.00000E+00
    0.73268E-07        -0.17146E-09         0.00000E+00
    0.73269E-07        -0.11626E-09         0.00000E+00
    0.73270E-07        -0.59087E-10         0.00000E+00
    0.73271E-07        -0.30007E-10         0.00000E+00
    0.76523E-07        -0.43489E-10         0.00000E+00
    0.76524E-07        -0.85143E-10         0.00000E+00
    0.76525E-07        -0.16596E-09         0.00000E+00
    0.76528E-07        -0.24187E-09         0.00000E+00
    0.76531E-07        -0.31300E-09         0.00000E+00
    0.76536E-07        -0.37947E-09         0.00000E+00
    0.76541E-07        -0.44140E-09         0.00000E+00
    0.76546E-07        -0.49891E-09         0.00000E+00
    0.76552E-07        -0.55213E-09         0.00000E+00
    0.76559E-07        -0.60116E-09         0.00000E+00
    0.76566E-07        -0.64612E-09         0.00000E+00
    0.76573E-07        -0.68712E-09         0.00000E+00
    0.76581E-07        -0.72426E-09         0.00000E+00
    0.76589E-07        -0.75764E-09         0.00000E+00
    0.76597E-07        -0.78737E-09         0.00000E+00
    0.76605E-07        -0.81354E-09         0.00000E+00
    0.76614E-07        -0.83625E-09         0.00000E+00
    0.76622E-07        -0.85558E-09         0.00000E+00
    0.76631E-07        -0.87162E-09         0.00000E+00
    0.76639E-07        -0.88446E-09         0.00000E+00
    0.76648E-07        -0.89416E-09         0.00000E+00
    0.76656E-07        -0.90082E-09         0.00000E+00
    0.76665E-07        -0.90451E-09         0.00000E+00
    0.76673E-07        -0.90528E-09         0.00000E+00
    0.76681E-07        -0.90322E-09         0.00000E+00
    0.76689E-07        -0.89838E-09         0.00000E+00
    0.76697E-07        -0.89082E-09         0.00000E+00
    0.76705E-07        -0.88060E-09         0.00000E+00
    0.76713E-07        -0.86777E-09         0.00000E+00
    0.76720E-07        -0.85239E-09         0.00000E+00
    0.76727E-07        -0.83451E-09         0.00000E+00
    0.76734E-07        -0.81415E-09         0.00000E+00
    0.76741E-07        -0.79138E-09         0.00000E+00
    0.76747E-07        -0.76623E-09         0.00000E+00
    0.76753E-07        -0.73873E-09         0.00000E+00
    0.76759E-07        -0.70891E-09         0.00000E+00
    0.76765E-07        -0.67682E-09         0.00000E+00
    0.76770E-07        -0.64247E-09         0.00000E+00
    0.76775E-07        -0.60590E-09         0.00000E+00
    0.76780E-07        -0.56712E-09         0.00000E+00
    0.76784E-07        -0.52616E-09         0.00000E+00
    0.76788E-07        -0.48304E-09         0.00000E+00
    0.76792E-07        -0.43778E-09         0.00000E+00
    0.76795E-07        -0.39038E-09         0.00000E+00
    0.76798E-07        -0.34087E-09         0.00000E+00
    0.76800E-07        -0.28926E-09         0.00000E+00
    0.76803E-07        -0.23555E-09         0.00000E+00
    0.76804E-07        -0.17976E-09         0.00000E+00
    0.76805E-07        -0.12189E-09         0.00000E+00
    0.76806E-07        -0.61950E-10         0.00000E+00
    0.76806E-07        -0.31463E-10         0.00000E+00
    0.80174E-07        -0.46087E-10         0.00000E+00
    0.80175E-07        -0.90154E-10         0.00000E+00
    0.80176E-07        -0.17556E-09         0.00000E+00
    0.80178E-07        -0.25558E-09         0.00000E+00
    0.80181E-07        -0.33037E-09         0.00000E+00
    0.80184E-07        -0.40010E-09         0.00000E+00
    0.80188E-07        -0.46490E-09         0.00000E+00
    0.80192E-07        -0.52494E-09         0.00000E+00
    0.80196E-07        -0.58034E-09         0.00000E+00
    0.80201E-07        -0.63126E-09         0.00000E+00
    0.80206E-07        -0.67782E-09         0.00000E+00
    0.80212E-07        -0.72015E-09         0.00000E+00
    0.80217E-07        -0.75838E-09         0.00000E+00
    0.80223E-07        -0.79264E-09         0.00000E+00
    0.80229E-07        -0.82304E-09         0.00000E+00
    0.80234E-07        -0.84969E-09         0.00000E+00
    0.80240E-07        -0.87270E-09         0.00000E+00
    0.80246E-07        -0.89218E-09         0.00000E+00
    0.80252E-07        -0.90823E-09         0.00000E+00
    0.80258E-07        -0.92094E-09         0.00000E+00
    0.80263E-07        -0.93041E-09         0.00000E+00
    0.80269E-07        -0.93672E-09         0.00000E+00
    0.80274E-07        -0.93995E-09         0.00000E+00
    0.80280E-07        -0.94019E-09         0.00000E+00
    0.80285E-07        -0.93751E-09         0.00000E+00
    0.80290E-07        -0.93198E-09         0.00000E+00
    0.80295E-07        -0.92366E-09         0.00000E+00
    0.80300E-07        -0.91263E-09         0.00000E+00
    0.80305E-07        -0.89893E-09         0.00000E+00
    0.80310E-07        -0.88262E-09         0.00000E+00
    0.80314E-07        -0.86375E-09         0.00000E+00
    0.80318E-07        -0.84238E-09         0.00000E+00
    0.80322E-07        -0.81854E-09         0.00000E+00
    0.80326E-07        -0.79228E-09         0.00000E+00
    0.80330E-07        -0.76363E-09         0.00000E+00
    0.80334E-07        -0.73263E-09         0.00000E+00
    0.80337E-07        -0.69931E-09         0.00000E+00
    0.80340E-07        -0.66370E-09         0.00000E+00
    0.80343E-07        -0.62581E-09         0.00000E+00
    0.80346E-07        -0.58568E-09         0.00000E+00
    0.80349E-07        -0.54332E-09         0.00000E+00
    0.80351E-07        -0.49876E-09         0.00000E+00
    0.80353E-07        -0.45199E-09         0.00000E+00
    0.80355E-07        -0.40305E-09         0.00000E+00
    0.80357E-07        -0.35193E-09         0.00000E+00
    0.80358E-07        -0.29865E-09         0.00000E+00
    0.80360E-07        -0.24321E-09         0.00000E+00
    0.80361E-07        -0.18562E-09         0.00000E+00
    0.80361E-07        -0.12588E-09         0.00000E+00
    0.80362E-07        -0.63983E-10         0.00000E+00
    0.80362E-07        -0.32499E-10         0.00000E+00
    0.83841E-07        -0.48004E-10         0.00000E+00
    0.83841E-07        -0.93821E-10         0.00000E+00
    0.83842E-07        -0.18250E-09         0.00000E+00
    0.83843E-07        -0.26539E-09         0.00000E+00
    0.83845E-07        -0.34266E-09         0.00000E+00
    0.83847E-07        -0.41450E-09         0.00000E+00
    0.83849E-07        -0.48110E-09         0.00000E+00
    0.83852E-07        -0.54263E-09         0.00000E+00
    0.83854E-07        -0.59926E-09         0.00000E+00
    0.83857E-07        -0.65115E-09         0.00000E+00
    0.83860E-07        -0.69846E-09         0.00000E+00
    0.83862E-07        -0.74135E-09         0.00000E+00
    0.83865E-07        -0.77996E-09         0.00000E+00
    0.83868E-07        -0.81444E-09         0.00000E+00
    0.83871E-07        -0.84491E-09         0.00000E+00
    0.83873E-07        -0.87151E-09         0.00000E+00
    0.83876E-07        -0.89437E-09         0.00000E+00
    0.83878E-07        -0.91360E-09         0.00000E+00
    0.83881E-07        -0.92932E-09         0.00000E+00
    0.83883E-07        -0.94163E-09         0.00000E+00
    0.83885E-07        -0.95064E-09         0.00000E+00
    0.83887E-07        -0.95644E-09         0.00000E+00
    0.83889E-07        -0.95913E-09         0.00000E+00
    0.83891E-07        -0.95879E-09         0.00000E+00
    0.83892E-07        -0.95551E-09         0.00000E+00
    0.83894E-07        -0.94936E-09         0.00000E+00
    0.83895E-07        -0.94042E-09         0.00000E+00
    0.83897E-07        -0.92874E-09         0.00000E+00
    0.83898E-07        -0.91440E-09         0.00000E+00
    0.83899E-07        -0.89745E-09         0.00000E+00
    0.83900E-07        -0.87795E-09         0.00000E+00
    0.83901E-07        -0.85594E-09         0.00000E+00
    0.83902E-07        -0.83147E-09         0.00000E+00
    0.83903E-07        -0.80459E-09         0.00000E+00
    0.83904E-07        -0.77531E-09         0.00000E+00
    0.83904E-07        -0.74369E-09         0.00000E+00
    0.83905E-07        -0.70975E-09         0.00000E+00
    0.83906E-07        -0.67352E-09         0.00000E+00
    0.83906E-07        -0.63501E-09         0.00000E+00
    0.83907E-07        -0.59425E-09         0.00000E+00
    0.83907E-07        -0.55126E-09         0.00000E+00
    0.83908E-07        -0.50604E-09         0.00000E+00
    0.83908E-07        -0.45861E-09         0.00000E+00
    0.83909E-07        -0.40897E-09         0.00000E+00
    0.83909E-07        -0.35714E-09         0.00000E+00
    0.83909E-07        -0.30310E-09         0.00000E+00
    0.83910E-07        -0.24687E-09         0.00000E+00
    0.83910E-07        -0.18845E-09         0.00000E+00
    0.83910E-07        -0.12782E-09         0.00000E+00
    0.83910E-07        -0.64986E-10         0.00000E+00
    0.83910E-07        -0.33016E-10         0.00000E+00
    0.87494E-07        -0.49042E-10         0.00000E+00
    0.87494E-07        -0.95756E-10         0.00000E+00
    0.87494E-07        -0.18605E-09         0.00000E+00
    0.87494E-07        -0.27021E-09         0.00000E+00
    0.87495E-07        -0.34844E-09         0.00000E+00
    0.87495E-07        -0.42098E-09         0.00000E+00
    0.87495E-07        -0.48802E-09         0.00000E+00
    0.87495E-07        -0.54978E-09         0.00000E+00
    0.87496E-07        -0.60645E-09         0.00000E+00
    0.87495E-07        -0.65822E-09         0.00000E+00
    0.87495E-07        -0.70527E-09         0.00000E+00
    0.87495E-07        -0.74778E-09         0.00000E+00
    0.87494E-07        -0.78591E-09         0.00000E+00
    0.87494E-07        -0.81983E-09         0.00000E+00
    0.87493E-07        -0.84969E-09         0.00000E+00
    0.87491E-07        -0.87564E-09         0.00000E+00
    0.87490E-07        -0.89780E-09         0.00000E+00
    0.87488E-07        -0.91633E-09         0.00000E+00
    0.87487E-07        -0.93133E-09         0.00000E+00
    0.87485E-07        -0.94294E-09         0.00000E+00
    0.87483E-07        -0.95126E-09         0.00000E+00
    0.87480E-07        -0.95640E-09         0.00000E+00
    0.87478E-07        -0.95846E-09         0.00000E+00
    0.87475E-07        -0.95753E-09         0.00000E+00
    0.87473E-07        -0.95370E-09         0.00000E+00
    0.87470E-07        -0.94706E-09         0.00000E+00
    0.87467E-07        -0.93767E-09         0.00000E+00
    0.87464E-07        -0.92560E-09         0.00000E+00
    0.87461E-07        -0.91093E-09         0.00000E+00
    0.87458E-07        -0.89371E-09         0.00000E+00
    0.87456E-07        -0.87400E-09         0.00000E+00
    0.87453E-07        -0.85184E-09         0.00000E+00
    0.87450E-07        -0.82728E-09         0.00000E+00
    0.87447E-07        -0.80036E-09         0.00000E+00
    0.87444E-07        -0.77111E-09         0.00000E+00
    0.87442E-07        -0.73956E-09         0.00000E+00
    0.87439E-07        -0.70574E-09         0.00000E+00
    0.87437E-07        -0.66967E-09         0.00000E+00
    0.87434E-07        -0.63138E-09         0.00000E+00
    0.87432E-07        -0.59087E-09         0.00000E+00
    0.87430E-07        -0.54815E-09         0.00000E+00
    0.87428E-07        -0.50324E-09         0.00000E+00
    0.87427E-07        -0.45613E-09         0.00000E+00
    0.87425E-07        -0.40683E-09         0.00000E+00
    0.87424E-07        -0.35534E-09         0.00000E+00
    0.87423E-07        -0.30165E-09         0.00000E+00
    0.87422E-07        -0.24576E-09         0.00000E+00
    0.87421E-07        -0.18766E-09         0.00000E+00
    0.87421E-07        -0.12733E-09         0.00000E+00
    0.87421E-07        -0.64758E-10         0.00000E+00
    0.87421E-07        -0.32913E-10         0.00000E+00
    0.91098E-07        -0.48989E-10         0.00000E+00
    0.91098E-07        -0.95548E-10         0.00000E+00
    0.91097E-07        -0.18541E-09         0.00000E+00
    0.91097E-07        -0.26889E-09         0.00000E+00
    0.91095E-07        -0.34626E-09         0.00000E+00
    0.91094E-07        -0.41776E-09         0.00000E+00
    0.91092E-07        -0.48363E-09         0.00000E+00
    0.91089E-07        -0.54411E-09         0.00000E+00
    0.91086E-07        -0.59942E-09         0.00000E+00
    0.91083E-07        -0.64978E-09         0.00000E+00
    0.91079E-07        -0.69538E-09         0.00000E+00
    0.91075E-07        -0.73642E-09         0.00000E+00
    0.91071E-07        -0.77310E-09         0.00000E+00
    0.91066E-07        -0.80559E-09         0.00000E+00
    0.91061E-07        -0.83405E-09         0.00000E+00
    0.91055E-07        -0.85865E-09         0.00000E+00
    0.91049E-07        -0.87953E-09         0.00000E+00
    0.91043E-07        -0.89686E-09         0.00000E+00
    0.91036E-07        -0.91075E-09         0.00000E+00
    0.91029E-07        -0.92133E-09         0.00000E+00
    0.91022E-07        -0.92874E-09         0.00000E+00
    0.91015E-07        -0.93307E-09         0.00000E+00
    0.91007E-07        -0.93444E-09         0.00000E+00
    0.91000E-07        -0.93294E-09         0.00000E+00
    0.90992E-07        -0.92866E-09         0.00000E+00
    0.90985E-07        -0.92169E-09         0.00000E+00
    0.90977E-07        -0.91210E-09         0.00000E+00
    0.90969E-07        -0.89997E-09         0.00000E+00
    0.90962E-07        -0.88535E-09         0.00000E+00
    0.90954E-07        -0.86832E-09         0.00000E+00
    0.90947E-07        -0.84891E-09         0.00000E+00
    0.90939E-07        -0.82718E-09         0.00000E+00
    0.90932E-07        -0.80317E-09         0.00000E+00
    0.90925E-07        -0.77692E-09         0.00000E+00
    0.90918E-07        -0.74845E-09         0.00000E+00
    0.90912E-07        -0.71779E-09         0.00000E+00
    0.90906E-07        -0.68497E-09         0.00000E+00
    0.90900E-07        -0.64999E-09         0.00000E+00
    0.90894E-07        -0.61288E-09         0.00000E+00
    0.90889E-07        -0.57363E-09         0.00000E+00
    0.90884E-07        -0.53226E-09         0.00000E+00
    0.90880E-07        -0.48876E-09         0.00000E+00
    0.90876E-07        -0.44313E-09         0.00000E+00
    0.90872E-07        -0.39537E-09         0.00000E+00
    0.90869E-07        -0.34545E-09         0.00000E+00
    0.90867E-07        -0.29338E-09         0.00000E+00
    0.90864E-07        -0.23913E-09         0.00000E+00
    0.90863E-07        -0.18268E-09         0.00000E+00
    0.90862E-07        -0.12401E-09         0.00000E+00
    0.90861E-07        -0.63107E-10         0.00000E+00
    0.90861E-07        -0.32092E-10         0.00000E+00
    0.94616E-07        -0.47629E-10         0.00000E+00
    0.94616E-07        -0.92778E-10         0.00000E+00
    0.94615E-07        -0.17977E-09         0.00000E+00
    0.94612E-07        -0.26029E-09         0.00000E+00
    0.94609E-07        -0.33463E-09         0.00000E+00
    0.94606E-07        -0.40309E-09         0.00000E+00
    0.94601E-07        -0.46592E-09         0.00000E+00
    0.94595E-07        -0.52338E-09         0.00000E+00
    0.94589E-07        -0.57574E-09         0.00000E+00
    0.94582E-07        -0.62321E-09         0.00000E+00
    0.94574E-07        -0.66602E-09         0.00000E+00
    0.94566E-07        -0.70439E-09         0.00000E+00
    0.94557E-07        -0.73852E-09         0.00000E+00
    0.94547E-07        -0.76860E-09         0.00000E+00
    0.94537E-07        -0.79482E-09         0.00000E+00
    0.94526E-07        -0.81734E-09         0.00000E+00
    0.94515E-07        -0.83632E-09         0.00000E+00
    0.94504E-07        -0.85192E-09         0.00000E+00
    0.94492E-07        -0.86429E-09         0.00000E+00
    0.94479E-07        -0.87354E-09         0.00000E+00
    0.94467E-07        -0.87982E-09         0.00000E+00
    0.94454E-07        -0.88323E-09         0.00000E+00
    0.94441E-07        -0.88387E-09         0.00000E+00
    0.94428E-07        -0.88186E-09         0.00000E+00
    0.94415E-07        -0.87728E-09         0.00000E+00
    0.94402E-07        -0.87022E-09         0.00000E+00
    0.94388E-07        -0.86075E-09         0.00000E+00
    0.94375E-07        -0.84893E-09         0.00000E+00
    0.94363E-07        -0.83484E-09         0.00000E+00
    0.94350E-07        -0.81853E-09         0.00000E+00
    0.94337E-07        -0.80004E-09         0.00000E+00
    0.94325E-07        -0.77942E-09         0.00000E+00
    0.94313E-07        -0.75670E-09         0.00000E+00
    0.94302E-07        -0.73192E-09         0.00000E+00
    0.94291E-07        -0.70510E-09         0.00000E+00
    0.94280E-07        -0.67626E-09         0.00000E+00
    0.94270E-07        -0.64541E-09         0.00000E+00
    0.94260E-07        -0.61256E-09         0.00000E+00
    0.94251E-07        -0.57772E-09         0.00000E+00
    0.94242E-07        -0.54089E-09         0.00000E+00
    0.94234E-07        -0.50206E-09         0.00000E+00
    0.94227E-07        -0.46122E-09         0.00000E+00
    0.94221E-07        -0.41835E-09         0.00000E+00
    0.94215E-07        -0.37345E-09         0.00000E+00
    0.94210E-07        -0.32649E-09         0.00000E+00
    0.94205E-07        -0.27745E-09         0.00000E+00
    0.94202E-07        -0.22630E-09         0.00000E+00
    0.94199E-07        -0.17300E-09         0.00000E+00
    0.94197E-07        -0.11754E-09         0.00000E+00
    0.94195E-07        -0.59859E-10         0.00000E+00
    0.94195E-07        -0.30464E-10         0.00000E+00
    0.98007E-07        -0.44754E-10         0.00000E+00
    0.98006E-07        -0.87045E-10         0.00000E+00
    0.98004E-07        -0.16836E-09         0.00000E+00
    0.98000E-07        -0.24329E-09         0.00000E+00
    0.97995E-07        -0.31218E-09         0.00000E+00
    0.97989E-07        -0.37532E-09         0.00000E+00
    0.97981E-07        -0.43302E-09         0.00000E+00
    0.97972E-07        -0.48555E-09         0.00000E+00
    0.97962E-07        -0.53318E-09         0.00000E+00
    0.97951E-07        -0.57616E-09         0.00000E+00
    0.97939E-07        -0.61473E-09         0.00000E+00
    0.97926E-07        -0.64913E-09         0.00000E+00
    0.97912E-07        -0.67955E-09         0.00000E+00
    0.97897E-07        -0.70622E-09         0.00000E+00
    0.97882E-07        -0.72930E-09         0.00000E+00
    0.97865E-07        -0.74899E-09         0.00000E+00
    0.97849E-07        -0.76544E-09         0.00000E+00
    0.97831E-07        -0.77882E-09         0.00000E+00
    0.97813E-07        -0.78926E-09         0.00000E+00
    0.97795E-07        -0.79690E-09         0.00000E+00
    0.97777E-07        -0.80187E-09         0.00000E+00
    0.97758E-07        -0.80428E-09         0.00000E+00
    0.97739E-07        -0.80424E-09         0.00000E+00
    0.97720E-07        -0.80184E-09         0.00000E+00
    0.97701E-07        -0.79717E-09         0.00000E+00
    0.97682E-07        -0.79031E-09         0.00000E+00
    0.97663E-07        -0.78133E-09         0.00000E+00
    0.97644E-07        -0.77029E-09         0.00000E+00
    0.97626E-07        -0.75726E-09         0.00000E+00
    0.97607E-07        -0.74228E-09         0.00000E+00
    0.97590E-07        -0.72539E-09         0.00000E+00
    0.97572E-07        -0.70663E-09         0.00000E+00
    0.97555E-07        -0.68603E-09         0.00000E+00
    0.97539E-07        -0.66361E-09         0.00000E+00
    0.97523E-07        -0.63938E-09         0.00000E+00
    0.97508E-07        -0.61336E-09         0.00000E+00
    0.97494E-07        -0.58556E-09         0.00000E+00
    0.97480E-07        -0.55597E-09         0.00000E+00
    0.97467E-07        -0.52458E-09         0.00000E+00
    0.97455E-07        -0.49139E-09         0.00000E+00
    0.97444E-07        -0.45639E-09         0.00000E+00
    0.97434E-07        -0.41954E-09         0.00000E+00
    0.97424E-07        -0.38084E-09         0.00000E+00
    0.97416E-07        -0.34024E-09         0.00000E+00
    0.97409E-07        -0.29772E-09         0.00000E+00
    0.97402E-07        -0.25324E-09         0.00000E+00
    0.97397E-07        -0.20676E-09         0.00000E+00
    0.97393E-07        -0.15824E-09         0.00000E+00
    0.97390E-07        -0.10763E-09         0.00000E+00
    0.97388E-07        -0.54878E-10         0.00000E+00
    0.97388E-07        -0.27962E-10         0.00000E+00
    0.10122E-06        -0.40179E-10         0.00000E+00
    0.10122E-06        -0.77999E-10         0.00000E+00
    0.10122E-06        -0.15052E-09         0.00000E+00
    0.10122E-06        -0.21698E-09         0.00000E+00
    0.10121E-06        -0.27774E-09         0.00000E+00
    0.10120E-06        -0.33311E-09         0.00000E+00
    0.10119E-06        -0.38342E-09         0.00000E+00
    0.10118E-06        -0.42896E-09         0.00000E+00
    0.10116E-06        -0.47000E-09         0.00000E+00
    0.10115E-06        -0.50682E-09         0.00000E+00
    0.10113E-06        -0.53966E-09         0.00000E+00
    0.10111E-06        -0.56875E-09         0.00000E+00
    0.10109E-06        -0.59431E-09         0.00000E+00
    0.10107E-06        -0.61654E-09         0.00000E+00
    0.10105E-06        -0.63563E-09         0.00000E+00
    0.10103E-06        -0.65177E-09         0.00000E+00
    0.10101E-06        -0.66510E-09         0.00000E+00
    0.10098E-06        -0.67580E-09         0.00000E+00
    0.10096E-06        -0.68398E-09         0.00000E+00
    0.10093E-06        -0.68980E-09         0.00000E+00
    0.10091E-06        -0.69335E-09         0.00000E+00
    0.10088E-06        -0.69476E-09         0.00000E+00
    0.10086E-06        -0.69412E-09         0.00000E+00
    0.10083E-06        -0.69152E-09         0.00000E+00
    0.10081E-06        -0.68703E-09         0.00000E+00
    0.10078E-06        -0.68074E-09         0.00000E+00
    0.10076E-06        -0.67270E-09         0.00000E+00
    0.10074E-06        -0.66296E-09         0.00000E+00
    0.10071E-06        -0.65159E-09         0.00000E+00
    0.10069E-06        -0.63860E-09         0.00000E+00
    0.10066E-06        -0.62405E-09         0.00000E+00
    0.10064E-06        -0.60795E-09         0.00000E+00
    0.10062E-06        -0.59033E-09         0.00000E+00
    0.10060E-06        -0.57119E-09         0.00000E+00
    0.10058E-06        -0.55055E-09         0.00000E+00
    0.10056E-06        -0.52840E-09         0.00000E+00
    0.10054E-06        -0.50474E-09         0.00000E+00
    0.10052E-06        -0.47956E-09         0.00000E+00
    0.10051E-06        -0.45284E-09         0.00000E+00
    0.10049E-06        -0.42457E-09         0.00000E+00
    0.10048E-06        -0.39472E-09         0.00000E+00
    0.10046E-06        -0.36324E-09         0.00000E+00
    0.10045E-06        -0.33012E-09         0.00000E+00
    0.10044E-06        -0.29531E-09         0.00000E+00
    0.10043E-06        -0.25876E-09         0.00000E+00
    0.10042E-06        -0.22042E-09         0.00000E+00
    0.10041E-06        -0.18024E-09         0.00000E+00
    0.10041E-06        -0.13817E-09         0.00000E+00
    0.10041E-06        -0.94139E-10         0.00000E+00
    0.10040E-06        -0.48085E-10         0.00000E+00
    0.10040E-06        -0.24544E-10         0.00000E+00
    0.10422E-06        -0.33767E-10         0.00000E+00
    0.10422E-06        -0.65380E-10         0.00000E+00
    0.10422E-06        -0.12578E-09         0.00000E+00
    0.10421E-06        -0.18070E-09         0.00000E+00
    0.10420E-06        -0.23053E-09         0.00000E+00
    0.10419E-06        -0.27558E-09         0.00000E+00
    0.10417E-06        -0.31620E-09         0.00000E+00
    0.10416E-06        -0.35266E-09         0.00000E+00
    0.10414E-06        -0.38527E-09         0.00000E+00
    0.10412E-06        -0.41428E-09         0.00000E+00
    0.10410E-06        -0.43993E-09         0.00000E+00
    0.10407E-06        -0.46245E-09         0.00000E+00
    0.10405E-06        -0.48205E-09         0.00000E+00
    0.10402E-06        -0.49894E-09         0.00000E+00
    0.10400E-06        -0.51328E-09         0.00000E+00
    0.10397E-06        -0.52525E-09         0.00000E+00
    0.10394E-06        -0.53500E-09         0.00000E+00
    0.10391E-06        -0.54266E-09         0.00000E+00
    0.10388E-06        -0.54837E-09         0.00000E+00
    0.10385E-06        -0.55225E-09         0.00000E+00
    0.10382E-06        -0.55438E-09         0.00000E+00
    0.10379E-06        -0.55488E-09         0.00000E+00
    0.10376E-06        -0.55383E-09         0.00000E+00
    0.10373E-06        -0.55129E-09         0.00000E+00
    0.10370E-06        -0.54735E-09         0.00000E+00
    0.10367E-06        -0.54204E-09         0.00000E+00
    0.10364E-06        -0.53544E-09         0.00000E+00
    0.10361E-06        -0.52757E-09         0.00000E+00
    0.10358E-06        -0.51847E-09         0.00000E+00
    0.10355E-06        -0.50817E-09         0.00000E+00
    0.10352E-06        -0.49670E-09         0.00000E+00
    0.10349E-06        -0.48406E-09         0.00000E+00
    0.10347E-06        -0.47027E-09         0.00000E+00
    0.10344E-06        -0.45532E-09         0.00000E+00
    0.10342E-06        -0.43921E-09         0.00000E+00
    0.10339E-06        -0.42195E-09         0.00000E+00
    0.10337E-06        -0.40349E-09         0.00000E+00
    0.10335E-06        -0.38384E-09         0.00000E+00
    0.10333E-06        -0.36296E-09         0.00000E+00
    0.10331E-06        -0.34082E-09         0.00000E+00
    0.10329E-06        -0.31738E-09         0.00000E+00
    0.10328E-06        -0.29261E-09         0.00000E+00
    0.10326E-06        -0.26645E-09         0.00000E+00
    0.10325E-06        -0.23885E-09         0.00000E+00
    0.10324E-06        -0.20975E-09         0.00000E+00
    0.10323E-06        -0.17909E-09         0.00000E+00
    0.10322E-06        -0.14681E-09         0.00000E+00
    0.10321E-06        -0.11284E-09         0.00000E+00
    0.10321E-06        -0.77087E-10         0.00000E+00
    0.10321E-06        -0.39484E-10         0.00000E+00
    0.10320E-06        -0.20209E-10         0.00000E+00
    0.10695E-06        -0.25453E-10         0.00000E+00
    0.10694E-06        -0.49077E-10         0.00000E+00
    0.10694E-06        -0.93952E-10         0.00000E+00
    0.10693E-06        -0.13427E-09         0.00000E+00
    0.10692E-06        -0.17038E-09         0.00000E+00
    0.10690E-06        -0.20263E-09         0.00000E+00
    0.10689E-06        -0.23134E-09         0.00000E+00
    0.10687E-06        -0.25679E-09         0.00000E+00
    0.10684E-06        -0.27925E-09         0.00000E+00
    0.10682E-06        -0.29896E-09         0.00000E+00
    0.10679E-06        -0.31616E-09         0.00000E+00
    0.10677E-06        -0.33105E-09         0.00000E+00
    0.10674E-06        -0.34383E-09         0.00000E+00
    0.10671E-06        -0.35466E-09         0.00000E+00
    0.10668E-06        -0.36370E-09         0.00000E+00
    0.10664E-06        -0.37110E-09         0.00000E+00
    0.10661E-06        -0.37699E-09         0.00000E+00
    0.10657E-06        -0.38147E-09         0.00000E+00
    0.10654E-06        -0.38467E-09         0.00000E+00
    0.10650E-06        -0.38665E-09         0.00000E+00
    0.10647E-06        -0.38752E-09         0.00000E+00
    0.10643E-06        -0.38734E-09         0.00000E+00
    0.10640E-06        -0.38617E-09         0.00000E+00
    0.10636E-06        -0.38406E-09         0.00000E+00
    0.10633E-06        -0.38108E-09         0.00000E+00
    0.10629E-06        -0.37724E-09         0.00000E+00
    0.10626E-06        -0.37259E-09         0.00000E+00
    0.10622E-06        -0.36716E-09         0.00000E+00
    0.10619E-06        -0.36095E-09         0.00000E+00
    0.10616E-06        -0.35399E-09         0.00000E+00
    0.10612E-06        -0.34628E-09         0.00000E+00
    0.10609E-06        -0.33782E-09         0.00000E+00
    0.10606E-06        -0.32862E-09         0.00000E+00
    0.10603E-06        -0.31866E-09         0.00000E+00
    0.10600E-06        -0.30793E-09         0.00000E+00
    0.10598E-06        -0.29641E-09         0.00000E+00
    0.10595E-06        -0.28408E-09         0.00000E+00
    0.10593E-06        -0.27091E-09         0.00000E+00
    0.10590E-06        -0.25686E-09         0.00000E+00
    0.10588E-06        -0.24189E-09         0.00000E+00
    0.10586E-06        -0.22597E-09         0.00000E+00
    0.10584E-06        -0.20903E-09         0.00000E+00
    0.10583E-06        -0.19102E-09         0.00000E+00
    0.10581E-06        -0.17189E-09         0.00000E+00
    0.10580E-06        -0.15156E-09         0.00000E+00
    0.10579E-06        -0.12996E-09         0.00000E+00
    0.10578E-06        -0.10701E-09         0.00000E+00
    0.10577E-06        -0.82623E-10         0.00000E+00
    0.10576E-06        -0.56717E-10         0.00000E+00
    0.10576E-06        -0.29193E-10         0.00000E+00
    0.10576E-06        -0.15014E-10         0.00000E+00
    0.10935E-06        -0.15281E-10         0.00000E+00
    0.10934E-06        -0.29202E-10         0.00000E+00
    0.10934E-06        -0.55313E-10         0.00000E+00
    0.10933E-06        -0.78138E-10         0.00000E+00
    0.10931E-06        -0.98020E-10         0.00000E+00
    0.10930E-06        -0.11527E-09         0.00000E+00
    0.10928E-06        -0.13018E-09         0.00000E+00
    0.10925E-06        -0.14299E-09         0.00000E+00
    0.10923E-06        -0.15395E-09         0.00000E+00
    0.10920E-06        -0.16327E-09         0.00000E+00
    0.10917E-06        -0.17114E-09         0.00000E+00
    0.10914E-06        -0.17772E-09         0.00000E+00
    0.10911E-06        -0.18317E-09         0.00000E+00
    0.10907E-06        -0.18761E-09         0.00000E+00
    0.10904E-06        -0.19116E-09         0.00000E+00
    0.10900E-06        -0.19393E-09         0.00000E+00
    0.10896E-06        -0.19600E-09         0.00000E+00
    0.10892E-06        -0.19745E-09         0.00000E+00
    0.10889E-06        -0.19835E-09         0.00000E+00
    0.10885E-06        -0.19875E-09         0.00000E+00
    0.10881E-06        -0.19869E-09         0.00000E+00
    0.10877E-06        -0.19822E-09         0.00000E+00
    0.10873E-06        -0.19737E-09         0.00000E+00
    0.10869E-06        -0.19616E-09         0.00000E+00
    0.10865E-06        -0.19462E-09         0.00000E+00
    0.10861E-06        -0.19275E-09         0.00000E+00
    0.10858E-06        -0.19058E-09         0.00000E+00
    0.10854E-06        -0.18809E-09         0.00000E+00
    0.10850E-06        -0.18530E-09         0.00000E+00
    0.10847E-06        -0.18221E-09         0.00000E+00
    0.10843E-06        -0.17880E-09         0.00000E+00
    0.10840E-06        -0.17507E-09         0.00000E+00
    0.10837E-06        -0.17101E-09         0.00000E+00
    0.10834E-06        -0.16659E-09         0.00000E+00
    0.10831E-06        -0.16181E-09         0.00000E+00
    0.10828E-06        -0.15663E-09         0.00000E+00
    0.10825E-06        -0.15103E-09         0.00000E+00
    0.10822E-06        -0.14497E-09         0.00000E+00
    0.10820E-06        -0.13841E-09         0.00000E+00
    0.10817E-06        -0.13133E-09         0.00000E+00
    0.10815E-06        -0.12366E-09         0.00000E+00
    0.10813E-06        -0.11535E-09         0.00000E+00
    0.10811E-06        -0.10634E-09         0.00000E+00
    0.10810E-06        -0.96579E-10         0.00000E+00
    0.10808E-06        -0.85981E-10         0.00000E+00
    0.10807E-06        -0.74470E-10         0.00000E+00
    0.10806E-06        -0.61960E-10         0.00000E+00
    0.10805E-06        -0.48358E-10         0.00000E+00
    0.10804E-06        -0.33564E-10         0.00000E+00
    0.10804E-06        -0.17469E-10         0.00000E+00
    0.10804E-06        -0.90818E-11         0.00000E+00
    0.11136E-06        -0.34535E-11         0.00000E+00
    0.11136E-06        -0.61776E-11         0.00000E+00
    0.11135E-06        -0.10753E-10         0.00000E+00
    0.11134E-06        -0.13738E-10         0.00000E+00
    0.11133E-06        -0.15423E-10         0.00000E+00
    0.11131E-06        -0.16069E-10         0.00000E+00
    0.11129E-06        -0.15902E-10         0.00000E+00
    0.11126E-06        -0.15119E-10         0.00000E+00
    0.11123E-06        -0.13892E-10         0.00000E+00
    0.11120E-06        -0.12366E-10         0.00000E+00
    0.11117E-06        -0.10662E-10         0.00000E+00
    0.11114E-06        -0.88827E-11         0.00000E+00
    0.11110E-06        -0.71095E-11         0.00000E+00
    0.11107E-06        -0.54085E-11         0.00000E+00
    0.11103E-06        -0.38307E-11         0.00000E+00
    0.11099E-06        -0.24141E-11         0.00000E+00
    0.11095E-06        -0.11860E-11         0.00000E+00
    0.11092E-06        -0.16401E-12         0.00000E+00
    0.11088E-06         0.64201E-12         0.00000E+00
    0.11084E-06         0.12287E-11         0.00000E+00
    0.11080E-06         0.15980E-11         0.00000E+00
    0.11076E-06         0.17559E-11         0.00000E+00
    0.11072E-06         0.17118E-11         0.00000E+00
    0.11068E-06         0.14772E-11         0.00000E+00
    0.11064E-06         0.10657E-11         0.00000E+00
    0.11060E-06         0.49178E-12         0.00000E+00
    0.11056E-06        -0.22895E-12         0.00000E+00
    0.11053E-06        -0.10806E-11         0.00000E+00
    0.11049E-06        -0.20468E-11         0.00000E+00
    0.11046E-06        -0.31109E-11         0.00000E+00
    0.11042E-06        -0.42562E-11         0.00000E+00
    0.11039E-06        -0.54651E-11         0.00000E+00
    0.11035E-06        -0.67198E-11         0.00000E+00
    0.11032E-06        -0.80014E-11         0.00000E+00
    0.11029E-06        -0.92894E-11         0.00000E+00
    0.11026E-06        -0.10562E-10         0.00000E+00
    0.11024E-06        -0.11794E-10         0.00000E+00
    0.11021E-06        -0.12959E-10         0.00000E+00
    0.11018E-06        -0.14026E-10         0.00000E+00
    0.11016E-06        -0.14959E-10         0.00000E+00
    0.11014E-06        -0.15719E-10         0.00000E+00
    0.11012E-06        -0.16259E-10         0.00000E+00
    0.11010E-06        -0.16528E-10         0.00000E+00
    0.11008E-06        -0.16466E-10         0.00000E+00
    0.11007E-06        -0.16005E-10         0.00000E+00
    0.11005E-06        -0.15071E-10         0.00000E+00
    0.11004E-06        -0.13577E-10         0.00000E+00
    0.11003E-06        -0.11430E-10         0.00000E+00
    0.11003E-06        -0.85251E-11         0.00000E+00
    0.11002E-06        -0.47473E-11         0.00000E+00
    0.11002E-06        -0.26254E-11         0.00000E+00
    0.11295E-06         0.96228E-11         0.00000E+00
    0.11295E-06         0.19142E-10         0.00000E+00
    0.11294E-06         0.37951E-10         0.00000E+00
    0.11293E-06         0.56188E-10         0.00000E+00
    0.11291E-06         0.73648E-10         0.00000E+00
    0.11289E-06         0.90167E-10         0.00000E+00
    0.11287E-06         0.10561E-09         0.00000E+00
    0.11284E-06         0.11990E-09         0.00000E+00
    0.11281E-06         0.13295E-09         0.00000E+00
    0.11278E-06         0.14474E-09         0.00000E+00
    0.11275E-06         0.15524E-09         0.00000E+00
    0.11272E-06         0.16447E-09         0.00000E+00
    0.11269E-06         0.17244E-09         0.00000E+00
    0.11265E-06         0.17919E-09         0.00000E+00
    0.11262E-06         0.18477E-09         0.00000E+00
    0.11258E-06         0.18923E-09         0.00000E+00
    0.11254E-06         0.19263E-09         0.00000E+00
    0.11251E-06         0.19503E-09         0.00000E+00
    0.11247E-06         0.19649E-09         0.00000E+00
    0.11243E-06         0.19710E-09         0.00000E+00
    0.11240E-06         0.19690E-09         0.00000E+00
    0.11236E-06         0.19595E-09         0.00000E+00
    0.11233E-06         0.19433E-09         0.00000E+00
    0.11229E-06         0.19208E-09         0.00000E+00
    0.11226E-06         0.18925E-09         0.00000E+00
    0.11222E-06         0.18589E-09         0.00000E+00
    0.11219E-06         0.18204E-09         0.00000E+00
    0.11215E-06         0.17774E-09         0.00000E+00
    0.11212E-06         0.17301E-09         0.00000E+00
    0.11209E-06         0.16790E-09         0.00000E+00
    0.11206E-06         0.16241E-09         0.00000E+00
    0.11203E-06         0.15656E-09         0.00000E+00
    0.11200E-06         0.15038E-09         0.00000E+00
    0.11197E-06         0.14388E-09         0.00000E+00
    0.11194E-06         0.13706E-09         0.00000E+00
    0.11192E-06         0.12993E-09         0.00000E+00
    0.11189E-06         0.12250E-09         0.00000E+00
    0.11187E-06         0.11478E-09         0.00000E+00
    0.11185E-06         0.10678E-09         0.00000E+00
    0.11182E-06         0.98512E-10         0.00000E+00
    0.11180E-06         0.89990E-10         0.00000E+00
    0.11178E-06         0.81237E-10         0.00000E+00
    0.11177E-06         0.72282E-10         0.00000E+00
    0.11175E-06         0.63160E-10         0.00000E+00
    0.11174E-06         0.53918E-10         0.00000E+00
    0.11172E-06         0.44612E-10         0.00000E+00
    0.11171E-06         0.35310E-10         0.00000E+00
    0.11171E-06         0.26094E-10         0.00000E+00
    0.11170E-06         0.17064E-10         0.00000E+00
    0.11170E-06         0.83315E-11         0.00000E+00
    0.11169E-06         0.40551E-11         0.00000E+00
    0.11404E-06         0.23161E-10         0.00000E+00
    0.11404E-06         0.45222E-10         0.00000E+00
    0.11403E-06         0.87725E-10         0.00000E+00
    0.11402E-06         0.12694E-09         0.00000E+00
    0.11400E-06         0.16281E-09         0.00000E+00
    0.11398E-06         0.19533E-09         0.00000E+00
    0.11396E-06         0.22456E-09         0.00000E+00
    0.11394E-06         0.25056E-09         0.00000E+00
    0.11392E-06         0.27345E-09         0.00000E+00
    0.11389E-06         0.29335E-09         0.00000E+00
    0.11386E-06         0.31041E-09         0.00000E+00
    0.11384E-06         0.32480E-09         0.00000E+00
    0.11381E-06         0.33671E-09         0.00000E+00
    0.11378E-06         0.34630E-09         0.00000E+00
    0.11375E-06         0.35376E-09         0.00000E+00
    0.11372E-06         0.35927E-09         0.00000E+00
    0.11369E-06         0.36300E-09         0.00000E+00
    0.11366E-06         0.36512E-09         0.00000E+00
    0.11364E-06         0.36578E-09         0.00000E+00
    0.11361E-06         0.36513E-09         0.00000E+00
    0.11358E-06         0.36329E-09         0.00000E+00
    0.11355E-06         0.36038E-09         0.00000E+00
    0.11353E-06         0.35653E-09         0.00000E+00
    0.11350E-06         0.35181E-09         0.00000E+00
    0.11348E-06         0.34633E-09         0.00000E+00
    0.11345E-06         0.34014E-09         0.00000E+00
    0.11343E-06         0.33331E-09         0.00000E+00
    0.11340E-06         0.32590E-09         0.00000E+00
    0.11338E-06         0.31794E-09         0.00000E+00
    0.11336E-06         0.30947E-09         0.00000E+00
    0.11333E-06         0.30050E-09         0.00000E+00
    0.11331E-06         0.29104E-09         0.00000E+00
    0.11329E-06         0.28111E-09         0.00000E+00
    0.11327E-06         0.27068E-09         0.00000E+00
    0.11325E-06         0.25976E-09         0.00000E+00
    0.11323E-06         0.24832E-09         0.00000E+00
    0.11321E-06         0.23634E-09         0.00000E+00
    0.11319E-06         0.22379E-09         0.00000E+00
    0.11318E-06         0.21064E-09         0.00000E+00
    0.11316E-06         0.19685E-09         0.00000E+00
    0.11314E-06         0.18240E-09         0.00000E+00
    0.11313E-06         0.16726E-09         0.00000E+00
    0.11311E-06         0.15140E-09         0.00000E+00
    0.11310E-06         0.13480E-09         0.00000E+00
    0.11309E-06         0.11748E-09         0.00000E+00
    0.11308E-06         0.99440E-10         0.00000E+00
    0.11307E-06         0.80704E-10         0.00000E+00
    0.11306E-06         0.61315E-10         0.00000E+00
    0.11306E-06         0.41331E-10         0.00000E+00
    0.11305E-06         0.20840E-10         0.00000E+00
    0.11305E-06         0.10480E-10         0.00000E+00
    0.11458E-06         0.36163E-10         0.00000E+00
    0.11458E-06         0.69709E-10         0.00000E+00
    0.11457E-06         0.13342E-09         0.00000E+00
    0.11456E-06         0.19051E-09         0.00000E+00
    0.11455E-06         0.24125E-09         0.00000E+00
    0.11454E-06         0.28586E-09         0.00000E+00
    0.11452E-06         0.32466E-09         0.00000E+00
    0.11451E-06         0.35798E-09         0.00000E+00
    0.11449E-06         0.38623E-09         0.00000E+00
    0.11448E-06         0.40980E-09         0.00000E+00
    0.11446E-06         0.42913E-09         0.00000E+00
    0.11444E-06         0.44463E-09         0.00000E+00
    0.11443E-06         0.45668E-09         0.00000E+00
    0.11441E-06         0.46567E-09         0.00000E+00
    0.11440E-06         0.47194E-09         0.00000E+00
    0.11439E-06         0.47580E-09         0.00000E+00
    0.11437E-06         0.47755E-09         0.00000E+00
    0.11436E-06         0.47744E-09         0.00000E+00
    0.11435E-06         0.47572E-09         0.00000E+00
    0.11434E-06         0.47259E-09         0.00000E+00
    0.11433E-06         0.46823E-09         0.00000E+00
    0.11431E-06         0.46281E-09         0.00000E+00
    0.11430E-06         0.45647E-09         0.00000E+00
    0.11430E-06         0.44933E-09         0.00000E+00
    0.11429E-06         0.44149E-09         0.00000E+00
    0.11428E-06         0.43303E-09         0.00000E+00
    0.11427E-06         0.42403E-09         0.00000E+00
    0.11426E-06         0.41454E-09         0.00000E+00
    0.11425E-06         0.40459E-09         0.00000E+00
    0.11424E-06         0.39422E-09         0.00000E+00
    0.11423E-06         0.38343E-09         0.00000E+00
    0.11423E-06         0.37223E-09         0.00000E+00
    0.11422E-06         0.36060E-09         0.00000E+00
    0.11421E-06         0.34850E-09         0.00000E+00
    0.11420E-06         0.33591E-09         0.00000E+00
    0.11420E-06         0.32278E-09         0.00000E+00
    0.11419E-06         0.30903E-09         0.00000E+00
    0.11418E-06         0.29459E-09         0.00000E+00
    0.11417E-06         0.27937E-09         0.00000E+00
    0.11416E-06         0.26328E-09         0.00000E+00
    0.11416E-06         0.24620E-09         0.00000E+00
    0.11415E-06         0.22804E-09         0.00000E+00
    0.11414E-06         0.20865E-09         0.00000E+00
    0.11413E-06         0.18795E-09         0.00000E+00
    0.11413E-06         0.16581E-09         0.00000E+00
    0.11412E-06         0.14215E-09         0.00000E+00
    0.11411E-06         0.11692E-09         0.00000E+00
    0.11411E-06         0.90082E-10         0.00000E+00
    0.11411E-06         0.61656E-10         0.00000E+00
    0.11410E-06         0.31645E-10         0.00000E+00
    0.11410E-06         0.16242E-10         0.00000E+00
    0.11451E-06         0.45255E-10         0.00000E+00
    0.11451E-06         0.86979E-10         0.00000E+00
    0.11451E-06         0.16509E-09         0.00000E+00
    0.11450E-06         0.23256E-09         0.00000E+00
    0.11450E-06         0.28978E-09         0.00000E+00
    0.11450E-06         0.33755E-09         0.00000E+00
    0.11450E-06         0.37689E-09         0.00000E+00
    0.11450E-06         0.40879E-09         0.00000E+00
    0.11450E-06         0.43424E-09         0.00000E+00
    0.11451E-06         0.45410E-09         0.00000E+00
    0.11451E-06         0.46916E-09         0.00000E+00
    0.11452E-06         0.48011E-09         0.00000E+00
    0.11453E-06         0.48755E-09         0.00000E+00
    0.11454E-06         0.49202E-09         0.00000E+00
    0.11455E-06         0.49395E-09         0.00000E+00
    0.11456E-06         0.49375E-09         0.00000E+00
    0.11457E-06         0.49176E-09         0.00000E+00
    0.11459E-06         0.48825E-09         0.00000E+00
    0.11460E-06         0.48348E-09         0.00000E+00
    0.11461E-06         0.47767E-09         0.00000E+00
    0.11463E-06         0.47099E-09         0.00000E+00
    0.11464E-06         0.46359E-09         0.00000E+00
    0.11466E-06         0.45562E-09         0.00000E+00
    0.11467E-06         0.44717E-09         0.00000E+00
    0.11469E-06         0.43833E-09         0.00000E+00
    0.11470E-06         0.42918E-09         0.00000E+00
    0.11471E-06         0.41978E-09         0.00000E+00
    0.11473E-06         0.41016E-09         0.00000E+00
    0.11474E-06         0.40035E-09         0.00000E+00
    0.11475E-06         0.39036E-09         0.00000E+00
    0.11477E-06         0.38021E-09         0.00000E+00
    0.11478E-06         0.36987E-09         0.00000E+00
    0.11479E-06         0.35932E-09         0.00000E+00
    0.11480E-06         0.34853E-09         0.00000E+00
    0.11481E-06         0.33744E-09         0.00000E+00
    0.11482E-06         0.32599E-09         0.00000E+00
    0.11483E-06         0.31408E-09         0.00000E+00
    0.11484E-06         0.30163E-09         0.00000E+00
    0.11485E-06         0.28850E-09         0.00000E+00
    0.11485E-06         0.27455E-09         0.00000E+00
    0.11486E-06         0.25960E-09         0.00000E+00
    0.11487E-06         0.24346E-09         0.00000E+00
    0.11487E-06         0.22589E-09         0.00000E+00
    0.11487E-06         0.20662E-09         0.00000E+00
    0.11487E-06         0.18535E-09         0.00000E+00
    0.11488E-06         0.16175E-09         0.00000E+00
    0.11488E-06         0.13548E-09         0.00000E+00
    0.11488E-06         0.10624E-09         0.00000E+00
    0.11487E-06         0.73807E-10         0.00000E+00
    0.11487E-06         0.38203E-10         0.00000E+00
    0.11487E-06         0.19633E-10         0.00000E+00
    0.11372E-06         0.50977E-10         0.00000E+00
    0.11373E-06         0.92511E-10         0.00000E+00
    0.11374E-06         0.16545E-09         0.00000E+00
    0.11376E-06         0.22064E-09         0.00000E+00
    0.11378E-06         0.26239E-09         0.00000E+00
    0.11382E-06         0.29383E-09         0.00000E+00
    0.11385E-06         0.31725E-09         0.00000E+00
    0.11389E-06         0.33439E-09         0.00000E+00
    0.11393E-06         0.34653E-09         0.00000E+00
    0.11398E-06         0.35471E-09         0.00000E+00
    0.11403E-06         0.35970E-09         0.00000E+00
    0.11407E-06         0.36213E-09         0.00000E+00
    0.11412E-06         0.36251E-09         0.00000E+00
    0.11417E-06         0.36123E-09         0.00000E+00
    0.11422E-06         0.35863E-09         0.00000E+00
    0.11427E-06         0.35496E-09         0.00000E+00
    0.11432E-06         0.35044E-09         0.00000E+00
    0.11437E-06         0.34527E-09         0.00000E+00
    0.11442E-06         0.33957E-09         0.00000E+00
    0.11446E-06         0.33349E-09         0.00000E+00
    0.11451E-06         0.32712E-09         0.00000E+00
    0.11456E-06         0.32054E-09         0.00000E+00
    0.11460E-06         0.31383E-09         0.00000E+00
    0.11465E-06         0.30703E-09         0.00000E+00
    0.11469E-06         0.30020E-09         0.00000E+00
    0.11474E-06         0.29337E-09         0.00000E+00
    0.11478E-06         0.28657E-09         0.00000E+00
    0.11482E-06         0.27981E-09         0.00000E+00
    0.11486E-06         0.27311E-09         0.00000E+00
    0.11490E-06         0.26647E-09         0.00000E+00
    0.11494E-06         0.25989E-09         0.00000E+00
    0.11498E-06         0.25336E-09         0.00000E+00
    0.11501E-06         0.24685E-09         0.00000E+00
    0.11505E-06         0.24036E-09         0.00000E+00
    0.11508E-06         0.23383E-09         0.00000E+00
    0.11512E-06         0.22723E-09         0.00000E+00
    0.11515E-06         0.22051E-09         0.00000E+00
    0.11518E-06         0.21359E-09         0.00000E+00
    0.11521E-06         0.20640E-09         0.00000E+00
    0.11524E-06         0.19881E-09         0.00000E+00
    0.11526E-06         0.19070E-09         0.00000E+00
    0.11529E-06         0.18191E-09         0.00000E+00
    0.11531E-06         0.17221E-09         0.00000E+00
    0.11533E-06         0.16133E-09         0.00000E+00
    0.11535E-06         0.14893E-09         0.00000E+00
    0.11537E-06         0.13452E-09         0.00000E+00
    0.11539E-06         0.11748E-09         0.00000E+00
    0.11540E-06         0.96956E-10         0.00000E+00
    0.11541E-06         0.71739E-10         0.00000E+00
    0.11541E-06         0.40128E-10         0.00000E+00
    0.11541E-06         0.22472E-10         0.00000E+00
    0.11313E-06         0.00000E+00         0.00000E+00
    0.11314E-06         0.00000E+00         0.00000E+00
    0.11317E-06         0.00000E+00         0.00000E+00
    0.11321E-06         0.00000E+00         0.00000E+00
    0.11326E-06         0.00000E+00         0.00000E+00
    0.11331E-06         0.00000E+00         0.00000E+00
    0.11337E-06         0.00000E+00         0.00000E+00
    0.11344E-06         0.00000E+00         0.00000E+00
    0.11351E-06         0.00000E+00         0.00000E+00
    0.11358E-06        -0.37253E-20         0.00000E+00
    0.11365E-06         0.00000E+00         0.00000E+00
    0.11372E-06         0.37253E-20         0.00000E+00
    0.11379E-06         0.00000E+00         0.00000E+00
    0.11387E-06         0.00000E+00         0.00000E+00
    0.11394E-06         0.00000E+00         0.00000E+00
    0.11401E-06         0.00000E+00         0.00000E+00
    0.11408E-06         0.00000E+00         0.00000E+00
    0.11415E-06         0.37253E-20         0.00000E+00
    0.11422E-06         0.00000E+00         0.00000E+00
    0.11429E-06        -0.37253E-20         0.00000E+00
    0.11435E-06         0.00000E+00         0.00000E+00
    0.11442E-06         0.00000E+00         0.00000E+00
    0.11448E-06         0.00000E+00         0.00000E+00
    0.11454E-06         0.00000E+00         0.00000E+00
    0.11460E-06         0.00000E+00         0.00000E+00
    0.11466E-06         0.00000E+00         0.00000E+00
    0.11472E-06         0.00000E+00         0.00000E+00
    0.11478E-06         0.00000E+00         0.00000E+00
    0.11483E-06         0.00000E+00         0.00000E+00
    0.11489E-06         0.00000E+00         0.00000E+00
    0.11494E-06         0.00000E+00         0.00000E+00
    0.11499E-06         0.00000E+00         0.00000E+00
    0.11504E-06         0.00000E+00         0.00000E+00
    0.11509E-06         0.00000E+00         0.00000E+00
    0.11514E-06         0.00000E+00         0.00000E+00
    0.11518E-06         0.00000E+00         0.00000E+00
    0.11523E-06         0.00000E+00         0.00000E+00
    0.11527E-06         0.00000E+00         0.00000E+00
    0.11531E-06         0.00000E+00         0.00000E+00
    0.11535E-06        -0.46566E-20         0.00000E+00
    0.11539E-06        -0.37253E-20         0.00000E+00
    0.11543E-06         0.37253E-20         0.00000E+00
    0.11546E-06         0.37253E-20         0.00000E+00
    0.11550E-06         0.00000E+00         0.00000E+00
    0.11553E-06         0.00000E+00         0.00000E+00
    0.11556E-06         0.00000E+00         0.00000E+00
    0.11558E-06         0.00000E+00         0.00000E+00
    0.11560E-06         0.37253E-20         0.00000E+00
    0.11562E-06         0.93132E-21         0.00000E+00
    0.11563E-06         0.00000E+00         0.00000E+00
    0.11564E-06         0.74506E-20         0.00000E+00
CELL_DATA       5000
TENSORS stressef double 
    0.13794E+08        -0.10194E+06         0.00000E+00
   -0.10194E+06         0.19596E+08         0.00000E+00
    0.00000E+00         0.00000E+00         0.95468E+07
 
    0.13755E+08        -0.92472E+05         0.00000E+00
   -0.92472E+05         0.19582E+08         0.00000E+00
    0.00000E+00         0.00000E+00         0.89124E+07
 
    0.13629E+08        -0.98468E+05         0.00000E+00
   -0.98468E+05         0.19565E+08         0.00000E+00
    0.00000E+00         0.00000E+00         0.83463E+07
 
    0.13461E+08        -0.11034E+06         0.00000E+00
   -0.11034E+06         0.19541E+08         0.00000E+00
    0.00000E+00         0.00000E+00         0.78403E+07
 
    0.13273E+08        -0.12697E+06         0.00000E+00
   -0.12697E+06         0.19506E+08         0.00000E+00
    0.00000E+00         0.00000E+00         0.74005E+07
 
    0.13062E+08        -0.15133E+06         0.00000E+00
   -0.15133E+06         0.19445E+08         0.00000E+00
    0.00000E+00         0.00000E+00         0.71132E+07
 
    0.12829E+08        -0.16830E+06         0.00000E+00
   -0.16830E+06         0.19384E+08         0.00000E+00
    0.00000E+00         0.00000E+00         0.69842E+07
 
    0.12581E+08        -0.17446E+06         0.00000E+00
   -0.17446E+06         0.19324E+08         0.00000E+00
    0.00000E+00         0.00000E+00         0.68555E+07
 
    0.12330E+08        -0.17111E+06         0.00000E+00
   -0.17111E+06         0.19263E+08         0.00000E+00
    0.00000E+00         0.00000E+00         0.67275E+07
 
    0.12097E+08        -0.16397E+06         0.00000E+00
   -0.16397E+06         0.19203E+08         0.00000E+00
    0.00000E+00         0.00000E+00         0.66065E+07
 
    0.11880E+08        -0.15515E+06         0.00000E+00
   -0.15515E+06         0.19144E+08         0.00000E+00
    0.00000E+00         0.00000E+00         0.64922E+07
 
    0.11678E+08        -0.14581E+06         0.00000E+00
   -0.14581E+06         0.19088E+08         0.00000E+00
    0.00000E+00         0.00000E+00         0.63849E+07
 
    0.11488E+08        -0.13597E+06         0.00000E+00
   -0.13597E+06         0.19034E+08         0.00000E+00
    0.00000E+00         0.00000E+00         0.62845E+07
 
    0.11307E+08        -0.12546E+06         0.00000E+00
   -0.12546E+06         0.18983E+08         0.00000E+00
    0.00000E+00         0.00000E+00         0.61915E+07
 
    0.11137E+08        -0.11628E+06         0.00000E+00
   -0.11628E+06         0.18939E+08         0.00000E+00
    0.00000E+00         0.00000E+00         0.61104E+07
 
    0.10974E+08        -0.10933E+06         0.00000E+00
   -0.10933E+06         0.18896E+08         0.00000E+00
    0.00000E+00         0.00000E+00         0.60353E+07
 
    0.10817E+08        -0.10427E+06         0.00000E+00
   -0.10427E+06         0.18856E+08         0.00000E+00
    0.00000E+00         0.00000E+00         0.59648E+07
 
    0.10664E+08        -0.10088E+06         0.00000E+00
   -0.10088E+06         0.18815E+08         0.00000E+00
    0.00000E+00         0.00000E+00         0.59032E+07
 
    0.10516E+08        -0.98609E+05         0.00000E+00
   -0.98609E+05         0.18772E+08         0.00000E+00
    0.00000E+00         0.00000E+00         0.58576E+07
 
    0.10372E+08        -0.96379E+05         0.00000E+00
   -0.96379E+05         0.18732E+08         0.00000E+00
    0.00000E+00         0.00000E+00         0.58208E+07
 
    0.10230E+08        -0.93629E+05         0.00000E+00
   -0.93629E+05         0.18693E+08         0.00000E+00
    0.00000E+00         0.00000E+00         0.57846E+07
 
    0.10089E+08        -0.90345E+05         0.00000E+00
   -0.90345E+05         0.18656E+08         0.00000E+00
    0.00000E+00         0.00000E+00         0.57490E+07
 
    0.99499E+07        -0.86566E+05         0.00000E+00
   -0.86566E+05         0.18621E+08         0.00000E+00
    0.00000E+00         0.00000E+00         0.57141E+07
 
    0.98116E+07        -0.82339E+05         0.00000E+00
   -0.82339E+05         0.18587E+08         0.00000E+00
    0.00000E+00         0.00000E+00         0.56797E+07
 
    0.96737E+07        -0.77698E+05         0.00000E+00
   -0.77698E+05         0.18555E+08         0.00000E+00
    0.00000E+00         0.00000E+00         0.56457E+07
 
    0.95356E+07        -0.72658E+05         0.00000E+00
   -0.72658E+05         0.18525E+08         0.00000E+00
    0.00000E+00         0.00000E+00         0.56121E+07
 
    0.93967E+07        -0.67208E+05         0.00000E+00
   -0.67208E+05         0.18497E+08         0.00000E+00
    0.00000E+00         0.00000E+00         0.55788E+07
 
    0.92565E+07        -0.61312E+05         0.00000E+00
   -0.61312E+05         0.18472E+08         0.00000E+00
    0.00000E+00         0.00000E+00         0.55457E+07
 
    0.91142E+07        -0.54896E+05         0.00000E+00
   -0.54896E+05         0.18449E+08         0.00000E+00
    0.00000E+00         0.00000E+00         0.55127E+07
 
    0.89691E+07        -0.47836E+05         0.00000E+00
   -0.47836E+05         0.18429E+08         0.00000E+00
    0.00000E+00         0.00000E+00         0.54796E+07
 
    0.88201E+07        -0.39932E+05         0.00000E+00
   -0.39932E+05         0.18411E+08         0.00000E+00
    0.00000E+00         0.00000E+00         0.54463E+07
 
    0.86663E+07        -0.30853E+05         0.00000E+00
   -0.30853E+05         0.18397E+08         0.00000E+00
    0.00000E+00         0.00000E+00         0.54127E+07
 
    0.85059E+07        -0.20038E+05         0.00000E+00
   -0.20038E+05         0.18387E+08         0.00000E+00
    0.00000E+00         0.00000E+00         0.53786E+07
 
    0.83537E+07        -0.49399E+04         0.00000E+00
   -0.49399E+04         0.18380E+08         0.00000E+00
    0.00000E+00         0.00000E+00         0.53772E+07
 
    0.82171E+07         0.11954E+05         0.00000E+00
    0.11954E+05         0.18379E+08         0.00000E+00
    0.00000E+00         0.00000E+00         0.54155E+07
 
    0.80925E+07         0.25149E+05         0.00000E+00
    0.25149E+05         0.18386E+08         0.00000E+00
    0.00000E+00         0.00000E+00         0.54720E+07
 
    0.79804E+07         0.33761E+05         0.00000E+00
    0.33761E+05         0.18398E+08         0.00000E+00
    0.00000E+00         0.00000E+00         0.55394E+07
 
    0.78806E+07         0.40402E+05         0.00000E+00
    0.40402E+05         0.18413E+08         0.00000E+00
    0.00000E+00         0.00000E+00         0.56132E+07
 
    0.77930E+07         0.47706E+05         0.00000E+00
    0.47706E+05         0.18431E+08         0.00000E+00
    0.00000E+00         0.00000E+00         0.56926E+07
 
    0.77151E+07         0.55182E+05         0.00000E+00
    0.55182E+05         0.18452E+08         0.00000E+00
    0.00000E+00         0.00000E+00         0.57789E+07
 
    0.76420E+07         0.62207E+05         0.00000E+00
    0.62207E+05         0.18475E+08         0.00000E+00
    0.00000E+00         0.00000E+00         0.58734E+07
 
    0.75769E+07         0.70139E+05         0.00000E+00
    0.70139E+05         0.18502E+08         0.00000E+00
    0.00000E+00         0.00000E+00         0.59751E+07
 
    0.75192E+07         0.79355E+05         0.00000E+00
    0.79355E+05         0.18532E+08         0.00000E+00
    0.00000E+00         0.00000E+00         0.60858E+07
 
    0.74696E+07         0.89596E+05         0.00000E+00
    0.89596E+05         0.18567E+08         0.00000E+00
    0.00000E+00         0.00000E+00         0.62061E+07
 
    0.74283E+07         0.10100E+06         0.00000E+00
    0.10100E+06         0.18605E+08         0.00000E+00
    0.00000E+00         0.00000E+00         0.63368E+07
 
    0.73897E+07         0.11481E+06         0.00000E+00
    0.11481E+06         0.18648E+08         0.00000E+00
    0.00000E+00         0.00000E+00         0.64836E+07
 
    0.73559E+07         0.13225E+06         0.00000E+00
    0.13225E+06         0.18696E+08         0.00000E+00
    0.00000E+00         0.00000E+00         0.66479E+07
 
    0.73317E+07         0.15462E+06         0.00000E+00
    0.15462E+06         0.18750E+08         0.00000E+00
    0.00000E+00         0.00000E+00         0.68295E+07
 
    0.73219E+07         0.18374E+06         0.00000E+00
    0.18374E+06         0.18811E+08         0.00000E+00
    0.00000E+00         0.00000E+00         0.70271E+07
 
    0.73301E+07         0.22230E+06         0.00000E+00
    0.22230E+06         0.18879E+08         0.00000E+00
    0.00000E+00         0.00000E+00         0.72383E+07
 
    0.12865E+08        -0.48785E+04         0.00000E+00
   -0.48785E+04         0.18898E+08         0.00000E+00
    0.00000E+00         0.00000E+00         0.64333E+07
 
    0.12786E+08        -0.82594E+05         0.00000E+00
   -0.82594E+05         0.18906E+08         0.00000E+00
    0.00000E+00         0.00000E+00         0.64260E+07
 
    0.12655E+08        -0.15100E+06         0.00000E+00
   -0.15100E+06         0.18900E+08         0.00000E+00
    0.00000E+00         0.00000E+00         0.63922E+07
 
    0.12492E+08        -0.21165E+06         0.00000E+00
   -0.21165E+06         0.18882E+08         0.00000E+00
    0.00000E+00         0.00000E+00         0.63418E+07
 
    0.12310E+08        -0.26474E+06         0.00000E+00
   -0.26474E+06         0.18864E+08         0.00000E+00
    0.00000E+00         0.00000E+00         0.62892E+07
 
    0.12124E+08        -0.30512E+06         0.00000E+00
   -0.30512E+06         0.18870E+08         0.00000E+00
    0.00000E+00         0.00000E+00         0.62660E+07
 
    0.11930E+08        -0.33530E+06         0.00000E+00
   -0.33530E+06         0.18862E+08         0.00000E+00
    0.00000E+00         0.00000E+00         0.62290E+07
 
    0.11731E+08        -0.35835E+06         0.00000E+00
   -0.35835E+06         0.18846E+08         0.00000E+00
    0.00000E+00         0.00000E+00         0.61823E+07
 
    0.11528E+08        -0.37231E+06         0.00000E+00
   -0.37231E+06         0.18824E+08         0.00000E+00
    0.00000E+00         0.00000E+00         0.61315E+07
 
    0.11326E+08        -0.37733E+06         0.00000E+00
   -0.37733E+06         0.18796E+08         0.00000E+00
    0.00000E+00         0.00000E+00         0.60762E+07
 
    0.11129E+08        -0.37611E+06         0.00000E+00
   -0.37611E+06         0.18764E+08         0.00000E+00
    0.00000E+00         0.00000E+00         0.60189E+07
 
    0.10938E+08        -0.37080E+06         0.00000E+00
   -0.37080E+06         0.18728E+08         0.00000E+00
    0.00000E+00         0.00000E+00         0.59607E+07
 
    0.10754E+08        -0.36352E+06         0.00000E+00
   -0.36352E+06         0.18690E+08         0.00000E+00
    0.00000E+00         0.00000E+00         0.59020E+07
 
    0.10576E+08        -0.35556E+06         0.00000E+00
   -0.35556E+06         0.18649E+08         0.00000E+00
    0.00000E+00         0.00000E+00         0.58454E+07
 
    0.10406E+08        -0.34636E+06         0.00000E+00
   -0.34636E+06         0.18604E+08         0.00000E+00
    0.00000E+00         0.00000E+00         0.58019E+07
 
    0.10241E+08        -0.33589E+06         0.00000E+00
   -0.33589E+06         0.18558E+08         0.00000E+00
    0.00000E+00         0.00000E+00         0.57598E+07
 
    0.10081E+08        -0.32462E+06         0.00000E+00
   -0.32462E+06         0.18513E+08         0.00000E+00
    0.00000E+00         0.00000E+00         0.57189E+07
 
    0.99271E+07        -0.31258E+06         0.00000E+00
   -0.31258E+06         0.18473E+08         0.00000E+00
    0.00000E+00         0.00000E+00         0.56799E+07
 
    0.97788E+07        -0.29967E+06         0.00000E+00
   -0.29967E+06         0.18437E+08         0.00000E+00
    0.00000E+00         0.00000E+00         0.56432E+07
 
    0.96344E+07        -0.28635E+06         0.00000E+00
   -0.28635E+06         0.18402E+08         0.00000E+00
    0.00000E+00         0.00000E+00         0.56074E+07
 
    0.94932E+07        -0.27291E+06         0.00000E+00
   -0.27291E+06         0.18370E+08         0.00000E+00
    0.00000E+00         0.00000E+00         0.55726E+07
 
    0.93543E+07        -0.25916E+06         0.00000E+00
   -0.25916E+06         0.18339E+08         0.00000E+00
    0.00000E+00         0.00000E+00         0.55387E+07
 
    0.92170E+07        -0.24496E+06         0.00000E+00
   -0.24496E+06         0.18310E+08         0.00000E+00
    0.00000E+00         0.00000E+00         0.55055E+07
 
    0.90808E+07        -0.23021E+06         0.00000E+00
   -0.23021E+06         0.18284E+08         0.00000E+00
    0.00000E+00         0.00000E+00         0.54729E+07
 
    0.89453E+07        -0.21480E+06         0.00000E+00
   -0.21480E+06         0.18259E+08         0.00000E+00
    0.00000E+00         0.00000E+00         0.54408E+07
 
    0.88098E+07        -0.19862E+06         0.00000E+00
   -0.19862E+06         0.18236E+08         0.00000E+00
    0.00000E+00         0.00000E+00         0.54092E+07
 
    0.86741E+07        -0.18153E+06         0.00000E+00
   -0.18153E+06         0.18216E+08         0.00000E+00
    0.00000E+00         0.00000E+00         0.53779E+07
 
    0.85376E+07        -0.16336E+06         0.00000E+00
   -0.16336E+06         0.18197E+08         0.00000E+00
    0.00000E+00         0.00000E+00         0.53470E+07
 
    0.84000E+07        -0.14389E+06         0.00000E+00
   -0.14389E+06         0.18181E+08         0.00000E+00
    0.00000E+00         0.00000E+00         0.53163E+07
 
    0.82609E+07        -0.12284E+06         0.00000E+00
   -0.12284E+06         0.18168E+08         0.00000E+00
    0.00000E+00         0.00000E+00         0.52858E+07
 
    0.81199E+07        -0.99820E+05         0.00000E+00
   -0.99820E+05         0.18157E+08         0.00000E+00
    0.00000E+00         0.00000E+00         0.52554E+07
 
    0.79770E+07        -0.74348E+05         0.00000E+00
   -0.74348E+05         0.18149E+08         0.00000E+00
    0.00000E+00         0.00000E+00         0.52251E+07
 
    0.78323E+07        -0.45774E+05         0.00000E+00
   -0.45774E+05         0.18143E+08         0.00000E+00
    0.00000E+00         0.00000E+00         0.51950E+07
 
    0.76847E+07        -0.15472E+05         0.00000E+00
   -0.15472E+05         0.18141E+08         0.00000E+00
    0.00000E+00         0.00000E+00         0.51651E+07
 
    0.75443E+07         0.16983E+05         0.00000E+00
    0.16983E+05         0.18144E+08         0.00000E+00
    0.00000E+00         0.00000E+00         0.51588E+07
 
    0.74074E+07         0.52932E+05         0.00000E+00
    0.52932E+05         0.18139E+08         0.00000E+00
    0.00000E+00         0.00000E+00         0.51752E+07
 
    0.72822E+07         0.89374E+05         0.00000E+00
    0.89374E+05         0.18136E+08         0.00000E+00
    0.00000E+00         0.00000E+00         0.52233E+07
 
    0.71715E+07         0.12112E+06         0.00000E+00
    0.12112E+06         0.18144E+08         0.00000E+00
    0.00000E+00         0.00000E+00         0.52980E+07
 
    0.70769E+07         0.14533E+06         0.00000E+00
    0.14533E+06         0.18160E+08         0.00000E+00
    0.00000E+00         0.00000E+00         0.53888E+07
 
    0.69948E+07         0.16595E+06         0.00000E+00
    0.16595E+06         0.18178E+08         0.00000E+00
    0.00000E+00         0.00000E+00         0.54825E+07
 
    0.69261E+07         0.18832E+06         0.00000E+00
    0.18832E+06         0.18201E+08         0.00000E+00
    0.00000E+00         0.00000E+00         0.55833E+07
 
    0.68685E+07         0.21262E+06         0.00000E+00
    0.21262E+06         0.18227E+08         0.00000E+00
    0.00000E+00         0.00000E+00         0.56927E+07
 
    0.68207E+07         0.23919E+06         0.00000E+00
    0.23919E+06         0.18256E+08         0.00000E+00
    0.00000E+00         0.00000E+00         0.58082E+07
 
    0.67834E+07         0.26901E+06         0.00000E+00
    0.26901E+06         0.18289E+08         0.00000E+00
    0.00000E+00         0.00000E+00         0.59304E+07
 
    0.67586E+07         0.30353E+06         0.00000E+00
    0.30353E+06         0.18325E+08         0.00000E+00
    0.00000E+00         0.00000E+00         0.60598E+07
 
    0.67464E+07         0.34349E+06         0.00000E+00
    0.34349E+06         0.18367E+08         0.00000E+00
    0.00000E+00         0.00000E+00         0.61992E+07
 
    0.67464E+07         0.38994E+06         0.00000E+00
    0.38994E+06         0.18413E+08         0.00000E+00
    0.00000E+00         0.00000E+00         0.63501E+07
 
    0.67649E+07         0.44468E+06         0.00000E+00
    0.44468E+06         0.18465E+08         0.00000E+00
    0.00000E+00         0.00000E+00         0.65084E+07
 
    0.68072E+07         0.50923E+06         0.00000E+00
    0.50923E+06         0.18523E+08         0.00000E+00
    0.00000E+00         0.00000E+00         0.66731E+07
 
    0.68832E+07         0.58359E+06         0.00000E+00
    0.58359E+06         0.18590E+08         0.00000E+00
    0.00000E+00         0.00000E+00         0.68447E+07
 
    0.11832E+08        -0.16009E+05         0.00000E+00
   -0.16009E+05         0.18042E+08         0.00000E+00
    0.00000E+00         0.00000E+00         0.59748E+07
 
    0.11701E+08        -0.75421E+05         0.00000E+00
   -0.75421E+05         0.18033E+08         0.00000E+00
    0.00000E+00         0.00000E+00         0.59469E+07
 
    0.11570E+08        -0.14100E+06         0.00000E+00
   -0.14100E+06         0.18034E+08         0.00000E+00
    0.00000E+00         0.00000E+00         0.59207E+07
 
    0.11432E+08        -0.20418E+06         0.00000E+00
   -0.20418E+06         0.18039E+08         0.00000E+00
    0.00000E+00         0.00000E+00         0.58942E+07
 
    0.11287E+08        -0.26079E+06         0.00000E+00
   -0.26079E+06         0.18045E+08         0.00000E+00
    0.00000E+00         0.00000E+00         0.58665E+07
 
    0.11136E+08        -0.31212E+06         0.00000E+00
   -0.31212E+06         0.18041E+08         0.00000E+00
    0.00000E+00         0.00000E+00         0.58353E+07
 
    0.10980E+08        -0.35835E+06         0.00000E+00
   -0.35835E+06         0.18039E+08         0.00000E+00
    0.00000E+00         0.00000E+00         0.58038E+07
 
    0.10819E+08        -0.39745E+06         0.00000E+00
   -0.39745E+06         0.18039E+08         0.00000E+00
    0.00000E+00         0.00000E+00         0.57716E+07
 
    0.10656E+08        -0.42933E+06         0.00000E+00
   -0.42933E+06         0.18037E+08         0.00000E+00
    0.00000E+00         0.00000E+00         0.57385E+07
 
    0.10490E+08        -0.45402E+06         0.00000E+00
   -0.45402E+06         0.18034E+08         0.00000E+00
    0.00000E+00         0.00000E+00         0.57048E+07
 
    0.10323E+08        -0.47145E+06         0.00000E+00
   -0.47145E+06         0.18030E+08         0.00000E+00
    0.00000E+00         0.00000E+00         0.56705E+07
 
    0.10157E+08        -0.48206E+06         0.00000E+00
   -0.48206E+06         0.18023E+08         0.00000E+00
    0.00000E+00         0.00000E+00         0.56359E+07
 
    0.99920E+07        -0.48636E+06         0.00000E+00
   -0.48636E+06         0.18014E+08         0.00000E+00
    0.00000E+00         0.00000E+00         0.56012E+07
 
    0.98303E+07        -0.48491E+06         0.00000E+00
   -0.48491E+06         0.18004E+08         0.00000E+00
    0.00000E+00         0.00000E+00         0.55668E+07
 
    0.96723E+07        -0.47890E+06         0.00000E+00
   -0.47890E+06         0.17992E+08         0.00000E+00
    0.00000E+00         0.00000E+00         0.55328E+07
 
    0.95182E+07        -0.46940E+06         0.00000E+00
   -0.46940E+06         0.17978E+08         0.00000E+00
    0.00000E+00         0.00000E+00         0.54993E+07
 
    0.93680E+07        -0.45674E+06         0.00000E+00
   -0.45674E+06         0.17965E+08         0.00000E+00
    0.00000E+00         0.00000E+00         0.54666E+07
 
    0.92214E+07        -0.44149E+06         0.00000E+00
   -0.44149E+06         0.17950E+08         0.00000E+00
    0.00000E+00         0.00000E+00         0.54344E+07
 
    0.90782E+07        -0.42440E+06         0.00000E+00
   -0.42440E+06         0.17935E+08         0.00000E+00
    0.00000E+00         0.00000E+00         0.54026E+07
 
    0.89382E+07        -0.40584E+06         0.00000E+00
   -0.40584E+06         0.17920E+08         0.00000E+00
    0.00000E+00         0.00000E+00         0.53716E+07
 
    0.88007E+07        -0.38592E+06         0.00000E+00
   -0.38592E+06         0.17905E+08         0.00000E+00
    0.00000E+00         0.00000E+00         0.53412E+07
 
    0.86655E+07        -0.36483E+06         0.00000E+00
   -0.36483E+06         0.17891E+08         0.00000E+00
    0.00000E+00         0.00000E+00         0.53113E+07
 
    0.85320E+07        -0.34263E+06         0.00000E+00
   -0.34263E+06         0.17878E+08         0.00000E+00
    0.00000E+00         0.00000E+00         0.52821E+07
 
    0.83999E+07        -0.31934E+06         0.00000E+00
   -0.31934E+06         0.17867E+08         0.00000E+00
    0.00000E+00         0.00000E+00         0.52533E+07
 
    0.82689E+07        -0.29490E+06         0.00000E+00
   -0.29490E+06         0.17856E+08         0.00000E+00
    0.00000E+00         0.00000E+00         0.52250E+07
 
    0.81385E+07        -0.26924E+06         0.00000E+00
   -0.26924E+06         0.17847E+08         0.00000E+00
    0.00000E+00         0.00000E+00         0.51972E+07
 
    0.80085E+07        -0.24225E+06         0.00000E+00
   -0.24225E+06         0.17840E+08         0.00000E+00
    0.00000E+00         0.00000E+00         0.51697E+07
 
    0.78788E+07        -0.21377E+06         0.00000E+00
   -0.21377E+06         0.17834E+08         0.00000E+00
    0.00000E+00         0.00000E+00         0.51426E+07
 
    0.77489E+07        -0.18365E+06         0.00000E+00
   -0.18365E+06         0.17830E+08         0.00000E+00
    0.00000E+00         0.00000E+00         0.51158E+07
 
    0.76189E+07        -0.15168E+06         0.00000E+00
   -0.15168E+06         0.17828E+08         0.00000E+00
    0.00000E+00         0.00000E+00         0.50893E+07
 
    0.74886E+07        -0.11766E+06         0.00000E+00
   -0.11766E+06         0.17827E+08         0.00000E+00
    0.00000E+00         0.00000E+00         0.50631E+07
 
    0.73578E+07        -0.81389E+05         0.00000E+00
   -0.81389E+05         0.17828E+08         0.00000E+00
    0.00000E+00         0.00000E+00         0.50372E+07
 
    0.72266E+07        -0.42736E+05         0.00000E+00
   -0.42736E+05         0.17831E+08         0.00000E+00
    0.00000E+00         0.00000E+00         0.50114E+07
 
    0.70950E+07        -0.10542E+04         0.00000E+00
   -0.10542E+04         0.17834E+08         0.00000E+00
    0.00000E+00         0.00000E+00         0.49859E+07
 
    0.69617E+07         0.42269E+05         0.00000E+00
    0.42269E+05         0.17835E+08         0.00000E+00
    0.00000E+00         0.00000E+00         0.49593E+07
 
    0.68265E+07         0.85459E+05         0.00000E+00
    0.85459E+05         0.17846E+08         0.00000E+00
    0.00000E+00         0.00000E+00         0.49346E+07
 
    0.66958E+07         0.13063E+06         0.00000E+00
    0.13063E+06         0.17865E+08         0.00000E+00
    0.00000E+00         0.00000E+00         0.49296E+07
 
    0.65713E+07         0.18070E+06         0.00000E+00
    0.18070E+06         0.17877E+08         0.00000E+00
    0.00000E+00         0.00000E+00         0.49527E+07
 
    0.64596E+07         0.23445E+06         0.00000E+00
    0.23445E+06         0.17873E+08         0.00000E+00
    0.00000E+00         0.00000E+00         0.50120E+07
 
    0.63740E+07         0.28572E+06         0.00000E+00
    0.28572E+06         0.17889E+08         0.00000E+00
    0.00000E+00         0.00000E+00         0.51141E+07
 
    0.63071E+07         0.32957E+06         0.00000E+00
    0.32957E+06         0.17914E+08         0.00000E+00
    0.00000E+00         0.00000E+00         0.52349E+07
 
    0.62555E+07         0.36979E+06         0.00000E+00
    0.36979E+06         0.17943E+08         0.00000E+00
    0.00000E+00         0.00000E+00         0.53599E+07
 
    0.62230E+07         0.41149E+06         0.00000E+00
    0.41149E+06         0.17977E+08         0.00000E+00
    0.00000E+00         0.00000E+00         0.54903E+07
 
    0.62077E+07         0.45791E+06         0.00000E+00
    0.45791E+06         0.18014E+08         0.00000E+00
    0.00000E+00         0.00000E+00         0.56244E+07
 
    0.62086E+07         0.50924E+06         0.00000E+00
    0.50924E+06         0.18055E+08         0.00000E+00
    0.00000E+00         0.00000E+00         0.57609E+07
 
    0.62234E+07         0.56583E+06         0.00000E+00
    0.56583E+06         0.18097E+08         0.00000E+00
    0.00000E+00         0.00000E+00         0.58958E+07
 
    0.62540E+07         0.62862E+06         0.00000E+00
    0.62862E+06         0.18141E+08         0.00000E+00
    0.00000E+00         0.00000E+00         0.60307E+07
 
    0.63023E+07         0.69566E+06         0.00000E+00
    0.69566E+06         0.18188E+08         0.00000E+00
    0.00000E+00         0.00000E+00         0.61648E+07
 
    0.63664E+07         0.76484E+06         0.00000E+00
    0.76484E+06         0.18237E+08         0.00000E+00
    0.00000E+00         0.00000E+00         0.62942E+07
 
    0.64348E+07         0.83238E+06         0.00000E+00
    0.83238E+06         0.18282E+08         0.00000E+00
    0.00000E+00         0.00000E+00         0.64128E+07
 
    0.10757E+08        -0.44171E+05         0.00000E+00
   -0.44171E+05         0.17299E+08         0.00000E+00
    0.00000E+00         0.00000E+00         0.56111E+07
 
    0.10628E+08        -0.10590E+06         0.00000E+00
   -0.10590E+06         0.17295E+08         0.00000E+00
    0.00000E+00         0.00000E+00         0.55846E+07
 
    0.10504E+08        -0.16257E+06         0.00000E+00
   -0.16257E+06         0.17290E+08         0.00000E+00
    0.00000E+00         0.00000E+00         0.55586E+07
 
    0.10381E+08        -0.21619E+06         0.00000E+00
   -0.21619E+06         0.17285E+08         0.00000E+00
    0.00000E+00         0.00000E+00         0.55331E+07
 
    0.10257E+08        -0.26697E+06         0.00000E+00
   -0.26697E+06         0.17281E+08         0.00000E+00
    0.00000E+00         0.00000E+00         0.55078E+07
 
    0.10132E+08        -0.31336E+06         0.00000E+00
   -0.31336E+06         0.17282E+08         0.00000E+00
    0.00000E+00         0.00000E+00         0.54829E+07
 
    0.10004E+08        -0.35441E+06         0.00000E+00
   -0.35441E+06         0.17284E+08         0.00000E+00
    0.00000E+00         0.00000E+00         0.54576E+07
 
    0.98738E+07        -0.39033E+06         0.00000E+00
   -0.39033E+06         0.17287E+08         0.00000E+00
    0.00000E+00         0.00000E+00         0.54321E+07
 
    0.97413E+07        -0.42085E+06         0.00000E+00
   -0.42085E+06         0.17290E+08         0.00000E+00
    0.00000E+00         0.00000E+00         0.54063E+07
 
    0.96069E+07        -0.44581E+06         0.00000E+00
   -0.44581E+06         0.17295E+08         0.00000E+00
    0.00000E+00         0.00000E+00         0.53804E+07
 
    0.94712E+07        -0.46520E+06         0.00000E+00
   -0.46520E+06         0.17300E+08         0.00000E+00
    0.00000E+00         0.00000E+00         0.53543E+07
 
    0.93345E+07        -0.47903E+06         0.00000E+00
   -0.47903E+06         0.17306E+08         0.00000E+00
    0.00000E+00         0.00000E+00         0.53280E+07
 
    0.91975E+07        -0.48748E+06         0.00000E+00
   -0.48748E+06         0.17311E+08         0.00000E+00
    0.00000E+00         0.00000E+00         0.53018E+07
 
    0.90607E+07        -0.49089E+06         0.00000E+00
   -0.49089E+06         0.17316E+08         0.00000E+00
    0.00000E+00         0.00000E+00         0.52754E+07
 
    0.89245E+07        -0.48955E+06         0.00000E+00
   -0.48955E+06         0.17321E+08         0.00000E+00
    0.00000E+00         0.00000E+00         0.52492E+07
 
    0.87893E+07        -0.48381E+06         0.00000E+00
   -0.48381E+06         0.17326E+08         0.00000E+00
    0.00000E+00         0.00000E+00         0.52230E+07
 
    0.86554E+07        -0.47422E+06         0.00000E+00
   -0.47422E+06         0.17330E+08         0.00000E+00
    0.00000E+00         0.00000E+00         0.51970E+07
 
    0.85228E+07        -0.46119E+06         0.00000E+00
   -0.46119E+06         0.17334E+08         0.00000E+00
    0.00000E+00         0.00000E+00         0.51713E+07
 
    0.83918E+07        -0.44497E+06         0.00000E+00
   -0.44497E+06         0.17337E+08         0.00000E+00
    0.00000E+00         0.00000E+00         0.51458E+07
 
    0.82622E+07        -0.42589E+06         0.00000E+00
   -0.42589E+06         0.17341E+08         0.00000E+00
    0.00000E+00         0.00000E+00         0.51206E+07
 
    0.81341E+07        -0.40427E+06         0.00000E+00
   -0.40427E+06         0.17345E+08         0.00000E+00
    0.00000E+00         0.00000E+00         0.50957E+07
 
    0.80074E+07        -0.38033E+06         0.00000E+00
   -0.38033E+06         0.17349E+08         0.00000E+00
    0.00000E+00         0.00000E+00         0.50712E+07
 
    0.78820E+07        -0.35425E+06         0.00000E+00
   -0.35425E+06         0.17353E+08         0.00000E+00
    0.00000E+00         0.00000E+00         0.50470E+07
 
    0.77576E+07        -0.32618E+06         0.00000E+00
   -0.32618E+06         0.17358E+08         0.00000E+00
    0.00000E+00         0.00000E+00         0.50231E+07
 
    0.76343E+07        -0.29619E+06         0.00000E+00
   -0.29619E+06         0.17364E+08         0.00000E+00
    0.00000E+00         0.00000E+00         0.49997E+07
 
    0.75118E+07        -0.26433E+06         0.00000E+00
   -0.26433E+06         0.17371E+08         0.00000E+00
    0.00000E+00         0.00000E+00         0.49765E+07
 
    0.73900E+07        -0.23062E+06         0.00000E+00
   -0.23062E+06         0.17379E+08         0.00000E+00
    0.00000E+00         0.00000E+00         0.49537E+07
 
    0.72689E+07        -0.19503E+06         0.00000E+00
   -0.19503E+06         0.17388E+08         0.00000E+00
    0.00000E+00         0.00000E+00         0.49313E+07
 
    0.71483E+07        -0.15754E+06         0.00000E+00
   -0.15754E+06         0.17398E+08         0.00000E+00
    0.00000E+00         0.00000E+00         0.49092E+07
 
    0.70281E+07        -0.11807E+06         0.00000E+00
   -0.11807E+06         0.17409E+08         0.00000E+00
    0.00000E+00         0.00000E+00         0.48874E+07
 
    0.69084E+07        -0.76542E+05         0.00000E+00
   -0.76542E+05         0.17422E+08         0.00000E+00
    0.00000E+00         0.00000E+00         0.48660E+07
 
    0.67890E+07        -0.32866E+05         0.00000E+00
   -0.32866E+05         0.17436E+08         0.00000E+00
    0.00000E+00         0.00000E+00         0.48449E+07
 
    0.66699E+07         0.13107E+05         0.00000E+00
    0.13107E+05         0.17451E+08         0.00000E+00
    0.00000E+00         0.00000E+00         0.48242E+07
 
    0.65510E+07         0.61392E+05         0.00000E+00
    0.61392E+05         0.17467E+08         0.00000E+00
    0.00000E+00         0.00000E+00         0.48036E+07
 
    0.64325E+07         0.11278E+06         0.00000E+00
    0.11278E+06         0.17486E+08         0.00000E+00
    0.00000E+00         0.00000E+00         0.47837E+07
 
    0.63148E+07         0.16804E+06         0.00000E+00
    0.16804E+06         0.17504E+08         0.00000E+00
    0.00000E+00         0.00000E+00         0.47638E+07
 
    0.61975E+07         0.22551E+06         0.00000E+00
    0.22551E+06         0.17519E+08         0.00000E+00
    0.00000E+00         0.00000E+00         0.47434E+07
 
    0.60792E+07         0.28269E+06         0.00000E+00
    0.28269E+06         0.17539E+08         0.00000E+00
    0.00000E+00         0.00000E+00         0.47236E+07
 
    0.59615E+07         0.34047E+06         0.00000E+00
    0.34047E+06         0.17582E+08         0.00000E+00
    0.00000E+00         0.00000E+00         0.47137E+07
 
    0.58643E+07         0.40363E+06         0.00000E+00
    0.40363E+06         0.17618E+08         0.00000E+00
    0.00000E+00         0.00000E+00         0.47481E+07
 
    0.57875E+07         0.47286E+06         0.00000E+00
    0.47286E+06         0.17623E+08         0.00000E+00
    0.00000E+00         0.00000E+00         0.48250E+07
 
    0.57381E+07         0.54394E+06         0.00000E+00
    0.54394E+06         0.17644E+08         0.00000E+00
    0.00000E+00         0.00000E+00         0.49423E+07
 
    0.57107E+07         0.61048E+06         0.00000E+00
    0.61048E+06         0.17677E+08         0.00000E+00
    0.00000E+00         0.00000E+00         0.50821E+07
 
    0.57064E+07         0.67009E+06         0.00000E+00
    0.67009E+06         0.17718E+08         0.00000E+00
    0.00000E+00         0.00000E+00         0.52323E+07
 
    0.57193E+07         0.72639E+06         0.00000E+00
    0.72639E+06         0.17760E+08         0.00000E+00
    0.00000E+00         0.00000E+00         0.53759E+07
 
    0.57548E+07         0.78481E+06         0.00000E+00
    0.78481E+06         0.17807E+08         0.00000E+00
    0.00000E+00         0.00000E+00         0.55176E+07
 
    0.58035E+07         0.84561E+06         0.00000E+00
    0.84561E+06         0.17853E+08         0.00000E+00
    0.00000E+00         0.00000E+00         0.56505E+07
 
    0.58606E+07         0.91056E+06         0.00000E+00
    0.91056E+06         0.17896E+08         0.00000E+00
    0.00000E+00         0.00000E+00         0.57729E+07
 
    0.59248E+07         0.97712E+06         0.00000E+00
    0.97712E+06         0.17936E+08         0.00000E+00
    0.00000E+00         0.00000E+00         0.58850E+07
 
    0.60007E+07         0.10438E+07         0.00000E+00
    0.10438E+07         0.17977E+08         0.00000E+00
    0.00000E+00         0.00000E+00         0.59911E+07
 
    0.96443E+07        -0.39642E+05         0.00000E+00
   -0.39642E+05         0.16522E+08         0.00000E+00
    0.00000E+00         0.00000E+00         0.52332E+07
 
    0.95533E+07        -0.10404E+06         0.00000E+00
   -0.10404E+06         0.16524E+08         0.00000E+00
    0.00000E+00         0.00000E+00         0.52155E+07
 
    0.94588E+07        -0.16122E+06         0.00000E+00
   -0.16122E+06         0.16527E+08         0.00000E+00
    0.00000E+00         0.00000E+00         0.51972E+07
 
    0.93617E+07        -0.21180E+06         0.00000E+00
   -0.21180E+06         0.16531E+08         0.00000E+00
    0.00000E+00         0.00000E+00         0.51784E+07
 
    0.92627E+07        -0.25641E+06         0.00000E+00
   -0.25641E+06         0.16535E+08         0.00000E+00
    0.00000E+00         0.00000E+00         0.51595E+07
 
    0.91618E+07        -0.29581E+06         0.00000E+00
   -0.29581E+06         0.16540E+08         0.00000E+00
    0.00000E+00         0.00000E+00         0.51403E+07
 
    0.90589E+07        -0.33037E+06         0.00000E+00
   -0.33037E+06         0.16546E+08         0.00000E+00
    0.00000E+00         0.00000E+00         0.51210E+07
 
    0.89540E+07        -0.36003E+06         0.00000E+00
   -0.36003E+06         0.16554E+08         0.00000E+00
    0.00000E+00         0.00000E+00         0.51015E+07
 
    0.88471E+07        -0.38485E+06         0.00000E+00
   -0.38485E+06         0.16563E+08         0.00000E+00
    0.00000E+00         0.00000E+00         0.50819E+07
 
    0.87383E+07        -0.40490E+06         0.00000E+00
   -0.40490E+06         0.16573E+08         0.00000E+00
    0.00000E+00         0.00000E+00         0.50622E+07
 
    0.86280E+07        -0.42025E+06         0.00000E+00
   -0.42025E+06         0.16584E+08         0.00000E+00
    0.00000E+00         0.00000E+00         0.50423E+07
 
    0.85162E+07        -0.43100E+06         0.00000E+00
   -0.43100E+06         0.16595E+08         0.00000E+00
    0.00000E+00         0.00000E+00         0.50223E+07
 
    0.84032E+07        -0.43726E+06         0.00000E+00
   -0.43726E+06         0.16608E+08         0.00000E+00
    0.00000E+00         0.00000E+00         0.50023E+07
 
    0.82894E+07        -0.43914E+06         0.00000E+00
   -0.43914E+06         0.16622E+08         0.00000E+00
    0.00000E+00         0.00000E+00         0.49822E+07
 
    0.81748E+07        -0.43680E+06         0.00000E+00
   -0.43680E+06         0.16636E+08         0.00000E+00
    0.00000E+00         0.00000E+00         0.49621E+07
 
    0.80599E+07        -0.43044E+06         0.00000E+00
   -0.43044E+06         0.16650E+08         0.00000E+00
    0.00000E+00         0.00000E+00         0.49420E+07
 
    0.79447E+07        -0.42020E+06         0.00000E+00
   -0.42020E+06         0.16665E+08         0.00000E+00
    0.00000E+00         0.00000E+00         0.49219E+07
 
    0.78295E+07        -0.40629E+06         0.00000E+00
   -0.40629E+06         0.16680E+08         0.00000E+00
    0.00000E+00         0.00000E+00         0.49020E+07
 
    0.77145E+07        -0.38895E+06         0.00000E+00
   -0.38895E+06         0.16696E+08         0.00000E+00
    0.00000E+00         0.00000E+00         0.48821E+07
 
    0.75997E+07        -0.36836E+06         0.00000E+00
   -0.36836E+06         0.16712E+08         0.00000E+00
    0.00000E+00         0.00000E+00         0.48624E+07
 
    0.74854E+07        -0.34471E+06         0.00000E+00
   -0.34471E+06         0.16729E+08         0.00000E+00
    0.00000E+00         0.00000E+00         0.48428E+07
 
    0.73715E+07        -0.31817E+06         0.00000E+00
   -0.31817E+06         0.16746E+08         0.00000E+00
    0.00000E+00         0.00000E+00         0.48235E+07
 
    0.72581E+07        -0.28889E+06         0.00000E+00
   -0.28889E+06         0.16764E+08         0.00000E+00
    0.00000E+00         0.00000E+00         0.48044E+07
 
    0.71452E+07        -0.25700E+06         0.00000E+00
   -0.25700E+06         0.16782E+08         0.00000E+00
    0.00000E+00         0.00000E+00         0.47855E+07
 
    0.70329E+07        -0.22262E+06         0.00000E+00
   -0.22262E+06         0.16802E+08         0.00000E+00
    0.00000E+00         0.00000E+00         0.47670E+07
 
    0.69212E+07        -0.18583E+06         0.00000E+00
   -0.18583E+06         0.16822E+08         0.00000E+00
    0.00000E+00         0.00000E+00         0.47487E+07
 
    0.68100E+07        -0.14671E+06         0.00000E+00
   -0.14671E+06         0.16843E+08         0.00000E+00
    0.00000E+00         0.00000E+00         0.47307E+07
 
    0.66995E+07        -0.10528E+06         0.00000E+00
   -0.10528E+06         0.16866E+08         0.00000E+00
    0.00000E+00         0.00000E+00         0.47130E+07
 
    0.65896E+07        -0.61581E+05         0.00000E+00
   -0.61581E+05         0.16889E+08         0.00000E+00
    0.00000E+00         0.00000E+00         0.46957E+07
 
    0.64804E+07        -0.15614E+05         0.00000E+00
   -0.15614E+05         0.16914E+08         0.00000E+00
    0.00000E+00         0.00000E+00         0.46788E+07
 
    0.63719E+07         0.32639E+05         0.00000E+00
    0.32639E+05         0.16940E+08         0.00000E+00
    0.00000E+00         0.00000E+00         0.46623E+07
 
    0.62643E+07         0.83220E+05         0.00000E+00
    0.83220E+05         0.16967E+08         0.00000E+00
    0.00000E+00         0.00000E+00         0.46462E+07
 
    0.61576E+07         0.13619E+06         0.00000E+00
    0.13619E+06         0.16995E+08         0.00000E+00
    0.00000E+00         0.00000E+00         0.46306E+07
 
    0.60521E+07         0.19170E+06         0.00000E+00
    0.19170E+06         0.17025E+08         0.00000E+00
    0.00000E+00         0.00000E+00         0.46155E+07
 
    0.59478E+07         0.24967E+06         0.00000E+00
    0.24967E+06         0.17057E+08         0.00000E+00
    0.00000E+00         0.00000E+00         0.46009E+07
 
    0.58449E+07         0.31010E+06         0.00000E+00
    0.31010E+06         0.17089E+08         0.00000E+00
    0.00000E+00         0.00000E+00         0.45869E+07
 
    0.57439E+07         0.37380E+06         0.00000E+00
    0.37380E+06         0.17125E+08         0.00000E+00
    0.00000E+00         0.00000E+00         0.45737E+07
 
    0.56459E+07         0.44187E+06         0.00000E+00
    0.44187E+06         0.17160E+08         0.00000E+00
    0.00000E+00         0.00000E+00         0.45613E+07
 
    0.55520E+07         0.51370E+06         0.00000E+00
    0.51370E+06         0.17192E+08         0.00000E+00
    0.00000E+00         0.00000E+00         0.45488E+07
 
    0.54602E+07         0.58439E+06         0.00000E+00
    0.58439E+06         0.17218E+08         0.00000E+00
    0.00000E+00         0.00000E+00         0.45355E+07
 
    0.53733E+07         0.65325E+06         0.00000E+00
    0.65325E+06         0.17280E+08         0.00000E+00
    0.00000E+00         0.00000E+00         0.45306E+07
 
    0.53113E+07         0.72367E+06         0.00000E+00
    0.72367E+06         0.17338E+08         0.00000E+00
    0.00000E+00         0.00000E+00         0.45666E+07
 
    0.52693E+07         0.79924E+06         0.00000E+00
    0.79924E+06         0.17378E+08         0.00000E+00
    0.00000E+00         0.00000E+00         0.46368E+07
 
    0.52479E+07         0.87733E+06         0.00000E+00
    0.87733E+06         0.17391E+08         0.00000E+00
    0.00000E+00         0.00000E+00         0.47370E+07
 
    0.52625E+07         0.95502E+06         0.00000E+00
    0.95502E+06         0.17427E+08         0.00000E+00
    0.00000E+00         0.00000E+00         0.48780E+07
 
    0.52886E+07         0.10231E+07         0.00000E+00
    0.10231E+07         0.17467E+08         0.00000E+00
    0.00000E+00         0.00000E+00         0.50242E+07
 
    0.53371E+07         0.10813E+07         0.00000E+00
    0.10813E+07         0.17516E+08         0.00000E+00
    0.00000E+00         0.00000E+00         0.51749E+07
 
    0.54015E+07         0.11311E+07         0.00000E+00
    0.11311E+07         0.17568E+08         0.00000E+00
    0.00000E+00         0.00000E+00         0.53155E+07
 
    0.54760E+07         0.11806E+07         0.00000E+00
    0.11806E+07         0.17616E+08         0.00000E+00
    0.00000E+00         0.00000E+00         0.54392E+07
 
    0.55583E+07         0.12375E+07         0.00000E+00
    0.12375E+07         0.17660E+08         0.00000E+00
    0.00000E+00         0.00000E+00         0.55492E+07
 
    0.85692E+07        -0.34921E+05         0.00000E+00
   -0.34921E+05         0.15762E+08         0.00000E+00
    0.00000E+00         0.00000E+00         0.48662E+07
 
    0.85097E+07        -0.89654E+05         0.00000E+00
   -0.89654E+05         0.15764E+08         0.00000E+00
    0.00000E+00         0.00000E+00         0.48548E+07
 
    0.84460E+07        -0.13875E+06         0.00000E+00
   -0.13875E+06         0.15769E+08         0.00000E+00
    0.00000E+00         0.00000E+00         0.48429E+07
 
    0.83783E+07        -0.18231E+06         0.00000E+00
   -0.18231E+06         0.15775E+08         0.00000E+00
    0.00000E+00         0.00000E+00         0.48306E+07
 
    0.83067E+07        -0.22051E+06         0.00000E+00
   -0.22051E+06         0.15783E+08         0.00000E+00
    0.00000E+00         0.00000E+00         0.48179E+07
 
    0.82317E+07        -0.25349E+06         0.00000E+00
   -0.25349E+06         0.15792E+08         0.00000E+00
    0.00000E+00         0.00000E+00         0.48048E+07
 
    0.81536E+07        -0.28146E+06         0.00000E+00
   -0.28146E+06         0.15803E+08         0.00000E+00
    0.00000E+00         0.00000E+00         0.47914E+07
 
    0.80727E+07        -0.30468E+06         0.00000E+00
   -0.30468E+06         0.15816E+08         0.00000E+00
    0.00000E+00         0.00000E+00         0.47777E+07
 
    0.79893E+07        -0.32332E+06         0.00000E+00
   -0.32332E+06         0.15829E+08         0.00000E+00
    0.00000E+00         0.00000E+00         0.47637E+07
 
    0.79035E+07        -0.33751E+06         0.00000E+00
   -0.33751E+06         0.15844E+08         0.00000E+00
    0.00000E+00         0.00000E+00         0.47495E+07
 
    0.78155E+07        -0.34738E+06         0.00000E+00
   -0.34738E+06         0.15860E+08         0.00000E+00
    0.00000E+00         0.00000E+00         0.47351E+07
 
    0.77256E+07        -0.35304E+06         0.00000E+00
   -0.35304E+06         0.15877E+08         0.00000E+00
    0.00000E+00         0.00000E+00         0.47205E+07
 
    0.76340E+07        -0.35459E+06         0.00000E+00
   -0.35459E+06         0.15895E+08         0.00000E+00
    0.00000E+00         0.00000E+00         0.47058E+07
 
    0.75408E+07        -0.35216E+06         0.00000E+00
   -0.35216E+06         0.15914E+08         0.00000E+00
    0.00000E+00         0.00000E+00         0.46910E+07
 
    0.74463E+07        -0.34583E+06         0.00000E+00
   -0.34583E+06         0.15934E+08         0.00000E+00
    0.00000E+00         0.00000E+00         0.46761E+07
 
    0.73507E+07        -0.33573E+06         0.00000E+00
   -0.33573E+06         0.15955E+08         0.00000E+00
    0.00000E+00         0.00000E+00         0.46612E+07
 
    0.72540E+07        -0.32197E+06         0.00000E+00
   -0.32197E+06         0.15977E+08         0.00000E+00
    0.00000E+00         0.00000E+00         0.46462E+07
 
    0.71566E+07        -0.30466E+06         0.00000E+00
   -0.30466E+06         0.16000E+08         0.00000E+00
    0.00000E+00         0.00000E+00         0.46312E+07
 
    0.70586E+07        -0.28392E+06         0.00000E+00
   -0.28392E+06         0.16023E+08         0.00000E+00
    0.00000E+00         0.00000E+00         0.46163E+07
 
    0.69602E+07        -0.25985E+06         0.00000E+00
   -0.25985E+06         0.16047E+08         0.00000E+00
    0.00000E+00         0.00000E+00         0.46014E+07
 
    0.68614E+07        -0.23257E+06         0.00000E+00
   -0.23257E+06         0.16072E+08         0.00000E+00
    0.00000E+00         0.00000E+00         0.45867E+07
 
    0.67624E+07        -0.20218E+06         0.00000E+00
   -0.20218E+06         0.16098E+08         0.00000E+00
    0.00000E+00         0.00000E+00         0.45720E+07
 
    0.66633E+07        -0.16879E+06         0.00000E+00
   -0.16879E+06         0.16124E+08         0.00000E+00
    0.00000E+00         0.00000E+00         0.45575E+07
 
    0.65643E+07        -0.13247E+06         0.00000E+00
   -0.13247E+06         0.16152E+08         0.00000E+00
    0.00000E+00         0.00000E+00         0.45432E+07
 
    0.64654E+07        -0.93317E+05         0.00000E+00
   -0.93317E+05         0.16180E+08         0.00000E+00
    0.00000E+00         0.00000E+00         0.45290E+07
 
    0.63667E+07        -0.51390E+05         0.00000E+00
   -0.51390E+05         0.16209E+08         0.00000E+00
    0.00000E+00         0.00000E+00         0.45152E+07
 
    0.62684E+07        -0.67490E+04         0.00000E+00
   -0.67490E+04         0.16239E+08         0.00000E+00
    0.00000E+00         0.00000E+00         0.45015E+07
 
    0.61705E+07         0.40561E+05         0.00000E+00
    0.40561E+05         0.16271E+08         0.00000E+00
    0.00000E+00         0.00000E+00         0.44882E+07
 
    0.60731E+07         0.90506E+05         0.00000E+00
    0.90506E+05         0.16303E+08         0.00000E+00
    0.00000E+00         0.00000E+00         0.44752E+07
 
    0.59764E+07         0.14306E+06         0.00000E+00
    0.14306E+06         0.16337E+08         0.00000E+00
    0.00000E+00         0.00000E+00         0.44626E+07
 
    0.58806E+07         0.19822E+06         0.00000E+00
    0.19822E+06         0.16372E+08         0.00000E+00
    0.00000E+00         0.00000E+00         0.44505E+07
 
    0.57856E+07         0.25597E+06         0.00000E+00
    0.25597E+06         0.16408E+08         0.00000E+00
    0.00000E+00         0.00000E+00         0.44387E+07
 
    0.56919E+07         0.31633E+06         0.00000E+00
    0.31633E+06         0.16446E+08         0.00000E+00
    0.00000E+00         0.00000E+00         0.44275E+07
 
    0.55995E+07         0.37927E+06         0.00000E+00
    0.37927E+06         0.16485E+08         0.00000E+00
    0.00000E+00         0.00000E+00         0.44168E+07
 
    0.55088E+07         0.44486E+06         0.00000E+00
    0.44486E+06         0.16525E+08         0.00000E+00
    0.00000E+00         0.00000E+00         0.44068E+07
 
    0.54202E+07         0.51317E+06         0.00000E+00
    0.51317E+06         0.16567E+08         0.00000E+00
    0.00000E+00         0.00000E+00         0.43975E+07
 
    0.53341E+07         0.58402E+06         0.00000E+00
    0.58402E+06         0.16610E+08         0.00000E+00
    0.00000E+00         0.00000E+00         0.43889E+07
 
    0.52508E+07         0.65711E+06         0.00000E+00
    0.65711E+06         0.16655E+08         0.00000E+00
    0.00000E+00         0.00000E+00         0.43811E+07
 
    0.51708E+07         0.73263E+06         0.00000E+00
    0.73263E+06         0.16702E+08         0.00000E+00
    0.00000E+00         0.00000E+00         0.43745E+07
 
    0.50960E+07         0.81216E+06         0.00000E+00
    0.81216E+06         0.16752E+08         0.00000E+00
    0.00000E+00         0.00000E+00         0.43696E+07
 
    0.50273E+07         0.89510E+06         0.00000E+00
    0.89510E+06         0.16795E+08         0.00000E+00
    0.00000E+00         0.00000E+00         0.43645E+07
 
    0.49658E+07         0.97589E+06         0.00000E+00
    0.97589E+06         0.16833E+08         0.00000E+00
    0.00000E+00         0.00000E+00         0.43599E+07
 
    0.49111E+07         0.10508E+07         0.00000E+00
    0.10508E+07         0.16887E+08         0.00000E+00
    0.00000E+00         0.00000E+00         0.43597E+07
 
    0.48562E+07         0.11210E+07         0.00000E+00
    0.11210E+07         0.16970E+08         0.00000E+00
    0.00000E+00         0.00000E+00         0.43653E+07
 
    0.48393E+07         0.11890E+07         0.00000E+00
    0.11890E+07         0.17043E+08         0.00000E+00
    0.00000E+00         0.00000E+00         0.44233E+07
 
    0.48272E+07         0.12598E+07         0.00000E+00
    0.12598E+07         0.17107E+08         0.00000E+00
    0.00000E+00         0.00000E+00         0.44932E+07
 
    0.48494E+07         0.13266E+07         0.00000E+00
    0.13266E+07         0.17130E+08         0.00000E+00
    0.00000E+00         0.00000E+00         0.46042E+07
 
    0.48865E+07         0.13893E+07         0.00000E+00
    0.13893E+07         0.17162E+08         0.00000E+00
    0.00000E+00         0.00000E+00         0.47282E+07
 
    0.49614E+07         0.14412E+07         0.00000E+00
    0.14412E+07         0.17217E+08         0.00000E+00
    0.00000E+00         0.00000E+00         0.48827E+07
 
    0.50472E+07         0.14731E+07         0.00000E+00
    0.14731E+07         0.17277E+08         0.00000E+00
    0.00000E+00         0.00000E+00         0.50267E+07
 
    0.75600E+07        -0.27309E+05         0.00000E+00
   -0.27309E+05         0.15012E+08         0.00000E+00
    0.00000E+00         0.00000E+00         0.45144E+07
 
    0.75280E+07        -0.70437E+05         0.00000E+00
   -0.70437E+05         0.15015E+08         0.00000E+00
    0.00000E+00         0.00000E+00         0.45086E+07
 
    0.74905E+07        -0.10867E+06         0.00000E+00
   -0.10867E+06         0.15020E+08         0.00000E+00
    0.00000E+00         0.00000E+00         0.45022E+07
 
    0.74481E+07        -0.14220E+06         0.00000E+00
   -0.14220E+06         0.15028E+08         0.00000E+00
    0.00000E+00         0.00000E+00         0.44952E+07
 
    0.74011E+07        -0.17114E+06         0.00000E+00
   -0.17114E+06         0.15038E+08         0.00000E+00
    0.00000E+00         0.00000E+00         0.44878E+07
 
    0.73501E+07        -0.19560E+06         0.00000E+00
   -0.19560E+06         0.15049E+08         0.00000E+00
    0.00000E+00         0.00000E+00         0.44798E+07
 
    0.72951E+07        -0.21570E+06         0.00000E+00
   -0.21570E+06         0.15062E+08         0.00000E+00
    0.00000E+00         0.00000E+00         0.44715E+07
 
    0.72367E+07        -0.23153E+06         0.00000E+00
   -0.23153E+06         0.15077E+08         0.00000E+00
    0.00000E+00         0.00000E+00         0.44628E+07
 
    0.71750E+07        -0.24319E+06         0.00000E+00
   -0.24319E+06         0.15094E+08         0.00000E+00
    0.00000E+00         0.00000E+00         0.44537E+07
 
    0.71104E+07        -0.25078E+06         0.00000E+00
   -0.25078E+06         0.15111E+08         0.00000E+00
    0.00000E+00         0.00000E+00         0.44444E+07
 
    0.70432E+07        -0.25440E+06         0.00000E+00
   -0.25440E+06         0.15131E+08         0.00000E+00
    0.00000E+00         0.00000E+00         0.44347E+07
 
    0.69734E+07        -0.25414E+06         0.00000E+00
   -0.25414E+06         0.15151E+08         0.00000E+00
    0.00000E+00         0.00000E+00         0.44249E+07
 
    0.69015E+07        -0.25009E+06         0.00000E+00
   -0.25009E+06         0.15172E+08         0.00000E+00
    0.00000E+00         0.00000E+00         0.44148E+07
 
    0.68275E+07        -0.24233E+06         0.00000E+00
   -0.24233E+06         0.15195E+08         0.00000E+00
    0.00000E+00         0.00000E+00         0.44045E+07
 
    0.67518E+07        -0.23093E+06         0.00000E+00
   -0.23093E+06         0.15219E+08         0.00000E+00
    0.00000E+00         0.00000E+00         0.43941E+07
 
    0.66744E+07        -0.21598E+06         0.00000E+00
   -0.21598E+06         0.15243E+08         0.00000E+00
    0.00000E+00         0.00000E+00         0.43835E+07
 
    0.65957E+07        -0.19755E+06         0.00000E+00
   -0.19755E+06         0.15269E+08         0.00000E+00
    0.00000E+00         0.00000E+00         0.43729E+07
 
    0.65157E+07        -0.17571E+06         0.00000E+00
   -0.17571E+06         0.15295E+08         0.00000E+00
    0.00000E+00         0.00000E+00         0.43622E+07
 
    0.64346E+07        -0.15053E+06         0.00000E+00
   -0.15053E+06         0.15323E+08         0.00000E+00
    0.00000E+00         0.00000E+00         0.43515E+07
 
    0.63527E+07        -0.12207E+06         0.00000E+00
   -0.12207E+06         0.15351E+08         0.00000E+00
    0.00000E+00         0.00000E+00         0.43408E+07
 
    0.62700E+07        -0.90402E+05         0.00000E+00
   -0.90402E+05         0.15380E+08         0.00000E+00
    0.00000E+00         0.00000E+00         0.43300E+07
 
    0.61867E+07        -0.55588E+05         0.00000E+00
   -0.55588E+05         0.15410E+08         0.00000E+00
    0.00000E+00         0.00000E+00         0.43194E+07
 
    0.61030E+07        -0.17684E+05         0.00000E+00
   -0.17684E+05         0.15441E+08         0.00000E+00
    0.00000E+00         0.00000E+00         0.43088E+07
 
    0.60190E+07         0.23258E+05         0.00000E+00
    0.23258E+05         0.15472E+08         0.00000E+00
    0.00000E+00         0.00000E+00         0.42983E+07
 
    0.59349E+07         0.67190E+05         0.00000E+00
    0.67190E+05         0.15505E+08         0.00000E+00
    0.00000E+00         0.00000E+00         0.42880E+07
 
    0.58507E+07         0.11407E+06         0.00000E+00
    0.11407E+06         0.15538E+08         0.00000E+00
    0.00000E+00         0.00000E+00         0.42778E+07
 
    0.57667E+07         0.16386E+06         0.00000E+00
    0.16386E+06         0.15572E+08         0.00000E+00
    0.00000E+00         0.00000E+00         0.42678E+07
 
    0.56829E+07         0.21652E+06         0.00000E+00
    0.21652E+06         0.15607E+08         0.00000E+00
    0.00000E+00         0.00000E+00         0.42581E+07
 
    0.55996E+07         0.27204E+06         0.00000E+00
    0.27204E+06         0.15643E+08         0.00000E+00
    0.00000E+00         0.00000E+00         0.42486E+07
 
    0.55168E+07         0.33039E+06         0.00000E+00
    0.33039E+06         0.15680E+08         0.00000E+00
    0.00000E+00         0.00000E+00         0.42394E+07
 
    0.54348E+07         0.39155E+06         0.00000E+00
    0.39155E+06         0.15718E+08         0.00000E+00
    0.00000E+00         0.00000E+00         0.42305E+07
 
    0.53537E+07         0.45550E+06         0.00000E+00
    0.45550E+06         0.15757E+08         0.00000E+00
    0.00000E+00         0.00000E+00         0.42221E+07
 
    0.52737E+07         0.52222E+06         0.00000E+00
    0.52222E+06         0.15796E+08         0.00000E+00
    0.00000E+00         0.00000E+00         0.42140E+07
 
    0.51951E+07         0.59170E+06         0.00000E+00
    0.59170E+06         0.15837E+08         0.00000E+00
    0.00000E+00         0.00000E+00         0.42064E+07
 
    0.51180E+07         0.66388E+06         0.00000E+00
    0.66388E+06         0.15879E+08         0.00000E+00
    0.00000E+00         0.00000E+00         0.41993E+07
 
    0.50428E+07         0.73870E+06         0.00000E+00
    0.73870E+06         0.15921E+08         0.00000E+00
    0.00000E+00         0.00000E+00         0.41928E+07
 
    0.49698E+07         0.81612E+06         0.00000E+00
    0.81612E+06         0.15965E+08         0.00000E+00
    0.00000E+00         0.00000E+00         0.41869E+07
 
    0.48992E+07         0.89612E+06         0.00000E+00
    0.89612E+06         0.16009E+08         0.00000E+00
    0.00000E+00         0.00000E+00         0.41817E+07
 
    0.48317E+07         0.97850E+06         0.00000E+00
    0.97850E+06         0.16055E+08         0.00000E+00
    0.00000E+00         0.00000E+00         0.41773E+07
 
    0.47671E+07         0.10625E+07         0.00000E+00
    0.10625E+07         0.16101E+08         0.00000E+00
    0.00000E+00         0.00000E+00         0.41736E+07
 
    0.47057E+07         0.11479E+07         0.00000E+00
    0.11479E+07         0.16149E+08         0.00000E+00
    0.00000E+00         0.00000E+00         0.41709E+07
 
    0.46481E+07         0.12359E+07         0.00000E+00
    0.12359E+07         0.16200E+08         0.00000E+00
    0.00000E+00         0.00000E+00         0.41695E+07
 
    0.45954E+07         0.13265E+07         0.00000E+00
    0.13265E+07         0.16248E+08         0.00000E+00
    0.00000E+00         0.00000E+00         0.41687E+07
 
    0.45501E+07         0.14183E+07         0.00000E+00
    0.14183E+07         0.16293E+08         0.00000E+00
    0.00000E+00         0.00000E+00         0.41686E+07
 
    0.45107E+07         0.15042E+07         0.00000E+00
    0.15042E+07         0.16332E+08         0.00000E+00
    0.00000E+00         0.00000E+00         0.41686E+07
 
    0.44731E+07         0.15798E+07         0.00000E+00
    0.15798E+07         0.16381E+08         0.00000E+00
    0.00000E+00         0.00000E+00         0.41708E+07
 
    0.44377E+07         0.16506E+07         0.00000E+00
    0.16506E+07         0.16477E+08         0.00000E+00
    0.00000E+00         0.00000E+00         0.41829E+07
 
    0.44066E+07         0.17132E+07         0.00000E+00
    0.17132E+07         0.16571E+08         0.00000E+00
    0.00000E+00         0.00000E+00         0.42140E+07
 
    0.44082E+07         0.17714E+07         0.00000E+00
    0.17714E+07         0.16656E+08         0.00000E+00
    0.00000E+00         0.00000E+00         0.42903E+07
 
    0.44014E+07         0.18274E+07         0.00000E+00
    0.18274E+07         0.16741E+08         0.00000E+00
    0.00000E+00         0.00000E+00         0.43618E+07
 
    0.66311E+07        -0.19395E+05         0.00000E+00
   -0.19395E+05         0.14277E+08         0.00000E+00
    0.00000E+00         0.00000E+00         0.41816E+07
 
    0.66207E+07        -0.49330E+05         0.00000E+00
   -0.49330E+05         0.14280E+08         0.00000E+00
    0.00000E+00         0.00000E+00         0.41801E+07
 
    0.66046E+07        -0.75505E+05         0.00000E+00
   -0.75505E+05         0.14285E+08         0.00000E+00
    0.00000E+00         0.00000E+00         0.41780E+07
 
    0.65833E+07        -0.97909E+05         0.00000E+00
   -0.97909E+05         0.14293E+08         0.00000E+00
    0.00000E+00         0.00000E+00         0.41753E+07
 
    0.65571E+07        -0.11656E+06         0.00000E+00
   -0.11656E+06         0.14303E+08         0.00000E+00
    0.00000E+00         0.00000E+00         0.41721E+07
 
    0.65264E+07        -0.13149E+06         0.00000E+00
   -0.13149E+06         0.14315E+08         0.00000E+00
    0.00000E+00         0.00000E+00         0.41684E+07
 
    0.64916E+07        -0.14273E+06         0.00000E+00
   -0.14273E+06         0.14329E+08         0.00000E+00
    0.00000E+00         0.00000E+00         0.41642E+07
 
    0.64529E+07        -0.15032E+06         0.00000E+00
   -0.15032E+06         0.14345E+08         0.00000E+00
    0.00000E+00         0.00000E+00         0.41596E+07
 
    0.64107E+07        -0.15431E+06         0.00000E+00
   -0.15431E+06         0.14362E+08         0.00000E+00
    0.00000E+00         0.00000E+00         0.41546E+07
 
    0.63651E+07        -0.15474E+06         0.00000E+00
   -0.15474E+06         0.14381E+08         0.00000E+00
    0.00000E+00         0.00000E+00         0.41493E+07
 
    0.63166E+07        -0.15164E+06         0.00000E+00
   -0.15164E+06         0.14402E+08         0.00000E+00
    0.00000E+00         0.00000E+00         0.41436E+07
 
    0.62653E+07        -0.14507E+06         0.00000E+00
   -0.14507E+06         0.14423E+08         0.00000E+00
    0.00000E+00         0.00000E+00         0.41377E+07
 
    0.62114E+07        -0.13508E+06         0.00000E+00
   -0.13508E+06         0.14446E+08         0.00000E+00
    0.00000E+00         0.00000E+00         0.41314E+07
 
    0.61553E+07        -0.12170E+06         0.00000E+00
   -0.12170E+06         0.14470E+08         0.00000E+00
    0.00000E+00         0.00000E+00         0.41250E+07
 
    0.60970E+07        -0.10499E+06         0.00000E+00
   -0.10499E+06         0.14495E+08         0.00000E+00
    0.00000E+00         0.00000E+00         0.41183E+07
 
    0.60369E+07        -0.84999E+05         0.00000E+00
   -0.84999E+05         0.14520E+08         0.00000E+00
    0.00000E+00         0.00000E+00         0.41115E+07
 
    0.59751E+07        -0.61760E+05         0.00000E+00
   -0.61760E+05         0.14547E+08         0.00000E+00
    0.00000E+00         0.00000E+00         0.41045E+07
 
    0.59117E+07        -0.35322E+05         0.00000E+00
   -0.35322E+05         0.14575E+08         0.00000E+00
    0.00000E+00         0.00000E+00         0.40974E+07
 
    0.58470E+07        -0.57250E+04         0.00000E+00
   -0.57250E+04         0.14604E+08         0.00000E+00
    0.00000E+00         0.00000E+00         0.40901E+07
 
    0.57812E+07         0.26988E+05         0.00000E+00
    0.26988E+05         0.14633E+08         0.00000E+00
    0.00000E+00         0.00000E+00         0.40828E+07
 
    0.57144E+07         0.62778E+05         0.00000E+00
    0.62778E+05         0.14663E+08         0.00000E+00
    0.00000E+00         0.00000E+00         0.40755E+07
 
    0.56468E+07         0.10161E+06         0.00000E+00
    0.10161E+06         0.14694E+08         0.00000E+00
    0.00000E+00         0.00000E+00         0.40681E+07
 
    0.55785E+07         0.14344E+06         0.00000E+00
    0.14344E+06         0.14725E+08         0.00000E+00
    0.00000E+00         0.00000E+00         0.40608E+07
 
    0.55098E+07         0.18824E+06         0.00000E+00
    0.18824E+06         0.14757E+08         0.00000E+00
    0.00000E+00         0.00000E+00         0.40534E+07
 
    0.54407E+07         0.23597E+06         0.00000E+00
    0.23597E+06         0.14790E+08         0.00000E+00
    0.00000E+00         0.00000E+00         0.40461E+07
 
    0.53714E+07         0.28660E+06         0.00000E+00
    0.28660E+06         0.14823E+08         0.00000E+00
    0.00000E+00         0.00000E+00         0.40389E+07
 
    0.53020E+07         0.34010E+06         0.00000E+00
    0.34010E+06         0.14857E+08         0.00000E+00
    0.00000E+00         0.00000E+00         0.40318E+07
 
    0.52329E+07         0.39645E+06         0.00000E+00
    0.39645E+06         0.14891E+08         0.00000E+00
    0.00000E+00         0.00000E+00         0.40249E+07
 
    0.51640E+07         0.45560E+06         0.00000E+00
    0.45560E+06         0.14926E+08         0.00000E+00
    0.00000E+00         0.00000E+00         0.40180E+07
 
    0.50955E+07         0.51753E+06         0.00000E+00
    0.51753E+06         0.14961E+08         0.00000E+00
    0.00000E+00         0.00000E+00         0.40114E+07
 
    0.50277E+07         0.58221E+06         0.00000E+00
    0.58221E+06         0.14997E+08         0.00000E+00
    0.00000E+00         0.00000E+00         0.40049E+07
 
    0.49606E+07         0.64959E+06         0.00000E+00
    0.64959E+06         0.15033E+08         0.00000E+00
    0.00000E+00         0.00000E+00         0.39987E+07
 
    0.48945E+07         0.71963E+06         0.00000E+00
    0.71963E+06         0.15069E+08         0.00000E+00
    0.00000E+00         0.00000E+00         0.39928E+07
 
    0.48295E+07         0.79228E+06         0.00000E+00
    0.79228E+06         0.15106E+08         0.00000E+00
    0.00000E+00         0.00000E+00         0.39871E+07
 
    0.47658E+07         0.86747E+06         0.00000E+00
    0.86747E+06         0.15143E+08         0.00000E+00
    0.00000E+00         0.00000E+00         0.39817E+07
 
    0.47036E+07         0.94514E+06         0.00000E+00
    0.94514E+06         0.15180E+08         0.00000E+00
    0.00000E+00         0.00000E+00         0.39766E+07
 
    0.46430E+07         0.10252E+07         0.00000E+00
    0.10252E+07         0.15217E+08         0.00000E+00
    0.00000E+00         0.00000E+00         0.39719E+07
 
    0.45842E+07         0.11074E+07         0.00000E+00
    0.11074E+07         0.15254E+08         0.00000E+00
    0.00000E+00         0.00000E+00         0.39676E+07
 
    0.45273E+07         0.11917E+07         0.00000E+00
    0.11917E+07         0.15290E+08         0.00000E+00
    0.00000E+00         0.00000E+00         0.39636E+07
 
    0.44725E+07         0.12781E+07         0.00000E+00
    0.12781E+07         0.15327E+08         0.00000E+00
    0.00000E+00         0.00000E+00         0.39600E+07
 
    0.44199E+07         0.13663E+07         0.00000E+00
    0.13663E+07         0.15364E+08         0.00000E+00
    0.00000E+00         0.00000E+00         0.39567E+07
 
    0.43694E+07         0.14556E+07         0.00000E+00
    0.14556E+07         0.15399E+08         0.00000E+00
    0.00000E+00         0.00000E+00         0.39538E+07
 
    0.43208E+07         0.15457E+07         0.00000E+00
    0.15457E+07         0.15435E+08         0.00000E+00
    0.00000E+00         0.00000E+00         0.39512E+07
 
    0.42731E+07         0.16363E+07         0.00000E+00
    0.16363E+07         0.15472E+08         0.00000E+00
    0.00000E+00         0.00000E+00         0.39489E+07
 
    0.42264E+07         0.17285E+07         0.00000E+00
    0.17285E+07         0.15509E+08         0.00000E+00
    0.00000E+00         0.00000E+00         0.39471E+07
 
    0.41816E+07         0.18229E+07         0.00000E+00
    0.18229E+07         0.15546E+08         0.00000E+00
    0.00000E+00         0.00000E+00         0.39455E+07
 
    0.41374E+07         0.19165E+07         0.00000E+00
    0.19165E+07         0.15573E+08         0.00000E+00
    0.00000E+00         0.00000E+00         0.39421E+07
 
    0.40943E+07         0.20069E+07         0.00000E+00
    0.20069E+07         0.15600E+08         0.00000E+00
    0.00000E+00         0.00000E+00         0.39389E+07
 
    0.40426E+07         0.20862E+07         0.00000E+00
    0.20862E+07         0.15622E+08         0.00000E+00
    0.00000E+00         0.00000E+00         0.39329E+07
 
    0.39643E+07         0.21512E+07         0.00000E+00
    0.21512E+07         0.15647E+08         0.00000E+00
    0.00000E+00         0.00000E+00         0.39223E+07
 
    0.57871E+07        -0.11709E+05         0.00000E+00
   -0.11709E+05         0.13558E+08         0.00000E+00
    0.00000E+00         0.00000E+00         0.38690E+07
 
    0.57931E+07        -0.28655E+05         0.00000E+00
   -0.28655E+05         0.13561E+08         0.00000E+00
    0.00000E+00         0.00000E+00         0.38708E+07
 
    0.57937E+07        -0.42737E+05         0.00000E+00
   -0.42737E+05         0.13566E+08         0.00000E+00
    0.00000E+00         0.00000E+00         0.38720E+07
 
    0.57891E+07        -0.53909E+05         0.00000E+00
   -0.53909E+05         0.13574E+08         0.00000E+00
    0.00000E+00         0.00000E+00         0.38726E+07
 
    0.57797E+07        -0.62128E+05         0.00000E+00
   -0.62128E+05         0.13583E+08         0.00000E+00
    0.00000E+00         0.00000E+00         0.38726E+07
 
    0.57659E+07        -0.67363E+05         0.00000E+00
   -0.67363E+05         0.13595E+08         0.00000E+00
    0.00000E+00         0.00000E+00         0.38722E+07
 
    0.57479E+07        -0.69593E+05         0.00000E+00
   -0.69593E+05         0.13609E+08         0.00000E+00
    0.00000E+00         0.00000E+00         0.38714E+07
 
    0.57259E+07        -0.68805E+05         0.00000E+00
   -0.68805E+05         0.13624E+08         0.00000E+00
    0.00000E+00         0.00000E+00         0.38700E+07
 
    0.57003E+07        -0.64994E+05         0.00000E+00
   -0.64994E+05         0.13641E+08         0.00000E+00
    0.00000E+00         0.00000E+00         0.38683E+07
 
    0.56714E+07        -0.58159E+05         0.00000E+00
   -0.58159E+05         0.13660E+08         0.00000E+00
    0.00000E+00         0.00000E+00         0.38662E+07
 
    0.56393E+07        -0.48305E+05         0.00000E+00
   -0.48305E+05         0.13679E+08         0.00000E+00
    0.00000E+00         0.00000E+00         0.38637E+07
 
    0.56043E+07        -0.35441E+05         0.00000E+00
   -0.35441E+05         0.13700E+08         0.00000E+00
    0.00000E+00         0.00000E+00         0.38609E+07
 
    0.55666E+07        -0.19580E+05         0.00000E+00
   -0.19580E+05         0.13723E+08         0.00000E+00
    0.00000E+00         0.00000E+00         0.38579E+07
 
    0.55265E+07        -0.73791E+03         0.00000E+00
   -0.73791E+03         0.13746E+08         0.00000E+00
    0.00000E+00         0.00000E+00         0.38545E+07
 
    0.54841E+07         0.21068E+05         0.00000E+00
    0.21068E+05         0.13770E+08         0.00000E+00
    0.00000E+00         0.00000E+00         0.38509E+07
 
    0.54397E+07         0.45818E+05         0.00000E+00
    0.45818E+05         0.13796E+08         0.00000E+00
    0.00000E+00         0.00000E+00         0.38471E+07
 
    0.53935E+07         0.73490E+05         0.00000E+00
    0.73490E+05         0.13822E+08         0.00000E+00
    0.00000E+00         0.00000E+00         0.38430E+07
 
    0.53456E+07         0.10406E+06         0.00000E+00
    0.10406E+06         0.13849E+08         0.00000E+00
    0.00000E+00         0.00000E+00         0.38388E+07
 
    0.52962E+07         0.13750E+06         0.00000E+00
    0.13750E+06         0.13876E+08         0.00000E+00
    0.00000E+00         0.00000E+00         0.38345E+07
 
    0.52454E+07         0.17380E+06         0.00000E+00
    0.17380E+06         0.13905E+08         0.00000E+00
    0.00000E+00         0.00000E+00         0.38300E+07
 
    0.51936E+07         0.21291E+06         0.00000E+00
    0.21291E+06         0.13933E+08         0.00000E+00
    0.00000E+00         0.00000E+00         0.38254E+07
 
    0.51408E+07         0.25482E+06         0.00000E+00
    0.25482E+06         0.13963E+08         0.00000E+00
    0.00000E+00         0.00000E+00         0.38207E+07
 
    0.50871E+07         0.29949E+06         0.00000E+00
    0.29949E+06         0.13993E+08         0.00000E+00
    0.00000E+00         0.00000E+00         0.38159E+07
 
    0.50328E+07         0.34690E+06         0.00000E+00
    0.34690E+06         0.14023E+08         0.00000E+00
    0.00000E+00         0.00000E+00         0.38111E+07
 
    0.49781E+07         0.39701E+06         0.00000E+00
    0.39701E+06         0.14053E+08         0.00000E+00
    0.00000E+00         0.00000E+00         0.38063E+07
 
    0.49229E+07         0.44978E+06         0.00000E+00
    0.44978E+06         0.14084E+08         0.00000E+00
    0.00000E+00         0.00000E+00         0.38014E+07
 
    0.48676E+07         0.50519E+06         0.00000E+00
    0.50519E+06         0.14115E+08         0.00000E+00
    0.00000E+00         0.00000E+00         0.37966E+07
 
    0.48122E+07         0.56318E+06         0.00000E+00
    0.56318E+06         0.14147E+08         0.00000E+00
    0.00000E+00         0.00000E+00         0.37918E+07
 
    0.47570E+07         0.62373E+06         0.00000E+00
    0.62373E+06         0.14178E+08         0.00000E+00
    0.00000E+00         0.00000E+00         0.37870E+07
 
    0.47020E+07         0.68677E+06         0.00000E+00
    0.68677E+06         0.14209E+08         0.00000E+00
    0.00000E+00         0.00000E+00         0.37823E+07
 
    0.46473E+07         0.75225E+06         0.00000E+00
    0.75225E+06         0.14241E+08         0.00000E+00
    0.00000E+00         0.00000E+00         0.37776E+07
 
    0.45932E+07         0.82011E+06         0.00000E+00
    0.82011E+06         0.14272E+08         0.00000E+00
    0.00000E+00         0.00000E+00         0.37731E+07
 
    0.45396E+07         0.89028E+06         0.00000E+00
    0.89028E+06         0.14303E+08         0.00000E+00
    0.00000E+00         0.00000E+00         0.37686E+07
 
    0.44869E+07         0.96268E+06         0.00000E+00
    0.96268E+06         0.14334E+08         0.00000E+00
    0.00000E+00         0.00000E+00         0.37642E+07
 
    0.44350E+07         0.10372E+07         0.00000E+00
    0.10372E+07         0.14365E+08         0.00000E+00
    0.00000E+00         0.00000E+00         0.37600E+07
 
    0.43841E+07         0.11138E+07         0.00000E+00
    0.11138E+07         0.14395E+08         0.00000E+00
    0.00000E+00         0.00000E+00         0.37558E+07
 
    0.43342E+07         0.11922E+07         0.00000E+00
    0.11922E+07         0.14425E+08         0.00000E+00
    0.00000E+00         0.00000E+00         0.37517E+07
 
    0.42853E+07         0.12724E+07         0.00000E+00
    0.12724E+07         0.14454E+08         0.00000E+00
    0.00000E+00         0.00000E+00         0.37478E+07
 
    0.42376E+07         0.13543E+07         0.00000E+00
    0.13543E+07         0.14482E+08         0.00000E+00
    0.00000E+00         0.00000E+00         0.37439E+07
 
    0.41909E+07         0.14375E+07         0.00000E+00
    0.14375E+07         0.14510E+08         0.00000E+00
    0.00000E+00         0.00000E+00         0.37401E+07
 
    0.41452E+07         0.15219E+07         0.00000E+00
    0.15219E+07         0.14537E+08         0.00000E+00
    0.00000E+00         0.00000E+00         0.37364E+07
 
    0.41003E+07         0.16074E+07         0.00000E+00
    0.16074E+07         0.14563E+08         0.00000E+00
    0.00000E+00         0.00000E+00         0.37326E+07
 
    0.40560E+07         0.16937E+07         0.00000E+00
    0.16937E+07         0.14588E+08         0.00000E+00
    0.00000E+00         0.00000E+00         0.37287E+07
 
    0.40122E+07         0.17807E+07         0.00000E+00
    0.17807E+07         0.14612E+08         0.00000E+00
    0.00000E+00         0.00000E+00         0.37248E+07
 
    0.39683E+07         0.18679E+07         0.00000E+00
    0.18679E+07         0.14635E+08         0.00000E+00
    0.00000E+00         0.00000E+00         0.37206E+07
 
    0.39231E+07         0.19545E+07         0.00000E+00
    0.19545E+07         0.14657E+08         0.00000E+00
    0.00000E+00         0.00000E+00         0.37160E+07
 
    0.38758E+07         0.20412E+07         0.00000E+00
    0.20412E+07         0.14680E+08         0.00000E+00
    0.00000E+00         0.00000E+00         0.37111E+07
 
    0.38248E+07         0.21285E+07         0.00000E+00
    0.21285E+07         0.14702E+08         0.00000E+00
    0.00000E+00         0.00000E+00         0.37054E+07
 
    0.37706E+07         0.22187E+07         0.00000E+00
    0.22187E+07         0.14727E+08         0.00000E+00
    0.00000E+00         0.00000E+00         0.36995E+07
 
    0.37177E+07         0.23158E+07         0.00000E+00
    0.23158E+07         0.14755E+08         0.00000E+00
    0.00000E+00         0.00000E+00         0.36945E+07
 
    0.50267E+07        -0.47328E+04         0.00000E+00
   -0.47328E+04         0.12858E+08         0.00000E+00
    0.00000E+00         0.00000E+00         0.35769E+07
 
    0.50449E+07        -0.96112E+04         0.00000E+00
   -0.96112E+04         0.12860E+08         0.00000E+00
    0.00000E+00         0.00000E+00         0.35810E+07
 
    0.50580E+07        -0.12393E+05         0.00000E+00
   -0.12393E+05         0.12865E+08         0.00000E+00
    0.00000E+00         0.00000E+00         0.35846E+07
 
    0.50663E+07        -0.12989E+05         0.00000E+00
   -0.12989E+05         0.12872E+08         0.00000E+00
    0.00000E+00         0.00000E+00         0.35877E+07
 
    0.50702E+07        -0.11322E+05         0.00000E+00
   -0.11322E+05         0.12881E+08         0.00000E+00
    0.00000E+00         0.00000E+00         0.35902E+07
 
    0.50697E+07        -0.73281E+04         0.00000E+00
   -0.73281E+04         0.12892E+08         0.00000E+00
    0.00000E+00         0.00000E+00         0.35923E+07
 
    0.50653E+07        -0.95331E+03         0.00000E+00
   -0.95331E+03         0.12904E+08         0.00000E+00
    0.00000E+00         0.00000E+00         0.35939E+07
 
    0.50571E+07         0.78479E+04         0.00000E+00
    0.78479E+04         0.12919E+08         0.00000E+00
    0.00000E+00         0.00000E+00         0.35951E+07
 
    0.50454E+07         0.19113E+05         0.00000E+00
    0.19113E+05         0.12934E+08         0.00000E+00
    0.00000E+00         0.00000E+00         0.35959E+07
 
    0.50304E+07         0.32871E+05         0.00000E+00
    0.32871E+05         0.12951E+08         0.00000E+00
    0.00000E+00         0.00000E+00         0.35964E+07
 
    0.50123E+07         0.49145E+05         0.00000E+00
    0.49145E+05         0.12970E+08         0.00000E+00
    0.00000E+00         0.00000E+00         0.35964E+07
 
    0.49913E+07         0.67952E+05         0.00000E+00
    0.67952E+05         0.12989E+08         0.00000E+00
    0.00000E+00         0.00000E+00         0.35961E+07
 
    0.49677E+07         0.89303E+05         0.00000E+00
    0.89303E+05         0.13010E+08         0.00000E+00
    0.00000E+00         0.00000E+00         0.35955E+07
 
    0.49416E+07         0.11320E+06         0.00000E+00
    0.11320E+06         0.13032E+08         0.00000E+00
    0.00000E+00         0.00000E+00         0.35946E+07
 
    0.49132E+07         0.13966E+06         0.00000E+00
    0.13966E+06         0.13054E+08         0.00000E+00
    0.00000E+00         0.00000E+00         0.35935E+07
 
    0.48827E+07         0.16867E+06         0.00000E+00
    0.16867E+06         0.13078E+08         0.00000E+00
    0.00000E+00         0.00000E+00         0.35921E+07
 
    0.48503E+07         0.20022E+06         0.00000E+00
    0.20022E+06         0.13102E+08         0.00000E+00
    0.00000E+00         0.00000E+00         0.35904E+07
 
    0.48161E+07         0.23430E+06         0.00000E+00
    0.23430E+06         0.13127E+08         0.00000E+00
    0.00000E+00         0.00000E+00         0.35886E+07
 
    0.47804E+07         0.27092E+06         0.00000E+00
    0.27092E+06         0.13152E+08         0.00000E+00
    0.00000E+00         0.00000E+00         0.35865E+07
 
    0.47433E+07         0.31004E+06         0.00000E+00
    0.31004E+06         0.13178E+08         0.00000E+00
    0.00000E+00         0.00000E+00         0.35843E+07
 
    0.47049E+07         0.35165E+06         0.00000E+00
    0.35165E+06         0.13205E+08         0.00000E+00
    0.00000E+00         0.00000E+00         0.35819E+07
 
    0.46654E+07         0.39572E+06         0.00000E+00
    0.39572E+06         0.13231E+08         0.00000E+00
    0.00000E+00         0.00000E+00         0.35794E+07
 
    0.46250E+07         0.44224E+06         0.00000E+00
    0.44224E+06         0.13258E+08         0.00000E+00
    0.00000E+00         0.00000E+00         0.35767E+07
 
    0.45838E+07         0.49117E+06         0.00000E+00
    0.49117E+06         0.13286E+08         0.00000E+00
    0.00000E+00         0.00000E+00         0.35739E+07
 
    0.45419E+07         0.54249E+06         0.00000E+00
    0.54249E+06         0.13313E+08         0.00000E+00
    0.00000E+00         0.00000E+00         0.35711E+07
 
    0.44995E+07         0.59615E+06         0.00000E+00
    0.59615E+06         0.13341E+08         0.00000E+00
    0.00000E+00         0.00000E+00         0.35681E+07
 
    0.44567E+07         0.65212E+06         0.00000E+00
    0.65212E+06         0.13369E+08         0.00000E+00
    0.00000E+00         0.00000E+00         0.35651E+07
 
    0.44137E+07         0.71034E+06         0.00000E+00
    0.71034E+06         0.13396E+08         0.00000E+00
    0.00000E+00         0.00000E+00         0.35620E+07
 
    0.43705E+07         0.77078E+06         0.00000E+00
    0.77078E+06         0.13424E+08         0.00000E+00
    0.00000E+00         0.00000E+00         0.35589E+07
 
    0.43272E+07         0.83337E+06         0.00000E+00
    0.83337E+06         0.13451E+08         0.00000E+00
    0.00000E+00         0.00000E+00         0.35557E+07
 
    0.42840E+07         0.89806E+06         0.00000E+00
    0.89806E+06         0.13479E+08         0.00000E+00
    0.00000E+00         0.00000E+00         0.35525E+07
 
    0.42410E+07         0.96478E+06         0.00000E+00
    0.96478E+06         0.13505E+08         0.00000E+00
    0.00000E+00         0.00000E+00         0.35493E+07
 
    0.41983E+07         0.10334E+07         0.00000E+00
    0.10334E+07         0.13532E+08         0.00000E+00
    0.00000E+00         0.00000E+00         0.35461E+07
 
    0.41558E+07         0.11040E+07         0.00000E+00
    0.11040E+07         0.13558E+08         0.00000E+00
    0.00000E+00         0.00000E+00         0.35428E+07
 
    0.41138E+07         0.11763E+07         0.00000E+00
    0.11763E+07         0.13584E+08         0.00000E+00
    0.00000E+00         0.00000E+00         0.35395E+07
 
    0.40721E+07         0.12503E+07         0.00000E+00
    0.12503E+07         0.13609E+08         0.00000E+00
    0.00000E+00         0.00000E+00         0.35362E+07
 
    0.40309E+07         0.13259E+07         0.00000E+00
    0.13259E+07         0.13634E+08         0.00000E+00
    0.00000E+00         0.00000E+00         0.35329E+07
 
    0.39902E+07         0.14030E+07         0.00000E+00
    0.14030E+07         0.13658E+08         0.00000E+00
    0.00000E+00         0.00000E+00         0.35296E+07
 
    0.39498E+07         0.14815E+07         0.00000E+00
    0.14815E+07         0.13681E+08         0.00000E+00
    0.00000E+00         0.00000E+00         0.35262E+07
 
    0.39098E+07         0.15612E+07         0.00000E+00
    0.15612E+07         0.13704E+08         0.00000E+00
    0.00000E+00         0.00000E+00         0.35228E+07
 
    0.38700E+07         0.16421E+07         0.00000E+00
    0.16421E+07         0.13726E+08         0.00000E+00
    0.00000E+00         0.00000E+00         0.35192E+07
 
    0.38304E+07         0.17241E+07         0.00000E+00
    0.17241E+07         0.13748E+08         0.00000E+00
    0.00000E+00         0.00000E+00         0.35156E+07
 
    0.37908E+07         0.18072E+07         0.00000E+00
    0.18072E+07         0.13769E+08         0.00000E+00
    0.00000E+00         0.00000E+00         0.35119E+07
 
    0.37508E+07         0.18912E+07         0.00000E+00
    0.18912E+07         0.13790E+08         0.00000E+00
    0.00000E+00         0.00000E+00         0.35081E+07
 
    0.37104E+07         0.19762E+07         0.00000E+00
    0.19762E+07         0.13810E+08         0.00000E+00
    0.00000E+00         0.00000E+00         0.35041E+07
 
    0.36695E+07         0.20626E+07         0.00000E+00
    0.20626E+07         0.13830E+08         0.00000E+00
    0.00000E+00         0.00000E+00         0.35000E+07
 
    0.36280E+07         0.21505E+07         0.00000E+00
    0.21505E+07         0.13851E+08         0.00000E+00
    0.00000E+00         0.00000E+00         0.34957E+07
 
    0.35863E+07         0.22401E+07         0.00000E+00
    0.22401E+07         0.13871E+08         0.00000E+00
    0.00000E+00         0.00000E+00         0.34915E+07
 
    0.35445E+07         0.23314E+07         0.00000E+00
    0.23314E+07         0.13891E+08         0.00000E+00
    0.00000E+00         0.00000E+00         0.34872E+07
 
    0.35017E+07         0.24235E+07         0.00000E+00
    0.24235E+07         0.13910E+08         0.00000E+00
    0.00000E+00         0.00000E+00         0.34824E+07
 
    0.43453E+07         0.13370E+04         0.00000E+00
    0.13370E+04         0.12178E+08         0.00000E+00
    0.00000E+00         0.00000E+00         0.33046E+07
 
    0.43721E+07         0.71559E+04         0.00000E+00
    0.71559E+04         0.12180E+08         0.00000E+00
    0.00000E+00         0.00000E+00         0.33104E+07
 
    0.43944E+07         0.14472E+05         0.00000E+00
    0.14472E+05         0.12184E+08         0.00000E+00
    0.00000E+00         0.00000E+00         0.33157E+07
 
    0.44124E+07         0.23386E+05         0.00000E+00
    0.23386E+05         0.12190E+08         0.00000E+00
    0.00000E+00         0.00000E+00         0.33205E+07
 
    0.44263E+07         0.33991E+05         0.00000E+00
    0.33991E+05         0.12198E+08         0.00000E+00
    0.00000E+00         0.00000E+00         0.33249E+07
 
    0.44364E+07         0.46368E+05         0.00000E+00
    0.46368E+05         0.12208E+08         0.00000E+00
    0.00000E+00         0.00000E+00         0.33288E+07
 
    0.44427E+07         0.60587E+05         0.00000E+00
    0.60587E+05         0.12219E+08         0.00000E+00
    0.00000E+00         0.00000E+00         0.33323E+07
 
    0.44455E+07         0.76711E+05         0.00000E+00
    0.76711E+05         0.12232E+08         0.00000E+00
    0.00000E+00         0.00000E+00         0.33354E+07
 
    0.44451E+07         0.94795E+05         0.00000E+00
    0.94795E+05         0.12246E+08         0.00000E+00
    0.00000E+00         0.00000E+00         0.33381E+07
 
    0.44415E+07         0.11488E+06         0.00000E+00
    0.11488E+06         0.12261E+08         0.00000E+00
    0.00000E+00         0.00000E+00         0.33405E+07
 
    0.44350E+07         0.13702E+06         0.00000E+00
    0.13702E+06         0.12277E+08         0.00000E+00
    0.00000E+00         0.00000E+00         0.33425E+07
 
    0.44257E+07         0.16123E+06         0.00000E+00
    0.16123E+06         0.12295E+08         0.00000E+00
    0.00000E+00         0.00000E+00         0.33441E+07
 
    0.44139E+07         0.18755E+06         0.00000E+00
    0.18755E+06         0.12313E+08         0.00000E+00
    0.00000E+00         0.00000E+00         0.33455E+07
 
    0.43996E+07         0.21599E+06         0.00000E+00
    0.21599E+06         0.12333E+08         0.00000E+00
    0.00000E+00         0.00000E+00         0.33465E+07
 
    0.43831E+07         0.24657E+06         0.00000E+00
    0.24657E+06         0.12353E+08         0.00000E+00
    0.00000E+00         0.00000E+00         0.33473E+07
 
    0.43646E+07         0.27931E+06         0.00000E+00
    0.27931E+06         0.12374E+08         0.00000E+00
    0.00000E+00         0.00000E+00         0.33477E+07
 
    0.43441E+07         0.31421E+06         0.00000E+00
    0.31421E+06         0.12396E+08         0.00000E+00
    0.00000E+00         0.00000E+00         0.33480E+07
 
    0.43219E+07         0.35126E+06         0.00000E+00
    0.35126E+06         0.12418E+08         0.00000E+00
    0.00000E+00         0.00000E+00         0.33480E+07
 
    0.42980E+07         0.39047E+06         0.00000E+00
    0.39047E+06         0.12441E+08         0.00000E+00
    0.00000E+00         0.00000E+00         0.33478E+07
 
    0.42727E+07         0.43183E+06         0.00000E+00
    0.43183E+06         0.12464E+08         0.00000E+00
    0.00000E+00         0.00000E+00         0.33473E+07
 
    0.42461E+07         0.47533E+06         0.00000E+00
    0.47533E+06         0.12488E+08         0.00000E+00
    0.00000E+00         0.00000E+00         0.33467E+07
 
    0.42183E+07         0.52096E+06         0.00000E+00
    0.52096E+06         0.12511E+08         0.00000E+00
    0.00000E+00         0.00000E+00         0.33459E+07
 
    0.41894E+07         0.56868E+06         0.00000E+00
    0.56868E+06         0.12535E+08         0.00000E+00
    0.00000E+00         0.00000E+00         0.33450E+07
 
    0.41596E+07         0.61849E+06         0.00000E+00
    0.61849E+06         0.12560E+08         0.00000E+00
    0.00000E+00         0.00000E+00         0.33439E+07
 
    0.41290E+07         0.67036E+06         0.00000E+00
    0.67036E+06         0.12584E+08         0.00000E+00
    0.00000E+00         0.00000E+00         0.33426E+07
 
    0.40976E+07         0.72425E+06         0.00000E+00
    0.72425E+06         0.12608E+08         0.00000E+00
    0.00000E+00         0.00000E+00         0.33412E+07
 
    0.40657E+07         0.78013E+06         0.00000E+00
    0.78013E+06         0.12633E+08         0.00000E+00
    0.00000E+00         0.00000E+00         0.33397E+07
 
    0.40333E+07         0.83796E+06         0.00000E+00
    0.83796E+06         0.12657E+08         0.00000E+00
    0.00000E+00         0.00000E+00         0.33381E+07
 
    0.40006E+07         0.89770E+06         0.00000E+00
    0.89770E+06         0.12681E+08         0.00000E+00
    0.00000E+00         0.00000E+00         0.33363E+07
 
    0.39675E+07         0.95931E+06         0.00000E+00
    0.95931E+06         0.12705E+08         0.00000E+00
    0.00000E+00         0.00000E+00         0.33345E+07
 
    0.39342E+07         0.10227E+07         0.00000E+00
    0.10227E+07         0.12728E+08         0.00000E+00
    0.00000E+00         0.00000E+00         0.33325E+07
 
    0.39007E+07         0.10879E+07         0.00000E+00
    0.10879E+07         0.12752E+08         0.00000E+00
    0.00000E+00         0.00000E+00         0.33305E+07
 
    0.38672E+07         0.11548E+07         0.00000E+00
    0.11548E+07         0.12775E+08         0.00000E+00
    0.00000E+00         0.00000E+00         0.33284E+07
 
    0.38336E+07         0.12233E+07         0.00000E+00
    0.12233E+07         0.12797E+08         0.00000E+00
    0.00000E+00         0.00000E+00         0.33262E+07
 
    0.38001E+07         0.12934E+07         0.00000E+00
    0.12934E+07         0.12820E+08         0.00000E+00
    0.00000E+00         0.00000E+00         0.33239E+07
 
    0.37665E+07         0.13651E+07         0.00000E+00
    0.13651E+07         0.12841E+08         0.00000E+00
    0.00000E+00         0.00000E+00         0.33216E+07
 
    0.37331E+07         0.14382E+07         0.00000E+00
    0.14382E+07         0.12863E+08         0.00000E+00
    0.00000E+00         0.00000E+00         0.33191E+07
 
    0.36996E+07         0.15127E+07         0.00000E+00
    0.15127E+07         0.12883E+08         0.00000E+00
    0.00000E+00         0.00000E+00         0.33166E+07
 
    0.36662E+07         0.15886E+07         0.00000E+00
    0.15886E+07         0.12904E+08         0.00000E+00
    0.00000E+00         0.00000E+00         0.33140E+07
 
    0.36328E+07         0.16658E+07         0.00000E+00
    0.16658E+07         0.12924E+08         0.00000E+00
    0.00000E+00         0.00000E+00         0.33113E+07
 
    0.35994E+07         0.17443E+07         0.00000E+00
    0.17443E+07         0.12943E+08         0.00000E+00
    0.00000E+00         0.00000E+00         0.33085E+07
 
    0.35659E+07         0.18241E+07         0.00000E+00
    0.18241E+07         0.12962E+08         0.00000E+00
    0.00000E+00         0.00000E+00         0.33056E+07
 
    0.35323E+07         0.19052E+07         0.00000E+00
    0.19052E+07         0.12981E+08         0.00000E+00
    0.00000E+00         0.00000E+00         0.33026E+07
 
    0.34986E+07         0.19875E+07         0.00000E+00
    0.19875E+07         0.12999E+08         0.00000E+00
    0.00000E+00         0.00000E+00         0.32995E+07
 
    0.34648E+07         0.20713E+07         0.00000E+00
    0.20713E+07         0.13017E+08         0.00000E+00
    0.00000E+00         0.00000E+00         0.32963E+07
 
    0.34309E+07         0.21563E+07         0.00000E+00
    0.21563E+07         0.13034E+08         0.00000E+00
    0.00000E+00         0.00000E+00         0.32930E+07
 
    0.33969E+07         0.22428E+07         0.00000E+00
    0.22428E+07         0.13051E+08         0.00000E+00
    0.00000E+00         0.00000E+00         0.32897E+07
 
    0.33627E+07         0.23307E+07         0.00000E+00
    0.23307E+07         0.13068E+08         0.00000E+00
    0.00000E+00         0.00000E+00         0.32861E+07
 
    0.33284E+07         0.24199E+07         0.00000E+00
    0.24199E+07         0.13084E+08         0.00000E+00
    0.00000E+00         0.00000E+00         0.32825E+07
 
    0.32941E+07         0.25109E+07         0.00000E+00
    0.25109E+07         0.13100E+08         0.00000E+00
    0.00000E+00         0.00000E+00         0.32788E+07
 
    0.37364E+07         0.64623E+04         0.00000E+00
    0.64623E+04         0.11519E+08         0.00000E+00
    0.00000E+00         0.00000E+00         0.30511E+07
 
    0.37692E+07         0.21470E+05         0.00000E+00
    0.21470E+05         0.11521E+08         0.00000E+00
    0.00000E+00         0.00000E+00         0.30581E+07
 
    0.37981E+07         0.37517E+05         0.00000E+00
    0.37517E+05         0.11525E+08         0.00000E+00
    0.00000E+00         0.00000E+00         0.30646E+07
 
    0.38232E+07         0.54705E+05         0.00000E+00
    0.54705E+05         0.11530E+08         0.00000E+00
    0.00000E+00         0.00000E+00         0.30706E+07
 
    0.38447E+07         0.73129E+05         0.00000E+00
    0.73129E+05         0.11537E+08         0.00000E+00
    0.00000E+00         0.00000E+00         0.30763E+07
 
    0.38626E+07         0.92871E+05         0.00000E+00
    0.92871E+05         0.11545E+08         0.00000E+00
    0.00000E+00         0.00000E+00         0.30815E+07
 
    0.38773E+07         0.11401E+06         0.00000E+00
    0.11401E+06         0.11555E+08         0.00000E+00
    0.00000E+00         0.00000E+00         0.30864E+07
 
    0.38887E+07         0.13661E+06         0.00000E+00
    0.13661E+06         0.11566E+08         0.00000E+00
    0.00000E+00         0.00000E+00         0.30909E+07
 
    0.38972E+07         0.16075E+06         0.00000E+00
    0.16075E+06         0.11578E+08         0.00000E+00
    0.00000E+00         0.00000E+00         0.30950E+07
 
    0.39027E+07         0.18646E+06         0.00000E+00
    0.18646E+06         0.11591E+08         0.00000E+00
    0.00000E+00         0.00000E+00         0.30988E+07
 
    0.39056E+07         0.21380E+06         0.00000E+00
    0.21380E+06         0.11606E+08         0.00000E+00
    0.00000E+00         0.00000E+00         0.31023E+07
 
    0.39059E+07         0.24281E+06         0.00000E+00
    0.24281E+06         0.11621E+08         0.00000E+00
    0.00000E+00         0.00000E+00         0.31054E+07
 
    0.39038E+07         0.27352E+06         0.00000E+00
    0.27352E+06         0.11637E+08         0.00000E+00
    0.00000E+00         0.00000E+00         0.31082E+07
 
    0.38993E+07         0.30598E+06         0.00000E+00
    0.30598E+06         0.11654E+08         0.00000E+00
    0.00000E+00         0.00000E+00         0.31107E+07
 
    0.38928E+07         0.34019E+06         0.00000E+00
    0.34019E+06         0.11672E+08         0.00000E+00
    0.00000E+00         0.00000E+00         0.31130E+07
 
    0.38842E+07         0.37618E+06         0.00000E+00
    0.37618E+06         0.11690E+08         0.00000E+00
    0.00000E+00         0.00000E+00         0.31149E+07
 
    0.38738E+07         0.41397E+06         0.00000E+00
    0.41397E+06         0.11709E+08         0.00000E+00
    0.00000E+00         0.00000E+00         0.31167E+07
 
    0.38617E+07         0.45356E+06         0.00000E+00
    0.45356E+06         0.11729E+08         0.00000E+00
    0.00000E+00         0.00000E+00         0.31181E+07
 
    0.38479E+07         0.49496E+06         0.00000E+00
    0.49496E+06         0.11749E+08         0.00000E+00
    0.00000E+00         0.00000E+00         0.31194E+07
 
    0.38326E+07         0.53817E+06         0.00000E+00
    0.53817E+06         0.11769E+08         0.00000E+00
    0.00000E+00         0.00000E+00         0.31204E+07
 
    0.38160E+07         0.58319E+06         0.00000E+00
    0.58319E+06         0.11790E+08         0.00000E+00
    0.00000E+00         0.00000E+00         0.31212E+07
 
    0.37982E+07         0.63002E+06         0.00000E+00
    0.63002E+06         0.11811E+08         0.00000E+00
    0.00000E+00         0.00000E+00         0.31218E+07
 
    0.37792E+07         0.67863E+06         0.00000E+00
    0.67863E+06         0.11832E+08         0.00000E+00
    0.00000E+00         0.00000E+00         0.31222E+07
 
    0.37592E+07         0.72903E+06         0.00000E+00
    0.72903E+06         0.11853E+08         0.00000E+00
    0.00000E+00         0.00000E+00         0.31224E+07
 
    0.37382E+07         0.78119E+06         0.00000E+00
    0.78119E+06         0.11874E+08         0.00000E+00
    0.00000E+00         0.00000E+00         0.31225E+07
 
    0.37164E+07         0.83509E+06         0.00000E+00
    0.83509E+06         0.11896E+08         0.00000E+00
    0.00000E+00         0.00000E+00         0.31224E+07
 
    0.36939E+07         0.89070E+06         0.00000E+00
    0.89070E+06         0.11917E+08         0.00000E+00
    0.00000E+00         0.00000E+00         0.31221E+07
 
    0.36708E+07         0.94801E+06         0.00000E+00
    0.94801E+06         0.11938E+08         0.00000E+00
    0.00000E+00         0.00000E+00         0.31217E+07
 
    0.36470E+07         0.10070E+07         0.00000E+00
    0.10070E+07         0.11959E+08         0.00000E+00
    0.00000E+00         0.00000E+00         0.31212E+07
 
    0.36228E+07         0.10676E+07         0.00000E+00
    0.10676E+07         0.11980E+08         0.00000E+00
    0.00000E+00         0.00000E+00         0.31205E+07
 
    0.35981E+07         0.11298E+07         0.00000E+00
    0.11298E+07         0.12000E+08         0.00000E+00
    0.00000E+00         0.00000E+00         0.31197E+07
 
    0.35731E+07         0.11936E+07         0.00000E+00
    0.11936E+07         0.12021E+08         0.00000E+00
    0.00000E+00         0.00000E+00         0.31187E+07
 
    0.35477E+07         0.12589E+07         0.00000E+00
    0.12589E+07         0.12041E+08         0.00000E+00
    0.00000E+00         0.00000E+00         0.31177E+07
 
    0.35221E+07         0.13256E+07         0.00000E+00
    0.13256E+07         0.12060E+08         0.00000E+00
    0.00000E+00         0.00000E+00         0.31165E+07
 
    0.34963E+07         0.13939E+07         0.00000E+00
    0.13939E+07         0.12080E+08         0.00000E+00
    0.00000E+00         0.00000E+00         0.31152E+07
 
    0.34702E+07         0.14636E+07         0.00000E+00
    0.14636E+07         0.12098E+08         0.00000E+00
    0.00000E+00         0.00000E+00         0.31137E+07
 
    0.34440E+07         0.15347E+07         0.00000E+00
    0.15347E+07         0.12117E+08         0.00000E+00
    0.00000E+00         0.00000E+00         0.31122E+07
 
    0.34177E+07         0.16071E+07         0.00000E+00
    0.16071E+07         0.12135E+08         0.00000E+00
    0.00000E+00         0.00000E+00         0.31106E+07
 
    0.33912E+07         0.16810E+07         0.00000E+00
    0.16810E+07         0.12153E+08         0.00000E+00
    0.00000E+00         0.00000E+00         0.31088E+07
 
    0.33646E+07         0.17561E+07         0.00000E+00
    0.17561E+07         0.12170E+08         0.00000E+00
    0.00000E+00         0.00000E+00         0.31070E+07
 
    0.33378E+07         0.18326E+07         0.00000E+00
    0.18326E+07         0.12187E+08         0.00000E+00
    0.00000E+00         0.00000E+00         0.31050E+07
 
    0.33110E+07         0.19104E+07         0.00000E+00
    0.19104E+07         0.12204E+08         0.00000E+00
    0.00000E+00         0.00000E+00         0.31029E+07
 
    0.32841E+07         0.19894E+07         0.00000E+00
    0.19894E+07         0.12220E+08         0.00000E+00
    0.00000E+00         0.00000E+00         0.31007E+07
 
    0.32572E+07         0.20699E+07         0.00000E+00
    0.20699E+07         0.12235E+08         0.00000E+00
    0.00000E+00         0.00000E+00         0.30985E+07
 
    0.32301E+07         0.21516E+07         0.00000E+00
    0.21516E+07         0.12250E+08         0.00000E+00
    0.00000E+00         0.00000E+00         0.30961E+07
 
    0.32030E+07         0.22346E+07         0.00000E+00
    0.22346E+07         0.12265E+08         0.00000E+00
    0.00000E+00         0.00000E+00         0.30936E+07
 
    0.31759E+07         0.23189E+07         0.00000E+00
    0.23189E+07         0.12279E+08         0.00000E+00
    0.00000E+00         0.00000E+00         0.30910E+07
 
    0.31488E+07         0.24047E+07         0.00000E+00
    0.24047E+07         0.12293E+08         0.00000E+00
    0.00000E+00         0.00000E+00         0.30883E+07
 
    0.31217E+07         0.24917E+07         0.00000E+00
    0.24917E+07         0.12306E+08         0.00000E+00
    0.00000E+00         0.00000E+00         0.30855E+07
 
    0.30947E+07         0.25802E+07         0.00000E+00
    0.25802E+07         0.12318E+08         0.00000E+00
    0.00000E+00         0.00000E+00         0.30826E+07
 
    0.31932E+07         0.10705E+05         0.00000E+00
    0.10705E+05         0.10883E+08         0.00000E+00
    0.00000E+00         0.00000E+00         0.28153E+07
 
    0.32301E+07         0.33433E+05         0.00000E+00
    0.33433E+05         0.10885E+08         0.00000E+00
    0.00000E+00         0.00000E+00         0.28230E+07
 
    0.32636E+07         0.56859E+05         0.00000E+00
    0.56859E+05         0.10888E+08         0.00000E+00
    0.00000E+00         0.00000E+00         0.28303E+07
 
    0.32937E+07         0.81078E+05         0.00000E+00
    0.81078E+05         0.10892E+08         0.00000E+00
    0.00000E+00         0.00000E+00         0.28372E+07
 
    0.33207E+07         0.10618E+06         0.00000E+00
    0.10618E+06         0.10898E+08         0.00000E+00
    0.00000E+00         0.00000E+00         0.28438E+07
 
    0.33446E+07         0.13224E+06         0.00000E+00
    0.13224E+06         0.10905E+08         0.00000E+00
    0.00000E+00         0.00000E+00         0.28499E+07
 
    0.33655E+07         0.15934E+06         0.00000E+00
    0.15934E+06         0.10913E+08         0.00000E+00
    0.00000E+00         0.00000E+00         0.28558E+07
 
    0.33836E+07         0.18755E+06         0.00000E+00
    0.18755E+06         0.10923E+08         0.00000E+00
    0.00000E+00         0.00000E+00         0.28613E+07
 
    0.33989E+07         0.21692E+06         0.00000E+00
    0.21692E+06         0.10933E+08         0.00000E+00
    0.00000E+00         0.00000E+00         0.28664E+07
 
    0.34117E+07         0.24752E+06         0.00000E+00
    0.24752E+06         0.10945E+08         0.00000E+00
    0.00000E+00         0.00000E+00         0.28713E+07
 
    0.34220E+07         0.27939E+06         0.00000E+00
    0.27939E+06         0.10957E+08         0.00000E+00
    0.00000E+00         0.00000E+00         0.28758E+07
 
    0.34300E+07         0.31259E+06         0.00000E+00
    0.31259E+06         0.10970E+08         0.00000E+00
    0.00000E+00         0.00000E+00         0.28800E+07
 
    0.34356E+07         0.34715E+06         0.00000E+00
    0.34715E+06         0.10984E+08         0.00000E+00
    0.00000E+00         0.00000E+00         0.28840E+07
 
    0.34392E+07         0.38310E+06         0.00000E+00
    0.38310E+06         0.10999E+08         0.00000E+00
    0.00000E+00         0.00000E+00         0.28876E+07
 
    0.34408E+07         0.42047E+06         0.00000E+00
    0.42047E+06         0.11014E+08         0.00000E+00
    0.00000E+00         0.00000E+00         0.28910E+07
 
    0.34405E+07         0.45930E+06         0.00000E+00
    0.45930E+06         0.11030E+08         0.00000E+00
    0.00000E+00         0.00000E+00         0.28941E+07
 
    0.34384E+07         0.49960E+06         0.00000E+00
    0.49960E+06         0.11046E+08         0.00000E+00
    0.00000E+00         0.00000E+00         0.28970E+07
 
    0.34346E+07         0.54139E+06         0.00000E+00
    0.54139E+06         0.11063E+08         0.00000E+00
    0.00000E+00         0.00000E+00         0.28996E+07
 
    0.34292E+07         0.58469E+06         0.00000E+00
    0.58469E+06         0.11081E+08         0.00000E+00
    0.00000E+00         0.00000E+00         0.29020E+07
 
    0.34224E+07         0.62949E+06         0.00000E+00
    0.62949E+06         0.11098E+08         0.00000E+00
    0.00000E+00         0.00000E+00         0.29041E+07
 
    0.34143E+07         0.67581E+06         0.00000E+00
    0.67581E+06         0.11116E+08         0.00000E+00
    0.00000E+00         0.00000E+00         0.29061E+07
 
    0.34049E+07         0.72365E+06         0.00000E+00
    0.72365E+06         0.11134E+08         0.00000E+00
    0.00000E+00         0.00000E+00         0.29078E+07
 
    0.33943E+07         0.77301E+06         0.00000E+00
    0.77301E+06         0.11152E+08         0.00000E+00
    0.00000E+00         0.00000E+00         0.29093E+07
 
    0.33826E+07         0.82388E+06         0.00000E+00
    0.82388E+06         0.11171E+08         0.00000E+00
    0.00000E+00         0.00000E+00         0.29106E+07
 
    0.33699E+07         0.87626E+06         0.00000E+00
    0.87626E+06         0.11189E+08         0.00000E+00
    0.00000E+00         0.00000E+00         0.29118E+07
 
    0.33564E+07         0.93014E+06         0.00000E+00
    0.93014E+06         0.11207E+08         0.00000E+00
    0.00000E+00         0.00000E+00         0.29128E+07
 
    0.33420E+07         0.98550E+06         0.00000E+00
    0.98550E+06         0.11226E+08         0.00000E+00
    0.00000E+00         0.00000E+00         0.29136E+07
 
    0.33268E+07         0.10423E+07         0.00000E+00
    0.10423E+07         0.11244E+08         0.00000E+00
    0.00000E+00         0.00000E+00         0.29142E+07
 
    0.33110E+07         0.11006E+07         0.00000E+00
    0.11006E+07         0.11262E+08         0.00000E+00
    0.00000E+00         0.00000E+00         0.29146E+07
 
    0.32945E+07         0.11604E+07         0.00000E+00
    0.11604E+07         0.11280E+08         0.00000E+00
    0.00000E+00         0.00000E+00         0.29150E+07
 
    0.32775E+07         0.12215E+07         0.00000E+00
    0.12215E+07         0.11298E+08         0.00000E+00
    0.00000E+00         0.00000E+00         0.29151E+07
 
    0.32600E+07         0.12841E+07         0.00000E+00
    0.12841E+07         0.11316E+08         0.00000E+00
    0.00000E+00         0.00000E+00         0.29151E+07
 
    0.32420E+07         0.13480E+07         0.00000E+00
    0.13480E+07         0.11333E+08         0.00000E+00
    0.00000E+00         0.00000E+00         0.29150E+07
 
    0.32237E+07         0.14133E+07         0.00000E+00
    0.14133E+07         0.11350E+08         0.00000E+00
    0.00000E+00         0.00000E+00         0.29147E+07
 
    0.32049E+07         0.14800E+07         0.00000E+00
    0.14800E+07         0.11367E+08         0.00000E+00
    0.00000E+00         0.00000E+00         0.29143E+07
 
    0.31859E+07         0.15480E+07         0.00000E+00
    0.15480E+07         0.11383E+08         0.00000E+00
    0.00000E+00         0.00000E+00         0.29138E+07
 
    0.31666E+07         0.16173E+07         0.00000E+00
    0.16173E+07         0.11399E+08         0.00000E+00
    0.00000E+00         0.00000E+00         0.29131E+07
 
    0.31470E+07         0.16879E+07         0.00000E+00
    0.16879E+07         0.11415E+08         0.00000E+00
    0.00000E+00         0.00000E+00         0.29123E+07
 
    0.31272E+07         0.17598E+07         0.00000E+00
    0.17598E+07         0.11430E+08         0.00000E+00
    0.00000E+00         0.00000E+00         0.29114E+07
 
    0.31073E+07         0.18330E+07         0.00000E+00
    0.18330E+07         0.11445E+08         0.00000E+00
    0.00000E+00         0.00000E+00         0.29104E+07
 
    0.30871E+07         0.19074E+07         0.00000E+00
    0.19074E+07         0.11459E+08         0.00000E+00
    0.00000E+00         0.00000E+00         0.29092E+07
 
    0.30669E+07         0.19831E+07         0.00000E+00
    0.19831E+07         0.11473E+08         0.00000E+00
    0.00000E+00         0.00000E+00         0.29080E+07
 
    0.30465E+07         0.20601E+07         0.00000E+00
    0.20601E+07         0.11486E+08         0.00000E+00
    0.00000E+00         0.00000E+00         0.29066E+07
 
    0.30260E+07         0.21383E+07         0.00000E+00
    0.21383E+07         0.11499E+08         0.00000E+00
    0.00000E+00         0.00000E+00         0.29051E+07
 
    0.30055E+07         0.22178E+07         0.00000E+00
    0.22178E+07         0.11512E+08         0.00000E+00
    0.00000E+00         0.00000E+00         0.29034E+07
 
    0.29850E+07         0.22985E+07         0.00000E+00
    0.22985E+07         0.11524E+08         0.00000E+00
    0.00000E+00         0.00000E+00         0.29017E+07
 
    0.29644E+07         0.23806E+07         0.00000E+00
    0.23806E+07         0.11535E+08         0.00000E+00
    0.00000E+00         0.00000E+00         0.28999E+07
 
    0.29438E+07         0.24638E+07         0.00000E+00
    0.24638E+07         0.11546E+08         0.00000E+00
    0.00000E+00         0.00000E+00         0.28980E+07
 
    0.29233E+07         0.25483E+07         0.00000E+00
    0.25483E+07         0.11556E+08         0.00000E+00
    0.00000E+00         0.00000E+00         0.28959E+07
 
    0.29029E+07         0.26341E+07         0.00000E+00
    0.26341E+07         0.11566E+08         0.00000E+00
    0.00000E+00         0.00000E+00         0.28938E+07
 
    0.27092E+07         0.14174E+05         0.00000E+00
    0.14174E+05         0.10270E+08         0.00000E+00
    0.00000E+00         0.00000E+00         0.25959E+07
 
    0.27487E+07         0.43288E+05         0.00000E+00
    0.43288E+05         0.10272E+08         0.00000E+00
    0.00000E+00         0.00000E+00         0.26041E+07
 
    0.27852E+07         0.72850E+05         0.00000E+00
    0.72850E+05         0.10274E+08         0.00000E+00
    0.00000E+00         0.00000E+00         0.26119E+07
 
    0.28189E+07         0.10294E+06         0.00000E+00
    0.10294E+06         0.10278E+08         0.00000E+00
    0.00000E+00         0.00000E+00         0.26194E+07
 
    0.28498E+07         0.13365E+06         0.00000E+00
    0.13365E+06         0.10283E+08         0.00000E+00
    0.00000E+00         0.00000E+00         0.26265E+07
 
    0.28780E+07         0.16503E+06         0.00000E+00
    0.16503E+06         0.10289E+08         0.00000E+00
    0.00000E+00         0.00000E+00         0.26334E+07
 
    0.29036E+07         0.19718E+06         0.00000E+00
    0.19718E+06         0.10296E+08         0.00000E+00
    0.00000E+00         0.00000E+00         0.26399E+07
 
    0.29267E+07         0.23014E+06         0.00000E+00
    0.23014E+06         0.10304E+08         0.00000E+00
    0.00000E+00         0.00000E+00         0.26461E+07
 
    0.29473E+07         0.26398E+06         0.00000E+00
    0.26398E+06         0.10313E+08         0.00000E+00
    0.00000E+00         0.00000E+00         0.26520E+07
 
    0.29657E+07         0.29876E+06         0.00000E+00
    0.29876E+06         0.10322E+08         0.00000E+00
    0.00000E+00         0.00000E+00         0.26576E+07
 
    0.29818E+07         0.33452E+06         0.00000E+00
    0.33452E+06         0.10333E+08         0.00000E+00
    0.00000E+00         0.00000E+00         0.26629E+07
 
    0.29957E+07         0.37131E+06         0.00000E+00
    0.37131E+06         0.10344E+08         0.00000E+00
    0.00000E+00         0.00000E+00         0.26679E+07
 
    0.30077E+07         0.40917E+06         0.00000E+00
    0.40917E+06         0.10356E+08         0.00000E+00
    0.00000E+00         0.00000E+00         0.26727E+07
 
    0.30176E+07         0.44814E+06         0.00000E+00
    0.44814E+06         0.10368E+08         0.00000E+00
    0.00000E+00         0.00000E+00         0.26772E+07
 
    0.30258E+07         0.48825E+06         0.00000E+00
    0.48825E+06         0.10381E+08         0.00000E+00
    0.00000E+00         0.00000E+00         0.26814E+07
 
    0.30321E+07         0.52954E+06         0.00000E+00
    0.52954E+06         0.10395E+08         0.00000E+00
    0.00000E+00         0.00000E+00         0.26854E+07
 
    0.30368E+07         0.57202E+06         0.00000E+00
    0.57202E+06         0.10409E+08         0.00000E+00
    0.00000E+00         0.00000E+00         0.26891E+07
 
    0.30399E+07         0.61572E+06         0.00000E+00
    0.61572E+06         0.10423E+08         0.00000E+00
    0.00000E+00         0.00000E+00         0.26926E+07
 
    0.30416E+07         0.66065E+06         0.00000E+00
    0.66065E+06         0.10438E+08         0.00000E+00
    0.00000E+00         0.00000E+00         0.26959E+07
 
    0.30418E+07         0.70684E+06         0.00000E+00
    0.70684E+06         0.10453E+08         0.00000E+00
    0.00000E+00         0.00000E+00         0.26990E+07
 
    0.30407E+07         0.75429E+06         0.00000E+00
    0.75429E+06         0.10468E+08         0.00000E+00
    0.00000E+00         0.00000E+00         0.27018E+07
 
    0.30383E+07         0.80302E+06         0.00000E+00
    0.80302E+06         0.10484E+08         0.00000E+00
    0.00000E+00         0.00000E+00         0.27044E+07
 
    0.30349E+07         0.85302E+06         0.00000E+00
    0.85302E+06         0.10499E+08         0.00000E+00
    0.00000E+00         0.00000E+00         0.27068E+07
 
    0.30303E+07         0.90431E+06         0.00000E+00
    0.90431E+06         0.10515E+08         0.00000E+00
    0.00000E+00         0.00000E+00         0.27091E+07
 
    0.30247E+07         0.95689E+06         0.00000E+00
    0.95689E+06         0.10531E+08         0.00000E+00
    0.00000E+00         0.00000E+00         0.27111E+07
 
    0.30182E+07         0.10108E+07         0.00000E+00
    0.10108E+07         0.10547E+08         0.00000E+00
    0.00000E+00         0.00000E+00         0.27130E+07
 
    0.30108E+07         0.10659E+07         0.00000E+00
    0.10659E+07         0.10562E+08         0.00000E+00
    0.00000E+00         0.00000E+00         0.27146E+07
 
    0.30026E+07         0.11223E+07         0.00000E+00
    0.11223E+07         0.10578E+08         0.00000E+00
    0.00000E+00         0.00000E+00         0.27161E+07
 
    0.29937E+07         0.11800E+07         0.00000E+00
    0.11800E+07         0.10594E+08         0.00000E+00
    0.00000E+00         0.00000E+00         0.27174E+07
 
    0.29841E+07         0.12390E+07         0.00000E+00
    0.12390E+07         0.10609E+08         0.00000E+00
    0.00000E+00         0.00000E+00         0.27186E+07
 
    0.29739E+07         0.12992E+07         0.00000E+00
    0.12992E+07         0.10624E+08         0.00000E+00
    0.00000E+00         0.00000E+00         0.27196E+07
 
    0.29631E+07         0.13607E+07         0.00000E+00
    0.13607E+07         0.10639E+08         0.00000E+00
    0.00000E+00         0.00000E+00         0.27204E+07
 
    0.29518E+07         0.14234E+07         0.00000E+00
    0.14234E+07         0.10654E+08         0.00000E+00
    0.00000E+00         0.00000E+00         0.27211E+07
 
    0.29400E+07         0.14874E+07         0.00000E+00
    0.14874E+07         0.10668E+08         0.00000E+00
    0.00000E+00         0.00000E+00         0.27217E+07
 
    0.29278E+07         0.15526E+07         0.00000E+00
    0.15526E+07         0.10683E+08         0.00000E+00
    0.00000E+00         0.00000E+00         0.27221E+07
 
    0.29152E+07         0.16190E+07         0.00000E+00
    0.16190E+07         0.10696E+08         0.00000E+00
    0.00000E+00         0.00000E+00         0.27223E+07
 
    0.29023E+07         0.16867E+07         0.00000E+00
    0.16867E+07         0.10710E+08         0.00000E+00
    0.00000E+00         0.00000E+00         0.27224E+07
 
    0.28891E+07         0.17555E+07         0.00000E+00
    0.17555E+07         0.10723E+08         0.00000E+00
    0.00000E+00         0.00000E+00         0.27224E+07
 
    0.28756E+07         0.18255E+07         0.00000E+00
    0.18255E+07         0.10736E+08         0.00000E+00
    0.00000E+00         0.00000E+00         0.27223E+07
 
    0.28619E+07         0.18968E+07         0.00000E+00
    0.18968E+07         0.10748E+08         0.00000E+00
    0.00000E+00         0.00000E+00         0.27220E+07
 
    0.28480E+07         0.19692E+07         0.00000E+00
    0.19692E+07         0.10760E+08         0.00000E+00
    0.00000E+00         0.00000E+00         0.27216E+07
 
    0.28339E+07         0.20428E+07         0.00000E+00
    0.20428E+07         0.10771E+08         0.00000E+00
    0.00000E+00         0.00000E+00         0.27210E+07
 
    0.28197E+07         0.21176E+07         0.00000E+00
    0.21176E+07         0.10782E+08         0.00000E+00
    0.00000E+00         0.00000E+00         0.27204E+07
 
    0.28054E+07         0.21935E+07         0.00000E+00
    0.21935E+07         0.10793E+08         0.00000E+00
    0.00000E+00         0.00000E+00         0.27196E+07
 
    0.27910E+07         0.22707E+07         0.00000E+00
    0.22707E+07         0.10803E+08         0.00000E+00
    0.00000E+00         0.00000E+00         0.27187E+07
 
    0.27766E+07         0.23490E+07         0.00000E+00
    0.23490E+07         0.10812E+08         0.00000E+00
    0.00000E+00         0.00000E+00         0.27177E+07
 
    0.27621E+07         0.24285E+07         0.00000E+00
    0.24285E+07         0.10821E+08         0.00000E+00
    0.00000E+00         0.00000E+00         0.27166E+07
 
    0.27477E+07         0.25092E+07         0.00000E+00
    0.25092E+07         0.10829E+08         0.00000E+00
    0.00000E+00         0.00000E+00         0.27153E+07
 
    0.27333E+07         0.25910E+07         0.00000E+00
    0.25910E+07         0.10837E+08         0.00000E+00
    0.00000E+00         0.00000E+00         0.27140E+07
 
    0.27189E+07         0.26740E+07         0.00000E+00
    0.26740E+07         0.10844E+08         0.00000E+00
    0.00000E+00         0.00000E+00         0.27125E+07
 
    0.22784E+07         0.16985E+05         0.00000E+00
    0.16985E+05         0.96814E+07         0.00000E+00
    0.00000E+00         0.00000E+00         0.23920E+07
 
    0.23195E+07         0.51326E+05         0.00000E+00
    0.51326E+05         0.96825E+07         0.00000E+00
    0.00000E+00         0.00000E+00         0.24004E+07
 
    0.23580E+07         0.85927E+05         0.00000E+00
    0.85927E+05         0.96847E+07         0.00000E+00
    0.00000E+00         0.00000E+00         0.24085E+07
 
    0.23940E+07         0.12086E+06         0.00000E+00
    0.12086E+06         0.96878E+07         0.00000E+00
    0.00000E+00         0.00000E+00         0.24164E+07
 
    0.24276E+07         0.15620E+06         0.00000E+00
    0.15620E+06         0.96918E+07         0.00000E+00
    0.00000E+00         0.00000E+00         0.24239E+07
 
    0.24589E+07         0.19202E+06         0.00000E+00
    0.19202E+06         0.96968E+07         0.00000E+00
    0.00000E+00         0.00000E+00         0.24311E+07
 
    0.24878E+07         0.22836E+06         0.00000E+00
    0.22836E+06         0.97026E+07         0.00000E+00
    0.00000E+00         0.00000E+00         0.24381E+07
 
    0.25146E+07         0.26530E+06         0.00000E+00
    0.26530E+06         0.97092E+07         0.00000E+00
    0.00000E+00         0.00000E+00         0.24448E+07
 
    0.25392E+07         0.30289E+06         0.00000E+00
    0.30289E+06         0.97166E+07         0.00000E+00
    0.00000E+00         0.00000E+00         0.24512E+07
 
    0.25618E+07         0.34118E+06         0.00000E+00
    0.34118E+06         0.97247E+07         0.00000E+00
    0.00000E+00         0.00000E+00         0.24573E+07
 
    0.25824E+07         0.38022E+06         0.00000E+00
    0.38022E+06         0.97335E+07         0.00000E+00
    0.00000E+00         0.00000E+00         0.24632E+07
 
    0.26010E+07         0.42005E+06         0.00000E+00
    0.42005E+06         0.97429E+07         0.00000E+00
    0.00000E+00         0.00000E+00         0.24688E+07
 
    0.26178E+07         0.46072E+06         0.00000E+00
    0.46072E+06         0.97529E+07         0.00000E+00
    0.00000E+00         0.00000E+00         0.24741E+07
 
    0.26329E+07         0.50226E+06         0.00000E+00
    0.50226E+06         0.97634E+07         0.00000E+00
    0.00000E+00         0.00000E+00         0.24793E+07
 
    0.26462E+07         0.54470E+06         0.00000E+00
    0.54470E+06         0.97744E+07         0.00000E+00
    0.00000E+00         0.00000E+00         0.24841E+07
 
    0.26580E+07         0.58808E+06         0.00000E+00
    0.58808E+06         0.97858E+07         0.00000E+00
    0.00000E+00         0.00000E+00         0.24888E+07
 
    0.26682E+07         0.63242E+06         0.00000E+00
    0.63242E+06         0.97977E+07         0.00000E+00
    0.00000E+00         0.00000E+00         0.24932E+07
 
    0.26769E+07         0.67775E+06         0.00000E+00
    0.67775E+06         0.98098E+07         0.00000E+00
    0.00000E+00         0.00000E+00         0.24973E+07
 
    0.26842E+07         0.72409E+06         0.00000E+00
    0.72409E+06         0.98223E+07         0.00000E+00
    0.00000E+00         0.00000E+00         0.25013E+07
 
    0.26903E+07         0.77147E+06         0.00000E+00
    0.77147E+06         0.98350E+07         0.00000E+00
    0.00000E+00         0.00000E+00         0.25050E+07
 
    0.26950E+07         0.81989E+06         0.00000E+00
    0.81989E+06         0.98479E+07         0.00000E+00
    0.00000E+00         0.00000E+00         0.25086E+07
 
    0.26986E+07         0.86937E+06         0.00000E+00
    0.86937E+06         0.98609E+07         0.00000E+00
    0.00000E+00         0.00000E+00         0.25119E+07
 
    0.27011E+07         0.91993E+06         0.00000E+00
    0.91993E+06         0.98741E+07         0.00000E+00
    0.00000E+00         0.00000E+00         0.25150E+07
 
    0.27025E+07         0.97157E+06         0.00000E+00
    0.97157E+06         0.98874E+07         0.00000E+00
    0.00000E+00         0.00000E+00         0.25180E+07
 
    0.27030E+07         0.10243E+07         0.00000E+00
    0.10243E+07         0.99007E+07         0.00000E+00
    0.00000E+00         0.00000E+00         0.25207E+07
 
    0.27025E+07         0.10781E+07         0.00000E+00
    0.10781E+07         0.99140E+07         0.00000E+00
    0.00000E+00         0.00000E+00         0.25233E+07
 
    0.27011E+07         0.11331E+07         0.00000E+00
    0.11331E+07         0.99272E+07         0.00000E+00
    0.00000E+00         0.00000E+00         0.25257E+07
 
    0.26990E+07         0.11891E+07         0.00000E+00
    0.11891E+07         0.99404E+07         0.00000E+00
    0.00000E+00         0.00000E+00         0.25279E+07
 
    0.26961E+07         0.12463E+07         0.00000E+00
    0.12463E+07         0.99535E+07         0.00000E+00
    0.00000E+00         0.00000E+00         0.25299E+07
 
    0.26925E+07         0.13045E+07         0.00000E+00
    0.13045E+07         0.99665E+07         0.00000E+00
    0.00000E+00         0.00000E+00         0.25318E+07
 
    0.26883E+07         0.13639E+07         0.00000E+00
    0.13639E+07         0.99792E+07         0.00000E+00
    0.00000E+00         0.00000E+00         0.25335E+07
 
    0.26834E+07         0.14244E+07         0.00000E+00
    0.14244E+07         0.99918E+07         0.00000E+00
    0.00000E+00         0.00000E+00         0.25351E+07
 
    0.26781E+07         0.14860E+07         0.00000E+00
    0.14860E+07         0.10004E+08         0.00000E+00
    0.00000E+00         0.00000E+00         0.25364E+07
 
    0.26722E+07         0.15487E+07         0.00000E+00
    0.15487E+07         0.10016E+08         0.00000E+00
    0.00000E+00         0.00000E+00         0.25377E+07
 
    0.26659E+07         0.16125E+07         0.00000E+00
    0.16125E+07         0.10028E+08         0.00000E+00
    0.00000E+00         0.00000E+00         0.25388E+07
 
    0.26592E+07         0.16774E+07         0.00000E+00
    0.16774E+07         0.10039E+08         0.00000E+00
    0.00000E+00         0.00000E+00         0.25397E+07
 
    0.26521E+07         0.17434E+07         0.00000E+00
    0.17434E+07         0.10051E+08         0.00000E+00
    0.00000E+00         0.00000E+00         0.25405E+07
 
    0.26447E+07         0.18105E+07         0.00000E+00
    0.18105E+07         0.10061E+08         0.00000E+00
    0.00000E+00         0.00000E+00         0.25412E+07
 
    0.26370E+07         0.18787E+07         0.00000E+00
    0.18787E+07         0.10072E+08         0.00000E+00
    0.00000E+00         0.00000E+00         0.25417E+07
 
    0.26291E+07         0.19480E+07         0.00000E+00
    0.19480E+07         0.10082E+08         0.00000E+00
    0.00000E+00         0.00000E+00         0.25421E+07
 
    0.26209E+07         0.20184E+07         0.00000E+00
    0.20184E+07         0.10091E+08         0.00000E+00
    0.00000E+00         0.00000E+00         0.25424E+07
 
    0.26126E+07         0.20899E+07         0.00000E+00
    0.20899E+07         0.10100E+08         0.00000E+00
    0.00000E+00         0.00000E+00         0.25425E+07
 
    0.26041E+07         0.21625E+07         0.00000E+00
    0.21625E+07         0.10109E+08         0.00000E+00
    0.00000E+00         0.00000E+00         0.25425E+07
 
    0.25955E+07         0.22361E+07         0.00000E+00
    0.22361E+07         0.10117E+08         0.00000E+00
    0.00000E+00         0.00000E+00         0.25424E+07
 
    0.25868E+07         0.23109E+07         0.00000E+00
    0.23109E+07         0.10124E+08         0.00000E+00
    0.00000E+00         0.00000E+00         0.25422E+07
 
    0.25780E+07         0.23867E+07         0.00000E+00
    0.23867E+07         0.10131E+08         0.00000E+00
    0.00000E+00         0.00000E+00         0.25418E+07
 
    0.25692E+07         0.24636E+07         0.00000E+00
    0.24636E+07         0.10137E+08         0.00000E+00
    0.00000E+00         0.00000E+00         0.25413E+07
 
    0.25605E+07         0.25416E+07         0.00000E+00
    0.25416E+07         0.10143E+08         0.00000E+00
    0.00000E+00         0.00000E+00         0.25407E+07
 
    0.25517E+07         0.26207E+07         0.00000E+00
    0.26207E+07         0.10148E+08         0.00000E+00
    0.00000E+00         0.00000E+00         0.25400E+07
 
    0.25430E+07         0.27009E+07         0.00000E+00
    0.27009E+07         0.10153E+08         0.00000E+00
    0.00000E+00         0.00000E+00         0.25392E+07
 
    0.18956E+07         0.19248E+05         0.00000E+00
    0.19248E+05         0.91164E+07         0.00000E+00
    0.00000E+00         0.00000E+00         0.22024E+07
 
    0.19375E+07         0.57826E+05         0.00000E+00
    0.57826E+05         0.91173E+07         0.00000E+00
    0.00000E+00         0.00000E+00         0.22110E+07
 
    0.19771E+07         0.96525E+05         0.00000E+00
    0.96525E+05         0.91191E+07         0.00000E+00
    0.00000E+00         0.00000E+00         0.22192E+07
 
    0.20146E+07         0.13541E+06         0.00000E+00
    0.13541E+06         0.91216E+07         0.00000E+00
    0.00000E+00         0.00000E+00         0.22272E+07
 
    0.20499E+07         0.17455E+06         0.00000E+00
    0.17455E+06         0.91250E+07         0.00000E+00
    0.00000E+00         0.00000E+00         0.22350E+07
 
    0.20833E+07         0.21399E+06         0.00000E+00
    0.21399E+06         0.91291E+07         0.00000E+00
    0.00000E+00         0.00000E+00         0.22425E+07
 
    0.21146E+07         0.25379E+06         0.00000E+00
    0.25379E+06         0.91339E+07         0.00000E+00
    0.00000E+00         0.00000E+00         0.22497E+07
 
    0.21441E+07         0.29401E+06         0.00000E+00
    0.29401E+06         0.91394E+07         0.00000E+00
    0.00000E+00         0.00000E+00         0.22567E+07
 
    0.21716E+07         0.33470E+06         0.00000E+00
    0.33470E+06         0.91456E+07         0.00000E+00
    0.00000E+00         0.00000E+00         0.22634E+07
 
    0.21973E+07         0.37590E+06         0.00000E+00
    0.37590E+06         0.91523E+07         0.00000E+00
    0.00000E+00         0.00000E+00         0.22699E+07
 
    0.22212E+07         0.41765E+06         0.00000E+00
    0.41765E+06         0.91596E+07         0.00000E+00
    0.00000E+00         0.00000E+00         0.22762E+07
 
    0.22435E+07         0.46001E+06         0.00000E+00
    0.46001E+06         0.91674E+07         0.00000E+00
    0.00000E+00         0.00000E+00         0.22822E+07
 
    0.22641E+07         0.50301E+06         0.00000E+00
    0.50301E+06         0.91758E+07         0.00000E+00
    0.00000E+00         0.00000E+00         0.22880E+07
 
    0.22831E+07         0.54669E+06         0.00000E+00
    0.54669E+06         0.91845E+07         0.00000E+00
    0.00000E+00         0.00000E+00         0.22935E+07
 
    0.23006E+07         0.59107E+06         0.00000E+00
    0.59107E+06         0.91937E+07         0.00000E+00
    0.00000E+00         0.00000E+00         0.22988E+07
 
    0.23166E+07         0.63620E+06         0.00000E+00
    0.63620E+06         0.92032E+07         0.00000E+00
    0.00000E+00         0.00000E+00         0.23040E+07
 
    0.23312E+07         0.68209E+06         0.00000E+00
    0.68209E+06         0.92130E+07         0.00000E+00
    0.00000E+00         0.00000E+00         0.23088E+07
 
    0.23445E+07         0.72879E+06         0.00000E+00
    0.72879E+06         0.92232E+07         0.00000E+00
    0.00000E+00         0.00000E+00         0.23135E+07
 
    0.23565E+07         0.77630E+06         0.00000E+00
    0.77630E+06         0.92335E+07         0.00000E+00
    0.00000E+00         0.00000E+00         0.23180E+07
 
    0.23672E+07         0.82465E+06         0.00000E+00
    0.82465E+06         0.92441E+07         0.00000E+00
    0.00000E+00         0.00000E+00         0.23223E+07
 
    0.23769E+07         0.87387E+06         0.00000E+00
    0.87387E+06         0.92549E+07         0.00000E+00
    0.00000E+00         0.00000E+00         0.23263E+07
 
    0.23854E+07         0.92397E+06         0.00000E+00
    0.92397E+06         0.92658E+07         0.00000E+00
    0.00000E+00         0.00000E+00         0.23302E+07
 
    0.23928E+07         0.97496E+06         0.00000E+00
    0.97496E+06         0.92768E+07         0.00000E+00
    0.00000E+00         0.00000E+00         0.23339E+07
 
    0.23993E+07         0.10269E+07         0.00000E+00
    0.10269E+07         0.92878E+07         0.00000E+00
    0.00000E+00         0.00000E+00         0.23374E+07
 
    0.24048E+07         0.10797E+07         0.00000E+00
    0.10797E+07         0.92988E+07         0.00000E+00
    0.00000E+00         0.00000E+00         0.23407E+07
 
    0.24095E+07         0.11334E+07         0.00000E+00
    0.11334E+07         0.93099E+07         0.00000E+00
    0.00000E+00         0.00000E+00         0.23439E+07
 
    0.24133E+07         0.11881E+07         0.00000E+00
    0.11881E+07         0.93209E+07         0.00000E+00
    0.00000E+00         0.00000E+00         0.23468E+07
 
    0.24163E+07         0.12438E+07         0.00000E+00
    0.12438E+07         0.93318E+07         0.00000E+00
    0.00000E+00         0.00000E+00         0.23496E+07
 
    0.24186E+07         0.13004E+07         0.00000E+00
    0.13004E+07         0.93426E+07         0.00000E+00
    0.00000E+00         0.00000E+00         0.23522E+07
 
    0.24203E+07         0.13580E+07         0.00000E+00
    0.13580E+07         0.93533E+07         0.00000E+00
    0.00000E+00         0.00000E+00         0.23547E+07
 
    0.24213E+07         0.14165E+07         0.00000E+00
    0.14165E+07         0.93637E+07         0.00000E+00
    0.00000E+00         0.00000E+00         0.23570E+07
 
    0.24217E+07         0.14760E+07         0.00000E+00
    0.14760E+07         0.93740E+07         0.00000E+00
    0.00000E+00         0.00000E+00         0.23591E+07
 
    0.24216E+07         0.15365E+07         0.00000E+00
    0.15365E+07         0.93841E+07         0.00000E+00
    0.00000E+00         0.00000E+00         0.23611E+07
 
    0.24210E+07         0.15980E+07         0.00000E+00
    0.15980E+07         0.93939E+07         0.00000E+00
    0.00000E+00         0.00000E+00         0.23630E+07
 
    0.24199E+07         0.16604E+07         0.00000E+00
    0.16604E+07         0.94033E+07         0.00000E+00
    0.00000E+00         0.00000E+00         0.23647E+07
 
    0.24185E+07         0.17239E+07         0.00000E+00
    0.17239E+07         0.94125E+07         0.00000E+00
    0.00000E+00         0.00000E+00         0.23662E+07
 
    0.24166E+07         0.17883E+07         0.00000E+00
    0.17883E+07         0.94213E+07         0.00000E+00
    0.00000E+00         0.00000E+00         0.23676E+07
 
    0.24145E+07         0.18537E+07         0.00000E+00
    0.18537E+07         0.94298E+07         0.00000E+00
    0.00000E+00         0.00000E+00         0.23689E+07
 
    0.24120E+07         0.19201E+07         0.00000E+00
    0.19201E+07         0.94379E+07         0.00000E+00
    0.00000E+00         0.00000E+00         0.23700E+07
 
    0.24093E+07         0.19874E+07         0.00000E+00
    0.19874E+07         0.94455E+07         0.00000E+00
    0.00000E+00         0.00000E+00         0.23710E+07
 
    0.24064E+07         0.20558E+07         0.00000E+00
    0.20558E+07         0.94527E+07         0.00000E+00
    0.00000E+00         0.00000E+00         0.23718E+07
 
    0.24032E+07         0.21252E+07         0.00000E+00
    0.21252E+07         0.94595E+07         0.00000E+00
    0.00000E+00         0.00000E+00         0.23725E+07
 
    0.24000E+07         0.21955E+07         0.00000E+00
    0.21955E+07         0.94657E+07         0.00000E+00
    0.00000E+00         0.00000E+00         0.23731E+07
 
    0.23966E+07         0.22668E+07         0.00000E+00
    0.22668E+07         0.94715E+07         0.00000E+00
    0.00000E+00         0.00000E+00         0.23736E+07
 
    0.23931E+07         0.23392E+07         0.00000E+00
    0.23392E+07         0.94767E+07         0.00000E+00
    0.00000E+00         0.00000E+00         0.23739E+07
 
    0.23895E+07         0.24125E+07         0.00000E+00
    0.24125E+07         0.94813E+07         0.00000E+00
    0.00000E+00         0.00000E+00         0.23742E+07
 
    0.23860E+07         0.24868E+07         0.00000E+00
    0.24868E+07         0.94854E+07         0.00000E+00
    0.00000E+00         0.00000E+00         0.23743E+07
 
    0.23824E+07         0.25621E+07         0.00000E+00
    0.25621E+07         0.94888E+07         0.00000E+00
    0.00000E+00         0.00000E+00         0.23742E+07
 
    0.23789E+07         0.26384E+07         0.00000E+00
    0.26384E+07         0.94917E+07         0.00000E+00
    0.00000E+00         0.00000E+00         0.23741E+07
 
    0.23754E+07         0.27157E+07         0.00000E+00
    0.27157E+07         0.94939E+07         0.00000E+00
    0.00000E+00         0.00000E+00         0.23739E+07
 
    0.15562E+07         0.21058E+05         0.00000E+00
    0.21058E+05         0.85754E+07         0.00000E+00
    0.00000E+00         0.00000E+00         0.20263E+07
 
    0.15982E+07         0.63038E+05         0.00000E+00
    0.63038E+05         0.85761E+07         0.00000E+00
    0.00000E+00         0.00000E+00         0.20349E+07
 
    0.16383E+07         0.10504E+06         0.00000E+00
    0.10504E+06         0.85776E+07         0.00000E+00
    0.00000E+00         0.00000E+00         0.20432E+07
 
    0.16766E+07         0.14711E+06         0.00000E+00
    0.14711E+06         0.85797E+07         0.00000E+00
    0.00000E+00         0.00000E+00         0.20513E+07
 
    0.17130E+07         0.18930E+06         0.00000E+00
    0.18930E+06         0.85824E+07         0.00000E+00
    0.00000E+00         0.00000E+00         0.20591E+07
 
    0.17477E+07         0.23168E+06         0.00000E+00
    0.23168E+06         0.85858E+07         0.00000E+00
    0.00000E+00         0.00000E+00         0.20667E+07
 
    0.17806E+07         0.27429E+06         0.00000E+00
    0.27429E+06         0.85898E+07         0.00000E+00
    0.00000E+00         0.00000E+00         0.20741E+07
 
    0.18119E+07         0.31717E+06         0.00000E+00
    0.31717E+06         0.85943E+07         0.00000E+00
    0.00000E+00         0.00000E+00         0.20812E+07
 
    0.18415E+07         0.36037E+06         0.00000E+00
    0.36037E+06         0.85994E+07         0.00000E+00
    0.00000E+00         0.00000E+00         0.20882E+07
 
    0.18695E+07         0.40394E+06         0.00000E+00
    0.40394E+06         0.86049E+07         0.00000E+00
    0.00000E+00         0.00000E+00         0.20949E+07
 
    0.18959E+07         0.44791E+06         0.00000E+00
    0.44791E+06         0.86109E+07         0.00000E+00
    0.00000E+00         0.00000E+00         0.21014E+07
 
    0.19209E+07         0.49233E+06         0.00000E+00
    0.49233E+06         0.86174E+07         0.00000E+00
    0.00000E+00         0.00000E+00         0.21076E+07
 
    0.19443E+07         0.53723E+06         0.00000E+00
    0.53723E+06         0.86242E+07         0.00000E+00
    0.00000E+00         0.00000E+00         0.21137E+07
 
    0.19664E+07         0.58264E+06         0.00000E+00
    0.58264E+06         0.86314E+07         0.00000E+00
    0.00000E+00         0.00000E+00         0.21196E+07
 
    0.19871E+07         0.62860E+06         0.00000E+00
    0.62860E+06         0.86389E+07         0.00000E+00
    0.00000E+00         0.00000E+00         0.21252E+07
 
    0.20065E+07         0.67515E+06         0.00000E+00
    0.67515E+06         0.86468E+07         0.00000E+00
    0.00000E+00         0.00000E+00         0.21306E+07
 
    0.20246E+07         0.72230E+06         0.00000E+00
    0.72230E+06         0.86549E+07         0.00000E+00
    0.00000E+00         0.00000E+00         0.21359E+07
 
    0.20415E+07         0.77008E+06         0.00000E+00
    0.77008E+06         0.86632E+07         0.00000E+00
    0.00000E+00         0.00000E+00         0.21409E+07
 
    0.20572E+07         0.81853E+06         0.00000E+00
    0.81853E+06         0.86717E+07         0.00000E+00
    0.00000E+00         0.00000E+00         0.21458E+07
 
    0.20719E+07         0.86765E+06         0.00000E+00
    0.86765E+06         0.86804E+07         0.00000E+00
    0.00000E+00         0.00000E+00         0.21505E+07
 
    0.20854E+07         0.91748E+06         0.00000E+00
    0.91748E+06         0.86892E+07         0.00000E+00
    0.00000E+00         0.00000E+00         0.21549E+07
 
    0.20980E+07         0.96803E+06         0.00000E+00
    0.96803E+06         0.86981E+07         0.00000E+00
    0.00000E+00         0.00000E+00         0.21592E+07
 
    0.21095E+07         0.10193E+07         0.00000E+00
    0.10193E+07         0.87071E+07         0.00000E+00
    0.00000E+00         0.00000E+00         0.21633E+07
 
    0.21202E+07         0.10714E+07         0.00000E+00
    0.10714E+07         0.87161E+07         0.00000E+00
    0.00000E+00         0.00000E+00         0.21673E+07
 
    0.21300E+07         0.11242E+07         0.00000E+00
    0.11242E+07         0.87251E+07         0.00000E+00
    0.00000E+00         0.00000E+00         0.21710E+07
 
    0.21390E+07         0.11778E+07         0.00000E+00
    0.11778E+07         0.87341E+07         0.00000E+00
    0.00000E+00         0.00000E+00         0.21746E+07
 
    0.21472E+07         0.12322E+07         0.00000E+00
    0.12322E+07         0.87430E+07         0.00000E+00
    0.00000E+00         0.00000E+00         0.21780E+07
 
    0.21546E+07         0.12874E+07         0.00000E+00
    0.12874E+07         0.87519E+07         0.00000E+00
    0.00000E+00         0.00000E+00         0.21813E+07
 
    0.21614E+07         0.13434E+07         0.00000E+00
    0.13434E+07         0.87606E+07         0.00000E+00
    0.00000E+00         0.00000E+00         0.21844E+07
 
    0.21676E+07         0.14003E+07         0.00000E+00
    0.14003E+07         0.87691E+07         0.00000E+00
    0.00000E+00         0.00000E+00         0.21873E+07
 
    0.21731E+07         0.14580E+07         0.00000E+00
    0.14580E+07         0.87775E+07         0.00000E+00
    0.00000E+00         0.00000E+00         0.21901E+07
 
    0.21781E+07         0.15165E+07         0.00000E+00
    0.15165E+07         0.87856E+07         0.00000E+00
    0.00000E+00         0.00000E+00         0.21927E+07
 
    0.21826E+07         0.15759E+07         0.00000E+00
    0.15759E+07         0.87935E+07         0.00000E+00
    0.00000E+00         0.00000E+00         0.21952E+07
 
    0.21866E+07         0.16361E+07         0.00000E+00
    0.16361E+07         0.88012E+07         0.00000E+00
    0.00000E+00         0.00000E+00         0.21976E+07
 
    0.21901E+07         0.16972E+07         0.00000E+00
    0.16972E+07         0.88086E+07         0.00000E+00
    0.00000E+00         0.00000E+00         0.21997E+07
 
    0.21933E+07         0.17592E+07         0.00000E+00
    0.17592E+07         0.88156E+07         0.00000E+00
    0.00000E+00         0.00000E+00         0.22018E+07
 
    0.21961E+07         0.18220E+07         0.00000E+00
    0.18220E+07         0.88223E+07         0.00000E+00
    0.00000E+00         0.00000E+00         0.22037E+07
 
    0.21986E+07         0.18857E+07         0.00000E+00
    0.18857E+07         0.88287E+07         0.00000E+00
    0.00000E+00         0.00000E+00         0.22055E+07
 
    0.22008E+07         0.19503E+07         0.00000E+00
    0.19503E+07         0.88346E+07         0.00000E+00
    0.00000E+00         0.00000E+00         0.22071E+07
 
    0.22028E+07         0.20158E+07         0.00000E+00
    0.20158E+07         0.88401E+07         0.00000E+00
    0.00000E+00         0.00000E+00         0.22086E+07
 
    0.22045E+07         0.20821E+07         0.00000E+00
    0.20821E+07         0.88452E+07         0.00000E+00
    0.00000E+00         0.00000E+00         0.22099E+07
 
    0.22061E+07         0.21494E+07         0.00000E+00
    0.21494E+07         0.88499E+07         0.00000E+00
    0.00000E+00         0.00000E+00         0.22112E+07
 
    0.22075E+07         0.22175E+07         0.00000E+00
    0.22175E+07         0.88540E+07         0.00000E+00
    0.00000E+00         0.00000E+00         0.22123E+07
 
    0.22088E+07         0.22865E+07         0.00000E+00
    0.22865E+07         0.88576E+07         0.00000E+00
    0.00000E+00         0.00000E+00         0.22133E+07
 
    0.22101E+07         0.23564E+07         0.00000E+00
    0.23564E+07         0.88607E+07         0.00000E+00
    0.00000E+00         0.00000E+00         0.22142E+07
 
    0.22112E+07         0.24272E+07         0.00000E+00
    0.24272E+07         0.88632E+07         0.00000E+00
    0.00000E+00         0.00000E+00         0.22149E+07
 
    0.22124E+07         0.24989E+07         0.00000E+00
    0.24989E+07         0.88652E+07         0.00000E+00
    0.00000E+00         0.00000E+00         0.22155E+07
 
    0.22136E+07         0.25715E+07         0.00000E+00
    0.25715E+07         0.88665E+07         0.00000E+00
    0.00000E+00         0.00000E+00         0.22160E+07
 
    0.22148E+07         0.26450E+07         0.00000E+00
    0.26450E+07         0.88673E+07         0.00000E+00
    0.00000E+00         0.00000E+00         0.22164E+07
 
    0.22161E+07         0.27194E+07         0.00000E+00
    0.27194E+07         0.88673E+07         0.00000E+00
    0.00000E+00         0.00000E+00         0.22167E+07
 
    0.12561E+07         0.22491E+05         0.00000E+00
    0.22491E+05         0.80582E+07         0.00000E+00
    0.00000E+00         0.00000E+00         0.18629E+07
 
    0.12978E+07         0.67172E+05         0.00000E+00
    0.67172E+05         0.80589E+07         0.00000E+00
    0.00000E+00         0.00000E+00         0.18713E+07
 
    0.13379E+07         0.11179E+06         0.00000E+00
    0.11179E+06         0.80600E+07         0.00000E+00
    0.00000E+00         0.00000E+00         0.18796E+07
 
    0.13764E+07         0.15639E+06         0.00000E+00
    0.15639E+06         0.80617E+07         0.00000E+00
    0.00000E+00         0.00000E+00         0.18876E+07
 
    0.14134E+07         0.20103E+06         0.00000E+00
    0.20103E+06         0.80640E+07         0.00000E+00
    0.00000E+00         0.00000E+00         0.18955E+07
 
    0.14488E+07         0.24575E+06         0.00000E+00
    0.24575E+06         0.80667E+07         0.00000E+00
    0.00000E+00         0.00000E+00         0.19031E+07
 
    0.14827E+07         0.29058E+06         0.00000E+00
    0.29058E+06         0.80699E+07         0.00000E+00
    0.00000E+00         0.00000E+00         0.19105E+07
 
    0.15151E+07         0.33559E+06         0.00000E+00
    0.33559E+06         0.80736E+07         0.00000E+00
    0.00000E+00         0.00000E+00         0.19177E+07
 
    0.15461E+07         0.38079E+06         0.00000E+00
    0.38079E+06         0.80777E+07         0.00000E+00
    0.00000E+00         0.00000E+00         0.19248E+07
 
    0.15757E+07         0.42625E+06         0.00000E+00
    0.42625E+06         0.80822E+07         0.00000E+00
    0.00000E+00         0.00000E+00         0.19316E+07
 
    0.16039E+07         0.47198E+06         0.00000E+00
    0.47198E+06         0.80871E+07         0.00000E+00
    0.00000E+00         0.00000E+00         0.19382E+07
 
    0.16308E+07         0.51803E+06         0.00000E+00
    0.51803E+06         0.80923E+07         0.00000E+00
    0.00000E+00         0.00000E+00         0.19446E+07
 
    0.16564E+07         0.56444E+06         0.00000E+00
    0.56444E+06         0.80979E+07         0.00000E+00
    0.00000E+00         0.00000E+00         0.19509E+07
 
    0.16808E+07         0.61123E+06         0.00000E+00
    0.61123E+06         0.81037E+07         0.00000E+00
    0.00000E+00         0.00000E+00         0.19569E+07
 
    0.17039E+07         0.65843E+06         0.00000E+00
    0.65843E+06         0.81098E+07         0.00000E+00
    0.00000E+00         0.00000E+00         0.19628E+07
 
    0.17259E+07         0.70608E+06         0.00000E+00
    0.70608E+06         0.81162E+07         0.00000E+00
    0.00000E+00         0.00000E+00         0.19684E+07
 
    0.17468E+07         0.75420E+06         0.00000E+00
    0.75420E+06         0.81227E+07         0.00000E+00
    0.00000E+00         0.00000E+00         0.19739E+07
 
    0.17665E+07         0.80281E+06         0.00000E+00
    0.80281E+06         0.81295E+07         0.00000E+00
    0.00000E+00         0.00000E+00         0.19792E+07
 
    0.17853E+07         0.85195E+06         0.00000E+00
    0.85195E+06         0.81363E+07         0.00000E+00
    0.00000E+00         0.00000E+00         0.19843E+07
 
    0.18030E+07         0.90164E+06         0.00000E+00
    0.90164E+06         0.81433E+07         0.00000E+00
    0.00000E+00         0.00000E+00         0.19893E+07
 
    0.18197E+07         0.95189E+06         0.00000E+00
    0.95189E+06         0.81504E+07         0.00000E+00
    0.00000E+00         0.00000E+00         0.19940E+07
 
    0.18356E+07         0.10027E+07         0.00000E+00
    0.10027E+07         0.81576E+07         0.00000E+00
    0.00000E+00         0.00000E+00         0.19986E+07
 
    0.18505E+07         0.10542E+07         0.00000E+00
    0.10542E+07         0.81647E+07         0.00000E+00
    0.00000E+00         0.00000E+00         0.20031E+07
 
    0.18647E+07         0.11062E+07         0.00000E+00
    0.11062E+07         0.81719E+07         0.00000E+00
    0.00000E+00         0.00000E+00         0.20073E+07
 
    0.18780E+07         0.11589E+07         0.00000E+00
    0.11589E+07         0.81791E+07         0.00000E+00
    0.00000E+00         0.00000E+00         0.20114E+07
 
    0.18906E+07         0.12123E+07         0.00000E+00
    0.12123E+07         0.81862E+07         0.00000E+00
    0.00000E+00         0.00000E+00         0.20154E+07
 
    0.19024E+07         0.12663E+07         0.00000E+00
    0.12663E+07         0.81932E+07         0.00000E+00
    0.00000E+00         0.00000E+00         0.20191E+07
 
    0.19136E+07         0.13210E+07         0.00000E+00
    0.13210E+07         0.82001E+07         0.00000E+00
    0.00000E+00         0.00000E+00         0.20228E+07
 
    0.19242E+07         0.13764E+07         0.00000E+00
    0.13764E+07         0.82069E+07         0.00000E+00
    0.00000E+00         0.00000E+00         0.20262E+07
 
    0.19342E+07         0.14325E+07         0.00000E+00
    0.14325E+07         0.82135E+07         0.00000E+00
    0.00000E+00         0.00000E+00         0.20295E+07
 
    0.19436E+07         0.14893E+07         0.00000E+00
    0.14893E+07         0.82200E+07         0.00000E+00
    0.00000E+00         0.00000E+00         0.20327E+07
 
    0.19525E+07         0.15468E+07         0.00000E+00
    0.15468E+07         0.82262E+07         0.00000E+00
    0.00000E+00         0.00000E+00         0.20357E+07
 
    0.19609E+07         0.16051E+07         0.00000E+00
    0.16051E+07         0.82321E+07         0.00000E+00
    0.00000E+00         0.00000E+00         0.20386E+07
 
    0.19689E+07         0.16641E+07         0.00000E+00
    0.16641E+07         0.82378E+07         0.00000E+00
    0.00000E+00         0.00000E+00         0.20413E+07
 
    0.19765E+07         0.17238E+07         0.00000E+00
    0.17238E+07         0.82433E+07         0.00000E+00
    0.00000E+00         0.00000E+00         0.20439E+07
 
    0.19837E+07         0.17843E+07         0.00000E+00
    0.17843E+07         0.82484E+07         0.00000E+00
    0.00000E+00         0.00000E+00         0.20464E+07
 
    0.19905E+07         0.18456E+07         0.00000E+00
    0.18456E+07         0.82531E+07         0.00000E+00
    0.00000E+00         0.00000E+00         0.20487E+07
 
    0.19971E+07         0.19076E+07         0.00000E+00
    0.19076E+07         0.82575E+07         0.00000E+00
    0.00000E+00         0.00000E+00         0.20509E+07
 
    0.20035E+07         0.19704E+07         0.00000E+00
    0.19704E+07         0.82615E+07         0.00000E+00
    0.00000E+00         0.00000E+00         0.20530E+07
 
    0.20095E+07         0.20340E+07         0.00000E+00
    0.20340E+07         0.82651E+07         0.00000E+00
    0.00000E+00         0.00000E+00         0.20549E+07
 
    0.20154E+07         0.20983E+07         0.00000E+00
    0.20983E+07         0.82682E+07         0.00000E+00
    0.00000E+00         0.00000E+00         0.20567E+07
 
    0.20212E+07         0.21634E+07         0.00000E+00
    0.21634E+07         0.82709E+07         0.00000E+00
    0.00000E+00         0.00000E+00         0.20584E+07
 
    0.20268E+07         0.22293E+07         0.00000E+00
    0.22293E+07         0.82731E+07         0.00000E+00
    0.00000E+00         0.00000E+00         0.20600E+07
 
    0.20323E+07         0.22960E+07         0.00000E+00
    0.22960E+07         0.82748E+07         0.00000E+00
    0.00000E+00         0.00000E+00         0.20614E+07
 
    0.20378E+07         0.23635E+07         0.00000E+00
    0.23635E+07         0.82759E+07         0.00000E+00
    0.00000E+00         0.00000E+00         0.20627E+07
 
    0.20432E+07         0.24318E+07         0.00000E+00
    0.24318E+07         0.82765E+07         0.00000E+00
    0.00000E+00         0.00000E+00         0.20639E+07
 
    0.20486E+07         0.25009E+07         0.00000E+00
    0.25009E+07         0.82765E+07         0.00000E+00
    0.00000E+00         0.00000E+00         0.20650E+07
 
    0.20540E+07         0.25708E+07         0.00000E+00
    0.25708E+07         0.82760E+07         0.00000E+00
    0.00000E+00         0.00000E+00         0.20660E+07
 
    0.20595E+07         0.26415E+07         0.00000E+00
    0.26415E+07         0.82748E+07         0.00000E+00
    0.00000E+00         0.00000E+00         0.20669E+07
 
    0.20651E+07         0.27130E+07         0.00000E+00
    0.27130E+07         0.82729E+07         0.00000E+00
    0.00000E+00         0.00000E+00         0.20676E+07
 
    0.99164E+06         0.23610E+05         0.00000E+00
    0.23610E+05         0.75646E+07         0.00000E+00
    0.00000E+00         0.00000E+00         0.17113E+07
 
    0.10328E+07         0.70403E+05         0.00000E+00
    0.70403E+05         0.75651E+07         0.00000E+00
    0.00000E+00         0.00000E+00         0.17196E+07
 
    0.10725E+07         0.11707E+06         0.00000E+00
    0.11707E+06         0.75661E+07         0.00000E+00
    0.00000E+00         0.00000E+00         0.17277E+07
 
    0.11109E+07         0.16365E+06         0.00000E+00
    0.16365E+06         0.75674E+07         0.00000E+00
    0.00000E+00         0.00000E+00         0.17357E+07
 
    0.11479E+07         0.21020E+06         0.00000E+00
    0.21020E+06         0.75692E+07         0.00000E+00
    0.00000E+00         0.00000E+00         0.17434E+07
 
    0.11836E+07         0.25674E+06         0.00000E+00
    0.25674E+06         0.75714E+07         0.00000E+00
    0.00000E+00         0.00000E+00         0.17510E+07
 
    0.12179E+07         0.30332E+06         0.00000E+00
    0.30332E+06         0.75740E+07         0.00000E+00
    0.00000E+00         0.00000E+00         0.17584E+07
 
    0.12510E+07         0.34997E+06         0.00000E+00
    0.34997E+06         0.75770E+07         0.00000E+00
    0.00000E+00         0.00000E+00         0.17656E+07
 
    0.12829E+07         0.39674E+06         0.00000E+00
    0.39674E+06         0.75802E+07         0.00000E+00
    0.00000E+00         0.00000E+00         0.17726E+07
 
    0.13135E+07         0.44365E+06         0.00000E+00
    0.44365E+06         0.75838E+07         0.00000E+00
    0.00000E+00         0.00000E+00         0.17795E+07
 
    0.13429E+07         0.49075E+06         0.00000E+00
    0.49075E+06         0.75877E+07         0.00000E+00
    0.00000E+00         0.00000E+00         0.17861E+07
 
    0.13712E+07         0.53806E+06         0.00000E+00
    0.53806E+06         0.75919E+07         0.00000E+00
    0.00000E+00         0.00000E+00         0.17926E+07
 
    0.13983E+07         0.58561E+06         0.00000E+00
    0.58561E+06         0.75963E+07         0.00000E+00
    0.00000E+00         0.00000E+00         0.17989E+07
 
    0.14243E+07         0.63344E+06         0.00000E+00
    0.63344E+06         0.76010E+07         0.00000E+00
    0.00000E+00         0.00000E+00         0.18051E+07
 
    0.14493E+07         0.68157E+06         0.00000E+00
    0.68157E+06         0.76058E+07         0.00000E+00
    0.00000E+00         0.00000E+00         0.18110E+07
 
    0.14733E+07         0.73004E+06         0.00000E+00
    0.73004E+06         0.76109E+07         0.00000E+00
    0.00000E+00         0.00000E+00         0.18168E+07
 
    0.14962E+07         0.77886E+06         0.00000E+00
    0.77886E+06         0.76161E+07         0.00000E+00
    0.00000E+00         0.00000E+00         0.18224E+07
 
    0.15182E+07         0.82806E+06         0.00000E+00
    0.82806E+06         0.76214E+07         0.00000E+00
    0.00000E+00         0.00000E+00         0.18279E+07
 
    0.15392E+07         0.87767E+06         0.00000E+00
    0.87767E+06         0.76268E+07         0.00000E+00
    0.00000E+00         0.00000E+00         0.18332E+07
 
    0.15594E+07         0.92770E+06         0.00000E+00
    0.92770E+06         0.76323E+07         0.00000E+00
    0.00000E+00         0.00000E+00         0.18383E+07
 
    0.15787E+07         0.97819E+06         0.00000E+00
    0.97819E+06         0.76378E+07         0.00000E+00
    0.00000E+00         0.00000E+00         0.18433E+07
 
    0.15971E+07         0.10291E+07         0.00000E+00
    0.10291E+07         0.76434E+07         0.00000E+00
    0.00000E+00         0.00000E+00         0.18481E+07
 
    0.16148E+07         0.10806E+07         0.00000E+00
    0.10806E+07         0.76490E+07         0.00000E+00
    0.00000E+00         0.00000E+00         0.18528E+07
 
    0.16318E+07         0.11325E+07         0.00000E+00
    0.11325E+07         0.76545E+07         0.00000E+00
    0.00000E+00         0.00000E+00         0.18573E+07
 
    0.16480E+07         0.11850E+07         0.00000E+00
    0.11850E+07         0.76600E+07         0.00000E+00
    0.00000E+00         0.00000E+00         0.18616E+07
 
    0.16635E+07         0.12380E+07         0.00000E+00
    0.12380E+07         0.76654E+07         0.00000E+00
    0.00000E+00         0.00000E+00         0.18658E+07
 
    0.16784E+07         0.12915E+07         0.00000E+00
    0.12915E+07         0.76707E+07         0.00000E+00
    0.00000E+00         0.00000E+00         0.18698E+07
 
    0.16927E+07         0.13456E+07         0.00000E+00
    0.13456E+07         0.76759E+07         0.00000E+00
    0.00000E+00         0.00000E+00         0.18737E+07
 
    0.17065E+07         0.14003E+07         0.00000E+00
    0.14003E+07         0.76810E+07         0.00000E+00
    0.00000E+00         0.00000E+00         0.18775E+07
 
    0.17197E+07         0.14556E+07         0.00000E+00
    0.14556E+07         0.76859E+07         0.00000E+00
    0.00000E+00         0.00000E+00         0.18811E+07
 
    0.17323E+07         0.15115E+07         0.00000E+00
    0.15115E+07         0.76905E+07         0.00000E+00
    0.00000E+00         0.00000E+00         0.18846E+07
 
    0.17446E+07         0.15680E+07         0.00000E+00
    0.15680E+07         0.76950E+07         0.00000E+00
    0.00000E+00         0.00000E+00         0.18879E+07
 
    0.17563E+07         0.16251E+07         0.00000E+00
    0.16251E+07         0.76992E+07         0.00000E+00
    0.00000E+00         0.00000E+00         0.18911E+07
 
    0.17677E+07         0.16829E+07         0.00000E+00
    0.16829E+07         0.77031E+07         0.00000E+00
    0.00000E+00         0.00000E+00         0.18942E+07
 
    0.17787E+07         0.17412E+07         0.00000E+00
    0.17412E+07         0.77068E+07         0.00000E+00
    0.00000E+00         0.00000E+00         0.18971E+07
 
    0.17894E+07         0.18003E+07         0.00000E+00
    0.18003E+07         0.77101E+07         0.00000E+00
    0.00000E+00         0.00000E+00         0.18999E+07
 
    0.17998E+07         0.18599E+07         0.00000E+00
    0.18599E+07         0.77131E+07         0.00000E+00
    0.00000E+00         0.00000E+00         0.19026E+07
 
    0.18100E+07         0.19203E+07         0.00000E+00
    0.19203E+07         0.77157E+07         0.00000E+00
    0.00000E+00         0.00000E+00         0.19051E+07
 
    0.18198E+07         0.19813E+07         0.00000E+00
    0.19813E+07         0.77179E+07         0.00000E+00
    0.00000E+00         0.00000E+00         0.19075E+07
 
    0.18295E+07         0.20429E+07         0.00000E+00
    0.20429E+07         0.77197E+07         0.00000E+00
    0.00000E+00         0.00000E+00         0.19098E+07
 
    0.18391E+07         0.21053E+07         0.00000E+00
    0.21053E+07         0.77211E+07         0.00000E+00
    0.00000E+00         0.00000E+00         0.19120E+07
 
    0.18485E+07         0.21683E+07         0.00000E+00
    0.21683E+07         0.77220E+07         0.00000E+00
    0.00000E+00         0.00000E+00         0.19141E+07
 
    0.18577E+07         0.22320E+07         0.00000E+00
    0.22320E+07         0.77224E+07         0.00000E+00
    0.00000E+00         0.00000E+00         0.19160E+07
 
    0.18669E+07         0.22964E+07         0.00000E+00
    0.22964E+07         0.77224E+07         0.00000E+00
    0.00000E+00         0.00000E+00         0.19179E+07
 
    0.18761E+07         0.23615E+07         0.00000E+00
    0.23615E+07         0.77218E+07         0.00000E+00
    0.00000E+00         0.00000E+00         0.19196E+07
 
    0.18853E+07         0.24273E+07         0.00000E+00
    0.24273E+07         0.77206E+07         0.00000E+00
    0.00000E+00         0.00000E+00         0.19212E+07
 
    0.18944E+07         0.24938E+07         0.00000E+00
    0.24938E+07         0.77189E+07         0.00000E+00
    0.00000E+00         0.00000E+00         0.19227E+07
 
    0.19036E+07         0.25610E+07         0.00000E+00
    0.25610E+07         0.77166E+07         0.00000E+00
    0.00000E+00         0.00000E+00         0.19241E+07
 
    0.19129E+07         0.26289E+07         0.00000E+00
    0.26289E+07         0.77137E+07         0.00000E+00
    0.00000E+00         0.00000E+00         0.19253E+07
 
    0.19223E+07         0.26975E+07         0.00000E+00
    0.26975E+07         0.77102E+07         0.00000E+00
    0.00000E+00         0.00000E+00         0.19265E+07
 
    0.75969E+06         0.24467E+05         0.00000E+00
    0.24467E+05         0.70941E+07         0.00000E+00
    0.00000E+00         0.00000E+00         0.15708E+07
 
    0.79996E+06         0.72873E+05         0.00000E+00
    0.72873E+05         0.70945E+07         0.00000E+00
    0.00000E+00         0.00000E+00         0.15789E+07
 
    0.83903E+06         0.12110E+06         0.00000E+00
    0.12110E+06         0.70952E+07         0.00000E+00
    0.00000E+00         0.00000E+00         0.15868E+07
 
    0.87692E+06         0.16920E+06         0.00000E+00
    0.16920E+06         0.70963E+07         0.00000E+00
    0.00000E+00         0.00000E+00         0.15946E+07
 
    0.91364E+06         0.21719E+06         0.00000E+00
    0.21719E+06         0.70977E+07         0.00000E+00
    0.00000E+00         0.00000E+00         0.16023E+07
 
    0.94921E+06         0.26512E+06         0.00000E+00
    0.26512E+06         0.70994E+07         0.00000E+00
    0.00000E+00         0.00000E+00         0.16097E+07
 
    0.98365E+06         0.31302E+06         0.00000E+00
    0.31302E+06         0.71015E+07         0.00000E+00
    0.00000E+00         0.00000E+00         0.16170E+07
 
    0.10170E+07         0.36092E+06         0.00000E+00
    0.36092E+06         0.71038E+07         0.00000E+00
    0.00000E+00         0.00000E+00         0.16242E+07
 
    0.10492E+07         0.40886E+06         0.00000E+00
    0.40886E+06         0.71063E+07         0.00000E+00
    0.00000E+00         0.00000E+00         0.16311E+07
 
    0.10804E+07         0.45686E+06         0.00000E+00
    0.45686E+06         0.71092E+07         0.00000E+00
    0.00000E+00         0.00000E+00         0.16379E+07
 
    0.11106E+07         0.50497E+06         0.00000E+00
    0.50497E+06         0.71122E+07         0.00000E+00
    0.00000E+00         0.00000E+00         0.16446E+07
 
    0.11397E+07         0.55320E+06         0.00000E+00
    0.55320E+06         0.71155E+07         0.00000E+00
    0.00000E+00         0.00000E+00         0.16510E+07
 
    0.11679E+07         0.60159E+06         0.00000E+00
    0.60159E+06         0.71189E+07         0.00000E+00
    0.00000E+00         0.00000E+00         0.16574E+07
 
    0.11951E+07         0.65016E+06         0.00000E+00
    0.65016E+06         0.71225E+07         0.00000E+00
    0.00000E+00         0.00000E+00         0.16635E+07
 
    0.12213E+07         0.69894E+06         0.00000E+00
    0.69894E+06         0.71263E+07         0.00000E+00
    0.00000E+00         0.00000E+00         0.16695E+07
 
    0.12467E+07         0.74796E+06         0.00000E+00
    0.74796E+06         0.71301E+07         0.00000E+00
    0.00000E+00         0.00000E+00         0.16754E+07
 
    0.12712E+07         0.79724E+06         0.00000E+00
    0.79724E+06         0.71341E+07         0.00000E+00
    0.00000E+00         0.00000E+00         0.16811E+07
 
    0.12948E+07         0.84680E+06         0.00000E+00
    0.84680E+06         0.71382E+07         0.00000E+00
    0.00000E+00         0.00000E+00         0.16866E+07
 
    0.13176E+07         0.89666E+06         0.00000E+00
    0.89666E+06         0.71423E+07         0.00000E+00
    0.00000E+00         0.00000E+00         0.16920E+07
 
    0.13397E+07         0.94686E+06         0.00000E+00
    0.94686E+06         0.71465E+07         0.00000E+00
    0.00000E+00         0.00000E+00         0.16972E+07
 
    0.13609E+07         0.99740E+06         0.00000E+00
    0.99740E+06         0.71506E+07         0.00000E+00
    0.00000E+00         0.00000E+00         0.17023E+07
 
    0.13815E+07         0.10483E+07         0.00000E+00
    0.10483E+07         0.71548E+07         0.00000E+00
    0.00000E+00         0.00000E+00         0.17073E+07
 
    0.14013E+07         0.10996E+07         0.00000E+00
    0.10996E+07         0.71590E+07         0.00000E+00
    0.00000E+00         0.00000E+00         0.17121E+07
 
    0.14205E+07         0.11513E+07         0.00000E+00
    0.11513E+07         0.71631E+07         0.00000E+00
    0.00000E+00         0.00000E+00         0.17167E+07
 
    0.14391E+07         0.12034E+07         0.00000E+00
    0.12034E+07         0.71671E+07         0.00000E+00
    0.00000E+00         0.00000E+00         0.17212E+07
 
    0.14570E+07         0.12559E+07         0.00000E+00
    0.12559E+07         0.71710E+07         0.00000E+00
    0.00000E+00         0.00000E+00         0.17256E+07
 
    0.14744E+07         0.13089E+07         0.00000E+00
    0.13089E+07         0.71748E+07         0.00000E+00
    0.00000E+00         0.00000E+00         0.17298E+07
 
    0.14912E+07         0.13624E+07         0.00000E+00
    0.13624E+07         0.71785E+07         0.00000E+00
    0.00000E+00         0.00000E+00         0.17339E+07
 
    0.15075E+07         0.14163E+07         0.00000E+00
    0.14163E+07         0.71820E+07         0.00000E+00
    0.00000E+00         0.00000E+00         0.17379E+07
 
    0.15234E+07         0.14707E+07         0.00000E+00
    0.14707E+07         0.71853E+07         0.00000E+00
    0.00000E+00         0.00000E+00         0.17417E+07
 
    0.15388E+07         0.15256E+07         0.00000E+00
    0.15256E+07         0.71884E+07         0.00000E+00
    0.00000E+00         0.00000E+00         0.17454E+07
 
    0.15538E+07         0.15810E+07         0.00000E+00
    0.15810E+07         0.71913E+07         0.00000E+00
    0.00000E+00         0.00000E+00         0.17490E+07
 
    0.15684E+07         0.16369E+07         0.00000E+00
    0.16369E+07         0.71939E+07         0.00000E+00
    0.00000E+00         0.00000E+00         0.17525E+07
 
    0.15826E+07         0.16934E+07         0.00000E+00
    0.16934E+07         0.71962E+07         0.00000E+00
    0.00000E+00         0.00000E+00         0.17558E+07
 
    0.15966E+07         0.17504E+07         0.00000E+00
    0.17504E+07         0.71983E+07         0.00000E+00
    0.00000E+00         0.00000E+00         0.17590E+07
 
    0.16102E+07         0.18079E+07         0.00000E+00
    0.18079E+07         0.72000E+07         0.00000E+00
    0.00000E+00         0.00000E+00         0.17620E+07
 
    0.16236E+07         0.18660E+07         0.00000E+00
    0.18660E+07         0.72014E+07         0.00000E+00
    0.00000E+00         0.00000E+00         0.17650E+07
 
    0.16367E+07         0.19247E+07         0.00000E+00
    0.19247E+07         0.72024E+07         0.00000E+00
    0.00000E+00         0.00000E+00         0.17678E+07
 
    0.16497E+07         0.19839E+07         0.00000E+00
    0.19839E+07         0.72030E+07         0.00000E+00
    0.00000E+00         0.00000E+00         0.17705E+07
 
    0.16625E+07         0.20437E+07         0.00000E+00
    0.20437E+07         0.72033E+07         0.00000E+00
    0.00000E+00         0.00000E+00         0.17731E+07
 
    0.16751E+07         0.21040E+07         0.00000E+00
    0.21040E+07         0.72031E+07         0.00000E+00
    0.00000E+00         0.00000E+00         0.17756E+07
 
    0.16876E+07         0.21650E+07         0.00000E+00
    0.21650E+07         0.72024E+07         0.00000E+00
    0.00000E+00         0.00000E+00         0.17780E+07
 
    0.17001E+07         0.22265E+07         0.00000E+00
    0.22265E+07         0.72013E+07         0.00000E+00
    0.00000E+00         0.00000E+00         0.17803E+07
 
    0.17125E+07         0.22886E+07         0.00000E+00
    0.22886E+07         0.71996E+07         0.00000E+00
    0.00000E+00         0.00000E+00         0.17824E+07
 
    0.17249E+07         0.23514E+07         0.00000E+00
    0.23514E+07         0.71975E+07         0.00000E+00
    0.00000E+00         0.00000E+00         0.17845E+07
 
    0.17373E+07         0.24147E+07         0.00000E+00
    0.24147E+07         0.71948E+07         0.00000E+00
    0.00000E+00         0.00000E+00         0.17864E+07
 
    0.17497E+07         0.24786E+07         0.00000E+00
    0.24786E+07         0.71916E+07         0.00000E+00
    0.00000E+00         0.00000E+00         0.17883E+07
 
    0.17622E+07         0.25432E+07         0.00000E+00
    0.25432E+07         0.71878E+07         0.00000E+00
    0.00000E+00         0.00000E+00         0.17900E+07
 
    0.17748E+07         0.26083E+07         0.00000E+00
    0.26083E+07         0.71834E+07         0.00000E+00
    0.00000E+00         0.00000E+00         0.17916E+07
 
    0.17875E+07         0.26741E+07         0.00000E+00
    0.26741E+07         0.71783E+07         0.00000E+00
    0.00000E+00         0.00000E+00         0.17932E+07
 
    0.55731E+06         0.25102E+05         0.00000E+00
    0.25102E+05         0.66460E+07         0.00000E+00
    0.00000E+00         0.00000E+00         0.14407E+07
 
    0.59651E+06         0.74702E+05         0.00000E+00
    0.74702E+05         0.66463E+07         0.00000E+00
    0.00000E+00         0.00000E+00         0.14486E+07
 
    0.63468E+06         0.12409E+06         0.00000E+00
    0.12409E+06         0.66469E+07         0.00000E+00
    0.00000E+00         0.00000E+00         0.14563E+07
 
    0.67183E+06         0.17329E+06         0.00000E+00
    0.17329E+06         0.66477E+07         0.00000E+00
    0.00000E+00         0.00000E+00         0.14639E+07
 
    0.70798E+06         0.22235E+06         0.00000E+00
    0.22235E+06         0.66488E+07         0.00000E+00
    0.00000E+00         0.00000E+00         0.14714E+07
 
    0.74314E+06         0.27129E+06         0.00000E+00
    0.27129E+06         0.66501E+07         0.00000E+00
    0.00000E+00         0.00000E+00         0.14787E+07
 
    0.77734E+06         0.32014E+06         0.00000E+00
    0.32014E+06         0.66517E+07         0.00000E+00
    0.00000E+00         0.00000E+00         0.14858E+07
 
    0.81058E+06         0.36894E+06         0.00000E+00
    0.36894E+06         0.66534E+07         0.00000E+00
    0.00000E+00         0.00000E+00         0.14928E+07
 
    0.84288E+06         0.41771E+06         0.00000E+00
    0.41771E+06         0.66554E+07         0.00000E+00
    0.00000E+00         0.00000E+00         0.14997E+07
 
    0.87426E+06         0.46649E+06         0.00000E+00
    0.46649E+06         0.66575E+07         0.00000E+00
    0.00000E+00         0.00000E+00         0.15064E+07
 
    0.90475E+06         0.51529E+06         0.00000E+00
    0.51529E+06         0.66598E+07         0.00000E+00
    0.00000E+00         0.00000E+00         0.15129E+07
 
    0.93436E+06         0.56416E+06         0.00000E+00
    0.56416E+06         0.66623E+07         0.00000E+00
    0.00000E+00         0.00000E+00         0.15193E+07
 
    0.96312E+06         0.61310E+06         0.00000E+00
    0.61310E+06         0.66648E+07         0.00000E+00
    0.00000E+00         0.00000E+00         0.15256E+07
 
    0.99104E+06         0.66215E+06         0.00000E+00
    0.66215E+06         0.66675E+07         0.00000E+00
    0.00000E+00         0.00000E+00         0.15317E+07
 
    0.10181E+07         0.71133E+06         0.00000E+00
    0.71133E+06         0.66703E+07         0.00000E+00
    0.00000E+00         0.00000E+00         0.15377E+07
 
    0.10445E+07         0.76067E+06         0.00000E+00
    0.76067E+06         0.66732E+07         0.00000E+00
    0.00000E+00         0.00000E+00         0.15435E+07
 
    0.10700E+07         0.81019E+06         0.00000E+00
    0.81019E+06         0.66761E+07         0.00000E+00
    0.00000E+00         0.00000E+00         0.15492E+07
 
    0.10949E+07         0.85990E+06         0.00000E+00
    0.85990E+06         0.66791E+07         0.00000E+00
    0.00000E+00         0.00000E+00         0.15548E+07
 
    0.11190E+07         0.90983E+06         0.00000E+00
    0.90983E+06         0.66821E+07         0.00000E+00
    0.00000E+00         0.00000E+00         0.15602E+07
 
    0.11424E+07         0.96001E+06         0.00000E+00
    0.96001E+06         0.66851E+07         0.00000E+00
    0.00000E+00         0.00000E+00         0.15655E+07
 
    0.11651E+07         0.10104E+07         0.00000E+00
    0.10104E+07         0.66881E+07         0.00000E+00
    0.00000E+00         0.00000E+00         0.15706E+07
 
    0.11873E+07         0.10611E+07         0.00000E+00
    0.10611E+07         0.66910E+07         0.00000E+00
    0.00000E+00         0.00000E+00         0.15757E+07
 
    0.12088E+07         0.11121E+07         0.00000E+00
    0.11121E+07         0.66939E+07         0.00000E+00
    0.00000E+00         0.00000E+00         0.15805E+07
 
    0.12297E+07         0.11635E+07         0.00000E+00
    0.11635E+07         0.66967E+07         0.00000E+00
    0.00000E+00         0.00000E+00         0.15853E+07
 
    0.12501E+07         0.12151E+07         0.00000E+00
    0.12151E+07         0.66994E+07         0.00000E+00
    0.00000E+00         0.00000E+00         0.15899E+07
 
    0.12699E+07         0.12671E+07         0.00000E+00
    0.12671E+07         0.67020E+07         0.00000E+00
    0.00000E+00         0.00000E+00         0.15944E+07
 
    0.12893E+07         0.13194E+07         0.00000E+00
    0.13194E+07         0.67045E+07         0.00000E+00
    0.00000E+00         0.00000E+00         0.15988E+07
 
    0.13082E+07         0.13721E+07         0.00000E+00
    0.13721E+07         0.67068E+07         0.00000E+00
    0.00000E+00         0.00000E+00         0.16030E+07
 
    0.13266E+07         0.14252E+07         0.00000E+00
    0.14252E+07         0.67089E+07         0.00000E+00
    0.00000E+00         0.00000E+00         0.16071E+07
 
    0.13446E+07         0.14786E+07         0.00000E+00
    0.14786E+07         0.67108E+07         0.00000E+00
    0.00000E+00         0.00000E+00         0.16111E+07
 
    0.13622E+07         0.15325E+07         0.00000E+00
    0.15325E+07         0.67126E+07         0.00000E+00
    0.00000E+00         0.00000E+00         0.16150E+07
 
    0.13795E+07         0.15868E+07         0.00000E+00
    0.15868E+07         0.67140E+07         0.00000E+00
    0.00000E+00         0.00000E+00         0.16187E+07
 
    0.13964E+07         0.16415E+07         0.00000E+00
    0.16415E+07         0.67152E+07         0.00000E+00
    0.00000E+00         0.00000E+00         0.16223E+07
 
    0.14130E+07         0.16967E+07         0.00000E+00
    0.16967E+07         0.67162E+07         0.00000E+00
    0.00000E+00         0.00000E+00         0.16258E+07
 
    0.14294E+07         0.17523E+07         0.00000E+00
    0.17523E+07         0.67168E+07         0.00000E+00
    0.00000E+00         0.00000E+00         0.16292E+07
 
    0.14455E+07         0.18083E+07         0.00000E+00
    0.18083E+07         0.67171E+07         0.00000E+00
    0.00000E+00         0.00000E+00         0.16325E+07
 
    0.14613E+07         0.18648E+07         0.00000E+00
    0.18648E+07         0.67171E+07         0.00000E+00
    0.00000E+00         0.00000E+00         0.16357E+07
 
    0.14770E+07         0.19218E+07         0.00000E+00
    0.19218E+07         0.67167E+07         0.00000E+00
    0.00000E+00         0.00000E+00         0.16387E+07
 
    0.14925E+07         0.19792E+07         0.00000E+00
    0.19792E+07         0.67159E+07         0.00000E+00
    0.00000E+00         0.00000E+00         0.16417E+07
 
    0.15079E+07         0.20371E+07         0.00000E+00
    0.20371E+07         0.67148E+07         0.00000E+00
    0.00000E+00         0.00000E+00         0.16445E+07
 
    0.15232E+07         0.20955E+07         0.00000E+00
    0.20955E+07         0.67132E+07         0.00000E+00
    0.00000E+00         0.00000E+00         0.16473E+07
 
    0.15384E+07         0.21544E+07         0.00000E+00
    0.21544E+07         0.67111E+07         0.00000E+00
    0.00000E+00         0.00000E+00         0.16499E+07
 
    0.15535E+07         0.22138E+07         0.00000E+00
    0.22138E+07         0.67086E+07         0.00000E+00
    0.00000E+00         0.00000E+00         0.16524E+07
 
    0.15687E+07         0.22737E+07         0.00000E+00
    0.22737E+07         0.67056E+07         0.00000E+00
    0.00000E+00         0.00000E+00         0.16549E+07
 
    0.15838E+07         0.23341E+07         0.00000E+00
    0.23341E+07         0.67021E+07         0.00000E+00
    0.00000E+00         0.00000E+00         0.16572E+07
 
    0.15989E+07         0.23950E+07         0.00000E+00
    0.23950E+07         0.66981E+07         0.00000E+00
    0.00000E+00         0.00000E+00         0.16594E+07
 
    0.16141E+07         0.24564E+07         0.00000E+00
    0.24564E+07         0.66936E+07         0.00000E+00
    0.00000E+00         0.00000E+00         0.16615E+07
 
    0.16295E+07         0.25184E+07         0.00000E+00
    0.25184E+07         0.66884E+07         0.00000E+00
    0.00000E+00         0.00000E+00         0.16636E+07
 
    0.16449E+07         0.25808E+07         0.00000E+00
    0.25808E+07         0.66827E+07         0.00000E+00
    0.00000E+00         0.00000E+00         0.16655E+07
 
    0.16604E+07         0.26438E+07         0.00000E+00
    0.26438E+07         0.66764E+07         0.00000E+00
    0.00000E+00         0.00000E+00         0.16674E+07
 
    0.38186E+06         0.25552E+05         0.00000E+00
    0.25552E+05         0.62197E+07         0.00000E+00
    0.00000E+00         0.00000E+00         0.13203E+07
 
    0.41981E+06         0.75989E+05         0.00000E+00
    0.75989E+05         0.62199E+07         0.00000E+00
    0.00000E+00         0.00000E+00         0.13280E+07
 
    0.45690E+06         0.12618E+06         0.00000E+00
    0.12618E+06         0.62204E+07         0.00000E+00
    0.00000E+00         0.00000E+00         0.13355E+07
 
    0.49311E+06         0.17616E+06         0.00000E+00
    0.17616E+06         0.62210E+07         0.00000E+00
    0.00000E+00         0.00000E+00         0.13428E+07
 
    0.52847E+06         0.22595E+06         0.00000E+00
    0.22595E+06         0.62218E+07         0.00000E+00
    0.00000E+00         0.00000E+00         0.13500E+07
 
    0.56298E+06         0.27558E+06         0.00000E+00
    0.27558E+06         0.62227E+07         0.00000E+00
    0.00000E+00         0.00000E+00         0.13571E+07
 
    0.59666E+06         0.32508E+06         0.00000E+00
    0.32508E+06         0.62239E+07         0.00000E+00
    0.00000E+00         0.00000E+00         0.13641E+07
 
    0.62952E+06         0.37448E+06         0.00000E+00
    0.37448E+06         0.62252E+07         0.00000E+00
    0.00000E+00         0.00000E+00         0.13709E+07
 
    0.66158E+06         0.42380E+06         0.00000E+00
    0.42380E+06         0.62266E+07         0.00000E+00
    0.00000E+00         0.00000E+00         0.13776E+07
 
    0.69285E+06         0.47306E+06         0.00000E+00
    0.47306E+06         0.62281E+07         0.00000E+00
    0.00000E+00         0.00000E+00         0.13842E+07
 
    0.72334E+06         0.52230E+06         0.00000E+00
    0.52230E+06         0.62298E+07         0.00000E+00
    0.00000E+00         0.00000E+00         0.13906E+07
 
    0.75309E+06         0.57154E+06         0.00000E+00
    0.57154E+06         0.62315E+07         0.00000E+00
    0.00000E+00         0.00000E+00         0.13969E+07
 
    0.78209E+06         0.62080E+06         0.00000E+00
    0.62080E+06         0.62334E+07         0.00000E+00
    0.00000E+00         0.00000E+00         0.14031E+07
 
    0.81038E+06         0.67010E+06         0.00000E+00
    0.67010E+06         0.62353E+07         0.00000E+00
    0.00000E+00         0.00000E+00         0.14091E+07
 
    0.83797E+06         0.71946E+06         0.00000E+00
    0.71946E+06         0.62372E+07         0.00000E+00
    0.00000E+00         0.00000E+00         0.14150E+07
 
    0.86487E+06         0.76891E+06         0.00000E+00
    0.76891E+06         0.62392E+07         0.00000E+00
    0.00000E+00         0.00000E+00         0.14208E+07
 
    0.89112E+06         0.81847E+06         0.00000E+00
    0.81847E+06         0.62412E+07         0.00000E+00
    0.00000E+00         0.00000E+00         0.14265E+07
 
    0.91673E+06         0.86815E+06         0.00000E+00
    0.86815E+06         0.62432E+07         0.00000E+00
    0.00000E+00         0.00000E+00         0.14320E+07
 
    0.94172E+06         0.91798E+06         0.00000E+00
    0.91798E+06         0.62452E+07         0.00000E+00
    0.00000E+00         0.00000E+00         0.14374E+07
 
    0.96612E+06         0.96797E+06         0.00000E+00
    0.96797E+06         0.62472E+07         0.00000E+00
    0.00000E+00         0.00000E+00         0.14427E+07
 
    0.98994E+06         0.10181E+07         0.00000E+00
    0.10181E+07         0.62491E+07         0.00000E+00
    0.00000E+00         0.00000E+00         0.14478E+07
 
    0.10132E+07         0.10685E+07         0.00000E+00
    0.10685E+07         0.62510E+07         0.00000E+00
    0.00000E+00         0.00000E+00         0.14528E+07
 
    0.10360E+07         0.11191E+07         0.00000E+00
    0.11191E+07         0.62528E+07         0.00000E+00
    0.00000E+00         0.00000E+00         0.14577E+07
 
    0.10582E+07         0.11699E+07         0.00000E+00
    0.11699E+07         0.62545E+07         0.00000E+00
    0.00000E+00         0.00000E+00         0.14625E+07
 
    0.10800E+07         0.12210E+07         0.00000E+00
    0.12210E+07         0.62560E+07         0.00000E+00
    0.00000E+00         0.00000E+00         0.14672E+07
 
    0.11013E+07         0.12723E+07         0.00000E+00
    0.12723E+07         0.62575E+07         0.00000E+00
    0.00000E+00         0.00000E+00         0.14717E+07
 
    0.11221E+07         0.13239E+07         0.00000E+00
    0.13239E+07         0.62588E+07         0.00000E+00
    0.00000E+00         0.00000E+00         0.14762E+07
 
    0.11426E+07         0.13758E+07         0.00000E+00
    0.13758E+07         0.62599E+07         0.00000E+00
    0.00000E+00         0.00000E+00         0.14805E+07
 
    0.11627E+07         0.14279E+07         0.00000E+00
    0.14279E+07         0.62608E+07         0.00000E+00
    0.00000E+00         0.00000E+00         0.14847E+07
 
    0.11824E+07         0.14804E+07         0.00000E+00
    0.14804E+07         0.62615E+07         0.00000E+00
    0.00000E+00         0.00000E+00         0.14888E+07
 
    0.12018E+07         0.15332E+07         0.00000E+00
    0.15332E+07         0.62620E+07         0.00000E+00
    0.00000E+00         0.00000E+00         0.14928E+07
 
    0.12209E+07         0.15863E+07         0.00000E+00
    0.15863E+07         0.62623E+07         0.00000E+00
    0.00000E+00         0.00000E+00         0.14966E+07
 
    0.12396E+07         0.16398E+07         0.00000E+00
    0.16398E+07         0.62622E+07         0.00000E+00
    0.00000E+00         0.00000E+00         0.15004E+07
 
    0.12582E+07         0.16936E+07         0.00000E+00
    0.16936E+07         0.62620E+07         0.00000E+00
    0.00000E+00         0.00000E+00         0.15040E+07
 
    0.12765E+07         0.17478E+07         0.00000E+00
    0.17478E+07         0.62614E+07         0.00000E+00
    0.00000E+00         0.00000E+00         0.15076E+07
 
    0.12946E+07         0.18023E+07         0.00000E+00
    0.18023E+07         0.62604E+07         0.00000E+00
    0.00000E+00         0.00000E+00         0.15110E+07
 
    0.13125E+07         0.18572E+07         0.00000E+00
    0.18572E+07         0.62592E+07         0.00000E+00
    0.00000E+00         0.00000E+00         0.15143E+07
 
    0.13303E+07         0.19125E+07         0.00000E+00
    0.19125E+07         0.62576E+07         0.00000E+00
    0.00000E+00         0.00000E+00         0.15176E+07
 
    0.13479E+07         0.19682E+07         0.00000E+00
    0.19682E+07         0.62556E+07         0.00000E+00
    0.00000E+00         0.00000E+00         0.15207E+07
 
    0.13654E+07         0.20243E+07         0.00000E+00
    0.20243E+07         0.62532E+07         0.00000E+00
    0.00000E+00         0.00000E+00         0.15237E+07
 
    0.13829E+07         0.20807E+07         0.00000E+00
    0.20807E+07         0.62504E+07         0.00000E+00
    0.00000E+00         0.00000E+00         0.15266E+07
 
    0.14003E+07         0.21376E+07         0.00000E+00
    0.21376E+07         0.62471E+07         0.00000E+00
    0.00000E+00         0.00000E+00         0.15295E+07
 
    0.14177E+07         0.21949E+07         0.00000E+00
    0.21949E+07         0.62434E+07         0.00000E+00
    0.00000E+00         0.00000E+00         0.15322E+07
 
    0.14350E+07         0.22526E+07         0.00000E+00
    0.22526E+07         0.62393E+07         0.00000E+00
    0.00000E+00         0.00000E+00         0.15349E+07
 
    0.14524E+07         0.23107E+07         0.00000E+00
    0.23107E+07         0.62346E+07         0.00000E+00
    0.00000E+00         0.00000E+00         0.15374E+07
 
    0.14699E+07         0.23692E+07         0.00000E+00
    0.23692E+07         0.62294E+07         0.00000E+00
    0.00000E+00         0.00000E+00         0.15399E+07
 
    0.14874E+07         0.24282E+07         0.00000E+00
    0.24282E+07         0.62237E+07         0.00000E+00
    0.00000E+00         0.00000E+00         0.15422E+07
 
    0.15051E+07         0.24875E+07         0.00000E+00
    0.24875E+07         0.62175E+07         0.00000E+00
    0.00000E+00         0.00000E+00         0.15445E+07
 
    0.15229E+07         0.25473E+07         0.00000E+00
    0.25473E+07         0.62106E+07         0.00000E+00
    0.00000E+00         0.00000E+00         0.15467E+07
 
    0.15408E+07         0.26076E+07         0.00000E+00
    0.26076E+07         0.62032E+07         0.00000E+00
    0.00000E+00         0.00000E+00         0.15488E+07
 
    0.23089E+06         0.25844E+05         0.00000E+00
    0.25844E+05         0.58144E+07         0.00000E+00
    0.00000E+00         0.00000E+00         0.12091E+07
 
    0.26748E+06         0.76817E+05         0.00000E+00
    0.76817E+05         0.58146E+07         0.00000E+00
    0.00000E+00         0.00000E+00         0.12164E+07
 
    0.30332E+06         0.12752E+06         0.00000E+00
    0.12752E+06         0.58149E+07         0.00000E+00
    0.00000E+00         0.00000E+00         0.12236E+07
 
    0.33843E+06         0.17798E+06         0.00000E+00
    0.17798E+06         0.58153E+07         0.00000E+00
    0.00000E+00         0.00000E+00         0.12307E+07
 
    0.37281E+06         0.22823E+06         0.00000E+00
    0.22823E+06         0.58159E+07         0.00000E+00
    0.00000E+00         0.00000E+00         0.12377E+07
 
    0.40648E+06         0.27828E+06         0.00000E+00
    0.27828E+06         0.58165E+07         0.00000E+00
    0.00000E+00         0.00000E+00         0.12446E+07
 
    0.43943E+06         0.32816E+06         0.00000E+00
    0.32816E+06         0.58173E+07         0.00000E+00
    0.00000E+00         0.00000E+00         0.12513E+07
 
    0.47168E+06         0.37790E+06         0.00000E+00
    0.37790E+06         0.58182E+07         0.00000E+00
    0.00000E+00         0.00000E+00         0.12580E+07
 
    0.50325E+06         0.42752E+06         0.00000E+00
    0.42752E+06         0.58191E+07         0.00000E+00
    0.00000E+00         0.00000E+00         0.12645E+07
 
    0.53415E+06         0.47704E+06         0.00000E+00
    0.47704E+06         0.58202E+07         0.00000E+00
    0.00000E+00         0.00000E+00         0.12709E+07
 
    0.56439E+06         0.52648E+06         0.00000E+00
    0.52648E+06         0.58212E+07         0.00000E+00
    0.00000E+00         0.00000E+00         0.12771E+07
 
    0.59398E+06         0.57588E+06         0.00000E+00
    0.57588E+06         0.58224E+07         0.00000E+00
    0.00000E+00         0.00000E+00         0.12833E+07
 
    0.62294E+06         0.62524E+06         0.00000E+00
    0.62524E+06         0.58236E+07         0.00000E+00
    0.00000E+00         0.00000E+00         0.12893E+07
 
    0.65129E+06         0.67459E+06         0.00000E+00
    0.67459E+06         0.58248E+07         0.00000E+00
    0.00000E+00         0.00000E+00         0.12952E+07
 
    0.67903E+06         0.72394E+06         0.00000E+00
    0.72394E+06         0.58260E+07         0.00000E+00
    0.00000E+00         0.00000E+00         0.13010E+07
 
    0.70620E+06         0.77333E+06         0.00000E+00
    0.77333E+06         0.58272E+07         0.00000E+00
    0.00000E+00         0.00000E+00         0.13067E+07
 
    0.73280E+06         0.82276E+06         0.00000E+00
    0.82276E+06         0.58285E+07         0.00000E+00
    0.00000E+00         0.00000E+00         0.13123E+07
 
    0.75885E+06         0.87225E+06         0.00000E+00
    0.87225E+06         0.58296E+07         0.00000E+00
    0.00000E+00         0.00000E+00         0.13177E+07
 
    0.78437E+06         0.92183E+06         0.00000E+00
    0.92183E+06         0.58308E+07         0.00000E+00
    0.00000E+00         0.00000E+00         0.13230E+07
 
    0.80939E+06         0.97150E+06         0.00000E+00
    0.97150E+06         0.58319E+07         0.00000E+00
    0.00000E+00         0.00000E+00         0.13283E+07
 
    0.83391E+06         0.10213E+07         0.00000E+00
    0.10213E+07         0.58329E+07         0.00000E+00
    0.00000E+00         0.00000E+00         0.13334E+07
 
    0.85796E+06         0.10712E+07         0.00000E+00
    0.10712E+07         0.58338E+07         0.00000E+00
    0.00000E+00         0.00000E+00         0.13384E+07
 
    0.88155E+06         0.11213E+07         0.00000E+00
    0.11213E+07         0.58347E+07         0.00000E+00
    0.00000E+00         0.00000E+00         0.13432E+07
 
    0.90472E+06         0.11715E+07         0.00000E+00
    0.11715E+07         0.58354E+07         0.00000E+00
    0.00000E+00         0.00000E+00         0.13480E+07
 
    0.92747E+06         0.12219E+07         0.00000E+00
    0.12219E+07         0.58359E+07         0.00000E+00
    0.00000E+00         0.00000E+00         0.13527E+07
 
    0.94984E+06         0.12725E+07         0.00000E+00
    0.12725E+07         0.58364E+07         0.00000E+00
    0.00000E+00         0.00000E+00         0.13572E+07
 
    0.97184E+06         0.13232E+07         0.00000E+00
    0.13232E+07         0.58366E+07         0.00000E+00
    0.00000E+00         0.00000E+00         0.13617E+07
 
    0.99348E+06         0.13742E+07         0.00000E+00
    0.13742E+07         0.58367E+07         0.00000E+00
    0.00000E+00         0.00000E+00         0.13660E+07
 
    0.10148E+07         0.14254E+07         0.00000E+00
    0.14254E+07         0.58366E+07         0.00000E+00
    0.00000E+00         0.00000E+00         0.13703E+07
 
    0.10358E+07         0.14769E+07         0.00000E+00
    0.14769E+07         0.58363E+07         0.00000E+00
    0.00000E+00         0.00000E+00         0.13744E+07
 
    0.10566E+07         0.15286E+07         0.00000E+00
    0.15286E+07         0.58357E+07         0.00000E+00
    0.00000E+00         0.00000E+00         0.13785E+07
 
    0.10771E+07         0.15805E+07         0.00000E+00
    0.15805E+07         0.58349E+07         0.00000E+00
    0.00000E+00         0.00000E+00         0.13824E+07
 
    0.10973E+07         0.16327E+07         0.00000E+00
    0.16327E+07         0.58338E+07         0.00000E+00
    0.00000E+00         0.00000E+00         0.13862E+07
 
    0.11173E+07         0.16852E+07         0.00000E+00
    0.16852E+07         0.58324E+07         0.00000E+00
    0.00000E+00         0.00000E+00         0.13900E+07
 
    0.11372E+07         0.17379E+07         0.00000E+00
    0.17379E+07         0.58308E+07         0.00000E+00
    0.00000E+00         0.00000E+00         0.13936E+07
 
    0.11569E+07         0.17909E+07         0.00000E+00
    0.17909E+07         0.58288E+07         0.00000E+00
    0.00000E+00         0.00000E+00         0.13971E+07
 
    0.11764E+07         0.18442E+07         0.00000E+00
    0.18442E+07         0.58265E+07         0.00000E+00
    0.00000E+00         0.00000E+00         0.14006E+07
 
    0.11958E+07         0.18979E+07         0.00000E+00
    0.18979E+07         0.58238E+07         0.00000E+00
    0.00000E+00         0.00000E+00         0.14039E+07
 
    0.12151E+07         0.19518E+07         0.00000E+00
    0.19518E+07         0.58208E+07         0.00000E+00
    0.00000E+00         0.00000E+00         0.14072E+07
 
    0.12344E+07         0.20060E+07         0.00000E+00
    0.20060E+07         0.58173E+07         0.00000E+00
    0.00000E+00         0.00000E+00         0.14103E+07
 
    0.12536E+07         0.20606E+07         0.00000E+00
    0.20606E+07         0.58135E+07         0.00000E+00
    0.00000E+00         0.00000E+00         0.14134E+07
 
    0.12728E+07         0.21155E+07         0.00000E+00
    0.21155E+07         0.58092E+07         0.00000E+00
    0.00000E+00         0.00000E+00         0.14164E+07
 
    0.12920E+07         0.21707E+07         0.00000E+00
    0.21707E+07         0.58045E+07         0.00000E+00
    0.00000E+00         0.00000E+00         0.14193E+07
 
    0.13112E+07         0.22262E+07         0.00000E+00
    0.22262E+07         0.57994E+07         0.00000E+00
    0.00000E+00         0.00000E+00         0.14221E+07
 
    0.13304E+07         0.22821E+07         0.00000E+00
    0.22821E+07         0.57937E+07         0.00000E+00
    0.00000E+00         0.00000E+00         0.14248E+07
 
    0.13498E+07         0.23383E+07         0.00000E+00
    0.23383E+07         0.57876E+07         0.00000E+00
    0.00000E+00         0.00000E+00         0.14275E+07
 
    0.13692E+07         0.23948E+07         0.00000E+00
    0.23948E+07         0.57809E+07         0.00000E+00
    0.00000E+00         0.00000E+00         0.14300E+07
 
    0.13888E+07         0.24517E+07         0.00000E+00
    0.24517E+07         0.57737E+07         0.00000E+00
    0.00000E+00         0.00000E+00         0.14325E+07
 
    0.14085E+07         0.25089E+07         0.00000E+00
    0.25089E+07         0.57660E+07         0.00000E+00
    0.00000E+00         0.00000E+00         0.14349E+07
 
    0.14284E+07         0.25665E+07         0.00000E+00
    0.25665E+07         0.57577E+07         0.00000E+00
    0.00000E+00         0.00000E+00         0.14372E+07
 
    0.10216E+06         0.26002E+05         0.00000E+00
    0.26002E+05         0.54293E+07         0.00000E+00
    0.00000E+00         0.00000E+00         0.11063E+07
 
    0.13728E+06         0.77258E+05         0.00000E+00
    0.77258E+05         0.54294E+07         0.00000E+00
    0.00000E+00         0.00000E+00         0.11133E+07
 
    0.17178E+06         0.12823E+06         0.00000E+00
    0.12823E+06         0.54296E+07         0.00000E+00
    0.00000E+00         0.00000E+00         0.11203E+07
 
    0.20565E+06         0.17893E+06         0.00000E+00
    0.17893E+06         0.54299E+07         0.00000E+00
    0.00000E+00         0.00000E+00         0.11271E+07
 
    0.23891E+06         0.22939E+06         0.00000E+00
    0.22939E+06         0.54302E+07         0.00000E+00
    0.00000E+00         0.00000E+00         0.11338E+07
 
    0.27156E+06         0.27962E+06         0.00000E+00
    0.27962E+06         0.54306E+07         0.00000E+00
    0.00000E+00         0.00000E+00         0.11404E+07
 
    0.30361E+06         0.32967E+06         0.00000E+00
    0.32967E+06         0.54311E+07         0.00000E+00
    0.00000E+00         0.00000E+00         0.11469E+07
 
    0.33507E+06         0.37953E+06         0.00000E+00
    0.37953E+06         0.54316E+07         0.00000E+00
    0.00000E+00         0.00000E+00         0.11533E+07
 
    0.36595E+06         0.42924E+06         0.00000E+00
    0.42924E+06         0.54321E+07         0.00000E+00
    0.00000E+00         0.00000E+00         0.11596E+07
 
    0.39626E+06         0.47881E+06         0.00000E+00
    0.47881E+06         0.54327E+07         0.00000E+00
    0.00000E+00         0.00000E+00         0.11658E+07
 
    0.42602E+06         0.52827E+06         0.00000E+00
    0.52827E+06         0.54333E+07         0.00000E+00
    0.00000E+00         0.00000E+00         0.11719E+07
 
    0.45522E+06         0.57763E+06         0.00000E+00
    0.57763E+06         0.54340E+07         0.00000E+00
    0.00000E+00         0.00000E+00         0.11778E+07
 
    0.48389E+06         0.62692E+06         0.00000E+00
    0.62692E+06         0.54346E+07         0.00000E+00
    0.00000E+00         0.00000E+00         0.11837E+07
 
    0.51204E+06         0.67614E+06         0.00000E+00
    0.67614E+06         0.54352E+07         0.00000E+00
    0.00000E+00         0.00000E+00         0.11894E+07
 
    0.53967E+06         0.72533E+06         0.00000E+00
    0.72533E+06         0.54358E+07         0.00000E+00
    0.00000E+00         0.00000E+00         0.11951E+07
 
    0.56682E+06         0.77449E+06         0.00000E+00
    0.77449E+06         0.54364E+07         0.00000E+00
    0.00000E+00         0.00000E+00         0.12006E+07
 
    0.59348E+06         0.82365E+06         0.00000E+00
    0.82365E+06         0.54369E+07         0.00000E+00
    0.00000E+00         0.00000E+00         0.12061E+07
 
    0.61968E+06         0.87282E+06         0.00000E+00
    0.87282E+06         0.54374E+07         0.00000E+00
    0.00000E+00         0.00000E+00         0.12114E+07
 
    0.64543E+06         0.92201E+06         0.00000E+00
    0.92201E+06         0.54378E+07         0.00000E+00
    0.00000E+00         0.00000E+00         0.12166E+07
 
    0.67075E+06         0.97124E+06         0.00000E+00
    0.97124E+06         0.54381E+07         0.00000E+00
    0.00000E+00         0.00000E+00         0.12218E+07
 
    0.69565E+06         0.10205E+07         0.00000E+00
    0.10205E+07         0.54383E+07         0.00000E+00
    0.00000E+00         0.00000E+00         0.12268E+07
 
    0.72015E+06         0.10699E+07         0.00000E+00
    0.10699E+07         0.54385E+07         0.00000E+00
    0.00000E+00         0.00000E+00         0.12317E+07
 
    0.74427E+06         0.11193E+07         0.00000E+00
    0.11193E+07         0.54385E+07         0.00000E+00
    0.00000E+00         0.00000E+00         0.12365E+07
 
    0.76803E+06         0.11689E+07         0.00000E+00
    0.11689E+07         0.54383E+07         0.00000E+00
    0.00000E+00         0.00000E+00         0.12413E+07
 
    0.79143E+06         0.12185E+07         0.00000E+00
    0.12185E+07         0.54381E+07         0.00000E+00
    0.00000E+00         0.00000E+00         0.12459E+07
 
    0.81451E+06         0.12683E+07         0.00000E+00
    0.12683E+07         0.54376E+07         0.00000E+00
    0.00000E+00         0.00000E+00         0.12504E+07
 
    0.83728E+06         0.13182E+07         0.00000E+00
    0.13182E+07         0.54370E+07         0.00000E+00
    0.00000E+00         0.00000E+00         0.12549E+07
 
    0.85977E+06         0.13682E+07         0.00000E+00
    0.13682E+07         0.54362E+07         0.00000E+00
    0.00000E+00         0.00000E+00         0.12592E+07
 
    0.88198E+06         0.14184E+07         0.00000E+00
    0.14184E+07         0.54352E+07         0.00000E+00
    0.00000E+00         0.00000E+00         0.12634E+07
 
    0.90394E+06         0.14688E+07         0.00000E+00
    0.14688E+07         0.54339E+07         0.00000E+00
    0.00000E+00         0.00000E+00         0.12676E+07
 
    0.92566E+06         0.15193E+07         0.00000E+00
    0.15193E+07         0.54325E+07         0.00000E+00
    0.00000E+00         0.00000E+00         0.12716E+07
 
    0.94718E+06         0.15701E+07         0.00000E+00
    0.15701E+07         0.54307E+07         0.00000E+00
    0.00000E+00         0.00000E+00         0.12756E+07
 
    0.96851E+06         0.16210E+07         0.00000E+00
    0.16210E+07         0.54288E+07         0.00000E+00
    0.00000E+00         0.00000E+00         0.12795E+07
 
    0.98966E+06         0.16721E+07         0.00000E+00
    0.16721E+07         0.54265E+07         0.00000E+00
    0.00000E+00         0.00000E+00         0.12832E+07
 
    0.10107E+07         0.17234E+07         0.00000E+00
    0.17234E+07         0.54239E+07         0.00000E+00
    0.00000E+00         0.00000E+00         0.12869E+07
 
    0.10316E+07         0.17749E+07         0.00000E+00
    0.17749E+07         0.54210E+07         0.00000E+00
    0.00000E+00         0.00000E+00         0.12905E+07
 
    0.10523E+07         0.18267E+07         0.00000E+00
    0.18267E+07         0.54178E+07         0.00000E+00
    0.00000E+00         0.00000E+00         0.12940E+07
 
    0.10730E+07         0.18786E+07         0.00000E+00
    0.18786E+07         0.54142E+07         0.00000E+00
    0.00000E+00         0.00000E+00         0.12975E+07
 
    0.10936E+07         0.19308E+07         0.00000E+00
    0.19308E+07         0.54103E+07         0.00000E+00
    0.00000E+00         0.00000E+00         0.13008E+07
 
    0.11142E+07         0.19833E+07         0.00000E+00
    0.19833E+07         0.54060E+07         0.00000E+00
    0.00000E+00         0.00000E+00         0.13040E+07
 
    0.11348E+07         0.20359E+07         0.00000E+00
    0.20359E+07         0.54013E+07         0.00000E+00
    0.00000E+00         0.00000E+00         0.13072E+07
 
    0.11554E+07         0.20889E+07         0.00000E+00
    0.20889E+07         0.53962E+07         0.00000E+00
    0.00000E+00         0.00000E+00         0.13103E+07
 
    0.11759E+07         0.21420E+07         0.00000E+00
    0.21420E+07         0.53906E+07         0.00000E+00
    0.00000E+00         0.00000E+00         0.13133E+07
 
    0.11966E+07         0.21955E+07         0.00000E+00
    0.21955E+07         0.53847E+07         0.00000E+00
    0.00000E+00         0.00000E+00         0.13162E+07
 
    0.12173E+07         0.22492E+07         0.00000E+00
    0.22492E+07         0.53782E+07         0.00000E+00
    0.00000E+00         0.00000E+00         0.13191E+07
 
    0.12381E+07         0.23031E+07         0.00000E+00
    0.23031E+07         0.53713E+07         0.00000E+00
    0.00000E+00         0.00000E+00         0.13219E+07
 
    0.12590E+07         0.23573E+07         0.00000E+00
    0.23573E+07         0.53639E+07         0.00000E+00
    0.00000E+00         0.00000E+00         0.13246E+07
 
    0.12801E+07         0.24118E+07         0.00000E+00
    0.24118E+07         0.53559E+07         0.00000E+00
    0.00000E+00         0.00000E+00         0.13272E+07
 
    0.13013E+07         0.24665E+07         0.00000E+00
    0.24665E+07         0.53474E+07         0.00000E+00
    0.00000E+00         0.00000E+00         0.13297E+07
 
    0.13227E+07         0.25215E+07         0.00000E+00
    0.25215E+07         0.53384E+07         0.00000E+00
    0.00000E+00         0.00000E+00         0.13322E+07
 
   -0.63990E+04         0.26049E+05         0.00000E+00
    0.26049E+05         0.50635E+07         0.00000E+00
    0.00000E+00         0.00000E+00         0.10114E+07
 
    0.27179E+05         0.77373E+05         0.00000E+00
    0.77373E+05         0.50635E+07         0.00000E+00
    0.00000E+00         0.00000E+00         0.10181E+07
 
    0.60232E+05         0.12839E+06         0.00000E+00
    0.12839E+06         0.50636E+07         0.00000E+00
    0.00000E+00         0.00000E+00         0.10248E+07
 
    0.92765E+05         0.17913E+06         0.00000E+00
    0.17913E+06         0.50637E+07         0.00000E+00
    0.00000E+00         0.00000E+00         0.10313E+07
 
    0.12478E+06         0.22960E+06         0.00000E+00
    0.22960E+06         0.50639E+07         0.00000E+00
    0.00000E+00         0.00000E+00         0.10377E+07
 
    0.15629E+06         0.27984E+06         0.00000E+00
    0.27984E+06         0.50641E+07         0.00000E+00
    0.00000E+00         0.00000E+00         0.10441E+07
 
    0.18730E+06         0.32985E+06         0.00000E+00
    0.32985E+06         0.50642E+07         0.00000E+00
    0.00000E+00         0.00000E+00         0.10503E+07
 
    0.21782E+06         0.37965E+06         0.00000E+00
    0.37965E+06         0.50645E+07         0.00000E+00
    0.00000E+00         0.00000E+00         0.10565E+07
 
    0.24784E+06         0.42927E+06         0.00000E+00
    0.42927E+06         0.50647E+07         0.00000E+00
    0.00000E+00         0.00000E+00         0.10625E+07
 
    0.27739E+06         0.47873E+06         0.00000E+00
    0.47873E+06         0.50649E+07         0.00000E+00
    0.00000E+00         0.00000E+00         0.10685E+07
 
    0.30647E+06         0.52803E+06         0.00000E+00
    0.52803E+06         0.50651E+07         0.00000E+00
    0.00000E+00         0.00000E+00         0.10743E+07
 
    0.33508E+06         0.57721E+06         0.00000E+00
    0.57721E+06         0.50653E+07         0.00000E+00
    0.00000E+00         0.00000E+00         0.10801E+07
 
    0.36325E+06         0.62627E+06         0.00000E+00
    0.62627E+06         0.50654E+07         0.00000E+00
    0.00000E+00         0.00000E+00         0.10857E+07
 
    0.39098E+06         0.67523E+06         0.00000E+00
    0.67523E+06         0.50655E+07         0.00000E+00
    0.00000E+00         0.00000E+00         0.10913E+07
 
    0.41828E+06         0.72411E+06         0.00000E+00
    0.72411E+06         0.50656E+07         0.00000E+00
    0.00000E+00         0.00000E+00         0.10968E+07
 
    0.44517E+06         0.77292E+06         0.00000E+00
    0.77292E+06         0.50656E+07         0.00000E+00
    0.00000E+00         0.00000E+00         0.11022E+07
 
    0.47165E+06         0.82168E+06         0.00000E+00
    0.82168E+06         0.50655E+07         0.00000E+00
    0.00000E+00         0.00000E+00         0.11074E+07
 
    0.49774E+06         0.87041E+06         0.00000E+00
    0.87041E+06         0.50654E+07         0.00000E+00
    0.00000E+00         0.00000E+00         0.11126E+07
 
    0.52346E+06         0.91911E+06         0.00000E+00
    0.91911E+06         0.50652E+07         0.00000E+00
    0.00000E+00         0.00000E+00         0.11177E+07
 
    0.54881E+06         0.96780E+06         0.00000E+00
    0.96780E+06         0.50648E+07         0.00000E+00
    0.00000E+00         0.00000E+00         0.11227E+07
 
    0.57381E+06         0.10165E+07         0.00000E+00
    0.10165E+07         0.50644E+07         0.00000E+00
    0.00000E+00         0.00000E+00         0.11276E+07
 
    0.59848E+06         0.10652E+07         0.00000E+00
    0.10652E+07         0.50638E+07         0.00000E+00
    0.00000E+00         0.00000E+00         0.11325E+07
 
    0.62284E+06         0.11140E+07         0.00000E+00
    0.11140E+07         0.50631E+07         0.00000E+00
    0.00000E+00         0.00000E+00         0.11372E+07
 
    0.64688E+06         0.11627E+07         0.00000E+00
    0.11627E+07         0.50623E+07         0.00000E+00
    0.00000E+00         0.00000E+00         0.11418E+07
 
    0.67064E+06         0.12116E+07         0.00000E+00
    0.12116E+07         0.50613E+07         0.00000E+00
    0.00000E+00         0.00000E+00         0.11464E+07
 
    0.69413E+06         0.12605E+07         0.00000E+00
    0.12605E+07         0.50601E+07         0.00000E+00
    0.00000E+00         0.00000E+00         0.11509E+07
 
    0.71737E+06         0.13095E+07         0.00000E+00
    0.13095E+07         0.50588E+07         0.00000E+00
    0.00000E+00         0.00000E+00         0.11552E+07
 
    0.74036E+06         0.13585E+07         0.00000E+00
    0.13585E+07         0.50572E+07         0.00000E+00
    0.00000E+00         0.00000E+00         0.11595E+07
 
    0.76314E+06         0.14077E+07         0.00000E+00
    0.14077E+07         0.50554E+07         0.00000E+00
    0.00000E+00         0.00000E+00         0.11637E+07
 
    0.78571E+06         0.14569E+07         0.00000E+00
    0.14569E+07         0.50534E+07         0.00000E+00
    0.00000E+00         0.00000E+00         0.11678E+07
 
    0.80809E+06         0.15063E+07         0.00000E+00
    0.15063E+07         0.50512E+07         0.00000E+00
    0.00000E+00         0.00000E+00         0.11719E+07
 
    0.83031E+06         0.15558E+07         0.00000E+00
    0.15558E+07         0.50487E+07         0.00000E+00
    0.00000E+00         0.00000E+00         0.11758E+07
 
    0.85238E+06         0.16054E+07         0.00000E+00
    0.16054E+07         0.50459E+07         0.00000E+00
    0.00000E+00         0.00000E+00         0.11797E+07
 
    0.87432E+06         0.16551E+07         0.00000E+00
    0.16551E+07         0.50429E+07         0.00000E+00
    0.00000E+00         0.00000E+00         0.11834E+07
 
    0.89614E+06         0.17050E+07         0.00000E+00
    0.17050E+07         0.50396E+07         0.00000E+00
    0.00000E+00         0.00000E+00         0.11871E+07
 
    0.91787E+06         0.17551E+07         0.00000E+00
    0.17551E+07         0.50359E+07         0.00000E+00
    0.00000E+00         0.00000E+00         0.11908E+07
 
    0.93953E+06         0.18053E+07         0.00000E+00
    0.18053E+07         0.50320E+07         0.00000E+00
    0.00000E+00         0.00000E+00         0.11943E+07
 
    0.96114E+06         0.18556E+07         0.00000E+00
    0.18556E+07         0.50277E+07         0.00000E+00
    0.00000E+00         0.00000E+00         0.11978E+07
 
    0.98270E+06         0.19061E+07         0.00000E+00
    0.19061E+07         0.50230E+07         0.00000E+00
    0.00000E+00         0.00000E+00         0.12011E+07
 
    0.10043E+07         0.19568E+07         0.00000E+00
    0.19568E+07         0.50180E+07         0.00000E+00
    0.00000E+00         0.00000E+00         0.12045E+07
 
    0.10258E+07         0.20076E+07         0.00000E+00
    0.20076E+07         0.50126E+07         0.00000E+00
    0.00000E+00         0.00000E+00         0.12077E+07
 
    0.10474E+07         0.20587E+07         0.00000E+00
    0.20587E+07         0.50068E+07         0.00000E+00
    0.00000E+00         0.00000E+00         0.12108E+07
 
    0.10690E+07         0.21099E+07         0.00000E+00
    0.21099E+07         0.50006E+07         0.00000E+00
    0.00000E+00         0.00000E+00         0.12139E+07
 
    0.10907E+07         0.21612E+07         0.00000E+00
    0.21612E+07         0.49939E+07         0.00000E+00
    0.00000E+00         0.00000E+00         0.12169E+07
 
    0.11125E+07         0.22128E+07         0.00000E+00
    0.22128E+07         0.49868E+07         0.00000E+00
    0.00000E+00         0.00000E+00         0.12199E+07
 
    0.11344E+07         0.22646E+07         0.00000E+00
    0.22646E+07         0.49793E+07         0.00000E+00
    0.00000E+00         0.00000E+00         0.12227E+07
 
    0.11564E+07         0.23165E+07         0.00000E+00
    0.23165E+07         0.49712E+07         0.00000E+00
    0.00000E+00         0.00000E+00         0.12255E+07
 
    0.11786E+07         0.23686E+07         0.00000E+00
    0.23686E+07         0.49627E+07         0.00000E+00
    0.00000E+00         0.00000E+00         0.12283E+07
 
    0.12009E+07         0.24210E+07         0.00000E+00
    0.24210E+07         0.49537E+07         0.00000E+00
    0.00000E+00         0.00000E+00         0.12309E+07
 
    0.12235E+07         0.24735E+07         0.00000E+00
    0.24735E+07         0.49441E+07         0.00000E+00
    0.00000E+00         0.00000E+00         0.12335E+07
 
   -0.96714E+05         0.26002E+05         0.00000E+00
    0.26002E+05         0.47159E+07         0.00000E+00
    0.00000E+00         0.00000E+00         0.92385E+06
 
   -0.64738E+05         0.77214E+05         0.00000E+00
    0.77214E+05         0.47159E+07         0.00000E+00
    0.00000E+00         0.00000E+00         0.93024E+06
 
   -0.33195E+05         0.12811E+06         0.00000E+00
    0.12811E+06         0.47160E+07         0.00000E+00
    0.00000E+00         0.00000E+00         0.93655E+06
 
   -0.20813E+04         0.17871E+06         0.00000E+00
    0.17871E+06         0.47160E+07         0.00000E+00
    0.00000E+00         0.00000E+00         0.94278E+06
 
    0.28606E+05         0.22904E+06         0.00000E+00
    0.22904E+06         0.47160E+07         0.00000E+00
    0.00000E+00         0.00000E+00         0.94891E+06
 
    0.58872E+05         0.27910E+06         0.00000E+00
    0.27910E+06         0.47159E+07         0.00000E+00
    0.00000E+00         0.00000E+00         0.95496E+06
 
    0.88721E+05         0.32892E+06         0.00000E+00
    0.32892E+06         0.47159E+07         0.00000E+00
    0.00000E+00         0.00000E+00         0.96093E+06
 
    0.11816E+06         0.37852E+06         0.00000E+00
    0.37852E+06         0.47159E+07         0.00000E+00
    0.00000E+00         0.00000E+00         0.96681E+06
 
    0.14719E+06         0.42790E+06         0.00000E+00
    0.42790E+06         0.47158E+07         0.00000E+00
    0.00000E+00         0.00000E+00         0.97260E+06
 
    0.17583E+06         0.47710E+06         0.00000E+00
    0.47710E+06         0.47157E+07         0.00000E+00
    0.00000E+00         0.00000E+00         0.97830E+06
 
    0.20408E+06         0.52611E+06         0.00000E+00
    0.52611E+06         0.47155E+07         0.00000E+00
    0.00000E+00         0.00000E+00         0.98392E+06
 
    0.23194E+06         0.57497E+06         0.00000E+00
    0.57497E+06         0.47153E+07         0.00000E+00
    0.00000E+00         0.00000E+00         0.98945E+06
 
    0.25943E+06         0.62368E+06         0.00000E+00
    0.62368E+06         0.47151E+07         0.00000E+00
    0.00000E+00         0.00000E+00         0.99490E+06
 
    0.28656E+06         0.67225E+06         0.00000E+00
    0.67225E+06         0.47148E+07         0.00000E+00
    0.00000E+00         0.00000E+00         0.10003E+07
 
    0.31333E+06         0.72071E+06         0.00000E+00
    0.72071E+06         0.47144E+07         0.00000E+00
    0.00000E+00         0.00000E+00         0.10055E+07
 
    0.33975E+06         0.76907E+06         0.00000E+00
    0.76907E+06         0.47139E+07         0.00000E+00
    0.00000E+00         0.00000E+00         0.10107E+07
 
    0.36584E+06         0.81733E+06         0.00000E+00
    0.81733E+06         0.47133E+07         0.00000E+00
    0.00000E+00         0.00000E+00         0.10158E+07
 
    0.39161E+06         0.86552E+06         0.00000E+00
    0.86552E+06         0.47127E+07         0.00000E+00
    0.00000E+00         0.00000E+00         0.10209E+07
 
    0.41706E+06         0.91364E+06         0.00000E+00
    0.91364E+06         0.47119E+07         0.00000E+00
    0.00000E+00         0.00000E+00         0.10258E+07
 
    0.44222E+06         0.96171E+06         0.00000E+00
    0.96171E+06         0.47111E+07         0.00000E+00
    0.00000E+00         0.00000E+00         0.10307E+07
 
    0.46709E+06         0.10097E+07         0.00000E+00
    0.10097E+07         0.47101E+07         0.00000E+00
    0.00000E+00         0.00000E+00         0.10354E+07
 
    0.49168E+06         0.10577E+07         0.00000E+00
    0.10577E+07         0.47089E+07         0.00000E+00
    0.00000E+00         0.00000E+00         0.10401E+07
 
    0.51601E+06         0.11057E+07         0.00000E+00
    0.11057E+07         0.47076E+07         0.00000E+00
    0.00000E+00         0.00000E+00         0.10447E+07
 
    0.54009E+06         0.11537E+07         0.00000E+00
    0.11537E+07         0.47062E+07         0.00000E+00
    0.00000E+00         0.00000E+00         0.10493E+07
 
    0.56393E+06         0.12017E+07         0.00000E+00
    0.12017E+07         0.47046E+07         0.00000E+00
    0.00000E+00         0.00000E+00         0.10537E+07
 
    0.58756E+06         0.12497E+07         0.00000E+00
    0.12497E+07         0.47028E+07         0.00000E+00
    0.00000E+00         0.00000E+00         0.10581E+07
 
    0.61098E+06         0.12977E+07         0.00000E+00
    0.12977E+07         0.47008E+07         0.00000E+00
    0.00000E+00         0.00000E+00         0.10624E+07
 
    0.63421E+06         0.13457E+07         0.00000E+00
    0.13457E+07         0.46986E+07         0.00000E+00
    0.00000E+00         0.00000E+00         0.10666E+07
 
    0.65726E+06         0.13938E+07         0.00000E+00
    0.13938E+07         0.46962E+07         0.00000E+00
    0.00000E+00         0.00000E+00         0.10707E+07
 
    0.68015E+06         0.14420E+07         0.00000E+00
    0.14420E+07         0.46936E+07         0.00000E+00
    0.00000E+00         0.00000E+00         0.10747E+07
 
    0.70290E+06         0.14901E+07         0.00000E+00
    0.14901E+07         0.46907E+07         0.00000E+00
    0.00000E+00         0.00000E+00         0.10787E+07
 
    0.72552E+06         0.15384E+07         0.00000E+00
    0.15384E+07         0.46876E+07         0.00000E+00
    0.00000E+00         0.00000E+00         0.10826E+07
 
    0.74802E+06         0.15867E+07         0.00000E+00
    0.15867E+07         0.46842E+07         0.00000E+00
    0.00000E+00         0.00000E+00         0.10864E+07
 
    0.77043E+06         0.16351E+07         0.00000E+00
    0.16351E+07         0.46805E+07         0.00000E+00
    0.00000E+00         0.00000E+00         0.10902E+07
 
    0.79277E+06         0.16836E+07         0.00000E+00
    0.16836E+07         0.46766E+07         0.00000E+00
    0.00000E+00         0.00000E+00         0.10939E+07
 
    0.81503E+06         0.17321E+07         0.00000E+00
    0.17321E+07         0.46723E+07         0.00000E+00
    0.00000E+00         0.00000E+00         0.10975E+07
 
    0.83726E+06         0.17808E+07         0.00000E+00
    0.17808E+07         0.46678E+07         0.00000E+00
    0.00000E+00         0.00000E+00         0.11010E+07
 
    0.85946E+06         0.18295E+07         0.00000E+00
    0.18295E+07         0.46629E+07         0.00000E+00
    0.00000E+00         0.00000E+00         0.11045E+07
 
    0.88165E+06         0.18784E+07         0.00000E+00
    0.18784E+07         0.46576E+07         0.00000E+00
    0.00000E+00         0.00000E+00         0.11079E+07
 
    0.90384E+06         0.19273E+07         0.00000E+00
    0.19273E+07         0.46520E+07         0.00000E+00
    0.00000E+00         0.00000E+00         0.11112E+07
 
    0.92607E+06         0.19764E+07         0.00000E+00
    0.19764E+07         0.46461E+07         0.00000E+00
    0.00000E+00         0.00000E+00         0.11144E+07
 
    0.94833E+06         0.20256E+07         0.00000E+00
    0.20256E+07         0.46397E+07         0.00000E+00
    0.00000E+00         0.00000E+00         0.11176E+07
 
    0.97067E+06         0.20749E+07         0.00000E+00
    0.20749E+07         0.46330E+07         0.00000E+00
    0.00000E+00         0.00000E+00         0.11207E+07
 
    0.99308E+06         0.21243E+07         0.00000E+00
    0.21243E+07         0.46258E+07         0.00000E+00
    0.00000E+00         0.00000E+00         0.11238E+07
 
    0.10156E+07         0.21738E+07         0.00000E+00
    0.21738E+07         0.46182E+07         0.00000E+00
    0.00000E+00         0.00000E+00         0.11268E+07
 
    0.10382E+07         0.22235E+07         0.00000E+00
    0.22235E+07         0.46102E+07         0.00000E+00
    0.00000E+00         0.00000E+00         0.11297E+07
 
    0.10610E+07         0.22732E+07         0.00000E+00
    0.22732E+07         0.46017E+07         0.00000E+00
    0.00000E+00         0.00000E+00         0.11326E+07
 
    0.10840E+07         0.23231E+07         0.00000E+00
    0.23231E+07         0.45928E+07         0.00000E+00
    0.00000E+00         0.00000E+00         0.11353E+07
 
    0.11071E+07         0.23731E+07         0.00000E+00
    0.23731E+07         0.45834E+07         0.00000E+00
    0.00000E+00         0.00000E+00         0.11381E+07
 
    0.11304E+07         0.24233E+07         0.00000E+00
    0.24233E+07         0.45734E+07         0.00000E+00
    0.00000E+00         0.00000E+00         0.11408E+07
 
   -0.17056E+06         0.25878E+05         0.00000E+00
    0.25878E+05         0.43858E+07         0.00000E+00
    0.00000E+00         0.00000E+00         0.84305E+06
 
   -0.14023E+06         0.76830E+05         0.00000E+00
    0.76830E+05         0.43858E+07         0.00000E+00
    0.00000E+00         0.00000E+00         0.84911E+06
 
   -0.11024E+06         0.12746E+06         0.00000E+00
    0.12746E+06         0.43857E+07         0.00000E+00
    0.00000E+00         0.00000E+00         0.85509E+06
 
   -0.80612E+05         0.17779E+06         0.00000E+00
    0.17779E+06         0.43856E+07         0.00000E+00
    0.00000E+00         0.00000E+00         0.86100E+06
 
   -0.51328E+05         0.22782E+06         0.00000E+00
    0.22782E+06         0.43855E+07         0.00000E+00
    0.00000E+00         0.00000E+00         0.86683E+06
 
   -0.22388E+05         0.27758E+06         0.00000E+00
    0.27758E+06         0.43853E+07         0.00000E+00
    0.00000E+00         0.00000E+00         0.87259E+06
 
    0.62110E+04         0.32709E+06         0.00000E+00
    0.32709E+06         0.43851E+07         0.00000E+00
    0.00000E+00         0.00000E+00         0.87826E+06
 
    0.34474E+05         0.37634E+06         0.00000E+00
    0.37634E+06         0.43848E+07         0.00000E+00
    0.00000E+00         0.00000E+00         0.88386E+06
 
    0.62404E+05         0.42537E+06         0.00000E+00
    0.42537E+06         0.43845E+07         0.00000E+00
    0.00000E+00         0.00000E+00         0.88938E+06
 
    0.90009E+05         0.47419E+06         0.00000E+00
    0.47419E+06         0.43841E+07         0.00000E+00
    0.00000E+00         0.00000E+00         0.89483E+06
 
    0.11729E+06         0.52281E+06         0.00000E+00
    0.52281E+06         0.43837E+07         0.00000E+00
    0.00000E+00         0.00000E+00         0.90020E+06
 
    0.14426E+06         0.57123E+06         0.00000E+00
    0.57123E+06         0.43832E+07         0.00000E+00
    0.00000E+00         0.00000E+00         0.90549E+06
 
    0.17093E+06         0.61949E+06         0.00000E+00
    0.61949E+06         0.43826E+07         0.00000E+00
    0.00000E+00         0.00000E+00         0.91070E+06
 
    0.19729E+06         0.66758E+06         0.00000E+00
    0.66758E+06         0.43819E+07         0.00000E+00
    0.00000E+00         0.00000E+00         0.91584E+06
 
    0.22337E+06         0.71553E+06         0.00000E+00
    0.71553E+06         0.43811E+07         0.00000E+00
    0.00000E+00         0.00000E+00         0.92090E+06
 
    0.24916E+06         0.76334E+06         0.00000E+00
    0.76334E+06         0.43803E+07         0.00000E+00
    0.00000E+00         0.00000E+00         0.92589E+06
 
    0.27468E+06         0.81102E+06         0.00000E+00
    0.81102E+06         0.43793E+07         0.00000E+00
    0.00000E+00         0.00000E+00         0.93080E+06
 
    0.29993E+06         0.85860E+06         0.00000E+00
    0.85860E+06         0.43782E+07         0.00000E+00
    0.00000E+00         0.00000E+00         0.93563E+06
 
    0.32493E+06         0.90607E+06         0.00000E+00
    0.90607E+06         0.43770E+07         0.00000E+00
    0.00000E+00         0.00000E+00         0.94039E+06
 
    0.34969E+06         0.95346E+06         0.00000E+00
    0.95346E+06         0.43757E+07         0.00000E+00
    0.00000E+00         0.00000E+00         0.94508E+06
 
    0.37421E+06         0.10008E+07         0.00000E+00
    0.10008E+07         0.43742E+07         0.00000E+00
    0.00000E+00         0.00000E+00         0.94969E+06
 
    0.39850E+06         0.10480E+07         0.00000E+00
    0.10480E+07         0.43726E+07         0.00000E+00
    0.00000E+00         0.00000E+00         0.95422E+06
 
    0.42259E+06         0.10952E+07         0.00000E+00
    0.10952E+07         0.43708E+07         0.00000E+00
    0.00000E+00         0.00000E+00         0.95869E+06
 
    0.44648E+06         0.11423E+07         0.00000E+00
    0.11423E+07         0.43689E+07         0.00000E+00
    0.00000E+00         0.00000E+00         0.96308E+06
 
    0.47018E+06         0.11894E+07         0.00000E+00
    0.11894E+07         0.43668E+07         0.00000E+00
    0.00000E+00         0.00000E+00         0.96739E+06
 
    0.49370E+06         0.12364E+07         0.00000E+00
    0.12364E+07         0.43645E+07         0.00000E+00
    0.00000E+00         0.00000E+00         0.97164E+06
 
    0.51706E+06         0.12835E+07         0.00000E+00
    0.12835E+07         0.43620E+07         0.00000E+00
    0.00000E+00         0.00000E+00         0.97581E+06
 
    0.54027E+06         0.13305E+07         0.00000E+00
    0.13305E+07         0.43593E+07         0.00000E+00
    0.00000E+00         0.00000E+00         0.97991E+06
 
    0.56335E+06         0.13775E+07         0.00000E+00
    0.13775E+07         0.43564E+07         0.00000E+00
    0.00000E+00         0.00000E+00         0.98395E+06
 
    0.58630E+06         0.14245E+07         0.00000E+00
    0.14245E+07         0.43532E+07         0.00000E+00
    0.00000E+00         0.00000E+00         0.98791E+06
 
    0.60915E+06         0.14715E+07         0.00000E+00
    0.14715E+07         0.43499E+07         0.00000E+00
    0.00000E+00         0.00000E+00         0.99180E+06
 
    0.63190E+06         0.15185E+07         0.00000E+00
    0.15185E+07         0.43462E+07         0.00000E+00
    0.00000E+00         0.00000E+00         0.99563E+06
 
    0.65457E+06         0.15655E+07         0.00000E+00
    0.15655E+07         0.43424E+07         0.00000E+00
    0.00000E+00         0.00000E+00         0.99938E+06
 
    0.67717E+06         0.16126E+07         0.00000E+00
    0.16126E+07         0.43382E+07         0.00000E+00
    0.00000E+00         0.00000E+00         0.10031E+07
 
    0.69973E+06         0.16597E+07         0.00000E+00
    0.16597E+07         0.43338E+07         0.00000E+00
    0.00000E+00         0.00000E+00         0.10067E+07
 
    0.72225E+06         0.17068E+07         0.00000E+00
    0.17068E+07         0.43290E+07         0.00000E+00
    0.00000E+00         0.00000E+00         0.10103E+07
 
    0.74476E+06         0.17539E+07         0.00000E+00
    0.17539E+07         0.43240E+07         0.00000E+00
    0.00000E+00         0.00000E+00         0.10137E+07
 
    0.76726E+06         0.18011E+07         0.00000E+00
    0.18011E+07         0.43186E+07         0.00000E+00
    0.00000E+00         0.00000E+00         0.10172E+07
 
    0.78977E+06         0.18484E+07         0.00000E+00
    0.18484E+07         0.43129E+07         0.00000E+00
    0.00000E+00         0.00000E+00         0.10205E+07
 
    0.81231E+06         0.18957E+07         0.00000E+00
    0.18957E+07         0.43069E+07         0.00000E+00
    0.00000E+00         0.00000E+00         0.10238E+07
 
    0.83490E+06         0.19430E+07         0.00000E+00
    0.19430E+07         0.43005E+07         0.00000E+00
    0.00000E+00         0.00000E+00         0.10271E+07
 
    0.85755E+06         0.19904E+07         0.00000E+00
    0.19904E+07         0.42938E+07         0.00000E+00
    0.00000E+00         0.00000E+00         0.10303E+07
 
    0.88027E+06         0.20378E+07         0.00000E+00
    0.20378E+07         0.42866E+07         0.00000E+00
    0.00000E+00         0.00000E+00         0.10334E+07
 
    0.90310E+06         0.20853E+07         0.00000E+00
    0.20853E+07         0.42791E+07         0.00000E+00
    0.00000E+00         0.00000E+00         0.10364E+07
 
    0.92603E+06         0.21329E+07         0.00000E+00
    0.21329E+07         0.42712E+07         0.00000E+00
    0.00000E+00         0.00000E+00         0.10394E+07
 
    0.94910E+06         0.21805E+07         0.00000E+00
    0.21805E+07         0.42628E+07         0.00000E+00
    0.00000E+00         0.00000E+00         0.10424E+07
 
    0.97231E+06         0.22282E+07         0.00000E+00
    0.22282E+07         0.42540E+07         0.00000E+00
    0.00000E+00         0.00000E+00         0.10453E+07
 
    0.99569E+06         0.22760E+07         0.00000E+00
    0.22760E+07         0.42448E+07         0.00000E+00
    0.00000E+00         0.00000E+00         0.10481E+07
 
    0.10192E+07         0.23238E+07         0.00000E+00
    0.23238E+07         0.42351E+07         0.00000E+00
    0.00000E+00         0.00000E+00         0.10509E+07
 
    0.10430E+07         0.23716E+07         0.00000E+00
    0.23716E+07         0.42250E+07         0.00000E+00
    0.00000E+00         0.00000E+00         0.10536E+07
 
   -0.22959E+06         0.25690E+05         0.00000E+00
    0.25690E+05         0.40721E+07         0.00000E+00
    0.00000E+00         0.00000E+00         0.76850E+06
 
   -0.20092E+06         0.76261E+05         0.00000E+00
    0.76261E+05         0.40720E+07         0.00000E+00
    0.00000E+00         0.00000E+00         0.77422E+06
 
   -0.17253E+06         0.12651E+06         0.00000E+00
    0.12651E+06         0.40719E+07         0.00000E+00
    0.00000E+00         0.00000E+00         0.77988E+06
 
   -0.14443E+06         0.17644E+06         0.00000E+00
    0.17644E+06         0.40717E+07         0.00000E+00
    0.00000E+00         0.00000E+00         0.78546E+06
 
   -0.11660E+06         0.22607E+06         0.00000E+00
    0.22607E+06         0.40715E+07         0.00000E+00
    0.00000E+00         0.00000E+00         0.79098E+06
 
   -0.89047E+05         0.27543E+06         0.00000E+00
    0.27543E+06         0.40712E+07         0.00000E+00
    0.00000E+00         0.00000E+00         0.79643E+06
 
   -0.61771E+05         0.32450E+06         0.00000E+00
    0.32450E+06         0.40708E+07         0.00000E+00
    0.00000E+00         0.00000E+00         0.80181E+06
 
   -0.34766E+05         0.37333E+06         0.00000E+00
    0.37333E+06         0.40704E+07         0.00000E+00
    0.00000E+00         0.00000E+00         0.80712E+06
 
   -0.80288E+04         0.42190E+06         0.00000E+00
    0.42190E+06         0.40698E+07         0.00000E+00
    0.00000E+00         0.00000E+00         0.81236E+06
 
    0.18445E+05         0.47025E+06         0.00000E+00
    0.47025E+06         0.40692E+07         0.00000E+00
    0.00000E+00         0.00000E+00         0.81754E+06
 
    0.44661E+05         0.51837E+06         0.00000E+00
    0.51837E+06         0.40686E+07         0.00000E+00
    0.00000E+00         0.00000E+00         0.82264E+06
 
    0.70623E+05         0.56629E+06         0.00000E+00
    0.56629E+06         0.40678E+07         0.00000E+00
    0.00000E+00         0.00000E+00         0.82768E+06
 
    0.96337E+05         0.61401E+06         0.00000E+00
    0.61401E+06         0.40669E+07         0.00000E+00
    0.00000E+00         0.00000E+00         0.83265E+06
 
    0.12181E+06         0.66154E+06         0.00000E+00
    0.66154E+06         0.40659E+07         0.00000E+00
    0.00000E+00         0.00000E+00         0.83755E+06
 
    0.14705E+06         0.70890E+06         0.00000E+00
    0.70890E+06         0.40649E+07         0.00000E+00
    0.00000E+00         0.00000E+00         0.84238E+06
 
    0.17206E+06         0.75610E+06         0.00000E+00
    0.75610E+06         0.40637E+07         0.00000E+00
    0.00000E+00         0.00000E+00         0.84715E+06
 
    0.19685E+06         0.80314E+06         0.00000E+00
    0.80314E+06         0.40624E+07         0.00000E+00
    0.00000E+00         0.00000E+00         0.85185E+06
 
    0.22143E+06         0.85005E+06         0.00000E+00
    0.85005E+06         0.40609E+07         0.00000E+00
    0.00000E+00         0.00000E+00         0.85648E+06
 
    0.24580E+06         0.89682E+06         0.00000E+00
    0.89682E+06         0.40594E+07         0.00000E+00
    0.00000E+00         0.00000E+00         0.86104E+06
 
    0.26998E+06         0.94346E+06         0.00000E+00
    0.94346E+06         0.40577E+07         0.00000E+00
    0.00000E+00         0.00000E+00         0.86553E+06
 
    0.29398E+06         0.99000E+06         0.00000E+00
    0.99000E+06         0.40558E+07         0.00000E+00
    0.00000E+00         0.00000E+00         0.86996E+06
 
    0.31779E+06         0.10364E+07         0.00000E+00
    0.10364E+07         0.40538E+07         0.00000E+00
    0.00000E+00         0.00000E+00         0.87433E+06
 
    0.34144E+06         0.10828E+07         0.00000E+00
    0.10828E+07         0.40517E+07         0.00000E+00
    0.00000E+00         0.00000E+00         0.87862E+06
 
    0.36493E+06         0.11290E+07         0.00000E+00
    0.11290E+07         0.40493E+07         0.00000E+00
    0.00000E+00         0.00000E+00         0.88286E+06
 
    0.38828E+06         0.11752E+07         0.00000E+00
    0.11752E+07         0.40468E+07         0.00000E+00
    0.00000E+00         0.00000E+00         0.88702E+06
 
    0.41149E+06         0.12213E+07         0.00000E+00
    0.12213E+07         0.40441E+07         0.00000E+00
    0.00000E+00         0.00000E+00         0.89112E+06
 
    0.43458E+06         0.12673E+07         0.00000E+00
    0.12673E+07         0.40412E+07         0.00000E+00
    0.00000E+00         0.00000E+00         0.89516E+06
 
    0.45755E+06         0.13133E+07         0.00000E+00
    0.13133E+07         0.40381E+07         0.00000E+00
    0.00000E+00         0.00000E+00         0.89914E+06
 
    0.48043E+06         0.13592E+07         0.00000E+00
    0.13592E+07         0.40348E+07         0.00000E+00
    0.00000E+00         0.00000E+00         0.90305E+06
 
    0.50321E+06         0.14050E+07         0.00000E+00
    0.14050E+07         0.40313E+07         0.00000E+00
    0.00000E+00         0.00000E+00         0.90690E+06
 
    0.52592E+06         0.14509E+07         0.00000E+00
    0.14509E+07         0.40275E+07         0.00000E+00
    0.00000E+00         0.00000E+00         0.91068E+06
 
    0.54856E+06         0.14967E+07         0.00000E+00
    0.14967E+07         0.40235E+07         0.00000E+00
    0.00000E+00         0.00000E+00         0.91441E+06
 
    0.57116E+06         0.15424E+07         0.00000E+00
    0.15424E+07         0.40192E+07         0.00000E+00
    0.00000E+00         0.00000E+00         0.91807E+06
 
    0.59371E+06         0.15882E+07         0.00000E+00
    0.15882E+07         0.40147E+07         0.00000E+00
    0.00000E+00         0.00000E+00         0.92168E+06
 
    0.61624E+06         0.16339E+07         0.00000E+00
    0.16339E+07         0.40099E+07         0.00000E+00
    0.00000E+00         0.00000E+00         0.92522E+06
 
    0.63876E+06         0.16796E+07         0.00000E+00
    0.16796E+07         0.40048E+07         0.00000E+00
    0.00000E+00         0.00000E+00         0.92871E+06
 
    0.66129E+06         0.17253E+07         0.00000E+00
    0.17253E+07         0.39994E+07         0.00000E+00
    0.00000E+00         0.00000E+00         0.93213E+06
 
    0.68383E+06         0.17710E+07         0.00000E+00
    0.17710E+07         0.39937E+07         0.00000E+00
    0.00000E+00         0.00000E+00         0.93550E+06
 
    0.70640E+06         0.18167E+07         0.00000E+00
    0.18167E+07         0.39877E+07         0.00000E+00
    0.00000E+00         0.00000E+00         0.93881E+06
 
    0.72901E+06         0.18624E+07         0.00000E+00
    0.18624E+07         0.39813E+07         0.00000E+00
    0.00000E+00         0.00000E+00         0.94207E+06
 
    0.75169E+06         0.19080E+07         0.00000E+00
    0.19080E+07         0.39746E+07         0.00000E+00
    0.00000E+00         0.00000E+00         0.94527E+06
 
    0.77444E+06         0.19537E+07         0.00000E+00
    0.19537E+07         0.39676E+07         0.00000E+00
    0.00000E+00         0.00000E+00         0.94841E+06
 
    0.79729E+06         0.19994E+07         0.00000E+00
    0.19994E+07         0.39602E+07         0.00000E+00
    0.00000E+00         0.00000E+00         0.95150E+06
 
    0.82024E+06         0.20451E+07         0.00000E+00
    0.20451E+07         0.39524E+07         0.00000E+00
    0.00000E+00         0.00000E+00         0.95454E+06
 
    0.84331E+06         0.20908E+07         0.00000E+00
    0.20908E+07         0.39443E+07         0.00000E+00
    0.00000E+00         0.00000E+00         0.95752E+06
 
    0.86651E+06         0.21365E+07         0.00000E+00
    0.21365E+07         0.39357E+07         0.00000E+00
    0.00000E+00         0.00000E+00         0.96045E+06
 
    0.88987E+06         0.21822E+07         0.00000E+00
    0.21822E+07         0.39268E+07         0.00000E+00
    0.00000E+00         0.00000E+00         0.96333E+06
 
    0.91340E+06         0.22279E+07         0.00000E+00
    0.22279E+07         0.39174E+07         0.00000E+00
    0.00000E+00         0.00000E+00         0.96616E+06
 
    0.93711E+06         0.22736E+07         0.00000E+00
    0.22736E+07         0.39076E+07         0.00000E+00
    0.00000E+00         0.00000E+00         0.96894E+06
 
    0.96102E+06         0.23193E+07         0.00000E+00
    0.23193E+07         0.38974E+07         0.00000E+00
    0.00000E+00         0.00000E+00         0.97168E+06
 
   -0.27532E+06         0.25451E+05         0.00000E+00
    0.25451E+05         0.37738E+07         0.00000E+00
    0.00000E+00         0.00000E+00         0.69970E+06
 
   -0.24833E+06         0.75546E+05         0.00000E+00
    0.75546E+05         0.37737E+07         0.00000E+00
    0.00000E+00         0.00000E+00         0.70508E+06
 
   -0.22155E+06         0.12531E+06         0.00000E+00
    0.12531E+06         0.37736E+07         0.00000E+00
    0.00000E+00         0.00000E+00         0.71041E+06
 
   -0.19500E+06         0.17476E+06         0.00000E+00
    0.17476E+06         0.37733E+07         0.00000E+00
    0.00000E+00         0.00000E+00         0.71567E+06
 
   -0.16867E+06         0.22391E+06         0.00000E+00
    0.22391E+06         0.37730E+07         0.00000E+00
    0.00000E+00         0.00000E+00         0.72087E+06
 
   -0.14255E+06         0.27276E+06         0.00000E+00
    0.27276E+06         0.37726E+07         0.00000E+00
    0.00000E+00         0.00000E+00         0.72601E+06
 
   -0.11665E+06         0.32133E+06         0.00000E+00
    0.32133E+06         0.37721E+07         0.00000E+00
    0.00000E+00         0.00000E+00         0.73109E+06
 
   -0.90972E+05         0.36964E+06         0.00000E+00
    0.36964E+06         0.37715E+07         0.00000E+00
    0.00000E+00         0.00000E+00         0.73611E+06
 
   -0.65500E+05         0.41769E+06         0.00000E+00
    0.41769E+06         0.37708E+07         0.00000E+00
    0.00000E+00         0.00000E+00         0.74106E+06
 
   -0.40238E+05         0.46549E+06         0.00000E+00
    0.46549E+06         0.37700E+07         0.00000E+00
    0.00000E+00         0.00000E+00         0.74596E+06
 
   -0.15180E+05         0.51305E+06         0.00000E+00
    0.51305E+06         0.37692E+07         0.00000E+00
    0.00000E+00         0.00000E+00         0.75079E+06
 
    0.96775E+04         0.56039E+06         0.00000E+00
    0.56039E+06         0.37682E+07         0.00000E+00
    0.00000E+00         0.00000E+00         0.75557E+06
 
    0.34339E+05         0.60751E+06         0.00000E+00
    0.60751E+06         0.37671E+07         0.00000E+00
    0.00000E+00         0.00000E+00         0.76028E+06
 
    0.58809E+05         0.65443E+06         0.00000E+00
    0.65443E+06         0.37659E+07         0.00000E+00
    0.00000E+00         0.00000E+00         0.76494E+06
 
    0.83094E+05         0.70115E+06         0.00000E+00
    0.70115E+06         0.37645E+07         0.00000E+00
    0.00000E+00         0.00000E+00         0.76953E+06
 
    0.10720E+06         0.74768E+06         0.00000E+00
    0.74768E+06         0.37631E+07         0.00000E+00
    0.00000E+00         0.00000E+00         0.77406E+06
 
    0.13113E+06         0.79404E+06         0.00000E+00
    0.79404E+06         0.37615E+07         0.00000E+00
    0.00000E+00         0.00000E+00         0.77853E+06
 
    0.15490E+06         0.84023E+06         0.00000E+00
    0.84023E+06         0.37598E+07         0.00000E+00
    0.00000E+00         0.00000E+00         0.78294E+06
 
    0.17850E+06         0.88626E+06         0.00000E+00
    0.88626E+06         0.37580E+07         0.00000E+00
    0.00000E+00         0.00000E+00         0.78730E+06
 
    0.20195E+06         0.93213E+06         0.00000E+00
    0.93213E+06         0.37560E+07         0.00000E+00
    0.00000E+00         0.00000E+00         0.79159E+06
 
    0.22526E+06         0.97787E+06         0.00000E+00
    0.97787E+06         0.37539E+07         0.00000E+00
    0.00000E+00         0.00000E+00         0.79582E+06
 
    0.24843E+06         0.10235E+07         0.00000E+00
    0.10235E+07         0.37516E+07         0.00000E+00
    0.00000E+00         0.00000E+00         0.80000E+06
 
    0.27148E+06         0.10689E+07         0.00000E+00
    0.10689E+07         0.37491E+07         0.00000E+00
    0.00000E+00         0.00000E+00         0.80411E+06
 
    0.29440E+06         0.11143E+07         0.00000E+00
    0.11143E+07         0.37464E+07         0.00000E+00
    0.00000E+00         0.00000E+00         0.80817E+06
 
    0.31722E+06         0.11595E+07         0.00000E+00
    0.11595E+07         0.37436E+07         0.00000E+00
    0.00000E+00         0.00000E+00         0.81217E+06
 
    0.33993E+06         0.12046E+07         0.00000E+00
    0.12046E+07         0.37406E+07         0.00000E+00
    0.00000E+00         0.00000E+00         0.81611E+06
 
    0.36255E+06         0.12497E+07         0.00000E+00
    0.12497E+07         0.37374E+07         0.00000E+00
    0.00000E+00         0.00000E+00         0.81999E+06
 
    0.38510E+06         0.12946E+07         0.00000E+00
    0.12946E+07         0.37340E+07         0.00000E+00
    0.00000E+00         0.00000E+00         0.82382E+06
 
    0.40757E+06         0.13394E+07         0.00000E+00
    0.13394E+07         0.37304E+07         0.00000E+00
    0.00000E+00         0.00000E+00         0.82759E+06
 
    0.42998E+06         0.13842E+07         0.00000E+00
    0.13842E+07         0.37265E+07         0.00000E+00
    0.00000E+00         0.00000E+00         0.83130E+06
 
    0.45234E+06         0.14289E+07         0.00000E+00
    0.14289E+07         0.37225E+07         0.00000E+00
    0.00000E+00         0.00000E+00         0.83496E+06
 
    0.47467E+06         0.14735E+07         0.00000E+00
    0.14735E+07         0.37182E+07         0.00000E+00
    0.00000E+00         0.00000E+00         0.83857E+06
 
    0.49697E+06         0.15180E+07         0.00000E+00
    0.15180E+07         0.37136E+07         0.00000E+00
    0.00000E+00         0.00000E+00         0.84212E+06
 
    0.51925E+06         0.15625E+07         0.00000E+00
    0.15625E+07         0.37088E+07         0.00000E+00
    0.00000E+00         0.00000E+00         0.84561E+06
 
    0.54153E+06         0.16069E+07         0.00000E+00
    0.16069E+07         0.37037E+07         0.00000E+00
    0.00000E+00         0.00000E+00         0.84905E+06
 
    0.56382E+06         0.16512E+07         0.00000E+00
    0.16512E+07         0.36984E+07         0.00000E+00
    0.00000E+00         0.00000E+00         0.85244E+06
 
    0.58613E+06         0.16955E+07         0.00000E+00
    0.16955E+07         0.36928E+07         0.00000E+00
    0.00000E+00         0.00000E+00         0.85578E+06
 
    0.60847E+06         0.17397E+07         0.00000E+00
    0.17397E+07         0.36868E+07         0.00000E+00
    0.00000E+00         0.00000E+00         0.85906E+06
 
    0.63086E+06         0.17839E+07         0.00000E+00
    0.17839E+07         0.36806E+07         0.00000E+00
    0.00000E+00         0.00000E+00         0.86230E+06
 
    0.65331E+06         0.18280E+07         0.00000E+00
    0.18280E+07         0.36741E+07         0.00000E+00
    0.00000E+00         0.00000E+00         0.86548E+06
 
    0.67584E+06         0.18721E+07         0.00000E+00
    0.18721E+07         0.36672E+07         0.00000E+00
    0.00000E+00         0.00000E+00         0.86861E+06
 
    0.69845E+06         0.19162E+07         0.00000E+00
    0.19162E+07         0.36600E+07         0.00000E+00
    0.00000E+00         0.00000E+00         0.87169E+06
 
    0.72116E+06         0.19602E+07         0.00000E+00
    0.19602E+07         0.36525E+07         0.00000E+00
    0.00000E+00         0.00000E+00         0.87473E+06
 
    0.74398E+06         0.20041E+07         0.00000E+00
    0.20041E+07         0.36446E+07         0.00000E+00
    0.00000E+00         0.00000E+00         0.87771E+06
 
    0.76692E+06         0.20480E+07         0.00000E+00
    0.20480E+07         0.36363E+07         0.00000E+00
    0.00000E+00         0.00000E+00         0.88065E+06
 
    0.79001E+06         0.20919E+07         0.00000E+00
    0.20919E+07         0.36277E+07         0.00000E+00
    0.00000E+00         0.00000E+00         0.88355E+06
 
    0.81326E+06         0.21357E+07         0.00000E+00
    0.21357E+07         0.36187E+07         0.00000E+00
    0.00000E+00         0.00000E+00         0.88639E+06
 
    0.83667E+06         0.21795E+07         0.00000E+00
    0.21795E+07         0.36093E+07         0.00000E+00
    0.00000E+00         0.00000E+00         0.88919E+06
 
    0.86027E+06         0.22232E+07         0.00000E+00
    0.22232E+07         0.35995E+07         0.00000E+00
    0.00000E+00         0.00000E+00         0.89195E+06
 
    0.88406E+06         0.22669E+07         0.00000E+00
    0.22669E+07         0.35893E+07         0.00000E+00
    0.00000E+00         0.00000E+00         0.89467E+06
 
   -0.30914E+06         0.25173E+05         0.00000E+00
    0.25173E+05         0.34900E+07         0.00000E+00
    0.00000E+00         0.00000E+00         0.63618E+06
 
   -0.28383E+06         0.74716E+05         0.00000E+00
    0.74716E+05         0.34899E+07         0.00000E+00
    0.00000E+00         0.00000E+00         0.64122E+06
 
   -0.25868E+06         0.12393E+06         0.00000E+00
    0.12393E+06         0.34897E+07         0.00000E+00
    0.00000E+00         0.00000E+00         0.64621E+06
 
   -0.23370E+06         0.17283E+06         0.00000E+00
    0.17283E+06         0.34894E+07         0.00000E+00
    0.00000E+00         0.00000E+00         0.65115E+06
 
   -0.20889E+06         0.22142E+06         0.00000E+00
    0.22142E+06         0.34890E+07         0.00000E+00
    0.00000E+00         0.00000E+00         0.65603E+06
 
   -0.18424E+06         0.26971E+06         0.00000E+00
    0.26971E+06         0.34885E+07         0.00000E+00
    0.00000E+00         0.00000E+00         0.66086E+06
 
   -0.15976E+06         0.31771E+06         0.00000E+00
    0.31771E+06         0.34879E+07         0.00000E+00
    0.00000E+00         0.00000E+00         0.66564E+06
 
   -0.13545E+06         0.36544E+06         0.00000E+00
    0.36544E+06         0.34872E+07         0.00000E+00
    0.00000E+00         0.00000E+00         0.67036E+06
 
   -0.11130E+06         0.41290E+06         0.00000E+00
    0.41290E+06         0.34864E+07         0.00000E+00
    0.00000E+00         0.00000E+00         0.67502E+06
 
   -0.87316E+05         0.46010E+06         0.00000E+00
    0.46010E+06         0.34855E+07         0.00000E+00
    0.00000E+00         0.00000E+00         0.67964E+06
 
   -0.63487E+05         0.50705E+06         0.00000E+00
    0.50705E+06         0.34845E+07         0.00000E+00
    0.00000E+00         0.00000E+00         0.68420E+06
 
   -0.39813E+05         0.55376E+06         0.00000E+00
    0.55376E+06         0.34833E+07         0.00000E+00
    0.00000E+00         0.00000E+00         0.68870E+06
 
   -0.16291E+05         0.60024E+06         0.00000E+00
    0.60024E+06         0.34821E+07         0.00000E+00
    0.00000E+00         0.00000E+00         0.69315E+06
 
    0.70839E+04         0.64650E+06         0.00000E+00
    0.64650E+06         0.34807E+07         0.00000E+00
    0.00000E+00         0.00000E+00         0.69755E+06
 
    0.30316E+05         0.69254E+06         0.00000E+00
    0.69254E+06         0.34792E+07         0.00000E+00
    0.00000E+00         0.00000E+00         0.70190E+06
 
    0.53410E+05         0.73838E+06         0.00000E+00
    0.73838E+06         0.34775E+07         0.00000E+00
    0.00000E+00         0.00000E+00         0.70619E+06
 
    0.76370E+05         0.78402E+06         0.00000E+00
    0.78402E+06         0.34758E+07         0.00000E+00
    0.00000E+00         0.00000E+00         0.71042E+06
 
    0.99204E+05         0.82946E+06         0.00000E+00
    0.82946E+06         0.34738E+07         0.00000E+00
    0.00000E+00         0.00000E+00         0.71461E+06
 
    0.12192E+06         0.87473E+06         0.00000E+00
    0.87473E+06         0.34718E+07         0.00000E+00
    0.00000E+00         0.00000E+00         0.71874E+06
 
    0.14451E+06         0.91982E+06         0.00000E+00
    0.91982E+06         0.34696E+07         0.00000E+00
    0.00000E+00         0.00000E+00         0.72282E+06
 
    0.16700E+06         0.96473E+06         0.00000E+00
    0.96473E+06         0.34672E+07         0.00000E+00
    0.00000E+00         0.00000E+00         0.72684E+06
 
    0.18939E+06         0.10095E+07         0.00000E+00
    0.10095E+07         0.34647E+07         0.00000E+00
    0.00000E+00         0.00000E+00         0.73081E+06
 
    0.21168E+06         0.10541E+07         0.00000E+00
    0.10541E+07         0.34620E+07         0.00000E+00
    0.00000E+00         0.00000E+00         0.73473E+06
 
    0.23388E+06         0.10985E+07         0.00000E+00
    0.10985E+07         0.34591E+07         0.00000E+00
    0.00000E+00         0.00000E+00         0.73860E+06
 
    0.25601E+06         0.11428E+07         0.00000E+00
    0.11428E+07         0.34561E+07         0.00000E+00
    0.00000E+00         0.00000E+00         0.74242E+06
 
    0.27806E+06         0.11870E+07         0.00000E+00
    0.11870E+07         0.34529E+07         0.00000E+00
    0.00000E+00         0.00000E+00         0.74618E+06
 
    0.30006E+06         0.12310E+07         0.00000E+00
    0.12310E+07         0.34494E+07         0.00000E+00
    0.00000E+00         0.00000E+00         0.74990E+06
 
    0.32199E+06         0.12750E+07         0.00000E+00
    0.12750E+07         0.34458E+07         0.00000E+00
    0.00000E+00         0.00000E+00         0.75356E+06
 
    0.34389E+06         0.13187E+07         0.00000E+00
    0.13187E+07         0.34420E+07         0.00000E+00
    0.00000E+00         0.00000E+00         0.75717E+06
 
    0.36575E+06         0.13624E+07         0.00000E+00
    0.13624E+07         0.34379E+07         0.00000E+00
    0.00000E+00         0.00000E+00         0.76074E+06
 
    0.38758E+06         0.14059E+07         0.00000E+00
    0.14059E+07         0.34337E+07         0.00000E+00
    0.00000E+00         0.00000E+00         0.76425E+06
 
    0.40940E+06         0.14494E+07         0.00000E+00
    0.14494E+07         0.34292E+07         0.00000E+00
    0.00000E+00         0.00000E+00         0.76771E+06
 
    0.43121E+06         0.14927E+07         0.00000E+00
    0.14927E+07         0.34244E+07         0.00000E+00
    0.00000E+00         0.00000E+00         0.77113E+06
 
    0.45302E+06         0.15359E+07         0.00000E+00
    0.15359E+07         0.34194E+07         0.00000E+00
    0.00000E+00         0.00000E+00         0.77449E+06
 
    0.47485E+06         0.15791E+07         0.00000E+00
    0.15791E+07         0.34142E+07         0.00000E+00
    0.00000E+00         0.00000E+00         0.77781E+06
 
    0.49671E+06         0.16221E+07         0.00000E+00
    0.16221E+07         0.34087E+07         0.00000E+00
    0.00000E+00         0.00000E+00         0.78109E+06
 
    0.51860E+06         0.16650E+07         0.00000E+00
    0.16650E+07         0.34030E+07         0.00000E+00
    0.00000E+00         0.00000E+00         0.78431E+06
 
    0.54054E+06         0.17078E+07         0.00000E+00
    0.17078E+07         0.33969E+07         0.00000E+00
    0.00000E+00         0.00000E+00         0.78749E+06
 
    0.56254E+06         0.17506E+07         0.00000E+00
    0.17506E+07         0.33906E+07         0.00000E+00
    0.00000E+00         0.00000E+00         0.79062E+06
 
    0.58460E+06         0.17932E+07         0.00000E+00
    0.17932E+07         0.33839E+07         0.00000E+00
    0.00000E+00         0.00000E+00         0.79371E+06
 
    0.60675E+06         0.18358E+07         0.00000E+00
    0.18358E+07         0.33770E+07         0.00000E+00
    0.00000E+00         0.00000E+00         0.79675E+06
 
    0.62900E+06         0.18783E+07         0.00000E+00
    0.18783E+07         0.33698E+07         0.00000E+00
    0.00000E+00         0.00000E+00         0.79975E+06
 
    0.65135E+06         0.19207E+07         0.00000E+00
    0.19207E+07         0.33622E+07         0.00000E+00
    0.00000E+00         0.00000E+00         0.80271E+06
 
    0.67381E+06         0.19630E+07         0.00000E+00
    0.19630E+07         0.33543E+07         0.00000E+00
    0.00000E+00         0.00000E+00         0.80562E+06
 
    0.69641E+06         0.20052E+07         0.00000E+00
    0.20052E+07         0.33460E+07         0.00000E+00
    0.00000E+00         0.00000E+00         0.80849E+06
 
    0.71915E+06         0.20473E+07         0.00000E+00
    0.20473E+07         0.33374E+07         0.00000E+00
    0.00000E+00         0.00000E+00         0.81132E+06
 
    0.74204E+06         0.20893E+07         0.00000E+00
    0.20893E+07         0.33285E+07         0.00000E+00
    0.00000E+00         0.00000E+00         0.81411E+06
 
    0.76510E+06         0.21313E+07         0.00000E+00
    0.21313E+07         0.33192E+07         0.00000E+00
    0.00000E+00         0.00000E+00         0.81685E+06
 
    0.78835E+06         0.21731E+07         0.00000E+00
    0.21731E+07         0.33095E+07         0.00000E+00
    0.00000E+00         0.00000E+00         0.81956E+06
 
    0.81178E+06         0.22149E+07         0.00000E+00
    0.22149E+07         0.32994E+07         0.00000E+00
    0.00000E+00         0.00000E+00         0.82223E+06
 
   -0.33235E+06         0.24866E+05         0.00000E+00
    0.24866E+05         0.32198E+07         0.00000E+00
    0.00000E+00         0.00000E+00         0.57748E+06
 
   -0.30870E+06         0.73804E+05         0.00000E+00
    0.73804E+05         0.32196E+07         0.00000E+00
    0.00000E+00         0.00000E+00         0.58219E+06
 
   -0.28518E+06         0.12241E+06         0.00000E+00
    0.12241E+06         0.32194E+07         0.00000E+00
    0.00000E+00         0.00000E+00         0.58685E+06
 
   -0.26178E+06         0.17071E+06         0.00000E+00
    0.17071E+06         0.32191E+07         0.00000E+00
    0.00000E+00         0.00000E+00         0.59146E+06
 
   -0.23850E+06         0.21869E+06         0.00000E+00
    0.21869E+06         0.32186E+07         0.00000E+00
    0.00000E+00         0.00000E+00         0.59603E+06
 
   -0.21535E+06         0.26637E+06         0.00000E+00
    0.26637E+06         0.32181E+07         0.00000E+00
    0.00000E+00         0.00000E+00         0.60055E+06
 
   -0.19232E+06         0.31376E+06         0.00000E+00
    0.31376E+06         0.32174E+07         0.00000E+00
    0.00000E+00         0.00000E+00         0.60502E+06
 
   -0.16941E+06         0.36087E+06         0.00000E+00
    0.36087E+06         0.32166E+07         0.00000E+00
    0.00000E+00         0.00000E+00         0.60944E+06
 
   -0.14663E+06         0.40770E+06         0.00000E+00
    0.40770E+06         0.32157E+07         0.00000E+00
    0.00000E+00         0.00000E+00         0.61382E+06
 
   -0.12397E+06         0.45426E+06         0.00000E+00
    0.45426E+06         0.32147E+07         0.00000E+00
    0.00000E+00         0.00000E+00         0.61814E+06
 
   -0.10143E+06         0.50057E+06         0.00000E+00
    0.50057E+06         0.32135E+07         0.00000E+00
    0.00000E+00         0.00000E+00         0.62242E+06
 
   -0.79002E+05         0.54662E+06         0.00000E+00
    0.54662E+06         0.32123E+07         0.00000E+00
    0.00000E+00         0.00000E+00         0.62666E+06
 
   -0.56688E+05         0.59243E+06         0.00000E+00
    0.59243E+06         0.32109E+07         0.00000E+00
    0.00000E+00         0.00000E+00         0.63084E+06
 
   -0.34485E+05         0.63800E+06         0.00000E+00
    0.63800E+06         0.32094E+07         0.00000E+00
    0.00000E+00         0.00000E+00         0.63498E+06
 
   -0.12389E+05         0.68334E+06         0.00000E+00
    0.68334E+06         0.32077E+07         0.00000E+00
    0.00000E+00         0.00000E+00         0.63907E+06
 
    0.96050E+04         0.72846E+06         0.00000E+00
    0.72846E+06         0.32059E+07         0.00000E+00
    0.00000E+00         0.00000E+00         0.64311E+06
 
    0.31500E+05         0.77336E+06         0.00000E+00
    0.77336E+06         0.32040E+07         0.00000E+00
    0.00000E+00         0.00000E+00         0.64710E+06
 
    0.53302E+05         0.81805E+06         0.00000E+00
    0.81805E+06         0.32020E+07         0.00000E+00
    0.00000E+00         0.00000E+00         0.65105E+06
 
    0.75014E+05         0.86254E+06         0.00000E+00
    0.86254E+06         0.31998E+07         0.00000E+00
    0.00000E+00         0.00000E+00         0.65495E+06
 
    0.96643E+05         0.90683E+06         0.00000E+00
    0.90683E+06         0.31974E+07         0.00000E+00
    0.00000E+00         0.00000E+00         0.65881E+06
 
    0.11819E+06         0.95093E+06         0.00000E+00
    0.95093E+06         0.31949E+07         0.00000E+00
    0.00000E+00         0.00000E+00         0.66261E+06
 
    0.13967E+06         0.99484E+06         0.00000E+00
    0.99484E+06         0.31922E+07         0.00000E+00
    0.00000E+00         0.00000E+00         0.66637E+06
 
    0.16108E+06         0.10386E+07         0.00000E+00
    0.10386E+07         0.31894E+07         0.00000E+00
    0.00000E+00         0.00000E+00         0.67009E+06
 
    0.18244E+06         0.10821E+07         0.00000E+00
    0.10821E+07         0.31863E+07         0.00000E+00
    0.00000E+00         0.00000E+00         0.67375E+06
 
    0.20374E+06         0.11255E+07         0.00000E+00
    0.11255E+07         0.31831E+07         0.00000E+00
    0.00000E+00         0.00000E+00         0.67738E+06
 
    0.22499E+06         0.11687E+07         0.00000E+00
    0.11687E+07         0.31798E+07         0.00000E+00
    0.00000E+00         0.00000E+00         0.68095E+06
 
    0.24621E+06         0.12118E+07         0.00000E+00
    0.12118E+07         0.31762E+07         0.00000E+00
    0.00000E+00         0.00000E+00         0.68448E+06
 
    0.26739E+06         0.12547E+07         0.00000E+00
    0.12547E+07         0.31725E+07         0.00000E+00
    0.00000E+00         0.00000E+00         0.68797E+06
 
    0.28855E+06         0.12975E+07         0.00000E+00
    0.12975E+07         0.31685E+07         0.00000E+00
    0.00000E+00         0.00000E+00         0.69141E+06
 
    0.30970E+06         0.13400E+07         0.00000E+00
    0.13400E+07         0.31643E+07         0.00000E+00
    0.00000E+00         0.00000E+00         0.69481E+06
 
    0.33084E+06         0.13825E+07         0.00000E+00
    0.13825E+07         0.31600E+07         0.00000E+00
    0.00000E+00         0.00000E+00         0.69816E+06
 
    0.35199E+06         0.14248E+07         0.00000E+00
    0.14248E+07         0.31554E+07         0.00000E+00
    0.00000E+00         0.00000E+00         0.70147E+06
 
    0.37314E+06         0.14670E+07         0.00000E+00
    0.14670E+07         0.31505E+07         0.00000E+00
    0.00000E+00         0.00000E+00         0.70473E+06
 
    0.39431E+06         0.15090E+07         0.00000E+00
    0.15090E+07         0.31455E+07         0.00000E+00
    0.00000E+00         0.00000E+00         0.70795E+06
 
    0.41551E+06         0.15509E+07         0.00000E+00
    0.15509E+07         0.31402E+07         0.00000E+00
    0.00000E+00         0.00000E+00         0.71113E+06
 
    0.43675E+06         0.15927E+07         0.00000E+00
    0.15927E+07         0.31346E+07         0.00000E+00
    0.00000E+00         0.00000E+00         0.71427E+06
 
    0.45804E+06         0.16343E+07         0.00000E+00
    0.16343E+07         0.31288E+07         0.00000E+00
    0.00000E+00         0.00000E+00         0.71737E+06
 
    0.47939E+06         0.16758E+07         0.00000E+00
    0.16758E+07         0.31227E+07         0.00000E+00
    0.00000E+00         0.00000E+00         0.72042E+06
 
    0.50080E+06         0.17172E+07         0.00000E+00
    0.17172E+07         0.31164E+07         0.00000E+00
    0.00000E+00         0.00000E+00         0.72344E+06
 
    0.52230E+06         0.17584E+07         0.00000E+00
    0.17584E+07         0.31098E+07         0.00000E+00
    0.00000E+00         0.00000E+00         0.72641E+06
 
    0.54388E+06         0.17996E+07         0.00000E+00
    0.17996E+07         0.31028E+07         0.00000E+00
    0.00000E+00         0.00000E+00         0.72934E+06
 
    0.56556E+06         0.18405E+07         0.00000E+00
    0.18405E+07         0.30956E+07         0.00000E+00
    0.00000E+00         0.00000E+00         0.73224E+06
 
    0.58734E+06         0.18814E+07         0.00000E+00
    0.18814E+07         0.30881E+07         0.00000E+00
    0.00000E+00         0.00000E+00         0.73509E+06
 
    0.60925E+06         0.19222E+07         0.00000E+00
    0.19222E+07         0.30803E+07         0.00000E+00
    0.00000E+00         0.00000E+00         0.73791E+06
 
    0.63129E+06         0.19628E+07         0.00000E+00
    0.19628E+07         0.30722E+07         0.00000E+00
    0.00000E+00         0.00000E+00         0.74069E+06
 
    0.65348E+06         0.20033E+07         0.00000E+00
    0.20033E+07         0.30637E+07         0.00000E+00
    0.00000E+00         0.00000E+00         0.74343E+06
 
    0.67581E+06         0.20436E+07         0.00000E+00
    0.20436E+07         0.30549E+07         0.00000E+00
    0.00000E+00         0.00000E+00         0.74614E+06
 
    0.69831E+06         0.20839E+07         0.00000E+00
    0.20839E+07         0.30457E+07         0.00000E+00
    0.00000E+00         0.00000E+00         0.74881E+06
 
    0.72099E+06         0.21240E+07         0.00000E+00
    0.21240E+07         0.30362E+07         0.00000E+00
    0.00000E+00         0.00000E+00         0.75144E+06
 
    0.74385E+06         0.21639E+07         0.00000E+00
    0.21639E+07         0.30264E+07         0.00000E+00
    0.00000E+00         0.00000E+00         0.75404E+06
 
   -0.34611E+06         0.24539E+05         0.00000E+00
    0.24539E+05         0.29621E+07         0.00000E+00
    0.00000E+00         0.00000E+00         0.52319E+06
 
   -0.32412E+06         0.72835E+05         0.00000E+00
    0.72835E+05         0.29619E+07         0.00000E+00
    0.00000E+00         0.00000E+00         0.52757E+06
 
   -0.30221E+06         0.12081E+06         0.00000E+00
    0.12081E+06         0.29617E+07         0.00000E+00
    0.00000E+00         0.00000E+00         0.53190E+06
 
   -0.28038E+06         0.16846E+06         0.00000E+00
    0.16846E+06         0.29613E+07         0.00000E+00
    0.00000E+00         0.00000E+00         0.53619E+06
 
   -0.25865E+06         0.21580E+06         0.00000E+00
    0.21580E+06         0.29609E+07         0.00000E+00
    0.00000E+00         0.00000E+00         0.54044E+06
 
   -0.23700E+06         0.26285E+06         0.00000E+00
    0.26285E+06         0.29603E+07         0.00000E+00
    0.00000E+00         0.00000E+00         0.54465E+06
 
   -0.21544E+06         0.30960E+06         0.00000E+00
    0.30960E+06         0.29595E+07         0.00000E+00
    0.00000E+00         0.00000E+00         0.54882E+06
 
   -0.19397E+06         0.35606E+06         0.00000E+00
    0.35606E+06         0.29587E+07         0.00000E+00
    0.00000E+00         0.00000E+00         0.55294E+06
 
   -0.17259E+06         0.40223E+06         0.00000E+00
    0.40223E+06         0.29577E+07         0.00000E+00
    0.00000E+00         0.00000E+00         0.55702E+06
 
   -0.15129E+06         0.44814E+06         0.00000E+00
    0.44814E+06         0.29566E+07         0.00000E+00
    0.00000E+00         0.00000E+00         0.56107E+06
 
   -0.13008E+06         0.49378E+06         0.00000E+00
    0.49378E+06         0.29554E+07         0.00000E+00
    0.00000E+00         0.00000E+00         0.56507E+06
 
   -0.10895E+06         0.53915E+06         0.00000E+00
    0.53915E+06         0.29541E+07         0.00000E+00
    0.00000E+00         0.00000E+00         0.56902E+06
 
   -0.87902E+05         0.58427E+06         0.00000E+00
    0.58427E+06         0.29526E+07         0.00000E+00
    0.00000E+00         0.00000E+00         0.57294E+06
 
   -0.66934E+05         0.62914E+06         0.00000E+00
    0.62914E+06         0.29510E+07         0.00000E+00
    0.00000E+00         0.00000E+00         0.57681E+06
 
   -0.46041E+05         0.67377E+06         0.00000E+00
    0.67377E+06         0.29492E+07         0.00000E+00
    0.00000E+00         0.00000E+00         0.58064E+06
 
   -0.25222E+05         0.71816E+06         0.00000E+00
    0.71816E+06         0.29474E+07         0.00000E+00
    0.00000E+00         0.00000E+00         0.58443E+06
 
   -0.44714E+04         0.76232E+06         0.00000E+00
    0.76232E+06         0.29454E+07         0.00000E+00
    0.00000E+00         0.00000E+00         0.58818E+06
 
    0.16213E+05         0.80626E+06         0.00000E+00
    0.80626E+06         0.29432E+07         0.00000E+00
    0.00000E+00         0.00000E+00         0.59188E+06
 
    0.36836E+05         0.84997E+06         0.00000E+00
    0.84997E+06         0.29409E+07         0.00000E+00
    0.00000E+00         0.00000E+00         0.59555E+06
 
    0.57402E+05         0.89347E+06         0.00000E+00
    0.89347E+06         0.29384E+07         0.00000E+00
    0.00000E+00         0.00000E+00         0.59917E+06
 
    0.77915E+05         0.93676E+06         0.00000E+00
    0.93676E+06         0.29358E+07         0.00000E+00
    0.00000E+00         0.00000E+00         0.60275E+06
 
    0.98381E+05         0.97984E+06         0.00000E+00
    0.97984E+06         0.29331E+07         0.00000E+00
    0.00000E+00         0.00000E+00         0.60629E+06
 
    0.11880E+06         0.10227E+07         0.00000E+00
    0.10227E+07         0.29301E+07         0.00000E+00
    0.00000E+00         0.00000E+00         0.60979E+06
 
    0.13919E+06         0.10654E+07         0.00000E+00
    0.10654E+07         0.29271E+07         0.00000E+00
    0.00000E+00         0.00000E+00         0.61325E+06
 
    0.15955E+06         0.11079E+07         0.00000E+00
    0.11079E+07         0.29238E+07         0.00000E+00
    0.00000E+00         0.00000E+00         0.61667E+06
 
    0.17988E+06         0.11502E+07         0.00000E+00
    0.11502E+07         0.29203E+07         0.00000E+00
    0.00000E+00         0.00000E+00         0.62004E+06
 
    0.20019E+06         0.11923E+07         0.00000E+00
    0.11923E+07         0.29167E+07         0.00000E+00
    0.00000E+00         0.00000E+00         0.62338E+06
 
    0.22049E+06         0.12342E+07         0.00000E+00
    0.12342E+07         0.29129E+07         0.00000E+00
    0.00000E+00         0.00000E+00         0.62668E+06
 
    0.24078E+06         0.12760E+07         0.00000E+00
    0.12760E+07         0.29089E+07         0.00000E+00
    0.00000E+00         0.00000E+00         0.62993E+06
 
    0.26108E+06         0.13175E+07         0.00000E+00
    0.13175E+07         0.29047E+07         0.00000E+00
    0.00000E+00         0.00000E+00         0.63315E+06
 
    0.28138E+06         0.13589E+07         0.00000E+00
    0.13589E+07         0.29003E+07         0.00000E+00
    0.00000E+00         0.00000E+00         0.63633E+06
 
    0.30171E+06         0.14002E+07         0.00000E+00
    0.14002E+07         0.28956E+07         0.00000E+00
    0.00000E+00         0.00000E+00         0.63947E+06
 
    0.32205E+06         0.14412E+07         0.00000E+00
    0.14412E+07         0.28908E+07         0.00000E+00
    0.00000E+00         0.00000E+00         0.64257E+06
 
    0.34243E+06         0.14821E+07         0.00000E+00
    0.14821E+07         0.28857E+07         0.00000E+00
    0.00000E+00         0.00000E+00         0.64563E+06
 
    0.36285E+06         0.15229E+07         0.00000E+00
    0.15229E+07         0.28805E+07         0.00000E+00
    0.00000E+00         0.00000E+00         0.64866E+06
 
    0.38331E+06         0.15634E+07         0.00000E+00
    0.15634E+07         0.28749E+07         0.00000E+00
    0.00000E+00         0.00000E+00         0.65165E+06
 
    0.40384E+06         0.16038E+07         0.00000E+00
    0.16038E+07         0.28692E+07         0.00000E+00
    0.00000E+00         0.00000E+00         0.65460E+06
 
    0.42443E+06         0.16441E+07         0.00000E+00
    0.16441E+07         0.28631E+07         0.00000E+00
    0.00000E+00         0.00000E+00         0.65751E+06
 
    0.44509E+06         0.16841E+07         0.00000E+00
    0.16841E+07         0.28569E+07         0.00000E+00
    0.00000E+00         0.00000E+00         0.66039E+06
 
    0.46583E+06         0.17241E+07         0.00000E+00
    0.17241E+07         0.28503E+07         0.00000E+00
    0.00000E+00         0.00000E+00         0.66323E+06
 
    0.48667E+06         0.17638E+07         0.00000E+00
    0.17638E+07         0.28435E+07         0.00000E+00
    0.00000E+00         0.00000E+00         0.66604E+06
 
    0.50761E+06         0.18034E+07         0.00000E+00
    0.18034E+07         0.28364E+07         0.00000E+00
    0.00000E+00         0.00000E+00         0.66881E+06
 
    0.52866E+06         0.18429E+07         0.00000E+00
    0.18429E+07         0.28291E+07         0.00000E+00
    0.00000E+00         0.00000E+00         0.67155E+06
 
    0.54983E+06         0.18821E+07         0.00000E+00
    0.18821E+07         0.28214E+07         0.00000E+00
    0.00000E+00         0.00000E+00         0.67425E+06
 
    0.57113E+06         0.19213E+07         0.00000E+00
    0.19213E+07         0.28135E+07         0.00000E+00
    0.00000E+00         0.00000E+00         0.67692E+06
 
    0.59257E+06         0.19602E+07         0.00000E+00
    0.19602E+07         0.28052E+07         0.00000E+00
    0.00000E+00         0.00000E+00         0.67956E+06
 
    0.61417E+06         0.19990E+07         0.00000E+00
    0.19990E+07         0.27966E+07         0.00000E+00
    0.00000E+00         0.00000E+00         0.68216E+06
 
    0.63592E+06         0.20376E+07         0.00000E+00
    0.20376E+07         0.27878E+07         0.00000E+00
    0.00000E+00         0.00000E+00         0.68474E+06
 
    0.65784E+06         0.20761E+07         0.00000E+00
    0.20761E+07         0.27785E+07         0.00000E+00
    0.00000E+00         0.00000E+00         0.68728E+06
 
    0.67994E+06         0.21144E+07         0.00000E+00
    0.21144E+07         0.27690E+07         0.00000E+00
    0.00000E+00         0.00000E+00         0.68978E+06
 
   -0.35150E+06         0.24201E+05         0.00000E+00
    0.24201E+05         0.27160E+07         0.00000E+00
    0.00000E+00         0.00000E+00         0.47291E+06
 
   -0.33114E+06         0.71834E+05         0.00000E+00
    0.71834E+05         0.27159E+07         0.00000E+00
    0.00000E+00         0.00000E+00         0.47695E+06
 
   -0.31083E+06         0.11915E+06         0.00000E+00
    0.11915E+06         0.27157E+07         0.00000E+00
    0.00000E+00         0.00000E+00         0.48096E+06
 
   -0.29057E+06         0.16614E+06         0.00000E+00
    0.16614E+06         0.27153E+07         0.00000E+00
    0.00000E+00         0.00000E+00         0.48494E+06
 
   -0.27038E+06         0.21283E+06         0.00000E+00
    0.21283E+06         0.27148E+07         0.00000E+00
    0.00000E+00         0.00000E+00         0.48888E+06
 
   -0.25024E+06         0.25922E+06         0.00000E+00
    0.25922E+06         0.27141E+07         0.00000E+00
    0.00000E+00         0.00000E+00         0.49278E+06
 
   -0.23016E+06         0.30531E+06         0.00000E+00
    0.30531E+06         0.27134E+07         0.00000E+00
    0.00000E+00         0.00000E+00         0.49664E+06
 
   -0.21014E+06         0.35111E+06         0.00000E+00
    0.35111E+06         0.27125E+07         0.00000E+00
    0.00000E+00         0.00000E+00         0.50047E+06
 
   -0.19018E+06         0.39663E+06         0.00000E+00
    0.39663E+06         0.27115E+07         0.00000E+00
    0.00000E+00         0.00000E+00         0.50426E+06
 
   -0.17027E+06         0.44187E+06         0.00000E+00
    0.44187E+06         0.27104E+07         0.00000E+00
    0.00000E+00         0.00000E+00         0.50802E+06
 
   -0.15043E+06         0.48683E+06         0.00000E+00
    0.48683E+06         0.27091E+07         0.00000E+00
    0.00000E+00         0.00000E+00         0.51174E+06
 
   -0.13064E+06         0.53152E+06         0.00000E+00
    0.53152E+06         0.27077E+07         0.00000E+00
    0.00000E+00         0.00000E+00         0.51542E+06
 
   -0.11090E+06         0.57595E+06         0.00000E+00
    0.57595E+06         0.27062E+07         0.00000E+00
    0.00000E+00         0.00000E+00         0.51906E+06
 
   -0.91216E+05         0.62013E+06         0.00000E+00
    0.62013E+06         0.27046E+07         0.00000E+00
    0.00000E+00         0.00000E+00         0.52267E+06
 
   -0.71584E+05         0.66404E+06         0.00000E+00
    0.66404E+06         0.27028E+07         0.00000E+00
    0.00000E+00         0.00000E+00         0.52624E+06
 
   -0.51999E+05         0.70771E+06         0.00000E+00
    0.70771E+06         0.27009E+07         0.00000E+00
    0.00000E+00         0.00000E+00         0.52977E+06
 
   -0.32461E+05         0.75114E+06         0.00000E+00
    0.75114E+06         0.26988E+07         0.00000E+00
    0.00000E+00         0.00000E+00         0.53327E+06
 
   -0.12964E+05         0.79433E+06         0.00000E+00
    0.79433E+06         0.26966E+07         0.00000E+00
    0.00000E+00         0.00000E+00         0.53673E+06
 
    0.64928E+04         0.83728E+06         0.00000E+00
    0.83728E+06         0.26943E+07         0.00000E+00
    0.00000E+00         0.00000E+00         0.54015E+06
 
    0.25915E+05         0.88000E+06         0.00000E+00
    0.88000E+06         0.26918E+07         0.00000E+00
    0.00000E+00         0.00000E+00         0.54354E+06
 
    0.45305E+05         0.92249E+06         0.00000E+00
    0.92249E+06         0.26891E+07         0.00000E+00
    0.00000E+00         0.00000E+00         0.54689E+06
 
    0.64667E+05         0.96475E+06         0.00000E+00
    0.96475E+06         0.26863E+07         0.00000E+00
    0.00000E+00         0.00000E+00         0.55020E+06
 
    0.84007E+05         0.10068E+07         0.00000E+00
    0.10068E+07         0.26834E+07         0.00000E+00
    0.00000E+00         0.00000E+00         0.55348E+06
 
    0.10333E+06         0.10486E+07         0.00000E+00
    0.10486E+07         0.26803E+07         0.00000E+00
    0.00000E+00         0.00000E+00         0.55672E+06
 
    0.12264E+06         0.10903E+07         0.00000E+00
    0.10903E+07         0.26770E+07         0.00000E+00
    0.00000E+00         0.00000E+00         0.55992E+06
 
    0.14194E+06         0.11317E+07         0.00000E+00
    0.11317E+07         0.26735E+07         0.00000E+00
    0.00000E+00         0.00000E+00         0.56309E+06
 
    0.16123E+06         0.11729E+07         0.00000E+00
    0.11729E+07         0.26699E+07         0.00000E+00
    0.00000E+00         0.00000E+00         0.56623E+06
 
    0.18053E+06         0.12139E+07         0.00000E+00
    0.12139E+07         0.26661E+07         0.00000E+00
    0.00000E+00         0.00000E+00         0.56933E+06
 
    0.19984E+06         0.12546E+07         0.00000E+00
    0.12546E+07         0.26621E+07         0.00000E+00
    0.00000E+00         0.00000E+00         0.57239E+06
 
    0.21917E+06         0.12952E+07         0.00000E+00
    0.12952E+07         0.26579E+07         0.00000E+00
    0.00000E+00         0.00000E+00         0.57542E+06
 
    0.23851E+06         0.13356E+07         0.00000E+00
    0.13356E+07         0.26535E+07         0.00000E+00
    0.00000E+00         0.00000E+00         0.57841E+06
 
    0.25788E+06         0.13758E+07         0.00000E+00
    0.13758E+07         0.26490E+07         0.00000E+00
    0.00000E+00         0.00000E+00         0.58137E+06
 
    0.27729E+06         0.14158E+07         0.00000E+00
    0.14158E+07         0.26442E+07         0.00000E+00
    0.00000E+00         0.00000E+00         0.58430E+06
 
    0.29674E+06         0.14556E+07         0.00000E+00
    0.14556E+07         0.26392E+07         0.00000E+00
    0.00000E+00         0.00000E+00         0.58719E+06
 
    0.31623E+06         0.14953E+07         0.00000E+00
    0.14953E+07         0.26340E+07         0.00000E+00
    0.00000E+00         0.00000E+00         0.59005E+06
 
    0.33578E+06         0.15347E+07         0.00000E+00
    0.15347E+07         0.26286E+07         0.00000E+00
    0.00000E+00         0.00000E+00         0.59287E+06
 
    0.35540E+06         0.15739E+07         0.00000E+00
    0.15739E+07         0.26229E+07         0.00000E+00
    0.00000E+00         0.00000E+00         0.59567E+06
 
    0.37508E+06         0.16130E+07         0.00000E+00
    0.16130E+07         0.26171E+07         0.00000E+00
    0.00000E+00         0.00000E+00         0.59843E+06
 
    0.39484E+06         0.16518E+07         0.00000E+00
    0.16518E+07         0.26109E+07         0.00000E+00
    0.00000E+00         0.00000E+00         0.60115E+06
 
    0.41469E+06         0.16905E+07         0.00000E+00
    0.16905E+07         0.26046E+07         0.00000E+00
    0.00000E+00         0.00000E+00         0.60385E+06
 
    0.43463E+06         0.17290E+07         0.00000E+00
    0.17290E+07         0.25979E+07         0.00000E+00
    0.00000E+00         0.00000E+00         0.60652E+06
 
    0.45468E+06         0.17673E+07         0.00000E+00
    0.17673E+07         0.25911E+07         0.00000E+00
    0.00000E+00         0.00000E+00         0.60915E+06
 
    0.47483E+06         0.18054E+07         0.00000E+00
    0.18054E+07         0.25839E+07         0.00000E+00
    0.00000E+00         0.00000E+00         0.61175E+06
 
    0.49511E+06         0.18433E+07         0.00000E+00
    0.18433E+07         0.25765E+07         0.00000E+00
    0.00000E+00         0.00000E+00         0.61433E+06
 
    0.51551E+06         0.18810E+07         0.00000E+00
    0.18810E+07         0.25688E+07         0.00000E+00
    0.00000E+00         0.00000E+00         0.61687E+06
 
    0.53604E+06         0.19186E+07         0.00000E+00
    0.19186E+07         0.25609E+07         0.00000E+00
    0.00000E+00         0.00000E+00         0.61938E+06
 
    0.55672E+06         0.19559E+07         0.00000E+00
    0.19559E+07         0.25526E+07         0.00000E+00
    0.00000E+00         0.00000E+00         0.62187E+06
 
    0.57756E+06         0.19930E+07         0.00000E+00
    0.19930E+07         0.25441E+07         0.00000E+00
    0.00000E+00         0.00000E+00         0.62433E+06
 
    0.59855E+06         0.20300E+07         0.00000E+00
    0.20300E+07         0.25352E+07         0.00000E+00
    0.00000E+00         0.00000E+00         0.62675E+06
 
    0.61972E+06         0.20667E+07         0.00000E+00
    0.20667E+07         0.25261E+07         0.00000E+00
    0.00000E+00         0.00000E+00         0.62916E+06
 
   -0.34949E+06         0.23859E+05         0.00000E+00
    0.23859E+05         0.24807E+07         0.00000E+00
    0.00000E+00         0.00000E+00         0.42625E+06
 
   -0.33073E+06         0.70824E+05         0.00000E+00
    0.70824E+05         0.24806E+07         0.00000E+00
    0.00000E+00         0.00000E+00         0.42998E+06
 
   -0.31200E+06         0.11747E+06         0.00000E+00
    0.11747E+06         0.24804E+07         0.00000E+00
    0.00000E+00         0.00000E+00         0.43367E+06
 
   -0.29330E+06         0.16381E+06         0.00000E+00
    0.16381E+06         0.24800E+07         0.00000E+00
    0.00000E+00         0.00000E+00         0.43733E+06
 
   -0.27464E+06         0.20984E+06         0.00000E+00
    0.20984E+06         0.24795E+07         0.00000E+00
    0.00000E+00         0.00000E+00         0.44096E+06
 
   -0.25601E+06         0.25557E+06         0.00000E+00
    0.25557E+06         0.24788E+07         0.00000E+00
    0.00000E+00         0.00000E+00         0.44456E+06
 
   -0.23741E+06         0.30101E+06         0.00000E+00
    0.30101E+06         0.24780E+07         0.00000E+00
    0.00000E+00         0.00000E+00         0.44813E+06
 
   -0.21885E+06         0.34615E+06         0.00000E+00
    0.34615E+06         0.24772E+07         0.00000E+00
    0.00000E+00         0.00000E+00         0.45166E+06
 
   -0.20032E+06         0.39100E+06         0.00000E+00
    0.39100E+06         0.24761E+07         0.00000E+00
    0.00000E+00         0.00000E+00         0.45516E+06
 
   -0.18183E+06         0.43558E+06         0.00000E+00
    0.43558E+06         0.24750E+07         0.00000E+00
    0.00000E+00         0.00000E+00         0.45863E+06
 
   -0.16338E+06         0.47987E+06         0.00000E+00
    0.47987E+06         0.24737E+07         0.00000E+00
    0.00000E+00         0.00000E+00         0.46207E+06
 
   -0.14495E+06         0.52389E+06         0.00000E+00
    0.52389E+06         0.24723E+07         0.00000E+00
    0.00000E+00         0.00000E+00         0.46547E+06
 
   -0.12657E+06         0.56764E+06         0.00000E+00
    0.56764E+06         0.24708E+07         0.00000E+00
    0.00000E+00         0.00000E+00         0.46885E+06
 
   -0.10821E+06         0.61112E+06         0.00000E+00
    0.61112E+06         0.24691E+07         0.00000E+00
    0.00000E+00         0.00000E+00         0.47219E+06
 
   -0.89881E+05         0.65434E+06         0.00000E+00
    0.65434E+06         0.24674E+07         0.00000E+00
    0.00000E+00         0.00000E+00         0.47550E+06
 
   -0.71583E+05         0.69731E+06         0.00000E+00
    0.69731E+06         0.24654E+07         0.00000E+00
    0.00000E+00         0.00000E+00         0.47877E+06
 
   -0.53311E+05         0.74001E+06         0.00000E+00
    0.74001E+06         0.24634E+07         0.00000E+00
    0.00000E+00         0.00000E+00         0.48201E+06
 
   -0.35062E+05         0.78247E+06         0.00000E+00
    0.78247E+06         0.24612E+07         0.00000E+00
    0.00000E+00         0.00000E+00         0.48522E+06
 
   -0.16835E+05         0.82468E+06         0.00000E+00
    0.82468E+06         0.24589E+07         0.00000E+00
    0.00000E+00         0.00000E+00         0.48840E+06
 
    0.13741E+04         0.86664E+06         0.00000E+00
    0.86664E+06         0.24564E+07         0.00000E+00
    0.00000E+00         0.00000E+00         0.49155E+06
 
    0.19568E+05         0.90836E+06         0.00000E+00
    0.90836E+06         0.24538E+07         0.00000E+00
    0.00000E+00         0.00000E+00         0.49466E+06
 
    0.37751E+05         0.94985E+06         0.00000E+00
    0.94985E+06         0.24510E+07         0.00000E+00
    0.00000E+00         0.00000E+00         0.49775E+06
 
    0.55926E+05         0.99110E+06         0.00000E+00
    0.99110E+06         0.24481E+07         0.00000E+00
    0.00000E+00         0.00000E+00         0.50080E+06
 
    0.74098E+05         0.10321E+07         0.00000E+00
    0.10321E+07         0.24450E+07         0.00000E+00
    0.00000E+00         0.00000E+00         0.50382E+06
 
    0.92270E+05         0.10729E+07         0.00000E+00
    0.10729E+07         0.24417E+07         0.00000E+00
    0.00000E+00         0.00000E+00         0.50680E+06
 
    0.11045E+06         0.11134E+07         0.00000E+00
    0.11134E+07         0.24383E+07         0.00000E+00
    0.00000E+00         0.00000E+00         0.50976E+06
 
    0.12863E+06         0.11538E+07         0.00000E+00
    0.11538E+07         0.24348E+07         0.00000E+00
    0.00000E+00         0.00000E+00         0.51268E+06
 
    0.14683E+06         0.11939E+07         0.00000E+00
    0.11939E+07         0.24310E+07         0.00000E+00
    0.00000E+00         0.00000E+00         0.51558E+06
 
    0.16505E+06         0.12338E+07         0.00000E+00
    0.12338E+07         0.24271E+07         0.00000E+00
    0.00000E+00         0.00000E+00         0.51844E+06
 
    0.18330E+06         0.12734E+07         0.00000E+00
    0.12734E+07         0.24230E+07         0.00000E+00
    0.00000E+00         0.00000E+00         0.52127E+06
 
    0.20157E+06         0.13129E+07         0.00000E+00
    0.13129E+07         0.24188E+07         0.00000E+00
    0.00000E+00         0.00000E+00         0.52407E+06
 
    0.21988E+06         0.13521E+07         0.00000E+00
    0.13521E+07         0.24143E+07         0.00000E+00
    0.00000E+00         0.00000E+00         0.52684E+06
 
    0.23823E+06         0.13911E+07         0.00000E+00
    0.13911E+07         0.24097E+07         0.00000E+00
    0.00000E+00         0.00000E+00         0.52958E+06
 
    0.25663E+06         0.14299E+07         0.00000E+00
    0.14299E+07         0.24048E+07         0.00000E+00
    0.00000E+00         0.00000E+00         0.53229E+06
 
    0.27508E+06         0.14685E+07         0.00000E+00
    0.14685E+07         0.23998E+07         0.00000E+00
    0.00000E+00         0.00000E+00         0.53497E+06
 
    0.29360E+06         0.15068E+07         0.00000E+00
    0.15068E+07         0.23945E+07         0.00000E+00
    0.00000E+00         0.00000E+00         0.53763E+06
 
    0.31217E+06         0.15450E+07         0.00000E+00
    0.15450E+07         0.23891E+07         0.00000E+00
    0.00000E+00         0.00000E+00         0.54025E+06
 
    0.33083E+06         0.15829E+07         0.00000E+00
    0.15829E+07         0.23834E+07         0.00000E+00
    0.00000E+00         0.00000E+00         0.54284E+06
 
    0.34956E+06         0.16206E+07         0.00000E+00
    0.16206E+07         0.23775E+07         0.00000E+00
    0.00000E+00         0.00000E+00         0.54541E+06
 
    0.36837E+06         0.16581E+07         0.00000E+00
    0.16581E+07         0.23714E+07         0.00000E+00
    0.00000E+00         0.00000E+00         0.54795E+06
 
    0.38728E+06         0.16954E+07         0.00000E+00
    0.16954E+07         0.23650E+07         0.00000E+00
    0.00000E+00         0.00000E+00         0.55046E+06
 
    0.40630E+06         0.17325E+07         0.00000E+00
    0.17325E+07         0.23584E+07         0.00000E+00
    0.00000E+00         0.00000E+00         0.55294E+06
 
    0.42542E+06         0.17694E+07         0.00000E+00
    0.17694E+07         0.23516E+07         0.00000E+00
    0.00000E+00         0.00000E+00         0.55539E+06
 
    0.44465E+06         0.18060E+07         0.00000E+00
    0.18060E+07         0.23445E+07         0.00000E+00
    0.00000E+00         0.00000E+00         0.55782E+06
 
    0.46401E+06         0.18424E+07         0.00000E+00
    0.18424E+07         0.23371E+07         0.00000E+00
    0.00000E+00         0.00000E+00         0.56023E+06
 
    0.48350E+06         0.18786E+07         0.00000E+00
    0.18786E+07         0.23295E+07         0.00000E+00
    0.00000E+00         0.00000E+00         0.56260E+06
 
    0.50312E+06         0.19146E+07         0.00000E+00
    0.19146E+07         0.23216E+07         0.00000E+00
    0.00000E+00         0.00000E+00         0.56495E+06
 
    0.52289E+06         0.19504E+07         0.00000E+00
    0.19504E+07         0.23135E+07         0.00000E+00
    0.00000E+00         0.00000E+00         0.56728E+06
 
    0.54282E+06         0.19859E+07         0.00000E+00
    0.19859E+07         0.23051E+07         0.00000E+00
    0.00000E+00         0.00000E+00         0.56958E+06
 
    0.56290E+06         0.20212E+07         0.00000E+00
    0.20212E+07         0.22964E+07         0.00000E+00
    0.00000E+00         0.00000E+00         0.57186E+06
 
   -0.34095E+06         0.23521E+05         0.00000E+00
    0.23521E+05         0.22553E+07         0.00000E+00
    0.00000E+00         0.00000E+00         0.38288E+06
 
   -0.32377E+06         0.69824E+05         0.00000E+00
    0.69824E+05         0.22552E+07         0.00000E+00
    0.00000E+00         0.00000E+00         0.38628E+06
 
   -0.30660E+06         0.11582E+06         0.00000E+00
    0.11582E+06         0.22549E+07         0.00000E+00
    0.00000E+00         0.00000E+00         0.38967E+06
 
   -0.28944E+06         0.16150E+06         0.00000E+00
    0.16150E+06         0.22545E+07         0.00000E+00
    0.00000E+00         0.00000E+00         0.39302E+06
 
   -0.27229E+06         0.20689E+06         0.00000E+00
    0.20689E+06         0.22540E+07         0.00000E+00
    0.00000E+00         0.00000E+00         0.39635E+06
 
   -0.25516E+06         0.25197E+06         0.00000E+00
    0.25197E+06         0.22534E+07         0.00000E+00
    0.00000E+00         0.00000E+00         0.39965E+06
 
   -0.23805E+06         0.29676E+06         0.00000E+00
    0.29676E+06         0.22526E+07         0.00000E+00
    0.00000E+00         0.00000E+00         0.40292E+06
 
   -0.22095E+06         0.34126E+06         0.00000E+00
    0.34126E+06         0.22518E+07         0.00000E+00
    0.00000E+00         0.00000E+00         0.40616E+06
 
   -0.20387E+06         0.38547E+06         0.00000E+00
    0.38547E+06         0.22508E+07         0.00000E+00
    0.00000E+00         0.00000E+00         0.40938E+06
 
   -0.18680E+06         0.42939E+06         0.00000E+00
    0.42939E+06         0.22496E+07         0.00000E+00
    0.00000E+00         0.00000E+00         0.41256E+06
 
   -0.16975E+06         0.47303E+06         0.00000E+00
    0.47303E+06         0.22484E+07         0.00000E+00
    0.00000E+00         0.00000E+00         0.41572E+06
 
   -0.15272E+06         0.51639E+06         0.00000E+00
    0.51639E+06         0.22470E+07         0.00000E+00
    0.00000E+00         0.00000E+00         0.41885E+06
 
   -0.13571E+06         0.55948E+06         0.00000E+00
    0.55948E+06         0.22455E+07         0.00000E+00
    0.00000E+00         0.00000E+00         0.42196E+06
 
   -0.11871E+06         0.60229E+06         0.00000E+00
    0.60229E+06         0.22439E+07         0.00000E+00
    0.00000E+00         0.00000E+00         0.42503E+06
 
   -0.10173E+06         0.64484E+06         0.00000E+00
    0.64484E+06         0.22421E+07         0.00000E+00
    0.00000E+00         0.00000E+00         0.42808E+06
 
   -0.84755E+05         0.68712E+06         0.00000E+00
    0.68712E+06         0.22402E+07         0.00000E+00
    0.00000E+00         0.00000E+00         0.43109E+06
 
   -0.67795E+05         0.72913E+06         0.00000E+00
    0.72913E+06         0.22382E+07         0.00000E+00
    0.00000E+00         0.00000E+00         0.43408E+06
 
   -0.50844E+05         0.77089E+06         0.00000E+00
    0.77089E+06         0.22361E+07         0.00000E+00
    0.00000E+00         0.00000E+00         0.43704E+06
 
   -0.33901E+05         0.81238E+06         0.00000E+00
    0.81238E+06         0.22338E+07         0.00000E+00
    0.00000E+00         0.00000E+00         0.43997E+06
 
   -0.16962E+05         0.85362E+06         0.00000E+00
    0.85362E+06         0.22314E+07         0.00000E+00
    0.00000E+00         0.00000E+00         0.44288E+06
 
   -0.24801E+02         0.89461E+06         0.00000E+00
    0.89461E+06         0.22288E+07         0.00000E+00
    0.00000E+00         0.00000E+00         0.44575E+06
 
    0.16913E+05         0.93535E+06         0.00000E+00
    0.93535E+06         0.22261E+07         0.00000E+00
    0.00000E+00         0.00000E+00         0.44860E+06
 
    0.33854E+05         0.97583E+06         0.00000E+00
    0.97583E+06         0.22233E+07         0.00000E+00
    0.00000E+00         0.00000E+00         0.45142E+06
 
    0.50803E+05         0.10161E+07         0.00000E+00
    0.10161E+07         0.22203E+07         0.00000E+00
    0.00000E+00         0.00000E+00         0.45421E+06
 
    0.67762E+05         0.10561E+07         0.00000E+00
    0.10561E+07         0.22171E+07         0.00000E+00
    0.00000E+00         0.00000E+00         0.45698E+06
 
    0.84736E+05         0.10958E+07         0.00000E+00
    0.10958E+07         0.22138E+07         0.00000E+00
    0.00000E+00         0.00000E+00         0.45971E+06
 
    0.10173E+06         0.11353E+07         0.00000E+00
    0.11353E+07         0.22104E+07         0.00000E+00
    0.00000E+00         0.00000E+00         0.46242E+06
 
    0.11874E+06         0.11746E+07         0.00000E+00
    0.11746E+07         0.22068E+07         0.00000E+00
    0.00000E+00         0.00000E+00         0.46510E+06
 
    0.13578E+06         0.12136E+07         0.00000E+00
    0.12136E+07         0.22030E+07         0.00000E+00
    0.00000E+00         0.00000E+00         0.46776E+06
 
    0.15286E+06         0.12524E+07         0.00000E+00
    0.12524E+07         0.21991E+07         0.00000E+00
    0.00000E+00         0.00000E+00         0.47039E+06
 
    0.16997E+06         0.12909E+07         0.00000E+00
    0.12909E+07         0.21950E+07         0.00000E+00
    0.00000E+00         0.00000E+00         0.47299E+06
 
    0.18712E+06         0.13293E+07         0.00000E+00
    0.13293E+07         0.21907E+07         0.00000E+00
    0.00000E+00         0.00000E+00         0.47556E+06
 
    0.20431E+06         0.13673E+07         0.00000E+00
    0.13673E+07         0.21862E+07         0.00000E+00
    0.00000E+00         0.00000E+00         0.47811E+06
 
    0.22156E+06         0.14052E+07         0.00000E+00
    0.14052E+07         0.21816E+07         0.00000E+00
    0.00000E+00         0.00000E+00         0.48063E+06
 
    0.23886E+06         0.14428E+07         0.00000E+00
    0.14428E+07         0.21767E+07         0.00000E+00
    0.00000E+00         0.00000E+00         0.48312E+06
 
    0.25623E+06         0.14802E+07         0.00000E+00
    0.14802E+07         0.21717E+07         0.00000E+00
    0.00000E+00         0.00000E+00         0.48559E+06
 
    0.27366E+06         0.15173E+07         0.00000E+00
    0.15173E+07         0.21665E+07         0.00000E+00
    0.00000E+00         0.00000E+00         0.48803E+06
 
    0.29116E+06         0.15542E+07         0.00000E+00
    0.15542E+07         0.21611E+07         0.00000E+00
    0.00000E+00         0.00000E+00         0.49045E+06
 
    0.30875E+06         0.15908E+07         0.00000E+00
    0.15908E+07         0.21555E+07         0.00000E+00
    0.00000E+00         0.00000E+00         0.49285E+06
 
    0.32642E+06         0.16273E+07         0.00000E+00
    0.16273E+07         0.21497E+07         0.00000E+00
    0.00000E+00         0.00000E+00         0.49521E+06
 
    0.34418E+06         0.16635E+07         0.00000E+00
    0.16635E+07         0.21436E+07         0.00000E+00
    0.00000E+00         0.00000E+00         0.49756E+06
 
    0.36203E+06         0.16994E+07         0.00000E+00
    0.16994E+07         0.21374E+07         0.00000E+00
    0.00000E+00         0.00000E+00         0.49988E+06
 
    0.38000E+06         0.17351E+07         0.00000E+00
    0.17351E+07         0.21309E+07         0.00000E+00
    0.00000E+00         0.00000E+00         0.50217E+06
 
    0.39807E+06         0.17706E+07         0.00000E+00
    0.17706E+07         0.21242E+07         0.00000E+00
    0.00000E+00         0.00000E+00         0.50445E+06
 
    0.41626E+06         0.18058E+07         0.00000E+00
    0.18058E+07         0.21172E+07         0.00000E+00
    0.00000E+00         0.00000E+00         0.50669E+06
 
    0.43457E+06         0.18408E+07         0.00000E+00
    0.18408E+07         0.21100E+07         0.00000E+00
    0.00000E+00         0.00000E+00         0.50892E+06
 
    0.45301E+06         0.18755E+07         0.00000E+00
    0.18755E+07         0.21026E+07         0.00000E+00
    0.00000E+00         0.00000E+00         0.51112E+06
 
    0.47159E+06         0.19100E+07         0.00000E+00
    0.19100E+07         0.20949E+07         0.00000E+00
    0.00000E+00         0.00000E+00         0.51330E+06
 
    0.49031E+06         0.19443E+07         0.00000E+00
    0.19443E+07         0.20870E+07         0.00000E+00
    0.00000E+00         0.00000E+00         0.51546E+06
 
    0.50919E+06         0.19782E+07         0.00000E+00
    0.19782E+07         0.20788E+07         0.00000E+00
    0.00000E+00         0.00000E+00         0.51760E+06
 
   -0.32668E+06         0.23192E+05         0.00000E+00
    0.23192E+05         0.20389E+07         0.00000E+00
    0.00000E+00         0.00000E+00         0.34245E+06
 
   -0.31105E+06         0.68854E+05         0.00000E+00
    0.68854E+05         0.20388E+07         0.00000E+00
    0.00000E+00         0.00000E+00         0.34555E+06
 
   -0.29541E+06         0.11421E+06         0.00000E+00
    0.11421E+06         0.20385E+07         0.00000E+00
    0.00000E+00         0.00000E+00         0.34862E+06
 
   -0.27977E+06         0.15927E+06         0.00000E+00
    0.15927E+06         0.20382E+07         0.00000E+00
    0.00000E+00         0.00000E+00         0.35168E+06
 
   -0.26412E+06         0.20402E+06         0.00000E+00
    0.20402E+06         0.20377E+07         0.00000E+00
    0.00000E+00         0.00000E+00         0.35471E+06
 
   -0.24848E+06         0.24848E+06         0.00000E+00
    0.24848E+06         0.20370E+07         0.00000E+00
    0.00000E+00         0.00000E+00         0.35771E+06
 
   -0.23284E+06         0.29265E+06         0.00000E+00
    0.29265E+06         0.20363E+07         0.00000E+00
    0.00000E+00         0.00000E+00         0.36069E+06
 
   -0.21720E+06         0.33652E+06         0.00000E+00
    0.33652E+06         0.20354E+07         0.00000E+00
    0.00000E+00         0.00000E+00         0.36365E+06
 
   -0.20157E+06         0.38011E+06         0.00000E+00
    0.38011E+06         0.20345E+07         0.00000E+00
    0.00000E+00         0.00000E+00         0.36658E+06
 
   -0.18594E+06         0.42340E+06         0.00000E+00
    0.42340E+06         0.20334E+07         0.00000E+00
    0.00000E+00         0.00000E+00         0.36949E+06
 
   -0.17031E+06         0.46642E+06         0.00000E+00
    0.46642E+06         0.20322E+07         0.00000E+00
    0.00000E+00         0.00000E+00         0.37237E+06
 
   -0.15469E+06         0.50915E+06         0.00000E+00
    0.50915E+06         0.20308E+07         0.00000E+00
    0.00000E+00         0.00000E+00         0.37523E+06
 
   -0.13907E+06         0.55161E+06         0.00000E+00
    0.55161E+06         0.20294E+07         0.00000E+00
    0.00000E+00         0.00000E+00         0.37806E+06
 
   -0.12346E+06         0.59378E+06         0.00000E+00
    0.59378E+06         0.20278E+07         0.00000E+00
    0.00000E+00         0.00000E+00         0.38087E+06
 
   -0.10784E+06         0.63568E+06         0.00000E+00
    0.63568E+06         0.20261E+07         0.00000E+00
    0.00000E+00         0.00000E+00         0.38365E+06
 
   -0.92232E+05         0.67731E+06         0.00000E+00
    0.67731E+06         0.20243E+07         0.00000E+00
    0.00000E+00         0.00000E+00         0.38641E+06
 
   -0.76621E+05         0.71867E+06         0.00000E+00
    0.71867E+06         0.20224E+07         0.00000E+00
    0.00000E+00         0.00000E+00         0.38915E+06
 
   -0.61008E+05         0.75976E+06         0.00000E+00
    0.75976E+06         0.20203E+07         0.00000E+00
    0.00000E+00         0.00000E+00         0.39186E+06
 
   -0.45393E+05         0.80058E+06         0.00000E+00
    0.80058E+06         0.20181E+07         0.00000E+00
    0.00000E+00         0.00000E+00         0.39454E+06
 
   -0.29773E+05         0.84114E+06         0.00000E+00
    0.84114E+06         0.20158E+07         0.00000E+00
    0.00000E+00         0.00000E+00         0.39720E+06
 
   -0.14146E+05         0.88143E+06         0.00000E+00
    0.88143E+06         0.20133E+07         0.00000E+00
    0.00000E+00         0.00000E+00         0.39984E+06
 
    0.14912E+04         0.92146E+06         0.00000E+00
    0.92146E+06         0.20107E+07         0.00000E+00
    0.00000E+00         0.00000E+00         0.40245E+06
 
    0.17140E+05         0.96123E+06         0.00000E+00
    0.96123E+06         0.20080E+07         0.00000E+00
    0.00000E+00         0.00000E+00         0.40503E+06
 
    0.32804E+05         0.10007E+07         0.00000E+00
    0.10007E+07         0.20052E+07         0.00000E+00
    0.00000E+00         0.00000E+00         0.40760E+06
 
    0.48485E+05         0.10400E+07         0.00000E+00
    0.10400E+07         0.20022E+07         0.00000E+00
    0.00000E+00         0.00000E+00         0.41013E+06
 
    0.64187E+05         0.10790E+07         0.00000E+00
    0.10790E+07         0.19990E+07         0.00000E+00
    0.00000E+00         0.00000E+00         0.41265E+06
 
    0.79914E+05         0.11177E+07         0.00000E+00
    0.11177E+07         0.19958E+07         0.00000E+00
    0.00000E+00         0.00000E+00         0.41514E+06
 
    0.95668E+05         0.11562E+07         0.00000E+00
    0.11562E+07         0.19923E+07         0.00000E+00
    0.00000E+00         0.00000E+00         0.41760E+06
 
    0.11145E+06         0.11944E+07         0.00000E+00
    0.11944E+07         0.19888E+07         0.00000E+00
    0.00000E+00         0.00000E+00         0.42004E+06
 
    0.12727E+06         0.12324E+07         0.00000E+00
    0.12324E+07         0.19850E+07         0.00000E+00
    0.00000E+00         0.00000E+00         0.42246E+06
 
    0.14313E+06         0.12701E+07         0.00000E+00
    0.12701E+07         0.19811E+07         0.00000E+00
    0.00000E+00         0.00000E+00         0.42485E+06
 
    0.15904E+06         0.13076E+07         0.00000E+00
    0.13076E+07         0.19771E+07         0.00000E+00
    0.00000E+00         0.00000E+00         0.42722E+06
 
    0.17499E+06         0.13448E+07         0.00000E+00
    0.13448E+07         0.19729E+07         0.00000E+00
    0.00000E+00         0.00000E+00         0.42957E+06
 
    0.19099E+06         0.13818E+07         0.00000E+00
    0.13818E+07         0.19685E+07         0.00000E+00
    0.00000E+00         0.00000E+00         0.43189E+06
 
    0.20705E+06         0.14185E+07         0.00000E+00
    0.14185E+07         0.19639E+07         0.00000E+00
    0.00000E+00         0.00000E+00         0.43420E+06
 
    0.22318E+06         0.14549E+07         0.00000E+00
    0.14549E+07         0.19592E+07         0.00000E+00
    0.00000E+00         0.00000E+00         0.43647E+06
 
    0.23937E+06         0.14911E+07         0.00000E+00
    0.14911E+07         0.19543E+07         0.00000E+00
    0.00000E+00         0.00000E+00         0.43873E+06
 
    0.25563E+06         0.15270E+07         0.00000E+00
    0.15270E+07         0.19492E+07         0.00000E+00
    0.00000E+00         0.00000E+00         0.44096E+06
 
    0.27196E+06         0.15627E+07         0.00000E+00
    0.15627E+07         0.19439E+07         0.00000E+00
    0.00000E+00         0.00000E+00         0.44317E+06
 
    0.28838E+06         0.15982E+07         0.00000E+00
    0.15982E+07         0.19384E+07         0.00000E+00
    0.00000E+00         0.00000E+00         0.44536E+06
 
    0.30489E+06         0.16333E+07         0.00000E+00
    0.16333E+07         0.19328E+07         0.00000E+00
    0.00000E+00         0.00000E+00         0.44753E+06
 
    0.32149E+06         0.16683E+07         0.00000E+00
    0.16683E+07         0.19269E+07         0.00000E+00
    0.00000E+00         0.00000E+00         0.44968E+06
 
    0.33818E+06         0.17029E+07         0.00000E+00
    0.17029E+07         0.19208E+07         0.00000E+00
    0.00000E+00         0.00000E+00         0.45180E+06
 
    0.35499E+06         0.17373E+07         0.00000E+00
    0.17373E+07         0.19146E+07         0.00000E+00
    0.00000E+00         0.00000E+00         0.45391E+06
 
    0.37190E+06         0.17714E+07         0.00000E+00
    0.17714E+07         0.19081E+07         0.00000E+00
    0.00000E+00         0.00000E+00         0.45599E+06
 
    0.38892E+06         0.18053E+07         0.00000E+00
    0.18053E+07         0.19014E+07         0.00000E+00
    0.00000E+00         0.00000E+00         0.45806E+06
 
    0.40607E+06         0.18389E+07         0.00000E+00
    0.18389E+07         0.18944E+07         0.00000E+00
    0.00000E+00         0.00000E+00         0.46010E+06
 
    0.42334E+06         0.18722E+07         0.00000E+00
    0.18722E+07         0.18873E+07         0.00000E+00
    0.00000E+00         0.00000E+00         0.46212E+06
 
    0.44075E+06         0.19053E+07         0.00000E+00
    0.19053E+07         0.18799E+07         0.00000E+00
    0.00000E+00         0.00000E+00         0.46413E+06
 
    0.45829E+06         0.19380E+07         0.00000E+00
    0.19380E+07         0.18723E+07         0.00000E+00
    0.00000E+00         0.00000E+00         0.46612E+06
 
   -0.30739E+06         0.22878E+05         0.00000E+00
    0.22878E+05         0.18307E+07         0.00000E+00
    0.00000E+00         0.00000E+00         0.30466E+06
 
   -0.29327E+06         0.67928E+05         0.00000E+00
    0.67928E+05         0.18305E+07         0.00000E+00
    0.00000E+00         0.00000E+00         0.30745E+06
 
   -0.27914E+06         0.11268E+06         0.00000E+00
    0.11268E+06         0.18303E+07         0.00000E+00
    0.00000E+00         0.00000E+00         0.31023E+06
 
   -0.26499E+06         0.15713E+06         0.00000E+00
    0.15713E+06         0.18299E+07         0.00000E+00
    0.00000E+00         0.00000E+00         0.31299E+06
 
   -0.25083E+06         0.20129E+06         0.00000E+00
    0.20129E+06         0.18295E+07         0.00000E+00
    0.00000E+00         0.00000E+00         0.31573E+06
 
   -0.23667E+06         0.24516E+06         0.00000E+00
    0.24516E+06         0.18289E+07         0.00000E+00
    0.00000E+00         0.00000E+00         0.31844E+06
 
   -0.22249E+06         0.28873E+06         0.00000E+00
    0.28873E+06         0.18282E+07         0.00000E+00
    0.00000E+00         0.00000E+00         0.32114E+06
 
   -0.20831E+06         0.33202E+06         0.00000E+00
    0.33202E+06         0.18274E+07         0.00000E+00
    0.00000E+00         0.00000E+00         0.32381E+06
 
   -0.19412E+06         0.37501E+06         0.00000E+00
    0.37501E+06         0.18264E+07         0.00000E+00
    0.00000E+00         0.00000E+00         0.32646E+06
 
   -0.17993E+06         0.41772E+06         0.00000E+00
    0.41772E+06         0.18254E+07         0.00000E+00
    0.00000E+00         0.00000E+00         0.32910E+06
 
   -0.16573E+06         0.46014E+06         0.00000E+00
    0.46014E+06         0.18243E+07         0.00000E+00
    0.00000E+00         0.00000E+00         0.33171E+06
 
   -0.15153E+06         0.50228E+06         0.00000E+00
    0.50228E+06         0.18230E+07         0.00000E+00
    0.00000E+00         0.00000E+00         0.33429E+06
 
   -0.13732E+06         0.54414E+06         0.00000E+00
    0.54414E+06         0.18216E+07         0.00000E+00
    0.00000E+00         0.00000E+00         0.33686E+06
 
   -0.12311E+06         0.58571E+06         0.00000E+00
    0.58571E+06         0.18201E+07         0.00000E+00
    0.00000E+00         0.00000E+00         0.33941E+06
 
   -0.10889E+06         0.62701E+06         0.00000E+00
    0.62701E+06         0.18185E+07         0.00000E+00
    0.00000E+00         0.00000E+00         0.34193E+06
 
   -0.94665E+05         0.66803E+06         0.00000E+00
    0.66803E+06         0.18168E+07         0.00000E+00
    0.00000E+00         0.00000E+00         0.34443E+06
 
   -0.80433E+05         0.70877E+06         0.00000E+00
    0.70877E+06         0.18150E+07         0.00000E+00
    0.00000E+00         0.00000E+00         0.34691E+06
 
   -0.66193E+05         0.74924E+06         0.00000E+00
    0.74924E+06         0.18130E+07         0.00000E+00
    0.00000E+00         0.00000E+00         0.34937E+06
 
   -0.51943E+05         0.78943E+06         0.00000E+00
    0.78943E+06         0.18110E+07         0.00000E+00
    0.00000E+00         0.00000E+00         0.35181E+06
 
   -0.37682E+05         0.82935E+06         0.00000E+00
    0.82935E+06         0.18088E+07         0.00000E+00
    0.00000E+00         0.00000E+00         0.35422E+06
 
   -0.23408E+05         0.86899E+06         0.00000E+00
    0.86899E+06         0.18065E+07         0.00000E+00
    0.00000E+00         0.00000E+00         0.35662E+06
 
   -0.91191E+04         0.90836E+06         0.00000E+00
    0.90836E+06         0.18041E+07         0.00000E+00
    0.00000E+00         0.00000E+00         0.35899E+06
 
    0.51870E+04         0.94747E+06         0.00000E+00
    0.94747E+06         0.18015E+07         0.00000E+00
    0.00000E+00         0.00000E+00         0.36134E+06
 
    0.19512E+05         0.98630E+06         0.00000E+00
    0.98630E+06         0.17988E+07         0.00000E+00
    0.00000E+00         0.00000E+00         0.36367E+06
 
    0.33860E+05         0.10249E+07         0.00000E+00
    0.10249E+07         0.17960E+07         0.00000E+00
    0.00000E+00         0.00000E+00         0.36598E+06
 
    0.48231E+05         0.10632E+07         0.00000E+00
    0.10632E+07         0.17931E+07         0.00000E+00
    0.00000E+00         0.00000E+00         0.36826E+06
 
    0.62631E+05         0.11012E+07         0.00000E+00
    0.11012E+07         0.17900E+07         0.00000E+00
    0.00000E+00         0.00000E+00         0.37053E+06
 
    0.77060E+05         0.11389E+07         0.00000E+00
    0.11389E+07         0.17868E+07         0.00000E+00
    0.00000E+00         0.00000E+00         0.37277E+06
 
    0.91523E+05         0.11764E+07         0.00000E+00
    0.11764E+07         0.17835E+07         0.00000E+00
    0.00000E+00         0.00000E+00         0.37500E+06
 
    0.10602E+06         0.12137E+07         0.00000E+00
    0.12137E+07         0.17800E+07         0.00000E+00
    0.00000E+00         0.00000E+00         0.37720E+06
 
    0.12056E+06         0.12506E+07         0.00000E+00
    0.12506E+07         0.17764E+07         0.00000E+00
    0.00000E+00         0.00000E+00         0.37938E+06
 
    0.13515E+06         0.12873E+07         0.00000E+00
    0.12873E+07         0.17726E+07         0.00000E+00
    0.00000E+00         0.00000E+00         0.38155E+06
 
    0.14978E+06         0.13237E+07         0.00000E+00
    0.13237E+07         0.17687E+07         0.00000E+00
    0.00000E+00         0.00000E+00         0.38369E+06
 
    0.16446E+06         0.13599E+07         0.00000E+00
    0.13599E+07         0.17646E+07         0.00000E+00
    0.00000E+00         0.00000E+00         0.38581E+06
 
    0.17920E+06         0.13957E+07         0.00000E+00
    0.13957E+07         0.17603E+07         0.00000E+00
    0.00000E+00         0.00000E+00         0.38791E+06
 
    0.19400E+06         0.14314E+07         0.00000E+00
    0.14314E+07         0.17559E+07         0.00000E+00
    0.00000E+00         0.00000E+00         0.38999E+06
 
    0.20886E+06         0.14667E+07         0.00000E+00
    0.14667E+07         0.17514E+07         0.00000E+00
    0.00000E+00         0.00000E+00         0.39205E+06
 
    0.22379E+06         0.15018E+07         0.00000E+00
    0.15018E+07         0.17467E+07         0.00000E+00
    0.00000E+00         0.00000E+00         0.39409E+06
 
    0.23879E+06         0.15366E+07         0.00000E+00
    0.15366E+07         0.17418E+07         0.00000E+00
    0.00000E+00         0.00000E+00         0.39611E+06
 
    0.25387E+06         0.15711E+07         0.00000E+00
    0.15711E+07         0.17367E+07         0.00000E+00
    0.00000E+00         0.00000E+00         0.39812E+06
 
    0.26903E+06         0.16053E+07         0.00000E+00
    0.16053E+07         0.17315E+07         0.00000E+00
    0.00000E+00         0.00000E+00         0.40010E+06
 
    0.28427E+06         0.16393E+07         0.00000E+00
    0.16393E+07         0.17261E+07         0.00000E+00
    0.00000E+00         0.00000E+00         0.40207E+06
 
    0.29961E+06         0.16730E+07         0.00000E+00
    0.16730E+07         0.17204E+07         0.00000E+00
    0.00000E+00         0.00000E+00         0.40401E+06
 
    0.31505E+06         0.17064E+07         0.00000E+00
    0.17064E+07         0.17147E+07         0.00000E+00
    0.00000E+00         0.00000E+00         0.40594E+06
 
    0.33058E+06         0.17395E+07         0.00000E+00
    0.17395E+07         0.17087E+07         0.00000E+00
    0.00000E+00         0.00000E+00         0.40785E+06
 
    0.34622E+06         0.17724E+07         0.00000E+00
    0.17724E+07         0.17025E+07         0.00000E+00
    0.00000E+00         0.00000E+00         0.40974E+06
 
    0.36198E+06         0.18049E+07         0.00000E+00
    0.18049E+07         0.16961E+07         0.00000E+00
    0.00000E+00         0.00000E+00         0.41162E+06
 
    0.37784E+06         0.18372E+07         0.00000E+00
    0.18372E+07         0.16895E+07         0.00000E+00
    0.00000E+00         0.00000E+00         0.41347E+06
 
    0.39384E+06         0.18692E+07         0.00000E+00
    0.18692E+07         0.16827E+07         0.00000E+00
    0.00000E+00         0.00000E+00         0.41531E+06
 
    0.40995E+06         0.19009E+07         0.00000E+00
    0.19009E+07         0.16757E+07         0.00000E+00
    0.00000E+00         0.00000E+00         0.41714E+06
 
   -0.28371E+06         0.22584E+05         0.00000E+00
    0.22584E+05         0.16298E+07         0.00000E+00
    0.00000E+00         0.00000E+00         0.26921E+06
 
   -0.27108E+06         0.67063E+05         0.00000E+00
    0.67063E+05         0.16297E+07         0.00000E+00
    0.00000E+00         0.00000E+00         0.27172E+06
 
   -0.25842E+06         0.11125E+06         0.00000E+00
    0.11125E+06         0.16294E+07         0.00000E+00
    0.00000E+00         0.00000E+00         0.27420E+06
 
   -0.24575E+06         0.15514E+06         0.00000E+00
    0.15514E+06         0.16291E+07         0.00000E+00
    0.00000E+00         0.00000E+00         0.27667E+06
 
   -0.23306E+06         0.19875E+06         0.00000E+00
    0.19875E+06         0.16287E+07         0.00000E+00
    0.00000E+00         0.00000E+00         0.27912E+06
 
   -0.22035E+06         0.24206E+06         0.00000E+00
    0.24206E+06         0.16281E+07         0.00000E+00
    0.00000E+00         0.00000E+00         0.28156E+06
 
   -0.20763E+06         0.28508E+06         0.00000E+00
    0.28508E+06         0.16275E+07         0.00000E+00
    0.00000E+00         0.00000E+00         0.28397E+06
 
   -0.19489E+06         0.32782E+06         0.00000E+00
    0.32782E+06         0.16267E+07         0.00000E+00
    0.00000E+00         0.00000E+00         0.28636E+06
 
   -0.18215E+06         0.37026E+06         0.00000E+00
    0.37026E+06         0.16259E+07         0.00000E+00
    0.00000E+00         0.00000E+00         0.28874E+06
 
   -0.16939E+06         0.41242E+06         0.00000E+00
    0.41242E+06         0.16249E+07         0.00000E+00
    0.00000E+00         0.00000E+00         0.29110E+06
 
   -0.15663E+06         0.45430E+06         0.00000E+00
    0.45430E+06         0.16238E+07         0.00000E+00
    0.00000E+00         0.00000E+00         0.29344E+06
 
   -0.14385E+06         0.49588E+06         0.00000E+00
    0.49588E+06         0.16227E+07         0.00000E+00
    0.00000E+00         0.00000E+00         0.29576E+06
 
   -0.13107E+06         0.53719E+06         0.00000E+00
    0.53719E+06         0.16214E+07         0.00000E+00
    0.00000E+00         0.00000E+00         0.29806E+06
 
   -0.11827E+06         0.57821E+06         0.00000E+00
    0.57821E+06         0.16200E+07         0.00000E+00
    0.00000E+00         0.00000E+00         0.30035E+06
 
   -0.10546E+06         0.61895E+06         0.00000E+00
    0.61895E+06         0.16185E+07         0.00000E+00
    0.00000E+00         0.00000E+00         0.30261E+06
 
   -0.92647E+05         0.65940E+06         0.00000E+00
    0.65940E+06         0.16169E+07         0.00000E+00
    0.00000E+00         0.00000E+00         0.30486E+06
 
   -0.79819E+05         0.69958E+06         0.00000E+00
    0.69958E+06         0.16153E+07         0.00000E+00
    0.00000E+00         0.00000E+00         0.30709E+06
 
   -0.66979E+05         0.73947E+06         0.00000E+00
    0.73947E+06         0.16135E+07         0.00000E+00
    0.00000E+00         0.00000E+00         0.30929E+06
 
   -0.54125E+05         0.77908E+06         0.00000E+00
    0.77908E+06         0.16115E+07         0.00000E+00
    0.00000E+00         0.00000E+00         0.31148E+06
 
   -0.41257E+05         0.81841E+06         0.00000E+00
    0.81841E+06         0.16095E+07         0.00000E+00
    0.00000E+00         0.00000E+00         0.31365E+06
 
   -0.28373E+05         0.85746E+06         0.00000E+00
    0.85746E+06         0.16074E+07         0.00000E+00
    0.00000E+00         0.00000E+00         0.31581E+06
 
   -0.15472E+05         0.89624E+06         0.00000E+00
    0.89624E+06         0.16052E+07         0.00000E+00
    0.00000E+00         0.00000E+00         0.31794E+06
 
   -0.25508E+04         0.93473E+06         0.00000E+00
    0.93473E+06         0.16028E+07         0.00000E+00
    0.00000E+00         0.00000E+00         0.32005E+06
 
    0.10391E+05         0.97294E+06         0.00000E+00
    0.97294E+06         0.16004E+07         0.00000E+00
    0.00000E+00         0.00000E+00         0.32215E+06
 
    0.23357E+05         0.10109E+07         0.00000E+00
    0.10109E+07         0.15978E+07         0.00000E+00
    0.00000E+00         0.00000E+00         0.32423E+06
 
    0.36347E+05         0.10485E+07         0.00000E+00
    0.10485E+07         0.15951E+07         0.00000E+00
    0.00000E+00         0.00000E+00         0.32629E+06
 
    0.49366E+05         0.10859E+07         0.00000E+00
    0.10859E+07         0.15923E+07         0.00000E+00
    0.00000E+00         0.00000E+00         0.32833E+06
 
    0.62415E+05         0.11230E+07         0.00000E+00
    0.11230E+07         0.15893E+07         0.00000E+00
    0.00000E+00         0.00000E+00         0.33035E+06
 
    0.75498E+05         0.11598E+07         0.00000E+00
    0.11598E+07         0.15863E+07         0.00000E+00
    0.00000E+00         0.00000E+00         0.33235E+06
 
    0.88616E+05         0.11964E+07         0.00000E+00
    0.11964E+07         0.15831E+07         0.00000E+00
    0.00000E+00         0.00000E+00         0.33433E+06
 
    0.10177E+06         0.12326E+07         0.00000E+00
    0.12326E+07         0.15797E+07         0.00000E+00
    0.00000E+00         0.00000E+00         0.33630E+06
 
    0.11497E+06         0.12686E+07         0.00000E+00
    0.12686E+07         0.15763E+07         0.00000E+00
    0.00000E+00         0.00000E+00         0.33825E+06
 
    0.12822E+06         0.13043E+07         0.00000E+00
    0.13043E+07         0.15727E+07         0.00000E+00
    0.00000E+00         0.00000E+00         0.34018E+06
 
    0.14151E+06         0.13397E+07         0.00000E+00
    0.13397E+07         0.15690E+07         0.00000E+00
    0.00000E+00         0.00000E+00         0.34209E+06
 
    0.15485E+06         0.13749E+07         0.00000E+00
    0.13749E+07         0.15651E+07         0.00000E+00
    0.00000E+00         0.00000E+00         0.34399E+06
 
    0.16826E+06         0.14097E+07         0.00000E+00
    0.14097E+07         0.15611E+07         0.00000E+00
    0.00000E+00         0.00000E+00         0.34587E+06
 
    0.18172E+06         0.14443E+07         0.00000E+00
    0.14443E+07         0.15569E+07         0.00000E+00
    0.00000E+00         0.00000E+00         0.34773E+06
 
    0.19524E+06         0.14785E+07         0.00000E+00
    0.14785E+07         0.15526E+07         0.00000E+00
    0.00000E+00         0.00000E+00         0.34957E+06
 
    0.20883E+06         0.15125E+07         0.00000E+00
    0.15125E+07         0.15482E+07         0.00000E+00
    0.00000E+00         0.00000E+00         0.35140E+06
 
    0.22249E+06         0.15462E+07         0.00000E+00
    0.15462E+07         0.15435E+07         0.00000E+00
    0.00000E+00         0.00000E+00         0.35321E+06
 
    0.23622E+06         0.15796E+07         0.00000E+00
    0.15796E+07         0.15388E+07         0.00000E+00
    0.00000E+00         0.00000E+00         0.35500E+06
 
    0.25004E+06         0.16128E+07         0.00000E+00
    0.16128E+07         0.15338E+07         0.00000E+00
    0.00000E+00         0.00000E+00         0.35677E+06
 
    0.26393E+06         0.16456E+07         0.00000E+00
    0.16456E+07         0.15287E+07         0.00000E+00
    0.00000E+00         0.00000E+00         0.35853E+06
 
    0.27792E+06         0.16781E+07         0.00000E+00
    0.16781E+07         0.15235E+07         0.00000E+00
    0.00000E+00         0.00000E+00         0.36028E+06
 
    0.29199E+06         0.17104E+07         0.00000E+00
    0.17104E+07         0.15180E+07         0.00000E+00
    0.00000E+00         0.00000E+00         0.36201E+06
 
    0.30616E+06         0.17423E+07         0.00000E+00
    0.17423E+07         0.15124E+07         0.00000E+00
    0.00000E+00         0.00000E+00         0.36372E+06
 
    0.32044E+06         0.17739E+07         0.00000E+00
    0.17739E+07         0.15066E+07         0.00000E+00
    0.00000E+00         0.00000E+00         0.36541E+06
 
    0.33482E+06         0.18053E+07         0.00000E+00
    0.18053E+07         0.15007E+07         0.00000E+00
    0.00000E+00         0.00000E+00         0.36710E+06
 
    0.34930E+06         0.18363E+07         0.00000E+00
    0.18363E+07         0.14945E+07         0.00000E+00
    0.00000E+00         0.00000E+00         0.36876E+06
 
    0.36390E+06         0.18670E+07         0.00000E+00
    0.18670E+07         0.14882E+07         0.00000E+00
    0.00000E+00         0.00000E+00         0.37041E+06
 
   -0.25622E+06         0.22315E+05         0.00000E+00
    0.22315E+05         0.14355E+07         0.00000E+00
    0.00000E+00         0.00000E+00         0.23585E+06
 
   -0.24503E+06         0.66271E+05         0.00000E+00
    0.66271E+05         0.14354E+07         0.00000E+00
    0.00000E+00         0.00000E+00         0.23807E+06
 
   -0.23383E+06         0.10994E+06         0.00000E+00
    0.10994E+06         0.14352E+07         0.00000E+00
    0.00000E+00         0.00000E+00         0.24027E+06
 
   -0.22260E+06         0.15332E+06         0.00000E+00
    0.15332E+06         0.14349E+07         0.00000E+00
    0.00000E+00         0.00000E+00         0.24245E+06
 
   -0.21136E+06         0.19642E+06         0.00000E+00
    0.19642E+06         0.14345E+07         0.00000E+00
    0.00000E+00         0.00000E+00         0.24462E+06
 
   -0.20009E+06         0.23922E+06         0.00000E+00
    0.23922E+06         0.14340E+07         0.00000E+00
    0.00000E+00         0.00000E+00         0.24677E+06
 
   -0.18881E+06         0.28174E+06         0.00000E+00
    0.28174E+06         0.14334E+07         0.00000E+00
    0.00000E+00         0.00000E+00         0.24891E+06
 
   -0.17752E+06         0.32398E+06         0.00000E+00
    0.32398E+06         0.14327E+07         0.00000E+00
    0.00000E+00         0.00000E+00         0.25103E+06
 
   -0.16621E+06         0.36593E+06         0.00000E+00
    0.36593E+06         0.14319E+07         0.00000E+00
    0.00000E+00         0.00000E+00         0.25314E+06
 
   -0.15489E+06         0.40759E+06         0.00000E+00
    0.40759E+06         0.14310E+07         0.00000E+00
    0.00000E+00         0.00000E+00         0.25523E+06
 
   -0.14356E+06         0.44896E+06         0.00000E+00
    0.44896E+06         0.14301E+07         0.00000E+00
    0.00000E+00         0.00000E+00         0.25730E+06
 
   -0.13221E+06         0.49005E+06         0.00000E+00
    0.49005E+06         0.14290E+07         0.00000E+00
    0.00000E+00         0.00000E+00         0.25936E+06
 
   -0.12086E+06         0.53085E+06         0.00000E+00
    0.53085E+06         0.14279E+07         0.00000E+00
    0.00000E+00         0.00000E+00         0.26140E+06
 
   -0.10949E+06         0.57137E+06         0.00000E+00
    0.57137E+06         0.14266E+07         0.00000E+00
    0.00000E+00         0.00000E+00         0.26343E+06
 
   -0.98109E+05         0.61160E+06         0.00000E+00
    0.61160E+06         0.14253E+07         0.00000E+00
    0.00000E+00         0.00000E+00         0.26543E+06
 
   -0.86717E+05         0.65155E+06         0.00000E+00
    0.65155E+06         0.14239E+07         0.00000E+00
    0.00000E+00         0.00000E+00         0.26743E+06
 
   -0.75313E+05         0.69121E+06         0.00000E+00
    0.69121E+06         0.14223E+07         0.00000E+00
    0.00000E+00         0.00000E+00         0.26940E+06
 
   -0.63895E+05         0.73058E+06         0.00000E+00
    0.73058E+06         0.14207E+07         0.00000E+00
    0.00000E+00         0.00000E+00         0.27136E+06
 
   -0.52463E+05         0.76967E+06         0.00000E+00
    0.76967E+06         0.14190E+07         0.00000E+00
    0.00000E+00         0.00000E+00         0.27330E+06
 
   -0.41016E+05         0.80847E+06         0.00000E+00
    0.80847E+06         0.14172E+07         0.00000E+00
    0.00000E+00         0.00000E+00         0.27523E+06
 
   -0.29553E+05         0.84699E+06         0.00000E+00
    0.84699E+06         0.14153E+07         0.00000E+00
    0.00000E+00         0.00000E+00         0.27714E+06
 
   -0.18072E+05         0.88522E+06         0.00000E+00
    0.88522E+06         0.14132E+07         0.00000E+00
    0.00000E+00         0.00000E+00         0.27903E+06
 
   -0.65726E+04         0.92316E+06         0.00000E+00
    0.92316E+06         0.14111E+07         0.00000E+00
    0.00000E+00         0.00000E+00         0.28091E+06
 
    0.49475E+04         0.96082E+06         0.00000E+00
    0.96082E+06         0.14089E+07         0.00000E+00
    0.00000E+00         0.00000E+00         0.28277E+06
 
    0.16490E+05         0.99819E+06         0.00000E+00
    0.99819E+06         0.14066E+07         0.00000E+00
    0.00000E+00         0.00000E+00         0.28462E+06
 
    0.28057E+05         0.10353E+07         0.00000E+00
    0.10353E+07         0.14042E+07         0.00000E+00
    0.00000E+00         0.00000E+00         0.28644E+06
 
    0.39650E+05         0.10721E+07         0.00000E+00
    0.10721E+07         0.14016E+07         0.00000E+00
    0.00000E+00         0.00000E+00         0.28826E+06
 
    0.51271E+05         0.11086E+07         0.00000E+00
    0.11086E+07         0.13990E+07         0.00000E+00
    0.00000E+00         0.00000E+00         0.29005E+06
 
    0.62923E+05         0.11448E+07         0.00000E+00
    0.11448E+07         0.13962E+07         0.00000E+00
    0.00000E+00         0.00000E+00         0.29183E+06
 
    0.74608E+05         0.11807E+07         0.00000E+00
    0.11807E+07         0.13934E+07         0.00000E+00
    0.00000E+00         0.00000E+00         0.29360E+06
 
    0.86328E+05         0.12164E+07         0.00000E+00
    0.12164E+07         0.13904E+07         0.00000E+00
    0.00000E+00         0.00000E+00         0.29534E+06
 
    0.98087E+05         0.12517E+07         0.00000E+00
    0.12517E+07         0.13873E+07         0.00000E+00
    0.00000E+00         0.00000E+00         0.29708E+06
 
    0.10989E+06         0.12868E+07         0.00000E+00
    0.12868E+07         0.13841E+07         0.00000E+00
    0.00000E+00         0.00000E+00         0.29879E+06
 
    0.12173E+06         0.13215E+07         0.00000E+00
    0.13215E+07         0.13807E+07         0.00000E+00
    0.00000E+00         0.00000E+00         0.30049E+06
 
    0.13362E+06         0.13560E+07         0.00000E+00
    0.13560E+07         0.13773E+07         0.00000E+00
    0.00000E+00         0.00000E+00         0.30218E+06
 
    0.14556E+06         0.13901E+07         0.00000E+00
    0.13901E+07         0.13737E+07         0.00000E+00
    0.00000E+00         0.00000E+00         0.30385E+06
 
    0.15756E+06         0.14240E+07         0.00000E+00
    0.14240E+07         0.13700E+07         0.00000E+00
    0.00000E+00         0.00000E+00         0.30550E+06
 
    0.16961E+06         0.14576E+07         0.00000E+00
    0.14576E+07         0.13661E+07         0.00000E+00
    0.00000E+00         0.00000E+00         0.30714E+06
 
    0.18172E+06         0.14909E+07         0.00000E+00
    0.14909E+07         0.13621E+07         0.00000E+00
    0.00000E+00         0.00000E+00         0.30877E+06
 
    0.19389E+06         0.15238E+07         0.00000E+00
    0.15238E+07         0.13580E+07         0.00000E+00
    0.00000E+00         0.00000E+00         0.31038E+06
 
    0.20613E+06         0.15565E+07         0.00000E+00
    0.15565E+07         0.13537E+07         0.00000E+00
    0.00000E+00         0.00000E+00         0.31197E+06
 
    0.21844E+06         0.15889E+07         0.00000E+00
    0.15889E+07         0.13493E+07         0.00000E+00
    0.00000E+00         0.00000E+00         0.31355E+06
 
    0.23082E+06         0.16209E+07         0.00000E+00
    0.16209E+07         0.13448E+07         0.00000E+00
    0.00000E+00         0.00000E+00         0.31512E+06
 
    0.24329E+06         0.16527E+07         0.00000E+00
    0.16527E+07         0.13401E+07         0.00000E+00
    0.00000E+00         0.00000E+00         0.31667E+06
 
    0.25583E+06         0.16841E+07         0.00000E+00
    0.16841E+07         0.13352E+07         0.00000E+00
    0.00000E+00         0.00000E+00         0.31821E+06
 
    0.26846E+06         0.17152E+07         0.00000E+00
    0.17152E+07         0.13302E+07         0.00000E+00
    0.00000E+00         0.00000E+00         0.31974E+06
 
    0.28117E+06         0.17460E+07         0.00000E+00
    0.17460E+07         0.13251E+07         0.00000E+00
    0.00000E+00         0.00000E+00         0.32125E+06
 
    0.29398E+06         0.17765E+07         0.00000E+00
    0.17765E+07         0.13197E+07         0.00000E+00
    0.00000E+00         0.00000E+00         0.32274E+06
 
    0.30689E+06         0.18067E+07         0.00000E+00
    0.18067E+07         0.13142E+07         0.00000E+00
    0.00000E+00         0.00000E+00         0.32423E+06
 
    0.31990E+06         0.18365E+07         0.00000E+00
    0.18365E+07         0.13086E+07         0.00000E+00
    0.00000E+00         0.00000E+00         0.32570E+06
 
   -0.22541E+06         0.22074E+05         0.00000E+00
    0.22074E+05         0.12470E+07         0.00000E+00
    0.00000E+00         0.00000E+00         0.20431E+06
 
   -0.21565E+06         0.65564E+05         0.00000E+00
    0.65564E+05         0.12469E+07         0.00000E+00
    0.00000E+00         0.00000E+00         0.20625E+06
 
   -0.20586E+06         0.10877E+06         0.00000E+00
    0.10877E+06         0.12467E+07         0.00000E+00
    0.00000E+00         0.00000E+00         0.20817E+06
 
   -0.19606E+06         0.15170E+06         0.00000E+00
    0.15170E+06         0.12464E+07         0.00000E+00
    0.00000E+00         0.00000E+00         0.21007E+06
 
   -0.18624E+06         0.19434E+06         0.00000E+00
    0.19434E+06         0.12461E+07         0.00000E+00
    0.00000E+00         0.00000E+00         0.21197E+06
 
   -0.17641E+06         0.23670E+06         0.00000E+00
    0.23670E+06         0.12456E+07         0.00000E+00
    0.00000E+00         0.00000E+00         0.21385E+06
 
   -0.16656E+06         0.27877E+06         0.00000E+00
    0.27877E+06         0.12451E+07         0.00000E+00
    0.00000E+00         0.00000E+00         0.21571E+06
 
   -0.15669E+06         0.32056E+06         0.00000E+00
    0.32056E+06         0.12445E+07         0.00000E+00
    0.00000E+00         0.00000E+00         0.21757E+06
 
   -0.14682E+06         0.36206E+06         0.00000E+00
    0.36206E+06         0.12438E+07         0.00000E+00
    0.00000E+00         0.00000E+00         0.21940E+06
 
   -0.13693E+06         0.40328E+06         0.00000E+00
    0.40328E+06         0.12431E+07         0.00000E+00
    0.00000E+00         0.00000E+00         0.22123E+06
 
   -0.12703E+06         0.44421E+06         0.00000E+00
    0.44421E+06         0.12422E+07         0.00000E+00
    0.00000E+00         0.00000E+00         0.22304E+06
 
   -0.11712E+06         0.48486E+06         0.00000E+00
    0.48486E+06         0.12413E+07         0.00000E+00
    0.00000E+00         0.00000E+00         0.22484E+06
 
   -0.10719E+06         0.52522E+06         0.00000E+00
    0.52522E+06         0.12403E+07         0.00000E+00
    0.00000E+00         0.00000E+00         0.22662E+06
 
   -0.97260E+05         0.56529E+06         0.00000E+00
    0.56529E+06         0.12392E+07         0.00000E+00
    0.00000E+00         0.00000E+00         0.22839E+06
 
   -0.87317E+05         0.60507E+06         0.00000E+00
    0.60507E+06         0.12380E+07         0.00000E+00
    0.00000E+00         0.00000E+00         0.23014E+06
 
   -0.77363E+05         0.64456E+06         0.00000E+00
    0.64456E+06         0.12368E+07         0.00000E+00
    0.00000E+00         0.00000E+00         0.23188E+06
 
   -0.67398E+05         0.68377E+06         0.00000E+00
    0.68377E+06         0.12354E+07         0.00000E+00
    0.00000E+00         0.00000E+00         0.23360E+06
 
   -0.57421E+05         0.72268E+06         0.00000E+00
    0.72268E+06         0.12340E+07         0.00000E+00
    0.00000E+00         0.00000E+00         0.23532E+06
 
   -0.47432E+05         0.76131E+06         0.00000E+00
    0.76131E+06         0.12325E+07         0.00000E+00
    0.00000E+00         0.00000E+00         0.23701E+06
 
   -0.37430E+05         0.79964E+06         0.00000E+00
    0.79964E+06         0.12309E+07         0.00000E+00
    0.00000E+00         0.00000E+00         0.23869E+06
 
   -0.27414E+05         0.83769E+06         0.00000E+00
    0.83769E+06         0.12292E+07         0.00000E+00
    0.00000E+00         0.00000E+00         0.24036E+06
 
   -0.17382E+05         0.87544E+06         0.00000E+00
    0.87544E+06         0.12275E+07         0.00000E+00
    0.00000E+00         0.00000E+00         0.24202E+06
 
   -0.73347E+04         0.91290E+06         0.00000E+00
    0.91290E+06         0.12256E+07         0.00000E+00
    0.00000E+00         0.00000E+00         0.24366E+06
 
    0.27306E+04         0.95007E+06         0.00000E+00
    0.95007E+06         0.12237E+07         0.00000E+00
    0.00000E+00         0.00000E+00         0.24528E+06
 
    0.12815E+05         0.98694E+06         0.00000E+00
    0.98694E+06         0.12216E+07         0.00000E+00
    0.00000E+00         0.00000E+00         0.24689E+06
 
    0.22920E+05         0.10235E+07         0.00000E+00
    0.10235E+07         0.12195E+07         0.00000E+00
    0.00000E+00         0.00000E+00         0.24849E+06
 
    0.33048E+05         0.10598E+07         0.00000E+00
    0.10598E+07         0.12173E+07         0.00000E+00
    0.00000E+00         0.00000E+00         0.25007E+06
 
    0.43200E+05         0.10958E+07         0.00000E+00
    0.10958E+07         0.12150E+07         0.00000E+00
    0.00000E+00         0.00000E+00         0.25164E+06
 
    0.53379E+05         0.11315E+07         0.00000E+00
    0.11315E+07         0.12126E+07         0.00000E+00
    0.00000E+00         0.00000E+00         0.25319E+06
 
    0.63585E+05         0.11669E+07         0.00000E+00
    0.11669E+07         0.12101E+07         0.00000E+00
    0.00000E+00         0.00000E+00         0.25474E+06
 
    0.73823E+05         0.12019E+07         0.00000E+00
    0.12019E+07         0.12075E+07         0.00000E+00
    0.00000E+00         0.00000E+00         0.25626E+06
 
    0.84093E+05         0.12367E+07         0.00000E+00
    0.12367E+07         0.12048E+07         0.00000E+00
    0.00000E+00         0.00000E+00         0.25777E+06
 
    0.94399E+05         0.12712E+07         0.00000E+00
    0.12712E+07         0.12020E+07         0.00000E+00
    0.00000E+00         0.00000E+00         0.25927E+06
 
    0.10474E+06         0.13054E+07         0.00000E+00
    0.13054E+07         0.11991E+07         0.00000E+00
    0.00000E+00         0.00000E+00         0.26076E+06
 
    0.11513E+06         0.13393E+07         0.00000E+00
    0.13393E+07         0.11960E+07         0.00000E+00
    0.00000E+00         0.00000E+00         0.26223E+06
 
    0.12555E+06         0.13729E+07         0.00000E+00
    0.13729E+07         0.11929E+07         0.00000E+00
    0.00000E+00         0.00000E+00         0.26369E+06
 
    0.13602E+06         0.14061E+07         0.00000E+00
    0.14061E+07         0.11896E+07         0.00000E+00
    0.00000E+00         0.00000E+00         0.26513E+06
 
    0.14654E+06         0.14391E+07         0.00000E+00
    0.14391E+07         0.11863E+07         0.00000E+00
    0.00000E+00         0.00000E+00         0.26657E+06
 
    0.15712E+06         0.14717E+07         0.00000E+00
    0.14717E+07         0.11828E+07         0.00000E+00
    0.00000E+00         0.00000E+00         0.26799E+06
 
    0.16774E+06         0.15040E+07         0.00000E+00
    0.15040E+07         0.11792E+07         0.00000E+00
    0.00000E+00         0.00000E+00         0.26939E+06
 
    0.17843E+06         0.15360E+07         0.00000E+00
    0.15360E+07         0.11755E+07         0.00000E+00
    0.00000E+00         0.00000E+00         0.27078E+06
 
    0.18917E+06         0.15677E+07         0.00000E+00
    0.15677E+07         0.11716E+07         0.00000E+00
    0.00000E+00         0.00000E+00         0.27216E+06
 
    0.19998E+06         0.15991E+07         0.00000E+00
    0.15991E+07         0.11677E+07         0.00000E+00
    0.00000E+00         0.00000E+00         0.27353E+06
 
    0.21086E+06         0.16302E+07         0.00000E+00
    0.16302E+07         0.11636E+07         0.00000E+00
    0.00000E+00         0.00000E+00         0.27489E+06
 
    0.22180E+06         0.16609E+07         0.00000E+00
    0.16609E+07         0.11593E+07         0.00000E+00
    0.00000E+00         0.00000E+00         0.27623E+06
 
    0.23282E+06         0.16913E+07         0.00000E+00
    0.16913E+07         0.11550E+07         0.00000E+00
    0.00000E+00         0.00000E+00         0.27756E+06
 
    0.24392E+06         0.17214E+07         0.00000E+00
    0.17214E+07         0.11505E+07         0.00000E+00
    0.00000E+00         0.00000E+00         0.27888E+06
 
    0.25509E+06         0.17511E+07         0.00000E+00
    0.17511E+07         0.11458E+07         0.00000E+00
    0.00000E+00         0.00000E+00         0.28018E+06
 
    0.26636E+06         0.17805E+07         0.00000E+00
    0.17805E+07         0.11410E+07         0.00000E+00
    0.00000E+00         0.00000E+00         0.28148E+06
 
    0.27770E+06         0.18096E+07         0.00000E+00
    0.18096E+07         0.11361E+07         0.00000E+00
    0.00000E+00         0.00000E+00         0.28276E+06
 
   -0.19173E+06         0.21866E+05         0.00000E+00
    0.21866E+05         0.10635E+07         0.00000E+00
    0.00000E+00         0.00000E+00         0.17436E+06
 
   -0.18336E+06         0.64952E+05         0.00000E+00
    0.64952E+05         0.10634E+07         0.00000E+00
    0.00000E+00         0.00000E+00         0.17602E+06
 
   -0.17498E+06         0.10776E+06         0.00000E+00
    0.10776E+06         0.10633E+07         0.00000E+00
    0.00000E+00         0.00000E+00         0.17766E+06
 
   -0.16658E+06         0.15029E+06         0.00000E+00
    0.15029E+06         0.10631E+07         0.00000E+00
    0.00000E+00         0.00000E+00         0.17930E+06
 
   -0.15817E+06         0.19254E+06         0.00000E+00
    0.19254E+06         0.10628E+07         0.00000E+00
    0.00000E+00         0.00000E+00         0.18092E+06
 
   -0.14975E+06         0.23451E+06         0.00000E+00
    0.23451E+06         0.10624E+07         0.00000E+00
    0.00000E+00         0.00000E+00         0.18253E+06
 
   -0.14131E+06         0.27620E+06         0.00000E+00
    0.27620E+06         0.10620E+07         0.00000E+00
    0.00000E+00         0.00000E+00         0.18413E+06
 
   -0.13287E+06         0.31761E+06         0.00000E+00
    0.31761E+06         0.10615E+07         0.00000E+00
    0.00000E+00         0.00000E+00         0.18572E+06
 
   -0.12442E+06         0.35873E+06         0.00000E+00
    0.35873E+06         0.10609E+07         0.00000E+00
    0.00000E+00         0.00000E+00         0.18729E+06
 
   -0.11595E+06         0.39956E+06         0.00000E+00
    0.39956E+06         0.10602E+07         0.00000E+00
    0.00000E+00         0.00000E+00         0.18885E+06
 
   -0.10748E+06         0.44011E+06         0.00000E+00
    0.44011E+06         0.10595E+07         0.00000E+00
    0.00000E+00         0.00000E+00         0.19041E+06
 
   -0.99006E+05         0.48038E+06         0.00000E+00
    0.48038E+06         0.10587E+07         0.00000E+00
    0.00000E+00         0.00000E+00         0.19194E+06
 
   -0.90522E+05         0.52035E+06         0.00000E+00
    0.52035E+06         0.10579E+07         0.00000E+00
    0.00000E+00         0.00000E+00         0.19347E+06
 
   -0.82030E+05         0.56004E+06         0.00000E+00
    0.56004E+06         0.10569E+07         0.00000E+00
    0.00000E+00         0.00000E+00         0.19498E+06
 
   -0.73532E+05         0.59944E+06         0.00000E+00
    0.59944E+06         0.10560E+07         0.00000E+00
    0.00000E+00         0.00000E+00         0.19648E+06
 
   -0.65027E+05         0.63854E+06         0.00000E+00
    0.63854E+06         0.10549E+07         0.00000E+00
    0.00000E+00         0.00000E+00         0.19797E+06
 
   -0.56514E+05         0.67736E+06         0.00000E+00
    0.67736E+06         0.10538E+07         0.00000E+00
    0.00000E+00         0.00000E+00         0.19945E+06
 
   -0.47994E+05         0.71588E+06         0.00000E+00
    0.71588E+06         0.10526E+07         0.00000E+00
    0.00000E+00         0.00000E+00         0.20091E+06
 
   -0.39466E+05         0.75411E+06         0.00000E+00
    0.75411E+06         0.10513E+07         0.00000E+00
    0.00000E+00         0.00000E+00         0.20237E+06
 
   -0.30928E+05         0.79204E+06         0.00000E+00
    0.79204E+06         0.10500E+07         0.00000E+00
    0.00000E+00         0.00000E+00         0.20381E+06
 
   -0.22381E+05         0.82968E+06         0.00000E+00
    0.82968E+06         0.10485E+07         0.00000E+00
    0.00000E+00         0.00000E+00         0.20523E+06
 
   -0.13824E+05         0.86702E+06         0.00000E+00
    0.86702E+06         0.10471E+07         0.00000E+00
    0.00000E+00         0.00000E+00         0.20665E+06
 
   -0.52543E+04         0.90407E+06         0.00000E+00
    0.90407E+06         0.10455E+07         0.00000E+00
    0.00000E+00         0.00000E+00         0.20805E+06
 
    0.33279E+04         0.94081E+06         0.00000E+00
    0.94081E+06         0.10439E+07         0.00000E+00
    0.00000E+00         0.00000E+00         0.20944E+06
 
    0.11924E+05         0.97726E+06         0.00000E+00
    0.97726E+06         0.10421E+07         0.00000E+00
    0.00000E+00         0.00000E+00         0.21081E+06
 
    0.20536E+05         0.10134E+07         0.00000E+00
    0.10134E+07         0.10404E+07         0.00000E+00
    0.00000E+00         0.00000E+00         0.21218E+06
 
    0.29165E+05         0.10492E+07         0.00000E+00
    0.10492E+07         0.10385E+07         0.00000E+00
    0.00000E+00         0.00000E+00         0.21353E+06
 
    0.37812E+05         0.10848E+07         0.00000E+00
    0.10848E+07         0.10365E+07         0.00000E+00
    0.00000E+00         0.00000E+00         0.21487E+06
 
    0.46480E+05         0.11200E+07         0.00000E+00
    0.11200E+07         0.10345E+07         0.00000E+00
    0.00000E+00         0.00000E+00         0.21620E+06
 
    0.55169E+05         0.11549E+07         0.00000E+00
    0.11549E+07         0.10324E+07         0.00000E+00
    0.00000E+00         0.00000E+00         0.21751E+06
 
    0.63883E+05         0.11896E+07         0.00000E+00
    0.11896E+07         0.10302E+07         0.00000E+00
    0.00000E+00         0.00000E+00         0.21882E+06
 
    0.72623E+05         0.12239E+07         0.00000E+00
    0.12239E+07         0.10279E+07         0.00000E+00
    0.00000E+00         0.00000E+00         0.22011E+06
 
    0.81390E+05         0.12579E+07         0.00000E+00
    0.12579E+07         0.10255E+07         0.00000E+00
    0.00000E+00         0.00000E+00         0.22139E+06
 
    0.90188E+05         0.12915E+07         0.00000E+00
    0.12915E+07         0.10231E+07         0.00000E+00
    0.00000E+00         0.00000E+00         0.22265E+06
 
    0.99018E+05         0.13249E+07         0.00000E+00
    0.13249E+07         0.10205E+07         0.00000E+00
    0.00000E+00         0.00000E+00         0.22391E+06
 
    0.10788E+06         0.13580E+07         0.00000E+00
    0.13580E+07         0.10179E+07         0.00000E+00
    0.00000E+00         0.00000E+00         0.22515E+06
 
    0.11678E+06         0.13907E+07         0.00000E+00
    0.13907E+07         0.10151E+07         0.00000E+00
    0.00000E+00         0.00000E+00         0.22638E+06
 
    0.12573E+06         0.14231E+07         0.00000E+00
    0.14231E+07         0.10123E+07         0.00000E+00
    0.00000E+00         0.00000E+00         0.22760E+06
 
    0.13471E+06         0.14552E+07         0.00000E+00
    0.14552E+07         0.10094E+07         0.00000E+00
    0.00000E+00         0.00000E+00         0.22881E+06
 
    0.14374E+06         0.14870E+07         0.00000E+00
    0.14870E+07         0.10063E+07         0.00000E+00
    0.00000E+00         0.00000E+00         0.23001E+06
 
    0.15281E+06         0.15184E+07         0.00000E+00
    0.15184E+07         0.10032E+07         0.00000E+00
    0.00000E+00         0.00000E+00         0.23119E+06
 
    0.16194E+06         0.15496E+07         0.00000E+00
    0.15496E+07         0.99991E+06         0.00000E+00
    0.00000E+00         0.00000E+00         0.23237E+06
 
    0.17112E+06         0.15804E+07         0.00000E+00
    0.15804E+07         0.99655E+06         0.00000E+00
    0.00000E+00         0.00000E+00         0.23353E+06
 
    0.18035E+06         0.16108E+07         0.00000E+00
    0.16108E+07         0.99308E+06         0.00000E+00
    0.00000E+00         0.00000E+00         0.23468E+06
 
    0.18964E+06         0.16409E+07         0.00000E+00
    0.16409E+07         0.98949E+06         0.00000E+00
    0.00000E+00         0.00000E+00         0.23583E+06
 
    0.19900E+06         0.16707E+07         0.00000E+00
    0.16707E+07         0.98579E+06         0.00000E+00
    0.00000E+00         0.00000E+00         0.23696E+06
 
    0.20841E+06         0.17002E+07         0.00000E+00
    0.17002E+07         0.98197E+06         0.00000E+00
    0.00000E+00         0.00000E+00         0.23808E+06
 
    0.21790E+06         0.17293E+07         0.00000E+00
    0.17293E+07         0.97804E+06         0.00000E+00
    0.00000E+00         0.00000E+00         0.23919E+06
 
    0.22746E+06         0.17580E+07         0.00000E+00
    0.17580E+07         0.97398E+06         0.00000E+00
    0.00000E+00         0.00000E+00         0.24029E+06
 
    0.23708E+06         0.17864E+07         0.00000E+00
    0.17864E+07         0.96979E+06         0.00000E+00
    0.00000E+00         0.00000E+00         0.24138E+06
 
   -0.15558E+06         0.21693E+05         0.00000E+00
    0.21693E+05         0.88441E+06         0.00000E+00
    0.00000E+00         0.00000E+00         0.14577E+06
 
   -0.14858E+06         0.64444E+05         0.00000E+00
    0.64444E+05         0.88435E+06         0.00000E+00
    0.00000E+00         0.00000E+00         0.14715E+06
 
   -0.14158E+06         0.10692E+06         0.00000E+00
    0.10692E+06         0.88423E+06         0.00000E+00
    0.00000E+00         0.00000E+00         0.14853E+06
 
   -0.13456E+06         0.14913E+06         0.00000E+00
    0.14913E+06         0.88405E+06         0.00000E+00
    0.00000E+00         0.00000E+00         0.14990E+06
 
   -0.12754E+06         0.19105E+06         0.00000E+00
    0.19105E+06         0.88381E+06         0.00000E+00
    0.00000E+00         0.00000E+00         0.15125E+06
 
   -0.12052E+06         0.23270E+06         0.00000E+00
    0.23270E+06         0.88351E+06         0.00000E+00
    0.00000E+00         0.00000E+00         0.15260E+06
 
   -0.11349E+06         0.27407E+06         0.00000E+00
    0.27407E+06         0.88316E+06         0.00000E+00
    0.00000E+00         0.00000E+00         0.15393E+06
 
   -0.10645E+06         0.31516E+06         0.00000E+00
    0.31516E+06         0.88275E+06         0.00000E+00
    0.00000E+00         0.00000E+00         0.15526E+06
 
   -0.99417E+05         0.35597E+06         0.00000E+00
    0.35597E+06         0.88229E+06         0.00000E+00
    0.00000E+00         0.00000E+00         0.15657E+06
 
   -0.92378E+05         0.39649E+06         0.00000E+00
    0.39649E+06         0.88177E+06         0.00000E+00
    0.00000E+00         0.00000E+00         0.15788E+06
 
   -0.85336E+05         0.43673E+06         0.00000E+00
    0.43673E+06         0.88120E+06         0.00000E+00
    0.00000E+00         0.00000E+00         0.15917E+06
 
   -0.78293E+05         0.47668E+06         0.00000E+00
    0.47668E+06         0.88057E+06         0.00000E+00
    0.00000E+00         0.00000E+00         0.16046E+06
 
   -0.71249E+05         0.51634E+06         0.00000E+00
    0.51634E+06         0.87989E+06         0.00000E+00
    0.00000E+00         0.00000E+00         0.16173E+06
 
   -0.64204E+05         0.55571E+06         0.00000E+00
    0.55571E+06         0.87915E+06         0.00000E+00
    0.00000E+00         0.00000E+00         0.16299E+06
 
   -0.57158E+05         0.59479E+06         0.00000E+00
    0.59479E+06         0.87836E+06         0.00000E+00
    0.00000E+00         0.00000E+00         0.16424E+06
 
   -0.50111E+05         0.63357E+06         0.00000E+00
    0.63357E+06         0.87751E+06         0.00000E+00
    0.00000E+00         0.00000E+00         0.16548E+06
 
   -0.43062E+05         0.67207E+06         0.00000E+00
    0.67207E+06         0.87661E+06         0.00000E+00
    0.00000E+00         0.00000E+00         0.16671E+06
 
   -0.36012E+05         0.71026E+06         0.00000E+00
    0.71026E+06         0.87565E+06         0.00000E+00
    0.00000E+00         0.00000E+00         0.16793E+06
 
   -0.28959E+05         0.74816E+06         0.00000E+00
    0.74816E+06         0.87464E+06         0.00000E+00
    0.00000E+00         0.00000E+00         0.16914E+06
 
   -0.21904E+05         0.78576E+06         0.00000E+00
    0.78576E+06         0.87356E+06         0.00000E+00
    0.00000E+00         0.00000E+00         0.17033E+06
 
   -0.14845E+05         0.82307E+06         0.00000E+00
    0.82307E+06         0.87243E+06         0.00000E+00
    0.00000E+00         0.00000E+00         0.17152E+06
 
   -0.77819E+04         0.86007E+06         0.00000E+00
    0.86007E+06         0.87124E+06         0.00000E+00
    0.00000E+00         0.00000E+00         0.17269E+06
 
   -0.71350E+03         0.89677E+06         0.00000E+00
    0.89677E+06         0.87000E+06         0.00000E+00
    0.00000E+00         0.00000E+00         0.17386E+06
 
    0.63612E+04         0.93316E+06         0.00000E+00
    0.93316E+06         0.86869E+06         0.00000E+00
    0.00000E+00         0.00000E+00         0.17501E+06
 
    0.13443E+05         0.96925E+06         0.00000E+00
    0.96925E+06         0.86732E+06         0.00000E+00
    0.00000E+00         0.00000E+00         0.17615E+06
 
    0.20534E+05         0.10050E+07         0.00000E+00
    0.10050E+07         0.86588E+06         0.00000E+00
    0.00000E+00         0.00000E+00         0.17728E+06
 
    0.27634E+05         0.10405E+07         0.00000E+00
    0.10405E+07         0.86439E+06         0.00000E+00
    0.00000E+00         0.00000E+00         0.17840E+06
 
    0.34746E+05         0.10757E+07         0.00000E+00
    0.10757E+07         0.86282E+06         0.00000E+00
    0.00000E+00         0.00000E+00         0.17951E+06
 
    0.41870E+05         0.11105E+07         0.00000E+00
    0.11105E+07         0.86120E+06         0.00000E+00
    0.00000E+00         0.00000E+00         0.18061E+06
 
    0.49009E+05         0.11451E+07         0.00000E+00
    0.11451E+07         0.85950E+06         0.00000E+00
    0.00000E+00         0.00000E+00         0.18170E+06
 
    0.56163E+05         0.11793E+07         0.00000E+00
    0.11793E+07         0.85773E+06         0.00000E+00
    0.00000E+00         0.00000E+00         0.18278E+06
 
    0.63335E+05         0.12132E+07         0.00000E+00
    0.12132E+07         0.85590E+06         0.00000E+00
    0.00000E+00         0.00000E+00         0.18385E+06
 
    0.70527E+05         0.12468E+07         0.00000E+00
    0.12468E+07         0.85399E+06         0.00000E+00
    0.00000E+00         0.00000E+00         0.18490E+06
 
    0.77740E+05         0.12801E+07         0.00000E+00
    0.12801E+07         0.85201E+06         0.00000E+00
    0.00000E+00         0.00000E+00         0.18595E+06
 
    0.84976E+05         0.13130E+07         0.00000E+00
    0.13130E+07         0.84995E+06         0.00000E+00
    0.00000E+00         0.00000E+00         0.18699E+06
 
    0.92238E+05         0.13456E+07         0.00000E+00
    0.13456E+07         0.84782E+06         0.00000E+00
    0.00000E+00         0.00000E+00         0.18801E+06
 
    0.99527E+05         0.13779E+07         0.00000E+00
    0.13779E+07         0.84560E+06         0.00000E+00
    0.00000E+00         0.00000E+00         0.18903E+06
 
    0.10685E+06         0.14099E+07         0.00000E+00
    0.14099E+07         0.84331E+06         0.00000E+00
    0.00000E+00         0.00000E+00         0.19003E+06
 
    0.11420E+06         0.14415E+07         0.00000E+00
    0.14415E+07         0.84093E+06         0.00000E+00
    0.00000E+00         0.00000E+00         0.19103E+06
 
    0.12158E+06         0.14729E+07         0.00000E+00
    0.14729E+07         0.83847E+06         0.00000E+00
    0.00000E+00         0.00000E+00         0.19201E+06
 
    0.12900E+06         0.15038E+07         0.00000E+00
    0.15038E+07         0.83592E+06         0.00000E+00
    0.00000E+00         0.00000E+00         0.19298E+06
 
    0.13646E+06         0.15345E+07         0.00000E+00
    0.15345E+07         0.83329E+06         0.00000E+00
    0.00000E+00         0.00000E+00         0.19395E+06
 
    0.14396E+06         0.15648E+07         0.00000E+00
    0.15648E+07         0.83056E+06         0.00000E+00
    0.00000E+00         0.00000E+00         0.19490E+06
 
    0.15150E+06         0.15947E+07         0.00000E+00
    0.15947E+07         0.82775E+06         0.00000E+00
    0.00000E+00         0.00000E+00         0.19585E+06
 
    0.15909E+06         0.16243E+07         0.00000E+00
    0.16243E+07         0.82484E+06         0.00000E+00
    0.00000E+00         0.00000E+00         0.19679E+06
 
    0.16673E+06         0.16536E+07         0.00000E+00
    0.16536E+07         0.82183E+06         0.00000E+00
    0.00000E+00         0.00000E+00         0.19771E+06
 
    0.17442E+06         0.16825E+07         0.00000E+00
    0.16825E+07         0.81873E+06         0.00000E+00
    0.00000E+00         0.00000E+00         0.19863E+06
 
    0.18216E+06         0.17111E+07         0.00000E+00
    0.17111E+07         0.81552E+06         0.00000E+00
    0.00000E+00         0.00000E+00         0.19954E+06
 
    0.18996E+06         0.17393E+07         0.00000E+00
    0.17393E+07         0.81221E+06         0.00000E+00
    0.00000E+00         0.00000E+00         0.20044E+06
 
    0.19782E+06         0.17671E+07         0.00000E+00
    0.17671E+07         0.80880E+06         0.00000E+00
    0.00000E+00         0.00000E+00         0.20133E+06
 
   -0.11730E+06         0.21558E+05         0.00000E+00
    0.21558E+05         0.70892E+06         0.00000E+00
    0.00000E+00         0.00000E+00         0.11832E+06
 
   -0.11166E+06         0.64049E+05         0.00000E+00
    0.64049E+05         0.70888E+06         0.00000E+00
    0.00000E+00         0.00000E+00         0.11944E+06
 
   -0.10601E+06         0.10627E+06         0.00000E+00
    0.10627E+06         0.70879E+06         0.00000E+00
    0.00000E+00         0.00000E+00         0.12055E+06
 
   -0.10037E+06         0.14822E+06         0.00000E+00
    0.14822E+06         0.70865E+06         0.00000E+00
    0.00000E+00         0.00000E+00         0.12166E+06
 
   -0.94724E+05         0.18990E+06         0.00000E+00
    0.18990E+06         0.70848E+06         0.00000E+00
    0.00000E+00         0.00000E+00         0.12275E+06
 
   -0.89084E+05         0.23130E+06         0.00000E+00
    0.23130E+06         0.70826E+06         0.00000E+00
    0.00000E+00         0.00000E+00         0.12384E+06
 
   -0.83447E+05         0.27242E+06         0.00000E+00
    0.27242E+06         0.70801E+06         0.00000E+00
    0.00000E+00         0.00000E+00         0.12491E+06
 
   -0.77816E+05         0.31327E+06         0.00000E+00
    0.31327E+06         0.70771E+06         0.00000E+00
    0.00000E+00         0.00000E+00         0.12598E+06
 
   -0.72189E+05         0.35383E+06         0.00000E+00
    0.35383E+06         0.70737E+06         0.00000E+00
    0.00000E+00         0.00000E+00         0.12704E+06
 
   -0.66569E+05         0.39411E+06         0.00000E+00
    0.39411E+06         0.70699E+06         0.00000E+00
    0.00000E+00         0.00000E+00         0.12808E+06
 
   -0.60954E+05         0.43410E+06         0.00000E+00
    0.43410E+06         0.70657E+06         0.00000E+00
    0.00000E+00         0.00000E+00         0.12912E+06
 
   -0.55346E+05         0.47381E+06         0.00000E+00
    0.47381E+06         0.70611E+06         0.00000E+00
    0.00000E+00         0.00000E+00         0.13015E+06
 
   -0.49745E+05         0.51322E+06         0.00000E+00
    0.51322E+06         0.70562E+06         0.00000E+00
    0.00000E+00         0.00000E+00         0.13117E+06
 
   -0.44150E+05         0.55235E+06         0.00000E+00
    0.55235E+06         0.70508E+06         0.00000E+00
    0.00000E+00         0.00000E+00         0.13219E+06
 
   -0.38562E+05         0.59118E+06         0.00000E+00
    0.59118E+06         0.70450E+06         0.00000E+00
    0.00000E+00         0.00000E+00         0.13319E+06
 
   -0.32981E+05         0.62972E+06         0.00000E+00
    0.62972E+06         0.70388E+06         0.00000E+00
    0.00000E+00         0.00000E+00         0.13418E+06
 
   -0.27406E+05         0.66796E+06         0.00000E+00
    0.66796E+06         0.70322E+06         0.00000E+00
    0.00000E+00         0.00000E+00         0.13516E+06
 
   -0.21837E+05         0.70590E+06         0.00000E+00
    0.70590E+06         0.70252E+06         0.00000E+00
    0.00000E+00         0.00000E+00         0.13614E+06
 
   -0.16274E+05         0.74355E+06         0.00000E+00
    0.74355E+06         0.70178E+06         0.00000E+00
    0.00000E+00         0.00000E+00         0.13710E+06
 
   -0.10715E+05         0.78089E+06         0.00000E+00
    0.78089E+06         0.70099E+06         0.00000E+00
    0.00000E+00         0.00000E+00         0.13806E+06
 
   -0.51614E+04         0.81793E+06         0.00000E+00
    0.81793E+06         0.70016E+06         0.00000E+00
    0.00000E+00         0.00000E+00         0.13900E+06
 
    0.38901E+03         0.85467E+06         0.00000E+00
    0.85467E+06         0.69929E+06         0.00000E+00
    0.00000E+00         0.00000E+00         0.13994E+06
 
    0.59366E+04         0.89109E+06         0.00000E+00
    0.89109E+06         0.69837E+06         0.00000E+00
    0.00000E+00         0.00000E+00         0.14086E+06
 
    0.11482E+05         0.92721E+06         0.00000E+00
    0.92721E+06         0.69741E+06         0.00000E+00
    0.00000E+00         0.00000E+00         0.14178E+06
 
    0.17027E+05         0.96303E+06         0.00000E+00
    0.96303E+06         0.69640E+06         0.00000E+00
    0.00000E+00         0.00000E+00         0.14269E+06
 
    0.22572E+05         0.99852E+06         0.00000E+00
    0.99852E+06         0.69535E+06         0.00000E+00
    0.00000E+00         0.00000E+00         0.14358E+06
 
    0.28118E+05         0.10337E+07         0.00000E+00
    0.10337E+07         0.69424E+06         0.00000E+00
    0.00000E+00         0.00000E+00         0.14447E+06
 
    0.33667E+05         0.10686E+07         0.00000E+00
    0.10686E+07         0.69309E+06         0.00000E+00
    0.00000E+00         0.00000E+00         0.14535E+06
 
    0.39220E+05         0.11031E+07         0.00000E+00
    0.11031E+07         0.69188E+06         0.00000E+00
    0.00000E+00         0.00000E+00         0.14622E+06
 
    0.44778E+05         0.11374E+07         0.00000E+00
    0.11374E+07         0.69063E+06         0.00000E+00
    0.00000E+00         0.00000E+00         0.14708E+06
 
    0.50342E+05         0.11713E+07         0.00000E+00
    0.11713E+07         0.68932E+06         0.00000E+00
    0.00000E+00         0.00000E+00         0.14793E+06
 
    0.55915E+05         0.12049E+07         0.00000E+00
    0.12049E+07         0.68795E+06         0.00000E+00
    0.00000E+00         0.00000E+00         0.14877E+06
 
    0.61498E+05         0.12381E+07         0.00000E+00
    0.12381E+07         0.68653E+06         0.00000E+00
    0.00000E+00         0.00000E+00         0.14961E+06
 
    0.67092E+05         0.12711E+07         0.00000E+00
    0.12711E+07         0.68505E+06         0.00000E+00
    0.00000E+00         0.00000E+00         0.15043E+06
 
    0.72699E+05         0.13037E+07         0.00000E+00
    0.13037E+07         0.68352E+06         0.00000E+00
    0.00000E+00         0.00000E+00         0.15124E+06
 
    0.78321E+05         0.13360E+07         0.00000E+00
    0.13360E+07         0.68192E+06         0.00000E+00
    0.00000E+00         0.00000E+00         0.15205E+06
 
    0.83960E+05         0.13679E+07         0.00000E+00
    0.13679E+07         0.68026E+06         0.00000E+00
    0.00000E+00         0.00000E+00         0.15284E+06
 
    0.89618E+05         0.13995E+07         0.00000E+00
    0.13995E+07         0.67854E+06         0.00000E+00
    0.00000E+00         0.00000E+00         0.15363E+06
 
    0.95296E+05         0.14308E+07         0.00000E+00
    0.14308E+07         0.67675E+06         0.00000E+00
    0.00000E+00         0.00000E+00         0.15441E+06
 
    0.10100E+06         0.14617E+07         0.00000E+00
    0.14617E+07         0.67489E+06         0.00000E+00
    0.00000E+00         0.00000E+00         0.15518E+06
 
    0.10672E+06         0.14923E+07         0.00000E+00
    0.14923E+07         0.67297E+06         0.00000E+00
    0.00000E+00         0.00000E+00         0.15594E+06
 
    0.11247E+06         0.15226E+07         0.00000E+00
    0.15226E+07         0.67098E+06         0.00000E+00
    0.00000E+00         0.00000E+00         0.15669E+06
 
    0.11825E+06         0.15525E+07         0.00000E+00
    0.15525E+07         0.66891E+06         0.00000E+00
    0.00000E+00         0.00000E+00         0.15743E+06
 
    0.12407E+06         0.15820E+07         0.00000E+00
    0.15820E+07         0.66677E+06         0.00000E+00
    0.00000E+00         0.00000E+00         0.15817E+06
 
    0.12991E+06         0.16112E+07         0.00000E+00
    0.16112E+07         0.66456E+06         0.00000E+00
    0.00000E+00         0.00000E+00         0.15889E+06
 
    0.13579E+06         0.16400E+07         0.00000E+00
    0.16400E+07         0.66227E+06         0.00000E+00
    0.00000E+00         0.00000E+00         0.15961E+06
 
    0.14171E+06         0.16685E+07         0.00000E+00
    0.16685E+07         0.65990E+06         0.00000E+00
    0.00000E+00         0.00000E+00         0.16032E+06
 
    0.14766E+06         0.16967E+07         0.00000E+00
    0.16967E+07         0.65745E+06         0.00000E+00
    0.00000E+00         0.00000E+00         0.16102E+06
 
    0.15366E+06         0.17244E+07         0.00000E+00
    0.17244E+07         0.65491E+06         0.00000E+00
    0.00000E+00         0.00000E+00         0.16172E+06
 
    0.15971E+06         0.17518E+07         0.00000E+00
    0.17518E+07         0.65229E+06         0.00000E+00
    0.00000E+00         0.00000E+00         0.16240E+06
 
   -0.77222E+05         0.21463E+05         0.00000E+00
    0.21463E+05         0.53636E+06         0.00000E+00
    0.00000E+00         0.00000E+00         0.91827E+05
 
   -0.72908E+05         0.63773E+05         0.00000E+00
    0.63773E+05         0.53633E+06         0.00000E+00
    0.00000E+00         0.00000E+00         0.92684E+05
 
   -0.68604E+05         0.10582E+06         0.00000E+00
    0.10582E+06         0.53627E+06         0.00000E+00
    0.00000E+00         0.00000E+00         0.93534E+05
 
   -0.64313E+05         0.14759E+06         0.00000E+00
    0.14759E+06         0.53619E+06         0.00000E+00
    0.00000E+00         0.00000E+00         0.94376E+05
 
   -0.60035E+05         0.18909E+06         0.00000E+00
    0.18909E+06         0.53608E+06         0.00000E+00
    0.00000E+00         0.00000E+00         0.95210E+05
 
   -0.55770E+05         0.23032E+06         0.00000E+00
    0.23032E+06         0.53595E+06         0.00000E+00
    0.00000E+00         0.00000E+00         0.96036E+05
 
   -0.51519E+05         0.27128E+06         0.00000E+00
    0.27128E+06         0.53580E+06         0.00000E+00
    0.00000E+00         0.00000E+00         0.96855E+05
 
   -0.47284E+05         0.31195E+06         0.00000E+00
    0.31195E+06         0.53561E+06         0.00000E+00
    0.00000E+00         0.00000E+00         0.97666E+05
 
   -0.43064E+05         0.35234E+06         0.00000E+00
    0.35234E+06         0.53541E+06         0.00000E+00
    0.00000E+00         0.00000E+00         0.98469E+05
 
   -0.38860E+05         0.39245E+06         0.00000E+00
    0.39245E+06         0.53518E+06         0.00000E+00
    0.00000E+00         0.00000E+00         0.99264E+05
 
   -0.34671E+05         0.43228E+06         0.00000E+00
    0.43228E+06         0.53492E+06         0.00000E+00
    0.00000E+00         0.00000E+00         0.10005E+06
 
   -0.30499E+05         0.47181E+06         0.00000E+00
    0.47181E+06         0.53464E+06         0.00000E+00
    0.00000E+00         0.00000E+00         0.10083E+06
 
   -0.26343E+05         0.51106E+06         0.00000E+00
    0.51106E+06         0.53434E+06         0.00000E+00
    0.00000E+00         0.00000E+00         0.10160E+06
 
   -0.22203E+05         0.55002E+06         0.00000E+00
    0.55002E+06         0.53401E+06         0.00000E+00
    0.00000E+00         0.00000E+00         0.10236E+06
 
   -0.18080E+05         0.58868E+06         0.00000E+00
    0.58868E+06         0.53366E+06         0.00000E+00
    0.00000E+00         0.00000E+00         0.10312E+06
 
   -0.13972E+05         0.62704E+06         0.00000E+00
    0.62704E+06         0.53328E+06         0.00000E+00
    0.00000E+00         0.00000E+00         0.10386E+06
 
   -0.98796E+04         0.66511E+06         0.00000E+00
    0.66511E+06         0.53288E+06         0.00000E+00
    0.00000E+00         0.00000E+00         0.10460E+06
 
   -0.58026E+04         0.70287E+06         0.00000E+00
    0.70287E+06         0.53245E+06         0.00000E+00
    0.00000E+00         0.00000E+00         0.10533E+06
 
   -0.17405E+04         0.74034E+06         0.00000E+00
    0.74034E+06         0.53200E+06         0.00000E+00
    0.00000E+00         0.00000E+00         0.10605E+06
 
    0.23074E+04         0.77750E+06         0.00000E+00
    0.77750E+06         0.53151E+06         0.00000E+00
    0.00000E+00         0.00000E+00         0.10676E+06
 
    0.63417E+04         0.81435E+06         0.00000E+00
    0.81435E+06         0.53100E+06         0.00000E+00
    0.00000E+00         0.00000E+00         0.10747E+06
 
    0.10363E+05         0.85089E+06         0.00000E+00
    0.85089E+06         0.53046E+06         0.00000E+00
    0.00000E+00         0.00000E+00         0.10817E+06
 
    0.14372E+05         0.88713E+06         0.00000E+00
    0.88713E+06         0.52990E+06         0.00000E+00
    0.00000E+00         0.00000E+00         0.10885E+06
 
    0.18370E+05         0.92305E+06         0.00000E+00
    0.92305E+06         0.52930E+06         0.00000E+00
    0.00000E+00         0.00000E+00         0.10953E+06
 
    0.22357E+05         0.95866E+06         0.00000E+00
    0.95866E+06         0.52867E+06         0.00000E+00
    0.00000E+00         0.00000E+00         0.11021E+06
 
    0.26335E+05         0.99395E+06         0.00000E+00
    0.99395E+06         0.52801E+06         0.00000E+00
    0.00000E+00         0.00000E+00         0.11087E+06
 
    0.30304E+05         0.10289E+07         0.00000E+00
    0.10289E+07         0.52732E+06         0.00000E+00
    0.00000E+00         0.00000E+00         0.11152E+06
 
    0.34267E+05         0.10636E+07         0.00000E+00
    0.10636E+07         0.52659E+06         0.00000E+00
    0.00000E+00         0.00000E+00         0.11217E+06
 
    0.38223E+05         0.10979E+07         0.00000E+00
    0.10979E+07         0.52583E+06         0.00000E+00
    0.00000E+00         0.00000E+00         0.11281E+06
 
    0.42174E+05         0.11319E+07         0.00000E+00
    0.11319E+07         0.52503E+06         0.00000E+00
    0.00000E+00         0.00000E+00         0.11344E+06
 
    0.46121E+05         0.11656E+07         0.00000E+00
    0.11656E+07         0.52419E+06         0.00000E+00
    0.00000E+00         0.00000E+00         0.11406E+06
 
    0.50067E+05         0.11990E+07         0.00000E+00
    0.11990E+07         0.52332E+06         0.00000E+00
    0.00000E+00         0.00000E+00         0.11468E+06
 
    0.54011E+05         0.12320E+07         0.00000E+00
    0.12320E+07         0.52241E+06         0.00000E+00
    0.00000E+00         0.00000E+00         0.11528E+06
 
    0.57956E+05         0.12647E+07         0.00000E+00
    0.12647E+07         0.52145E+06         0.00000E+00
    0.00000E+00         0.00000E+00         0.11588E+06
 
    0.61903E+05         0.12970E+07         0.00000E+00
    0.12970E+07         0.52045E+06         0.00000E+00
    0.00000E+00         0.00000E+00         0.11647E+06
 
    0.65854E+05         0.13290E+07         0.00000E+00
    0.13290E+07         0.51941E+06         0.00000E+00
    0.00000E+00         0.00000E+00         0.11705E+06
 
    0.69811E+05         0.13607E+07         0.00000E+00
    0.13607E+07         0.51833E+06         0.00000E+00
    0.00000E+00         0.00000E+00         0.11763E+06
 
    0.73774E+05         0.13921E+07         0.00000E+00
    0.13921E+07         0.51720E+06         0.00000E+00
    0.00000E+00         0.00000E+00         0.11819E+06
 
    0.77746E+05         0.14231E+07         0.00000E+00
    0.14231E+07         0.51602E+06         0.00000E+00
    0.00000E+00         0.00000E+00         0.11875E+06
 
    0.81728E+05         0.14537E+07         0.00000E+00
    0.14537E+07         0.51479E+06         0.00000E+00
    0.00000E+00         0.00000E+00         0.11930E+06
 
    0.85722E+05         0.14840E+07         0.00000E+00
    0.14840E+07         0.51351E+06         0.00000E+00
    0.00000E+00         0.00000E+00         0.11985E+06
 
    0.89731E+05         0.15139E+07         0.00000E+00
    0.15139E+07         0.51218E+06         0.00000E+00
    0.00000E+00         0.00000E+00         0.12038E+06
 
    0.93755E+05         0.15435E+07         0.00000E+00
    0.15435E+07         0.51079E+06         0.00000E+00
    0.00000E+00         0.00000E+00         0.12091E+06
 
    0.97797E+05         0.15728E+07         0.00000E+00
    0.15728E+07         0.50935E+06         0.00000E+00
    0.00000E+00         0.00000E+00         0.12143E+06
 
    0.10186E+06         0.16016E+07         0.00000E+00
    0.16016E+07         0.50785E+06         0.00000E+00
    0.00000E+00         0.00000E+00         0.12194E+06
 
    0.10594E+06         0.16302E+07         0.00000E+00
    0.16302E+07         0.50630E+06         0.00000E+00
    0.00000E+00         0.00000E+00         0.12245E+06
 
    0.11005E+06         0.16583E+07         0.00000E+00
    0.16583E+07         0.50468E+06         0.00000E+00
    0.00000E+00         0.00000E+00         0.12295E+06
 
    0.11418E+06         0.16861E+07         0.00000E+00
    0.16861E+07         0.50300E+06         0.00000E+00
    0.00000E+00         0.00000E+00         0.12344E+06
 
    0.11834E+06         0.17135E+07         0.00000E+00
    0.17135E+07         0.50126E+06         0.00000E+00
    0.00000E+00         0.00000E+00         0.12392E+06
 
    0.12253E+06         0.17405E+07         0.00000E+00
    0.17405E+07         0.49945E+06         0.00000E+00
    0.00000E+00         0.00000E+00         0.12440E+06
 
   -0.35609E+05         0.21411E+05         0.00000E+00
    0.21411E+05         0.36603E+06         0.00000E+00
    0.00000E+00         0.00000E+00         0.66084E+05
 
   -0.32612E+05         0.63622E+05         0.00000E+00
    0.63622E+05         0.36602E+06         0.00000E+00
    0.00000E+00         0.00000E+00         0.66681E+05
 
   -0.29639E+05         0.10557E+06         0.00000E+00
    0.10557E+06         0.36600E+06         0.00000E+00
    0.00000E+00         0.00000E+00         0.67272E+05
 
   -0.26692E+05         0.14725E+06         0.00000E+00
    0.14725E+06         0.36597E+06         0.00000E+00
    0.00000E+00         0.00000E+00         0.67856E+05
 
   -0.23769E+05         0.18866E+06         0.00000E+00
    0.18866E+06         0.36594E+06         0.00000E+00
    0.00000E+00         0.00000E+00         0.68433E+05
 
   -0.20873E+05         0.22980E+06         0.00000E+00
    0.22980E+06         0.36589E+06         0.00000E+00
    0.00000E+00         0.00000E+00         0.69004E+05
 
   -0.18003E+05         0.27066E+06         0.00000E+00
    0.27066E+06         0.36584E+06         0.00000E+00
    0.00000E+00         0.00000E+00         0.69568E+05
 
   -0.15160E+05         0.31124E+06         0.00000E+00
    0.31124E+06         0.36578E+06         0.00000E+00
    0.00000E+00         0.00000E+00         0.70124E+05
 
   -0.12343E+05         0.35155E+06         0.00000E+00
    0.35155E+06         0.36571E+06         0.00000E+00
    0.00000E+00         0.00000E+00         0.70674E+05
 
   -0.95544E+04         0.39157E+06         0.00000E+00
    0.39157E+06         0.36564E+06         0.00000E+00
    0.00000E+00         0.00000E+00         0.71217E+05
 
   -0.67926E+04         0.43130E+06         0.00000E+00
    0.43130E+06         0.36556E+06         0.00000E+00
    0.00000E+00         0.00000E+00         0.71753E+05
 
   -0.40581E+04         0.47075E+06         0.00000E+00
    0.47075E+06         0.36547E+06         0.00000E+00
    0.00000E+00         0.00000E+00         0.72282E+05
 
   -0.13508E+04         0.50990E+06         0.00000E+00
    0.50990E+06         0.36537E+06         0.00000E+00
    0.00000E+00         0.00000E+00         0.72803E+05
 
    0.13295E+04         0.54876E+06         0.00000E+00
    0.54876E+06         0.36526E+06         0.00000E+00
    0.00000E+00         0.00000E+00         0.73318E+05
 
    0.39829E+04         0.58733E+06         0.00000E+00
    0.58733E+06         0.36515E+06         0.00000E+00
    0.00000E+00         0.00000E+00         0.73826E+05
 
    0.66097E+04         0.62559E+06         0.00000E+00
    0.62559E+06         0.36502E+06         0.00000E+00
    0.00000E+00         0.00000E+00         0.74326E+05
 
    0.92103E+04         0.66356E+06         0.00000E+00
    0.66356E+06         0.36489E+06         0.00000E+00
    0.00000E+00         0.00000E+00         0.74819E+05
 
    0.11785E+05         0.70123E+06         0.00000E+00
    0.70123E+06         0.36474E+06         0.00000E+00
    0.00000E+00         0.00000E+00         0.75305E+05
 
    0.14335E+05         0.73859E+06         0.00000E+00
    0.73859E+06         0.36459E+06         0.00000E+00
    0.00000E+00         0.00000E+00         0.75784E+05
 
    0.16859E+05         0.77564E+06         0.00000E+00
    0.77564E+06         0.36442E+06         0.00000E+00
    0.00000E+00         0.00000E+00         0.76256E+05
 
    0.19360E+05         0.81239E+06         0.00000E+00
    0.81239E+06         0.36424E+06         0.00000E+00
    0.00000E+00         0.00000E+00         0.76720E+05
 
    0.21837E+05         0.84882E+06         0.00000E+00
    0.84882E+06         0.36405E+06         0.00000E+00
    0.00000E+00         0.00000E+00         0.77177E+05
 
    0.24292E+05         0.88494E+06         0.00000E+00
    0.88494E+06         0.36384E+06         0.00000E+00
    0.00000E+00         0.00000E+00         0.77627E+05
 
    0.26724E+05         0.92075E+06         0.00000E+00
    0.92075E+06         0.36363E+06         0.00000E+00
    0.00000E+00         0.00000E+00         0.78070E+05
 
    0.29136E+05         0.95623E+06         0.00000E+00
    0.95623E+06         0.36339E+06         0.00000E+00
    0.00000E+00         0.00000E+00         0.78506E+05
 
    0.31527E+05         0.99140E+06         0.00000E+00
    0.99140E+06         0.36314E+06         0.00000E+00
    0.00000E+00         0.00000E+00         0.78934E+05
 
    0.33900E+05         0.10262E+07         0.00000E+00
    0.10262E+07         0.36288E+06         0.00000E+00
    0.00000E+00         0.00000E+00         0.79355E+05
 
    0.36254E+05         0.10608E+07         0.00000E+00
    0.10608E+07         0.36259E+06         0.00000E+00
    0.00000E+00         0.00000E+00         0.79769E+05
 
    0.38591E+05         0.10950E+07         0.00000E+00
    0.10950E+07         0.36229E+06         0.00000E+00
    0.00000E+00         0.00000E+00         0.80176E+05
 
    0.40912E+05         0.11288E+07         0.00000E+00
    0.11288E+07         0.36197E+06         0.00000E+00
    0.00000E+00         0.00000E+00         0.80576E+05
 
    0.43219E+05         0.11624E+07         0.00000E+00
    0.11624E+07         0.36162E+06         0.00000E+00
    0.00000E+00         0.00000E+00         0.80968E+05
 
    0.45511E+05         0.11956E+07         0.00000E+00
    0.11956E+07         0.36126E+06         0.00000E+00
    0.00000E+00         0.00000E+00         0.81354E+05
 
    0.47792E+05         0.12284E+07         0.00000E+00
    0.12284E+07         0.36087E+06         0.00000E+00
    0.00000E+00         0.00000E+00         0.81732E+05
 
    0.50062E+05         0.12609E+07         0.00000E+00
    0.12609E+07         0.36046E+06         0.00000E+00
    0.00000E+00         0.00000E+00         0.82104E+05
 
    0.52322E+05         0.12931E+07         0.00000E+00
    0.12931E+07         0.36002E+06         0.00000E+00
    0.00000E+00         0.00000E+00         0.82468E+05
 
    0.54573E+05         0.13250E+07         0.00000E+00
    0.13250E+07         0.35955E+06         0.00000E+00
    0.00000E+00         0.00000E+00         0.82825E+05
 
    0.56818E+05         0.13565E+07         0.00000E+00
    0.13565E+07         0.35906E+06         0.00000E+00
    0.00000E+00         0.00000E+00         0.83176E+05
 
    0.59058E+05         0.13876E+07         0.00000E+00
    0.13876E+07         0.35854E+06         0.00000E+00
    0.00000E+00         0.00000E+00         0.83519E+05
 
    0.61294E+05         0.14184E+07         0.00000E+00
    0.14184E+07         0.35798E+06         0.00000E+00
    0.00000E+00         0.00000E+00         0.83856E+05
 
    0.63528E+05         0.14489E+07         0.00000E+00
    0.14489E+07         0.35740E+06         0.00000E+00
    0.00000E+00         0.00000E+00         0.84185E+05
 
    0.65760E+05         0.14790E+07         0.00000E+00
    0.14790E+07         0.35678E+06         0.00000E+00
    0.00000E+00         0.00000E+00         0.84508E+05
 
    0.67994E+05         0.15087E+07         0.00000E+00
    0.15087E+07         0.35613E+06         0.00000E+00
    0.00000E+00         0.00000E+00         0.84825E+05
 
    0.70230E+05         0.15381E+07         0.00000E+00
    0.15381E+07         0.35544E+06         0.00000E+00
    0.00000E+00         0.00000E+00         0.85134E+05
 
    0.72470E+05         0.15671E+07         0.00000E+00
    0.15671E+07         0.35471E+06         0.00000E+00
    0.00000E+00         0.00000E+00         0.85437E+05
 
    0.74716E+05         0.15957E+07         0.00000E+00
    0.15957E+07         0.35395E+06         0.00000E+00
    0.00000E+00         0.00000E+00         0.85733E+05
 
    0.76970E+05         0.16240E+07         0.00000E+00
    0.16240E+07         0.35314E+06         0.00000E+00
    0.00000E+00         0.00000E+00         0.86023E+05
 
    0.79233E+05         0.16519E+07         0.00000E+00
    0.16519E+07         0.35230E+06         0.00000E+00
    0.00000E+00         0.00000E+00         0.86306E+05
 
    0.81506E+05         0.16795E+07         0.00000E+00
    0.16795E+07         0.35141E+06         0.00000E+00
    0.00000E+00         0.00000E+00         0.86583E+05
 
    0.83793E+05         0.17066E+07         0.00000E+00
    0.17066E+07         0.35047E+06         0.00000E+00
    0.00000E+00         0.00000E+00         0.86853E+05
 
    0.86094E+05         0.17334E+07         0.00000E+00
    0.17334E+07         0.34949E+06         0.00000E+00
    0.00000E+00         0.00000E+00         0.87117E+05
 
    0.72831E+04         0.21403E+05         0.00000E+00
    0.21403E+05         0.19726E+06         0.00000E+00
    0.00000E+00         0.00000E+00         0.40909E+05
 
    0.89722E+04         0.63602E+05         0.00000E+00
    0.63602E+05         0.19727E+06         0.00000E+00
    0.00000E+00         0.00000E+00         0.41249E+05
 
    0.10622E+05         0.10554E+06         0.00000E+00
    0.10554E+06         0.19729E+06         0.00000E+00
    0.00000E+00         0.00000E+00         0.41582E+05
 
    0.12234E+05         0.14721E+06         0.00000E+00
    0.14721E+06         0.19732E+06         0.00000E+00
    0.00000E+00         0.00000E+00         0.41910E+05
 
    0.13805E+05         0.18861E+06         0.00000E+00
    0.18861E+06         0.19736E+06         0.00000E+00
    0.00000E+00         0.00000E+00         0.42232E+05
 
    0.15338E+05         0.22974E+06         0.00000E+00
    0.22974E+06         0.19740E+06         0.00000E+00
    0.00000E+00         0.00000E+00         0.42548E+05
 
    0.16830E+05         0.27059E+06         0.00000E+00
    0.27059E+06         0.19746E+06         0.00000E+00
    0.00000E+00         0.00000E+00         0.42859E+05
 
    0.18282E+05         0.31117E+06         0.00000E+00
    0.31117E+06         0.19753E+06         0.00000E+00
    0.00000E+00         0.00000E+00         0.43163E+05
 
    0.19695E+05         0.35146E+06         0.00000E+00
    0.35146E+06         0.19761E+06         0.00000E+00
    0.00000E+00         0.00000E+00         0.43461E+05
 
    0.21068E+05         0.39147E+06         0.00000E+00
    0.39147E+06         0.19770E+06         0.00000E+00
    0.00000E+00         0.00000E+00         0.43753E+05
 
    0.22401E+05         0.43120E+06         0.00000E+00
    0.43120E+06         0.19779E+06         0.00000E+00
    0.00000E+00         0.00000E+00         0.44038E+05
 
    0.23694E+05         0.47063E+06         0.00000E+00
    0.47063E+06         0.19790E+06         0.00000E+00
    0.00000E+00         0.00000E+00         0.44318E+05
 
    0.24948E+05         0.50977E+06         0.00000E+00
    0.50977E+06         0.19801E+06         0.00000E+00
    0.00000E+00         0.00000E+00         0.44592E+05
 
    0.26163E+05         0.54862E+06         0.00000E+00
    0.54862E+06         0.19813E+06         0.00000E+00
    0.00000E+00         0.00000E+00         0.44859E+05
 
    0.27340E+05         0.58717E+06         0.00000E+00
    0.58717E+06         0.19826E+06         0.00000E+00
    0.00000E+00         0.00000E+00         0.45120E+05
 
    0.28478E+05         0.62543E+06         0.00000E+00
    0.62543E+06         0.19840E+06         0.00000E+00
    0.00000E+00         0.00000E+00         0.45375E+05
 
    0.29578E+05         0.66337E+06         0.00000E+00
    0.66337E+06         0.19854E+06         0.00000E+00
    0.00000E+00         0.00000E+00         0.45624E+05
 
    0.30640E+05         0.70102E+06         0.00000E+00
    0.70102E+06         0.19869E+06         0.00000E+00
    0.00000E+00         0.00000E+00         0.45866E+05
 
    0.31666E+05         0.73836E+06         0.00000E+00
    0.73836E+06         0.19885E+06         0.00000E+00
    0.00000E+00         0.00000E+00         0.46103E+05
 
    0.32656E+05         0.77539E+06         0.00000E+00
    0.77539E+06         0.19901E+06         0.00000E+00
    0.00000E+00         0.00000E+00         0.46333E+05
 
    0.33610E+05         0.81210E+06         0.00000E+00
    0.81210E+06         0.19917E+06         0.00000E+00
    0.00000E+00         0.00000E+00         0.46556E+05
 
    0.34529E+05         0.84850E+06         0.00000E+00
    0.84850E+06         0.19934E+06         0.00000E+00
    0.00000E+00         0.00000E+00         0.46774E+05
 
    0.35414E+05         0.88459E+06         0.00000E+00
    0.88459E+06         0.19951E+06         0.00000E+00
    0.00000E+00         0.00000E+00         0.46985E+05
 
    0.36265E+05         0.92036E+06         0.00000E+00
    0.92036E+06         0.19968E+06         0.00000E+00
    0.00000E+00         0.00000E+00         0.47190E+05
 
    0.37084E+05         0.95580E+06         0.00000E+00
    0.95580E+06         0.19986E+06         0.00000E+00
    0.00000E+00         0.00000E+00         0.47389E+05
 
    0.37872E+05         0.99093E+06         0.00000E+00
    0.99093E+06         0.20003E+06         0.00000E+00
    0.00000E+00         0.00000E+00         0.47581E+05
 
    0.38629E+05         0.10257E+07         0.00000E+00
    0.10257E+07         0.20021E+06         0.00000E+00
    0.00000E+00         0.00000E+00         0.47767E+05
 
    0.39355E+05         0.10602E+07         0.00000E+00
    0.10602E+07         0.20038E+06         0.00000E+00
    0.00000E+00         0.00000E+00         0.47947E+05
 
    0.40054E+05         0.10943E+07         0.00000E+00
    0.10943E+07         0.20055E+06         0.00000E+00
    0.00000E+00         0.00000E+00         0.48121E+05
 
    0.40724E+05         0.11281E+07         0.00000E+00
    0.11281E+07         0.20072E+06         0.00000E+00
    0.00000E+00         0.00000E+00         0.48288E+05
 
    0.41368E+05         0.11616E+07         0.00000E+00
    0.11616E+07         0.20088E+06         0.00000E+00
    0.00000E+00         0.00000E+00         0.48450E+05
 
    0.41986E+05         0.11947E+07         0.00000E+00
    0.11947E+07         0.20104E+06         0.00000E+00
    0.00000E+00         0.00000E+00         0.48605E+05
 
    0.42580E+05         0.12275E+07         0.00000E+00
    0.12275E+07         0.20119E+06         0.00000E+00
    0.00000E+00         0.00000E+00         0.48754E+05
 
    0.43151E+05         0.12600E+07         0.00000E+00
    0.12600E+07         0.20133E+06         0.00000E+00
    0.00000E+00         0.00000E+00         0.48897E+05
 
    0.43700E+05         0.12921E+07         0.00000E+00
    0.12921E+07         0.20147E+06         0.00000E+00
    0.00000E+00         0.00000E+00         0.49033E+05
 
    0.44228E+05         0.13238E+07         0.00000E+00
    0.13238E+07         0.20159E+06         0.00000E+00
    0.00000E+00         0.00000E+00         0.49164E+05
 
    0.44736E+05         0.13552E+07         0.00000E+00
    0.13552E+07         0.20170E+06         0.00000E+00
    0.00000E+00         0.00000E+00         0.49288E+05
 
    0.45226E+05         0.13863E+07         0.00000E+00
    0.13863E+07         0.20181E+06         0.00000E+00
    0.00000E+00         0.00000E+00         0.49407E+05
 
    0.45700E+05         0.14170E+07         0.00000E+00
    0.14170E+07         0.20190E+06         0.00000E+00
    0.00000E+00         0.00000E+00         0.49519E+05
 
    0.46158E+05         0.14473E+07         0.00000E+00
    0.14473E+07         0.20197E+06         0.00000E+00
    0.00000E+00         0.00000E+00         0.49625E+05
 
    0.46602E+05         0.14773E+07         0.00000E+00
    0.14773E+07         0.20203E+06         0.00000E+00
    0.00000E+00         0.00000E+00         0.49726E+05
 
    0.47033E+05         0.15069E+07         0.00000E+00
    0.15069E+07         0.20207E+06         0.00000E+00
    0.00000E+00         0.00000E+00         0.49820E+05
 
    0.47453E+05         0.15362E+07         0.00000E+00
    0.15362E+07         0.20209E+06         0.00000E+00
    0.00000E+00         0.00000E+00         0.49909E+05
 
    0.47863E+05         0.15651E+07         0.00000E+00
    0.15651E+07         0.20210E+06         0.00000E+00
    0.00000E+00         0.00000E+00         0.49992E+05
 
    0.48264E+05         0.15936E+07         0.00000E+00
    0.15936E+07         0.20208E+06         0.00000E+00
    0.00000E+00         0.00000E+00         0.50069E+05
 
    0.48659E+05         0.16217E+07         0.00000E+00
    0.16217E+07         0.20204E+06         0.00000E+00
    0.00000E+00         0.00000E+00         0.50140E+05
 
    0.49049E+05         0.16495E+07         0.00000E+00
    0.16495E+07         0.20198E+06         0.00000E+00
    0.00000E+00         0.00000E+00         0.50205E+05
 
    0.49434E+05         0.16769E+07         0.00000E+00
    0.16769E+07         0.20189E+06         0.00000E+00
    0.00000E+00         0.00000E+00         0.50265E+05
 
    0.49817E+05         0.17039E+07         0.00000E+00
    0.17039E+07         0.20178E+06         0.00000E+00
    0.00000E+00         0.00000E+00         0.50319E+05
 
    0.50199E+05         0.17305E+07         0.00000E+00
    0.17305E+07         0.20164E+06         0.00000E+00
    0.00000E+00         0.00000E+00         0.50367E+05
 
    0.51225E+05         0.21440E+05         0.00000E+00
    0.21440E+05         0.29388E+05         0.00000E+00
    0.00000E+00         0.00000E+00         0.16123E+05
 
    0.51612E+05         0.63716E+05         0.00000E+00
    0.63716E+05         0.29416E+05         0.00000E+00
    0.00000E+00         0.00000E+00         0.16206E+05
 
    0.51943E+05         0.10573E+06         0.00000E+00
    0.10573E+06         0.29474E+05         0.00000E+00
    0.00000E+00         0.00000E+00         0.16283E+05
 
    0.52221E+05         0.14748E+06         0.00000E+00
    0.14748E+06         0.29561E+05         0.00000E+00
    0.00000E+00         0.00000E+00         0.16356E+05
 
    0.52444E+05         0.18896E+06         0.00000E+00
    0.18896E+06         0.29675E+05         0.00000E+00
    0.00000E+00         0.00000E+00         0.16424E+05
 
    0.52612E+05         0.23016E+06         0.00000E+00
    0.23016E+06         0.29819E+05         0.00000E+00
    0.00000E+00         0.00000E+00         0.16486E+05
 
    0.52727E+05         0.27109E+06         0.00000E+00
    0.27109E+06         0.29990E+05         0.00000E+00
    0.00000E+00         0.00000E+00         0.16543E+05
 
    0.52787E+05         0.31174E+06         0.00000E+00
    0.31174E+06         0.30189E+05         0.00000E+00
    0.00000E+00         0.00000E+00         0.16595E+05
 
    0.52794E+05         0.35211E+06         0.00000E+00
    0.35211E+06         0.30415E+05         0.00000E+00
    0.00000E+00         0.00000E+00         0.16642E+05
 
    0.52747E+05         0.39220E+06         0.00000E+00
    0.39220E+06         0.30669E+05         0.00000E+00
    0.00000E+00         0.00000E+00         0.16683E+05
 
    0.52647E+05         0.43200E+06         0.00000E+00
    0.43200E+06         0.30949E+05         0.00000E+00
    0.00000E+00         0.00000E+00         0.16719E+05
 
    0.52494E+05         0.47150E+06         0.00000E+00
    0.47150E+06         0.31256E+05         0.00000E+00
    0.00000E+00         0.00000E+00         0.16750E+05
 
    0.52289E+05         0.51072E+06         0.00000E+00
    0.51072E+06         0.31588E+05         0.00000E+00
    0.00000E+00         0.00000E+00         0.16775E+05
 
    0.52032E+05         0.54963E+06         0.00000E+00
    0.54963E+06         0.31945E+05         0.00000E+00
    0.00000E+00         0.00000E+00         0.16795E+05
 
    0.51723E+05         0.58825E+06         0.00000E+00
    0.58825E+06         0.32327E+05         0.00000E+00
    0.00000E+00         0.00000E+00         0.16810E+05
 
    0.51364E+05         0.62657E+06         0.00000E+00
    0.62657E+06         0.32734E+05         0.00000E+00
    0.00000E+00         0.00000E+00         0.16820E+05
 
    0.50954E+05         0.66458E+06         0.00000E+00
    0.66458E+06         0.33163E+05         0.00000E+00
    0.00000E+00         0.00000E+00         0.16823E+05
 
    0.50494E+05         0.70229E+06         0.00000E+00
    0.70229E+06         0.33616E+05         0.00000E+00
    0.00000E+00         0.00000E+00         0.16822E+05
 
    0.49985E+05         0.73968E+06         0.00000E+00
    0.73968E+06         0.34091E+05         0.00000E+00
    0.00000E+00         0.00000E+00         0.16815E+05
 
    0.49427E+05         0.77677E+06         0.00000E+00
    0.77677E+06         0.34588E+05         0.00000E+00
    0.00000E+00         0.00000E+00         0.16803E+05
 
    0.48822E+05         0.81354E+06         0.00000E+00
    0.81354E+06         0.35105E+05         0.00000E+00
    0.00000E+00         0.00000E+00         0.16785E+05
 
    0.48170E+05         0.84999E+06         0.00000E+00
    0.84999E+06         0.35642E+05         0.00000E+00
    0.00000E+00         0.00000E+00         0.16762E+05
 
    0.47471E+05         0.88613E+06         0.00000E+00
    0.88613E+06         0.36199E+05         0.00000E+00
    0.00000E+00         0.00000E+00         0.16734E+05
 
    0.46726E+05         0.92194E+06         0.00000E+00
    0.92194E+06         0.36774E+05         0.00000E+00
    0.00000E+00         0.00000E+00         0.16700E+05
 
    0.45937E+05         0.95742E+06         0.00000E+00
    0.95742E+06         0.37367E+05         0.00000E+00
    0.00000E+00         0.00000E+00         0.16661E+05
 
    0.45105E+05         0.99259E+06         0.00000E+00
    0.99259E+06         0.37977E+05         0.00000E+00
    0.00000E+00         0.00000E+00         0.16616E+05
 
    0.44229E+05         0.10274E+07         0.00000E+00
    0.10274E+07         0.38603E+05         0.00000E+00
    0.00000E+00         0.00000E+00         0.16566E+05
 
    0.43311E+05         0.10619E+07         0.00000E+00
    0.10619E+07         0.39244E+05         0.00000E+00
    0.00000E+00         0.00000E+00         0.16511E+05
 
    0.42352E+05         0.10961E+07         0.00000E+00
    0.10961E+07         0.39899E+05         0.00000E+00
    0.00000E+00         0.00000E+00         0.16450E+05
 
    0.41353E+05         0.11299E+07         0.00000E+00
    0.11299E+07         0.40567E+05         0.00000E+00
    0.00000E+00         0.00000E+00         0.16384E+05
 
    0.40315E+05         0.11634E+07         0.00000E+00
    0.11634E+07         0.41247E+05         0.00000E+00
    0.00000E+00         0.00000E+00         0.16313E+05
 
    0.39239E+05         0.11965E+07         0.00000E+00
    0.11965E+07         0.41939E+05         0.00000E+00
    0.00000E+00         0.00000E+00         0.16236E+05
 
    0.38126E+05         0.12293E+07         0.00000E+00
    0.12293E+07         0.42641E+05         0.00000E+00
    0.00000E+00         0.00000E+00         0.16153E+05
 
    0.36977E+05         0.12618E+07         0.00000E+00
    0.12618E+07         0.43353E+05         0.00000E+00
    0.00000E+00         0.00000E+00         0.16066E+05
 
    0.35793E+05         0.12939E+07         0.00000E+00
    0.12939E+07         0.44073E+05         0.00000E+00
    0.00000E+00         0.00000E+00         0.15973E+05
 
    0.34575E+05         0.13257E+07         0.00000E+00
    0.13257E+07         0.44800E+05         0.00000E+00
    0.00000E+00         0.00000E+00         0.15875E+05
 
    0.33325E+05         0.13571E+07         0.00000E+00
    0.13571E+07         0.45533E+05         0.00000E+00
    0.00000E+00         0.00000E+00         0.15772E+05
 
    0.32043E+05         0.13881E+07         0.00000E+00
    0.13881E+07         0.46271E+05         0.00000E+00
    0.00000E+00         0.00000E+00         0.15663E+05
 
    0.30731E+05         0.14188E+07         0.00000E+00
    0.14188E+07         0.47013E+05         0.00000E+00
    0.00000E+00         0.00000E+00         0.15549E+05
 
    0.29390E+05         0.14491E+07         0.00000E+00
    0.14491E+07         0.47759E+05         0.00000E+00
    0.00000E+00         0.00000E+00         0.15430E+05
 
    0.28022E+05         0.14791E+07         0.00000E+00
    0.14791E+07         0.48506E+05         0.00000E+00
    0.00000E+00         0.00000E+00         0.15306E+05
 
    0.26626E+05         0.15087E+07         0.00000E+00
    0.15087E+07         0.49254E+05         0.00000E+00
    0.00000E+00         0.00000E+00         0.15176E+05
 
    0.25205E+05         0.15379E+07         0.00000E+00
    0.15379E+07         0.50001E+05         0.00000E+00
    0.00000E+00         0.00000E+00         0.15041E+05
 
    0.23760E+05         0.15667E+07         0.00000E+00
    0.15667E+07         0.50747E+05         0.00000E+00
    0.00000E+00         0.00000E+00         0.14901E+05
 
    0.22292E+05         0.15952E+07         0.00000E+00
    0.15952E+07         0.51491E+05         0.00000E+00
    0.00000E+00         0.00000E+00         0.14757E+05
 
    0.20803E+05         0.16233E+07         0.00000E+00
    0.16233E+07         0.52230E+05         0.00000E+00
    0.00000E+00         0.00000E+00         0.14607E+05
 
    0.19293E+05         0.16510E+07         0.00000E+00
    0.16510E+07         0.52965E+05         0.00000E+00
    0.00000E+00         0.00000E+00         0.14452E+05
 
    0.17764E+05         0.16784E+07         0.00000E+00
    0.16784E+07         0.53693E+05         0.00000E+00
    0.00000E+00         0.00000E+00         0.14291E+05
 
    0.16218E+05         0.17053E+07         0.00000E+00
    0.17053E+07         0.54414E+05         0.00000E+00
    0.00000E+00         0.00000E+00         0.14126E+05
 
    0.14655E+05         0.17319E+07         0.00000E+00
    0.17319E+07         0.55126E+05         0.00000E+00
    0.00000E+00         0.00000E+00         0.13956E+05
 
    0.96005E+05         0.21525E+05         0.00000E+00
    0.21525E+05        -0.13826E+06         0.00000E+00
    0.00000E+00         0.00000E+00        -0.84510E+04
 
    0.95088E+05         0.63968E+05         0.00000E+00
    0.63968E+05        -0.13821E+06         0.00000E+00
    0.00000E+00         0.00000E+00        -0.86245E+04
 
    0.94101E+05         0.10615E+06         0.00000E+00
    0.10615E+06        -0.13811E+06         0.00000E+00
    0.00000E+00         0.00000E+00        -0.88025E+04
 
    0.93043E+05         0.14806E+06         0.00000E+00
    0.14806E+06        -0.13797E+06         0.00000E+00
    0.00000E+00         0.00000E+00        -0.89849E+04
 
    0.91915E+05         0.18971E+06         0.00000E+00
    0.18971E+06        -0.13777E+06         0.00000E+00
    0.00000E+00         0.00000E+00        -0.91719E+04
 
    0.90717E+05         0.23108E+06         0.00000E+00
    0.23108E+06        -0.13753E+06         0.00000E+00
    0.00000E+00         0.00000E+00        -0.93634E+04
 
    0.89450E+05         0.27217E+06         0.00000E+00
    0.27217E+06        -0.13725E+06         0.00000E+00
    0.00000E+00         0.00000E+00        -0.95594E+04
 
    0.88114E+05         0.31299E+06         0.00000E+00
    0.31299E+06        -0.13691E+06         0.00000E+00
    0.00000E+00         0.00000E+00        -0.97599E+04
 
    0.86710E+05         0.35352E+06         0.00000E+00
    0.35352E+06        -0.13654E+06         0.00000E+00
    0.00000E+00         0.00000E+00        -0.99650E+04
 
    0.85238E+05         0.39376E+06         0.00000E+00
    0.39376E+06        -0.13611E+06         0.00000E+00
    0.00000E+00         0.00000E+00        -0.10175E+05
 
    0.83699E+05         0.43372E+06         0.00000E+00
    0.43372E+06        -0.13564E+06         0.00000E+00
    0.00000E+00         0.00000E+00        -0.10389E+05
 
    0.82093E+05         0.47338E+06         0.00000E+00
    0.47338E+06        -0.13513E+06         0.00000E+00
    0.00000E+00         0.00000E+00        -0.10607E+05
 
    0.80421E+05         0.51275E+06         0.00000E+00
    0.51275E+06        -0.13457E+06         0.00000E+00
    0.00000E+00         0.00000E+00        -0.10831E+05
 
    0.78683E+05         0.55182E+06         0.00000E+00
    0.55182E+06        -0.13398E+06         0.00000E+00
    0.00000E+00         0.00000E+00        -0.11059E+05
 
    0.76880E+05         0.59059E+06         0.00000E+00
    0.59059E+06        -0.13334E+06         0.00000E+00
    0.00000E+00         0.00000E+00        -0.11291E+05
 
    0.75013E+05         0.62906E+06         0.00000E+00
    0.62906E+06        -0.13265E+06         0.00000E+00
    0.00000E+00         0.00000E+00        -0.11528E+05
 
    0.73083E+05         0.66722E+06         0.00000E+00
    0.66722E+06        -0.13193E+06         0.00000E+00
    0.00000E+00         0.00000E+00        -0.11770E+05
 
    0.71090E+05         0.70507E+06         0.00000E+00
    0.70507E+06        -0.13117E+06         0.00000E+00
    0.00000E+00         0.00000E+00        -0.12016E+05
 
    0.69034E+05         0.74261E+06         0.00000E+00
    0.74261E+06        -0.13037E+06         0.00000E+00
    0.00000E+00         0.00000E+00        -0.12267E+05
 
    0.66918E+05         0.77983E+06         0.00000E+00
    0.77983E+06        -0.12953E+06         0.00000E+00
    0.00000E+00         0.00000E+00        -0.12522E+05
 
    0.64740E+05         0.81674E+06         0.00000E+00
    0.81674E+06        -0.12865E+06         0.00000E+00
    0.00000E+00         0.00000E+00        -0.12782E+05
 
    0.62503E+05         0.85332E+06         0.00000E+00
    0.85332E+06        -0.12774E+06         0.00000E+00
    0.00000E+00         0.00000E+00        -0.13047E+05
 
    0.60207E+05         0.88959E+06         0.00000E+00
    0.88959E+06        -0.12679E+06         0.00000E+00
    0.00000E+00         0.00000E+00        -0.13316E+05
 
    0.57852E+05         0.92553E+06         0.00000E+00
    0.92553E+06        -0.12580E+06         0.00000E+00
    0.00000E+00         0.00000E+00        -0.13590E+05
 
    0.55441E+05         0.96114E+06         0.00000E+00
    0.96114E+06        -0.12478E+06         0.00000E+00
    0.00000E+00         0.00000E+00        -0.13868E+05
 
    0.52972E+05         0.99642E+06         0.00000E+00
    0.99642E+06        -0.12373E+06         0.00000E+00
    0.00000E+00         0.00000E+00        -0.14151E+05
 
    0.50448E+05         0.10314E+07         0.00000E+00
    0.10314E+07        -0.12264E+06         0.00000E+00
    0.00000E+00         0.00000E+00        -0.14439E+05
 
    0.47870E+05         0.10660E+07         0.00000E+00
    0.10660E+07        -0.12152E+06         0.00000E+00
    0.00000E+00         0.00000E+00        -0.14731E+05
 
    0.45237E+05         0.11003E+07         0.00000E+00
    0.11003E+07        -0.12038E+06         0.00000E+00
    0.00000E+00         0.00000E+00        -0.15028E+05
 
    0.42552E+05         0.11342E+07         0.00000E+00
    0.11342E+07        -0.11920E+06         0.00000E+00
    0.00000E+00         0.00000E+00        -0.15329E+05
 
    0.39815E+05         0.11678E+07         0.00000E+00
    0.11678E+07        -0.11799E+06         0.00000E+00
    0.00000E+00         0.00000E+00        -0.15635E+05
 
    0.37026E+05         0.12010E+07         0.00000E+00
    0.12010E+07        -0.11675E+06         0.00000E+00
    0.00000E+00         0.00000E+00        -0.15945E+05
 
    0.34188E+05         0.12340E+07         0.00000E+00
    0.12340E+07        -0.11549E+06         0.00000E+00
    0.00000E+00         0.00000E+00        -0.16260E+05
 
    0.31300E+05         0.12665E+07         0.00000E+00
    0.12665E+07        -0.11420E+06         0.00000E+00
    0.00000E+00         0.00000E+00        -0.16580E+05
 
    0.28365E+05         0.12987E+07         0.00000E+00
    0.12987E+07        -0.11289E+06         0.00000E+00
    0.00000E+00         0.00000E+00        -0.16904E+05
 
    0.25382E+05         0.13305E+07         0.00000E+00
    0.13305E+07        -0.11155E+06         0.00000E+00
    0.00000E+00         0.00000E+00        -0.17233E+05
 
    0.22354E+05         0.13620E+07         0.00000E+00
    0.13620E+07        -0.11018E+06         0.00000E+00
    0.00000E+00         0.00000E+00        -0.17566E+05
 
    0.19280E+05         0.13932E+07         0.00000E+00
    0.13932E+07        -0.10880E+06         0.00000E+00
    0.00000E+00         0.00000E+00        -0.17904E+05
 
    0.16162E+05         0.14239E+07         0.00000E+00
    0.14239E+07        -0.10739E+06         0.00000E+00
    0.00000E+00         0.00000E+00        -0.18246E+05
 
    0.13002E+05         0.14543E+07         0.00000E+00
    0.14543E+07        -0.10596E+06         0.00000E+00
    0.00000E+00         0.00000E+00        -0.18593E+05
 
    0.97991E+04         0.14843E+07         0.00000E+00
    0.14843E+07        -0.10452E+06         0.00000E+00
    0.00000E+00         0.00000E+00        -0.18944E+05
 
    0.65558E+04         0.15140E+07         0.00000E+00
    0.15140E+07        -0.10305E+06         0.00000E+00
    0.00000E+00         0.00000E+00        -0.19300E+05
 
    0.32727E+04         0.15433E+07         0.00000E+00
    0.15433E+07        -0.10157E+06         0.00000E+00
    0.00000E+00         0.00000E+00        -0.19660E+05
 
   -0.48958E+02         0.15722E+07         0.00000E+00
    0.15722E+07        -0.10007E+06         0.00000E+00
    0.00000E+00         0.00000E+00        -0.20024E+05
 
   -0.34082E+04         0.16007E+07         0.00000E+00
    0.16007E+07        -0.98559E+05         0.00000E+00
    0.00000E+00         0.00000E+00        -0.20393E+05
 
   -0.68038E+04         0.16289E+07         0.00000E+00
    0.16289E+07        -0.97031E+05         0.00000E+00
    0.00000E+00         0.00000E+00        -0.20767E+05
 
   -0.10235E+05         0.16566E+07         0.00000E+00
    0.16566E+07        -0.95489E+05         0.00000E+00
    0.00000E+00         0.00000E+00        -0.21145E+05
 
   -0.13700E+05         0.16840E+07         0.00000E+00
    0.16840E+07        -0.93935E+05         0.00000E+00
    0.00000E+00         0.00000E+00        -0.21527E+05
 
   -0.17198E+05         0.17110E+07         0.00000E+00
    0.17110E+07        -0.92371E+05         0.00000E+00
    0.00000E+00         0.00000E+00        -0.21914E+05
 
   -0.20728E+05         0.17376E+07         0.00000E+00
    0.17376E+07        -0.90796E+05         0.00000E+00
    0.00000E+00         0.00000E+00        -0.22305E+05
 
    0.14142E+06         0.21657E+05         0.00000E+00
    0.21657E+05        -0.30635E+06         0.00000E+00
    0.00000E+00         0.00000E+00        -0.32985E+05
 
    0.13920E+06         0.64361E+05         0.00000E+00
    0.64361E+05        -0.30628E+06         0.00000E+00
    0.00000E+00         0.00000E+00        -0.33416E+05
 
    0.13688E+06         0.10680E+06         0.00000E+00
    0.10680E+06        -0.30614E+06         0.00000E+00
    0.00000E+00         0.00000E+00        -0.33851E+05
 
    0.13449E+06         0.14897E+06         0.00000E+00
    0.14897E+06        -0.30593E+06         0.00000E+00
    0.00000E+00         0.00000E+00        -0.34289E+05
 
    0.13200E+06         0.19087E+06         0.00000E+00
    0.19087E+06        -0.30566E+06         0.00000E+00
    0.00000E+00         0.00000E+00        -0.34732E+05
 
    0.12943E+06         0.23250E+06         0.00000E+00
    0.23250E+06        -0.30532E+06         0.00000E+00
    0.00000E+00         0.00000E+00        -0.35178E+05
 
    0.12677E+06         0.27385E+06         0.00000E+00
    0.27385E+06        -0.30492E+06         0.00000E+00
    0.00000E+00         0.00000E+00        -0.35628E+05
 
    0.12403E+06         0.31491E+06         0.00000E+00
    0.31491E+06        -0.30445E+06         0.00000E+00
    0.00000E+00         0.00000E+00        -0.36082E+05
 
    0.12121E+06         0.35569E+06         0.00000E+00
    0.35569E+06        -0.30391E+06         0.00000E+00
    0.00000E+00         0.00000E+00        -0.36540E+05
 
    0.11831E+06         0.39618E+06         0.00000E+00
    0.39618E+06        -0.30331E+06         0.00000E+00
    0.00000E+00         0.00000E+00        -0.37002E+05
 
    0.11532E+06         0.43638E+06         0.00000E+00
    0.43638E+06        -0.30266E+06         0.00000E+00
    0.00000E+00         0.00000E+00        -0.37468E+05
 
    0.11225E+06         0.47629E+06         0.00000E+00
    0.47629E+06        -0.30193E+06         0.00000E+00
    0.00000E+00         0.00000E+00        -0.37937E+05
 
    0.10910E+06         0.51590E+06         0.00000E+00
    0.51590E+06        -0.30115E+06         0.00000E+00
    0.00000E+00         0.00000E+00        -0.38410E+05
 
    0.10587E+06         0.55521E+06         0.00000E+00
    0.55521E+06        -0.30031E+06         0.00000E+00
    0.00000E+00         0.00000E+00        -0.38887E+05
 
    0.10256E+06         0.59421E+06         0.00000E+00
    0.59421E+06        -0.29940E+06         0.00000E+00
    0.00000E+00         0.00000E+00        -0.39368E+05
 
    0.99179E+05         0.63291E+06         0.00000E+00
    0.63291E+06        -0.29844E+06         0.00000E+00
    0.00000E+00         0.00000E+00        -0.39853E+05
 
    0.95717E+05         0.67130E+06         0.00000E+00
    0.67130E+06        -0.29742E+06         0.00000E+00
    0.00000E+00         0.00000E+00        -0.40341E+05
 
    0.92179E+05         0.70938E+06         0.00000E+00
    0.70938E+06        -0.29635E+06         0.00000E+00
    0.00000E+00         0.00000E+00        -0.40834E+05
 
    0.88565E+05         0.74715E+06         0.00000E+00
    0.74715E+06        -0.29522E+06         0.00000E+00
    0.00000E+00         0.00000E+00        -0.41330E+05
 
    0.84876E+05         0.78459E+06         0.00000E+00
    0.78459E+06        -0.29403E+06         0.00000E+00
    0.00000E+00         0.00000E+00        -0.41830E+05
 
    0.81114E+05         0.82172E+06         0.00000E+00
    0.82172E+06        -0.29278E+06         0.00000E+00
    0.00000E+00         0.00000E+00        -0.42334E+05
 
    0.77279E+05         0.85853E+06         0.00000E+00
    0.85853E+06        -0.29149E+06         0.00000E+00
    0.00000E+00         0.00000E+00        -0.42842E+05
 
    0.73372E+05         0.89501E+06         0.00000E+00
    0.89501E+06        -0.29014E+06         0.00000E+00
    0.00000E+00         0.00000E+00        -0.43353E+05
 
    0.69394E+05         0.93116E+06         0.00000E+00
    0.93116E+06        -0.28874E+06         0.00000E+00
    0.00000E+00         0.00000E+00        -0.43869E+05
 
    0.65345E+05         0.96698E+06         0.00000E+00
    0.96698E+06        -0.28728E+06         0.00000E+00
    0.00000E+00         0.00000E+00        -0.44388E+05
 
    0.61227E+05         0.10025E+07         0.00000E+00
    0.10025E+07        -0.28578E+06         0.00000E+00
    0.00000E+00         0.00000E+00        -0.44911E+05
 
    0.57041E+05         0.10376E+07         0.00000E+00
    0.10376E+07        -0.28423E+06         0.00000E+00
    0.00000E+00         0.00000E+00        -0.45437E+05
 
    0.52786E+05         0.10724E+07         0.00000E+00
    0.10724E+07        -0.28263E+06         0.00000E+00
    0.00000E+00         0.00000E+00        -0.45968E+05
 
    0.48465E+05         0.11069E+07         0.00000E+00
    0.11069E+07        -0.28098E+06         0.00000E+00
    0.00000E+00         0.00000E+00        -0.46502E+05
 
    0.44078E+05         0.11411E+07         0.00000E+00
    0.11411E+07        -0.27928E+06         0.00000E+00
    0.00000E+00         0.00000E+00        -0.47041E+05
 
    0.39625E+05         0.11748E+07         0.00000E+00
    0.11748E+07        -0.27754E+06         0.00000E+00
    0.00000E+00         0.00000E+00        -0.47583E+05
 
    0.35109E+05         0.12083E+07         0.00000E+00
    0.12083E+07        -0.27575E+06         0.00000E+00
    0.00000E+00         0.00000E+00        -0.48128E+05
 
    0.30529E+05         0.12414E+07         0.00000E+00
    0.12414E+07        -0.27392E+06         0.00000E+00
    0.00000E+00         0.00000E+00        -0.48678E+05
 
    0.25886E+05         0.12741E+07         0.00000E+00
    0.12741E+07        -0.27204E+06         0.00000E+00
    0.00000E+00         0.00000E+00        -0.49232E+05
 
    0.21182E+05         0.13065E+07         0.00000E+00
    0.13065E+07        -0.27013E+06         0.00000E+00
    0.00000E+00         0.00000E+00        -0.49789E+05
 
    0.16418E+05         0.13385E+07         0.00000E+00
    0.13385E+07        -0.26817E+06         0.00000E+00
    0.00000E+00         0.00000E+00        -0.50350E+05
 
    0.11594E+05         0.13702E+07         0.00000E+00
    0.13702E+07        -0.26617E+06         0.00000E+00
    0.00000E+00         0.00000E+00        -0.50915E+05
 
    0.67104E+04         0.14015E+07         0.00000E+00
    0.14015E+07        -0.26413E+06         0.00000E+00
    0.00000E+00         0.00000E+00        -0.51483E+05
 
    0.17694E+04         0.14324E+07         0.00000E+00
    0.14324E+07        -0.26205E+06         0.00000E+00
    0.00000E+00         0.00000E+00        -0.52056E+05
 
   -0.32286E+04         0.14629E+07         0.00000E+00
    0.14629E+07        -0.25993E+06         0.00000E+00
    0.00000E+00         0.00000E+00        -0.52632E+05
 
   -0.82827E+04         0.14931E+07         0.00000E+00
    0.14931E+07        -0.25778E+06         0.00000E+00
    0.00000E+00         0.00000E+00        -0.53212E+05
 
   -0.13392E+05         0.15230E+07         0.00000E+00
    0.15230E+07        -0.25559E+06         0.00000E+00
    0.00000E+00         0.00000E+00        -0.53796E+05
 
   -0.18556E+05         0.15524E+07         0.00000E+00
    0.15524E+07        -0.25336E+06         0.00000E+00
    0.00000E+00         0.00000E+00        -0.54384E+05
 
   -0.23772E+05         0.15814E+07         0.00000E+00
    0.15814E+07        -0.25110E+06         0.00000E+00
    0.00000E+00         0.00000E+00        -0.54975E+05
 
   -0.29042E+05         0.16101E+07         0.00000E+00
    0.16101E+07        -0.24881E+06         0.00000E+00
    0.00000E+00         0.00000E+00        -0.55570E+05
 
   -0.34362E+05         0.16384E+07         0.00000E+00
    0.16384E+07        -0.24648E+06         0.00000E+00
    0.00000E+00         0.00000E+00        -0.56169E+05
 
   -0.39734E+05         0.16663E+07         0.00000E+00
    0.16663E+07        -0.24413E+06         0.00000E+00
    0.00000E+00         0.00000E+00        -0.56772E+05
 
   -0.45154E+05         0.16938E+07         0.00000E+00
    0.16938E+07        -0.24174E+06         0.00000E+00
    0.00000E+00         0.00000E+00        -0.57379E+05
 
   -0.50624E+05         0.17209E+07         0.00000E+00
    0.17209E+07        -0.23932E+06         0.00000E+00
    0.00000E+00         0.00000E+00        -0.57989E+05
 
   -0.56141E+05         0.17476E+07         0.00000E+00
    0.17476E+07        -0.23688E+06         0.00000E+00
    0.00000E+00         0.00000E+00        -0.58604E+05
 
    0.18727E+06         0.21837E+05         0.00000E+00
    0.21837E+05        -0.47554E+06         0.00000E+00
    0.00000E+00         0.00000E+00        -0.57652E+05
 
    0.18373E+06         0.64896E+05         0.00000E+00
    0.64896E+05        -0.47545E+06         0.00000E+00
    0.00000E+00         0.00000E+00        -0.58343E+05
 
    0.18009E+06         0.10769E+06         0.00000E+00
    0.10769E+06        -0.47527E+06         0.00000E+00
    0.00000E+00         0.00000E+00        -0.59036E+05
 
    0.17634E+06         0.15021E+06         0.00000E+00
    0.15021E+06        -0.47500E+06         0.00000E+00
    0.00000E+00         0.00000E+00        -0.59733E+05
 
    0.17248E+06         0.19246E+06         0.00000E+00
    0.19246E+06        -0.47465E+06         0.00000E+00
    0.00000E+00         0.00000E+00        -0.60433E+05
 
    0.16853E+06         0.23443E+06         0.00000E+00
    0.23443E+06        -0.47421E+06         0.00000E+00
    0.00000E+00         0.00000E+00        -0.61136E+05
 
    0.16448E+06         0.27612E+06         0.00000E+00
    0.27612E+06        -0.47368E+06         0.00000E+00
    0.00000E+00         0.00000E+00        -0.61842E+05
 
    0.16032E+06         0.31752E+06         0.00000E+00
    0.31752E+06        -0.47308E+06         0.00000E+00
    0.00000E+00         0.00000E+00        -0.62551E+05
 
    0.15607E+06         0.35864E+06         0.00000E+00
    0.35864E+06        -0.47239E+06         0.00000E+00
    0.00000E+00         0.00000E+00        -0.63264E+05
 
    0.15172E+06         0.39947E+06         0.00000E+00
    0.39947E+06        -0.47161E+06         0.00000E+00
    0.00000E+00         0.00000E+00        -0.63980E+05
 
    0.14727E+06         0.44000E+06         0.00000E+00
    0.44000E+06        -0.47076E+06         0.00000E+00
    0.00000E+00         0.00000E+00        -0.64698E+05
 
    0.14273E+06         0.48024E+06         0.00000E+00
    0.48024E+06        -0.46983E+06         0.00000E+00
    0.00000E+00         0.00000E+00        -0.65420E+05
 
    0.13809E+06         0.52017E+06         0.00000E+00
    0.52017E+06        -0.46882E+06         0.00000E+00
    0.00000E+00         0.00000E+00        -0.66146E+05
 
    0.13336E+06         0.55981E+06         0.00000E+00
    0.55981E+06        -0.46773E+06         0.00000E+00
    0.00000E+00         0.00000E+00        -0.66874E+05
 
    0.12853E+06         0.59913E+06         0.00000E+00
    0.59913E+06        -0.46656E+06         0.00000E+00
    0.00000E+00         0.00000E+00        -0.67605E+05
 
    0.12362E+06         0.63815E+06         0.00000E+00
    0.63815E+06        -0.46531E+06         0.00000E+00
    0.00000E+00         0.00000E+00        -0.68339E+05
 
    0.11861E+06         0.67686E+06         0.00000E+00
    0.67686E+06        -0.46400E+06         0.00000E+00
    0.00000E+00         0.00000E+00        -0.69077E+05
 
    0.11352E+06         0.71525E+06         0.00000E+00
    0.71525E+06        -0.46260E+06         0.00000E+00
    0.00000E+00         0.00000E+00        -0.69817E+05
 
    0.10833E+06         0.75333E+06         0.00000E+00
    0.75333E+06        -0.46113E+06         0.00000E+00
    0.00000E+00         0.00000E+00        -0.70561E+05
 
    0.10306E+06         0.79108E+06         0.00000E+00
    0.79108E+06        -0.45959E+06         0.00000E+00
    0.00000E+00         0.00000E+00        -0.71307E+05
 
    0.97698E+05         0.82852E+06         0.00000E+00
    0.82852E+06        -0.45798E+06         0.00000E+00
    0.00000E+00         0.00000E+00        -0.72057E+05
 
    0.92252E+05         0.86563E+06         0.00000E+00
    0.86563E+06        -0.45630E+06         0.00000E+00
    0.00000E+00         0.00000E+00        -0.72810E+05
 
    0.86721E+05         0.90241E+06         0.00000E+00
    0.90241E+06        -0.45455E+06         0.00000E+00
    0.00000E+00         0.00000E+00        -0.73565E+05
 
    0.81105E+05         0.93886E+06         0.00000E+00
    0.93886E+06        -0.45273E+06         0.00000E+00
    0.00000E+00         0.00000E+00        -0.74324E+05
 
    0.75406E+05         0.97498E+06         0.00000E+00
    0.97498E+06        -0.45084E+06         0.00000E+00
    0.00000E+00         0.00000E+00        -0.75086E+05
 
    0.69625E+05         0.10108E+07         0.00000E+00
    0.10108E+07        -0.44888E+06         0.00000E+00
    0.00000E+00         0.00000E+00        -0.75851E+05
 
    0.63762E+05         0.10462E+07         0.00000E+00
    0.10462E+07        -0.44686E+06         0.00000E+00
    0.00000E+00         0.00000E+00        -0.76619E+05
 
    0.57818E+05         0.10813E+07         0.00000E+00
    0.10813E+07        -0.44477E+06         0.00000E+00
    0.00000E+00         0.00000E+00        -0.77390E+05
 
    0.51793E+05         0.11161E+07         0.00000E+00
    0.11161E+07        -0.44261E+06         0.00000E+00
    0.00000E+00         0.00000E+00        -0.78164E+05
 
    0.45690E+05         0.11505E+07         0.00000E+00
    0.11505E+07        -0.44039E+06         0.00000E+00
    0.00000E+00         0.00000E+00        -0.78941E+05
 
    0.39508E+05         0.11846E+07         0.00000E+00
    0.11846E+07        -0.43811E+06         0.00000E+00
    0.00000E+00         0.00000E+00        -0.79721E+05
 
    0.33249E+05         0.12183E+07         0.00000E+00
    0.12183E+07        -0.43577E+06         0.00000E+00
    0.00000E+00         0.00000E+00        -0.80504E+05
 
    0.26913E+05         0.12516E+07         0.00000E+00
    0.12516E+07        -0.43336E+06         0.00000E+00
    0.00000E+00         0.00000E+00        -0.81290E+05
 
    0.20501E+05         0.12846E+07         0.00000E+00
    0.12846E+07        -0.43090E+06         0.00000E+00
    0.00000E+00         0.00000E+00        -0.82079E+05
 
    0.14014E+05         0.13173E+07         0.00000E+00
    0.13173E+07        -0.42837E+06         0.00000E+00
    0.00000E+00         0.00000E+00        -0.82871E+05
 
    0.74532E+04         0.13496E+07         0.00000E+00
    0.13496E+07        -0.42579E+06         0.00000E+00
    0.00000E+00         0.00000E+00        -0.83667E+05
 
    0.81847E+03         0.13815E+07         0.00000E+00
    0.13815E+07        -0.42314E+06         0.00000E+00
    0.00000E+00         0.00000E+00        -0.84465E+05
 
   -0.58890E+04         0.14131E+07         0.00000E+00
    0.14131E+07        -0.42044E+06         0.00000E+00
    0.00000E+00         0.00000E+00        -0.85267E+05
 
   -0.12668E+05         0.14442E+07         0.00000E+00
    0.14442E+07        -0.41769E+06         0.00000E+00
    0.00000E+00         0.00000E+00        -0.86071E+05
 
   -0.19519E+05         0.14751E+07         0.00000E+00
    0.14751E+07        -0.41487E+06         0.00000E+00
    0.00000E+00         0.00000E+00        -0.86879E+05
 
   -0.26440E+05         0.15055E+07         0.00000E+00
    0.15055E+07        -0.41201E+06         0.00000E+00
    0.00000E+00         0.00000E+00        -0.87690E+05
 
   -0.33431E+05         0.15356E+07         0.00000E+00
    0.15356E+07        -0.40909E+06         0.00000E+00
    0.00000E+00         0.00000E+00        -0.88503E+05
 
   -0.40490E+05         0.15652E+07         0.00000E+00
    0.15652E+07        -0.40611E+06         0.00000E+00
    0.00000E+00         0.00000E+00        -0.89320E+05
 
   -0.47618E+05         0.15945E+07         0.00000E+00
    0.15945E+07        -0.40308E+06         0.00000E+00
    0.00000E+00         0.00000E+00        -0.90141E+05
 
   -0.54813E+05         0.16235E+07         0.00000E+00
    0.16235E+07        -0.40001E+06         0.00000E+00
    0.00000E+00         0.00000E+00        -0.90964E+05
 
   -0.62075E+05         0.16520E+07         0.00000E+00
    0.16520E+07        -0.39688E+06         0.00000E+00
    0.00000E+00         0.00000E+00        -0.91790E+05
 
   -0.69402E+05         0.16801E+07         0.00000E+00
    0.16801E+07        -0.39370E+06         0.00000E+00
    0.00000E+00         0.00000E+00        -0.92620E+05
 
   -0.76795E+05         0.17078E+07         0.00000E+00
    0.17078E+07        -0.39047E+06         0.00000E+00
    0.00000E+00         0.00000E+00        -0.93453E+05
 
   -0.84252E+05         0.17352E+07         0.00000E+00
    0.17352E+07        -0.38719E+06         0.00000E+00
    0.00000E+00         0.00000E+00        -0.94289E+05
 
   -0.91772E+05         0.17621E+07         0.00000E+00
    0.17621E+07        -0.38387E+06         0.00000E+00
    0.00000E+00         0.00000E+00        -0.95128E+05
 
    0.23337E+06         0.22066E+05         0.00000E+00
    0.22066E+05        -0.64650E+06         0.00000E+00
    0.00000E+00         0.00000E+00        -0.82626E+05
 
    0.22850E+06         0.65575E+05         0.00000E+00
    0.65575E+05        -0.64639E+06         0.00000E+00
    0.00000E+00         0.00000E+00        -0.83579E+05
 
    0.22350E+06         0.10881E+06         0.00000E+00
    0.10881E+06        -0.64617E+06         0.00000E+00
    0.00000E+00         0.00000E+00        -0.84534E+05
 
    0.21839E+06         0.15178E+06         0.00000E+00
    0.15178E+06        -0.64584E+06         0.00000E+00
    0.00000E+00         0.00000E+00        -0.85491E+05
 
    0.21315E+06         0.19447E+06         0.00000E+00
    0.19447E+06        -0.64541E+06         0.00000E+00
    0.00000E+00         0.00000E+00        -0.86451E+05
 
    0.20780E+06         0.23687E+06         0.00000E+00
    0.23687E+06        -0.64487E+06         0.00000E+00
    0.00000E+00         0.00000E+00        -0.87414E+05
 
    0.20233E+06         0.27899E+06         0.00000E+00
    0.27899E+06        -0.64423E+06         0.00000E+00
    0.00000E+00         0.00000E+00        -0.88379E+05
 
    0.19675E+06         0.32083E+06         0.00000E+00
    0.32083E+06        -0.64348E+06         0.00000E+00
    0.00000E+00         0.00000E+00        -0.89347E+05
 
    0.19105E+06         0.36237E+06         0.00000E+00
    0.36237E+06        -0.64263E+06         0.00000E+00
    0.00000E+00         0.00000E+00        -0.90317E+05
 
    0.18524E+06         0.40362E+06         0.00000E+00
    0.40362E+06        -0.64169E+06         0.00000E+00
    0.00000E+00         0.00000E+00        -0.91289E+05
 
    0.17932E+06         0.44458E+06         0.00000E+00
    0.44458E+06        -0.64064E+06         0.00000E+00
    0.00000E+00         0.00000E+00        -0.92264E+05
 
    0.17329E+06         0.48523E+06         0.00000E+00
    0.48523E+06        -0.63949E+06         0.00000E+00
    0.00000E+00         0.00000E+00        -0.93241E+05
 
    0.16715E+06         0.52558E+06         0.00000E+00
    0.52558E+06        -0.63825E+06         0.00000E+00
    0.00000E+00         0.00000E+00        -0.94221E+05
 
    0.16090E+06         0.56562E+06         0.00000E+00
    0.56562E+06        -0.63691E+06         0.00000E+00
    0.00000E+00         0.00000E+00        -0.95203E+05
 
    0.15455E+06         0.60536E+06         0.00000E+00
    0.60536E+06        -0.63548E+06         0.00000E+00
    0.00000E+00         0.00000E+00        -0.96187E+05
 
    0.14809E+06         0.64478E+06         0.00000E+00
    0.64478E+06        -0.63395E+06         0.00000E+00
    0.00000E+00         0.00000E+00        -0.97173E+05
 
    0.14152E+06         0.68389E+06         0.00000E+00
    0.68389E+06        -0.63233E+06         0.00000E+00
    0.00000E+00         0.00000E+00        -0.98162E+05
 
    0.13485E+06         0.72269E+06         0.00000E+00
    0.72269E+06        -0.63062E+06         0.00000E+00
    0.00000E+00         0.00000E+00        -0.99153E+05
 
    0.12808E+06         0.76116E+06         0.00000E+00
    0.76116E+06        -0.62882E+06         0.00000E+00
    0.00000E+00         0.00000E+00        -0.10015E+06
 
    0.12121E+06         0.79931E+06         0.00000E+00
    0.79931E+06        -0.62692E+06         0.00000E+00
    0.00000E+00         0.00000E+00        -0.10114E+06
 
    0.11424E+06         0.83714E+06         0.00000E+00
    0.83714E+06        -0.62494E+06         0.00000E+00
    0.00000E+00         0.00000E+00        -0.10214E+06
 
    0.10717E+06         0.87463E+06         0.00000E+00
    0.87463E+06        -0.62287E+06         0.00000E+00
    0.00000E+00         0.00000E+00        -0.10314E+06
 
    0.10000E+06         0.91180E+06         0.00000E+00
    0.91180E+06        -0.62072E+06         0.00000E+00
    0.00000E+00         0.00000E+00        -0.10414E+06
 
    0.92739E+05         0.94864E+06         0.00000E+00
    0.94864E+06        -0.61847E+06         0.00000E+00
    0.00000E+00         0.00000E+00        -0.10515E+06
 
    0.85377E+05         0.98514E+06         0.00000E+00
    0.98514E+06        -0.61614E+06         0.00000E+00
    0.00000E+00         0.00000E+00        -0.10615E+06
 
    0.77919E+05         0.10213E+07         0.00000E+00
    0.10213E+07        -0.61373E+06         0.00000E+00
    0.00000E+00         0.00000E+00        -0.10716E+06
 
    0.70366E+05         0.10571E+07         0.00000E+00
    0.10571E+07        -0.61123E+06         0.00000E+00
    0.00000E+00         0.00000E+00        -0.10817E+06
 
    0.62720E+05         0.10926E+07         0.00000E+00
    0.10926E+07        -0.60865E+06         0.00000E+00
    0.00000E+00         0.00000E+00        -0.10919E+06
 
    0.54980E+05         0.11277E+07         0.00000E+00
    0.11277E+07        -0.60599E+06         0.00000E+00
    0.00000E+00         0.00000E+00        -0.11020E+06
 
    0.47148E+05         0.11625E+07         0.00000E+00
    0.11625E+07        -0.60325E+06         0.00000E+00
    0.00000E+00         0.00000E+00        -0.11122E+06
 
    0.39224E+05         0.11970E+07         0.00000E+00
    0.11970E+07        -0.60043E+06         0.00000E+00
    0.00000E+00         0.00000E+00        -0.11224E+06
 
    0.31210E+05         0.12310E+07         0.00000E+00
    0.12310E+07        -0.59752E+06         0.00000E+00
    0.00000E+00         0.00000E+00        -0.11326E+06
 
    0.23105E+05         0.12648E+07         0.00000E+00
    0.12648E+07        -0.59454E+06         0.00000E+00
    0.00000E+00         0.00000E+00        -0.11429E+06
 
    0.14911E+05         0.12981E+07         0.00000E+00
    0.12981E+07        -0.59148E+06         0.00000E+00
    0.00000E+00         0.00000E+00        -0.11531E+06
 
    0.66287E+04         0.13311E+07         0.00000E+00
    0.13311E+07        -0.58835E+06         0.00000E+00
    0.00000E+00         0.00000E+00        -0.11634E+06
 
   -0.17418E+04         0.13638E+07         0.00000E+00
    0.13638E+07        -0.58513E+06         0.00000E+00
    0.00000E+00         0.00000E+00        -0.11737E+06
 
   -0.10200E+05         0.13961E+07         0.00000E+00
    0.13961E+07        -0.58184E+06         0.00000E+00
    0.00000E+00         0.00000E+00        -0.11841E+06
 
   -0.18744E+05         0.14280E+07         0.00000E+00
    0.14280E+07        -0.57848E+06         0.00000E+00
    0.00000E+00         0.00000E+00        -0.11944E+06
 
   -0.27375E+05         0.14595E+07         0.00000E+00
    0.14595E+07        -0.57504E+06         0.00000E+00
    0.00000E+00         0.00000E+00        -0.12048E+06
 
   -0.36090E+05         0.14907E+07         0.00000E+00
    0.14907E+07        -0.57153E+06         0.00000E+00
    0.00000E+00         0.00000E+00        -0.12152E+06
 
   -0.44891E+05         0.15214E+07         0.00000E+00
    0.15214E+07        -0.56795E+06         0.00000E+00
    0.00000E+00         0.00000E+00        -0.12257E+06
 
   -0.53776E+05         0.15518E+07         0.00000E+00
    0.15518E+07        -0.56429E+06         0.00000E+00
    0.00000E+00         0.00000E+00        -0.12361E+06
 
   -0.62744E+05         0.15819E+07         0.00000E+00
    0.15819E+07        -0.56056E+06         0.00000E+00
    0.00000E+00         0.00000E+00        -0.12466E+06
 
   -0.71795E+05         0.16115E+07         0.00000E+00
    0.16115E+07        -0.55676E+06         0.00000E+00
    0.00000E+00         0.00000E+00        -0.12571E+06
 
   -0.80929E+05         0.16408E+07         0.00000E+00
    0.16408E+07        -0.55289E+06         0.00000E+00
    0.00000E+00         0.00000E+00        -0.12676E+06
 
   -0.90144E+05         0.16696E+07         0.00000E+00
    0.16696E+07        -0.54896E+06         0.00000E+00
    0.00000E+00         0.00000E+00        -0.12782E+06
 
   -0.99441E+05         0.16981E+07         0.00000E+00
    0.16981E+07        -0.54495E+06         0.00000E+00
    0.00000E+00         0.00000E+00        -0.12888E+06
 
   -0.10882E+06         0.17261E+07         0.00000E+00
    0.17261E+07        -0.54087E+06         0.00000E+00
    0.00000E+00         0.00000E+00        -0.12994E+06
 
   -0.11828E+06         0.17538E+07         0.00000E+00
    0.17538E+07        -0.53673E+06         0.00000E+00
    0.00000E+00         0.00000E+00        -0.13100E+06
 
   -0.12781E+06         0.17811E+07         0.00000E+00
    0.17811E+07        -0.53252E+06         0.00000E+00
    0.00000E+00         0.00000E+00        -0.13207E+06
 
    0.27951E+06         0.22343E+05         0.00000E+00
    0.22343E+05        -0.81992E+06         0.00000E+00
    0.00000E+00         0.00000E+00        -0.10808E+06
 
    0.27328E+06         0.66397E+05         0.00000E+00
    0.66397E+05        -0.81979E+06         0.00000E+00
    0.00000E+00         0.00000E+00        -0.10930E+06
 
    0.26692E+06         0.11018E+06         0.00000E+00
    0.11018E+06        -0.81953E+06         0.00000E+00
    0.00000E+00         0.00000E+00        -0.11052E+06
 
    0.26042E+06         0.15368E+06         0.00000E+00
    0.15368E+06        -0.81914E+06         0.00000E+00
    0.00000E+00         0.00000E+00        -0.11174E+06
 
    0.25378E+06         0.19690E+06         0.00000E+00
    0.19690E+06        -0.81863E+06         0.00000E+00
    0.00000E+00         0.00000E+00        -0.11297E+06
 
    0.24701E+06         0.23983E+06         0.00000E+00
    0.23983E+06        -0.81799E+06         0.00000E+00
    0.00000E+00         0.00000E+00        -0.11419E+06
 
    0.24011E+06         0.28247E+06         0.00000E+00
    0.28247E+06        -0.81723E+06         0.00000E+00
    0.00000E+00         0.00000E+00        -0.11542E+06
 
    0.23308E+06         0.32483E+06         0.00000E+00
    0.32483E+06        -0.81634E+06         0.00000E+00
    0.00000E+00         0.00000E+00        -0.11665E+06
 
    0.22592E+06         0.36689E+06         0.00000E+00
    0.36689E+06        -0.81534E+06         0.00000E+00
    0.00000E+00         0.00000E+00        -0.11788E+06
 
    0.21864E+06         0.40865E+06         0.00000E+00
    0.40865E+06        -0.81422E+06         0.00000E+00
    0.00000E+00         0.00000E+00        -0.11912E+06
 
    0.21123E+06         0.45011E+06         0.00000E+00
    0.45011E+06        -0.81297E+06         0.00000E+00
    0.00000E+00         0.00000E+00        -0.12035E+06
 
    0.20369E+06         0.49127E+06         0.00000E+00
    0.49127E+06        -0.81162E+06         0.00000E+00
    0.00000E+00         0.00000E+00        -0.12159E+06
 
    0.19603E+06         0.53212E+06         0.00000E+00
    0.53212E+06        -0.81015E+06         0.00000E+00
    0.00000E+00         0.00000E+00        -0.12282E+06
 
    0.18825E+06         0.57266E+06         0.00000E+00
    0.57266E+06        -0.80856E+06         0.00000E+00
    0.00000E+00         0.00000E+00        -0.12406E+06
 
    0.18035E+06         0.61289E+06         0.00000E+00
    0.61289E+06        -0.80686E+06         0.00000E+00
    0.00000E+00         0.00000E+00        -0.12530E+06
 
    0.17233E+06         0.65281E+06         0.00000E+00
    0.65281E+06        -0.80505E+06         0.00000E+00
    0.00000E+00         0.00000E+00        -0.12654E+06
 
    0.16420E+06         0.69241E+06         0.00000E+00
    0.69241E+06        -0.80313E+06         0.00000E+00
    0.00000E+00         0.00000E+00        -0.12779E+06
 
    0.15594E+06         0.73169E+06         0.00000E+00
    0.73169E+06        -0.80110E+06         0.00000E+00
    0.00000E+00         0.00000E+00        -0.12903E+06
 
    0.14757E+06         0.77064E+06         0.00000E+00
    0.77064E+06        -0.79896E+06         0.00000E+00
    0.00000E+00         0.00000E+00        -0.13028E+06
 
    0.13909E+06         0.80928E+06         0.00000E+00
    0.80928E+06        -0.79672E+06         0.00000E+00
    0.00000E+00         0.00000E+00        -0.13152E+06
 
    0.13050E+06         0.84758E+06         0.00000E+00
    0.84758E+06        -0.79436E+06         0.00000E+00
    0.00000E+00         0.00000E+00        -0.13277E+06
 
    0.12179E+06         0.88555E+06         0.00000E+00
    0.88555E+06        -0.79191E+06         0.00000E+00
    0.00000E+00         0.00000E+00        -0.13402E+06
 
    0.11297E+06         0.92319E+06         0.00000E+00
    0.92319E+06        -0.78935E+06         0.00000E+00
    0.00000E+00         0.00000E+00        -0.13528E+06
 
    0.10404E+06         0.96050E+06         0.00000E+00
    0.96050E+06        -0.78668E+06         0.00000E+00
    0.00000E+00         0.00000E+00        -0.13653E+06
 
    0.95004E+05         0.99747E+06         0.00000E+00
    0.99747E+06        -0.78391E+06         0.00000E+00
    0.00000E+00         0.00000E+00        -0.13778E+06
 
    0.85858E+05         0.10341E+07         0.00000E+00
    0.10341E+07        -0.78105E+06         0.00000E+00
    0.00000E+00         0.00000E+00        -0.13904E+06
 
    0.76604E+05         0.10704E+07         0.00000E+00
    0.10704E+07        -0.77808E+06         0.00000E+00
    0.00000E+00         0.00000E+00        -0.14029E+06
 
    0.67243E+05         0.11063E+07         0.00000E+00
    0.11063E+07        -0.77501E+06         0.00000E+00
    0.00000E+00         0.00000E+00        -0.14155E+06
 
    0.57776E+05         0.11419E+07         0.00000E+00
    0.11419E+07        -0.77184E+06         0.00000E+00
    0.00000E+00         0.00000E+00        -0.14281E+06
 
    0.48204E+05         0.11772E+07         0.00000E+00
    0.11772E+07        -0.76857E+06         0.00000E+00
    0.00000E+00         0.00000E+00        -0.14407E+06
 
    0.38528E+05         0.12120E+07         0.00000E+00
    0.12120E+07        -0.76521E+06         0.00000E+00
    0.00000E+00         0.00000E+00        -0.14534E+06
 
    0.28747E+05         0.12466E+07         0.00000E+00
    0.12466E+07        -0.76174E+06         0.00000E+00
    0.00000E+00         0.00000E+00        -0.14660E+06
 
    0.18863E+05         0.12808E+07         0.00000E+00
    0.12808E+07        -0.75819E+06         0.00000E+00
    0.00000E+00         0.00000E+00        -0.14786E+06
 
    0.88766E+04         0.13146E+07         0.00000E+00
    0.13146E+07        -0.75453E+06         0.00000E+00
    0.00000E+00         0.00000E+00        -0.14913E+06
 
   -0.12120E+04         0.13480E+07         0.00000E+00
    0.13480E+07        -0.75078E+06         0.00000E+00
    0.00000E+00         0.00000E+00        -0.15040E+06
 
   -0.11402E+05         0.13811E+07         0.00000E+00
    0.13811E+07        -0.74694E+06         0.00000E+00
    0.00000E+00         0.00000E+00        -0.15167E+06
 
   -0.21693E+05         0.14138E+07         0.00000E+00
    0.14138E+07        -0.74301E+06         0.00000E+00
    0.00000E+00         0.00000E+00        -0.15294E+06
 
   -0.32085E+05         0.14462E+07         0.00000E+00
    0.14462E+07        -0.73898E+06         0.00000E+00
    0.00000E+00         0.00000E+00        -0.15421E+06
 
   -0.42576E+05         0.14782E+07         0.00000E+00
    0.14782E+07        -0.73486E+06         0.00000E+00
    0.00000E+00         0.00000E+00        -0.15549E+06
 
   -0.53167E+05         0.15098E+07         0.00000E+00
    0.15098E+07        -0.73064E+06         0.00000E+00
    0.00000E+00         0.00000E+00        -0.15676E+06
 
   -0.63857E+05         0.15410E+07         0.00000E+00
    0.15410E+07        -0.72634E+06         0.00000E+00
    0.00000E+00         0.00000E+00        -0.15804E+06
 
   -0.74645E+05         0.15718E+07         0.00000E+00
    0.15718E+07        -0.72195E+06         0.00000E+00
    0.00000E+00         0.00000E+00        -0.15932E+06
 
   -0.85532E+05         0.16023E+07         0.00000E+00
    0.16023E+07        -0.71746E+06         0.00000E+00
    0.00000E+00         0.00000E+00        -0.16060E+06
 
   -0.96516E+05         0.16324E+07         0.00000E+00
    0.16324E+07        -0.71289E+06         0.00000E+00
    0.00000E+00         0.00000E+00        -0.16188E+06
 
   -0.10760E+06         0.16620E+07         0.00000E+00
    0.16620E+07        -0.70823E+06         0.00000E+00
    0.00000E+00         0.00000E+00        -0.16317E+06
 
   -0.11878E+06         0.16913E+07         0.00000E+00
    0.16913E+07        -0.70348E+06         0.00000E+00
    0.00000E+00         0.00000E+00        -0.16445E+06
 
   -0.13005E+06         0.17202E+07         0.00000E+00
    0.17202E+07        -0.69864E+06         0.00000E+00
    0.00000E+00         0.00000E+00        -0.16574E+06
 
   -0.14142E+06         0.17487E+07         0.00000E+00
    0.17487E+07        -0.69372E+06         0.00000E+00
    0.00000E+00         0.00000E+00        -0.16703E+06
 
   -0.15289E+06         0.17768E+07         0.00000E+00
    0.17768E+07        -0.68871E+06         0.00000E+00
    0.00000E+00         0.00000E+00        -0.16832E+06
 
   -0.16445E+06         0.18045E+07         0.00000E+00
    0.18045E+07        -0.68361E+06         0.00000E+00
    0.00000E+00         0.00000E+00        -0.16961E+06
 
    0.32547E+06         0.22670E+05         0.00000E+00
    0.22670E+05        -0.99649E+06         0.00000E+00
    0.00000E+00         0.00000E+00        -0.13420E+06
 
    0.31787E+06         0.67362E+05         0.00000E+00
    0.67362E+05        -0.99634E+06         0.00000E+00
    0.00000E+00         0.00000E+00        -0.13569E+06
 
    0.31011E+06         0.11177E+06         0.00000E+00
    0.11177E+06        -0.99603E+06         0.00000E+00
    0.00000E+00         0.00000E+00        -0.13718E+06
 
    0.30221E+06         0.15590E+06         0.00000E+00
    0.15590E+06        -0.99559E+06         0.00000E+00
    0.00000E+00         0.00000E+00        -0.13868E+06
 
    0.29415E+06         0.19975E+06         0.00000E+00
    0.19975E+06        -0.99499E+06         0.00000E+00
    0.00000E+00         0.00000E+00        -0.14017E+06
 
    0.28594E+06         0.24330E+06         0.00000E+00
    0.24330E+06        -0.99425E+06         0.00000E+00
    0.00000E+00         0.00000E+00        -0.14166E+06
 
    0.27758E+06         0.28656E+06         0.00000E+00
    0.28656E+06        -0.99337E+06         0.00000E+00
    0.00000E+00         0.00000E+00        -0.14316E+06
 
    0.26908E+06         0.32952E+06         0.00000E+00
    0.32952E+06        -0.99235E+06         0.00000E+00
    0.00000E+00         0.00000E+00        -0.14465E+06
 
    0.26044E+06         0.37218E+06         0.00000E+00
    0.37218E+06        -0.99119E+06         0.00000E+00
    0.00000E+00         0.00000E+00        -0.14615E+06
 
    0.25166E+06         0.41455E+06         0.00000E+00
    0.41455E+06        -0.98990E+06         0.00000E+00
    0.00000E+00         0.00000E+00        -0.14765E+06
 
    0.24274E+06         0.45660E+06         0.00000E+00
    0.45660E+06        -0.98846E+06         0.00000E+00
    0.00000E+00         0.00000E+00        -0.14915E+06
 
    0.23368E+06         0.49835E+06         0.00000E+00
    0.49835E+06        -0.98690E+06         0.00000E+00
    0.00000E+00         0.00000E+00        -0.15064E+06
 
    0.22448E+06         0.53979E+06         0.00000E+00
    0.53979E+06        -0.98520E+06         0.00000E+00
    0.00000E+00         0.00000E+00        -0.15214E+06
 
    0.21515E+06         0.58092E+06         0.00000E+00
    0.58092E+06        -0.98337E+06         0.00000E+00
    0.00000E+00         0.00000E+00        -0.15364E+06
 
    0.20569E+06         0.62173E+06         0.00000E+00
    0.62173E+06        -0.98140E+06         0.00000E+00
    0.00000E+00         0.00000E+00        -0.15514E+06
 
    0.19610E+06         0.66223E+06         0.00000E+00
    0.66223E+06        -0.97931E+06         0.00000E+00
    0.00000E+00         0.00000E+00        -0.15664E+06
 
    0.18637E+06         0.70240E+06         0.00000E+00
    0.70240E+06        -0.97709E+06         0.00000E+00
    0.00000E+00         0.00000E+00        -0.15814E+06
 
    0.17652E+06         0.74225E+06         0.00000E+00
    0.74225E+06        -0.97475E+06         0.00000E+00
    0.00000E+00         0.00000E+00        -0.15965E+06
 
    0.16654E+06         0.78178E+06         0.00000E+00
    0.78178E+06        -0.97228E+06         0.00000E+00
    0.00000E+00         0.00000E+00        -0.16115E+06
 
    0.15643E+06         0.82098E+06         0.00000E+00
    0.82098E+06        -0.96968E+06         0.00000E+00
    0.00000E+00         0.00000E+00        -0.16265E+06
 
    0.14620E+06         0.85984E+06         0.00000E+00
    0.85984E+06        -0.96696E+06         0.00000E+00
    0.00000E+00         0.00000E+00        -0.16415E+06
 
    0.13584E+06         0.89838E+06         0.00000E+00
    0.89838E+06        -0.96412E+06         0.00000E+00
    0.00000E+00         0.00000E+00        -0.16566E+06
 
    0.12536E+06         0.93658E+06         0.00000E+00
    0.93658E+06        -0.96116E+06         0.00000E+00
    0.00000E+00         0.00000E+00        -0.16716E+06
 
    0.11475E+06         0.97444E+06         0.00000E+00
    0.97444E+06        -0.95808E+06         0.00000E+00
    0.00000E+00         0.00000E+00        -0.16866E+06
 
    0.10403E+06         0.10120E+07         0.00000E+00
    0.10120E+07        -0.95487E+06         0.00000E+00
    0.00000E+00         0.00000E+00        -0.17017E+06
 
    0.93182E+05         0.10491E+07         0.00000E+00
    0.10491E+07        -0.95155E+06         0.00000E+00
    0.00000E+00         0.00000E+00        -0.17167E+06
 
    0.82216E+05         0.10860E+07         0.00000E+00
    0.10860E+07        -0.94811E+06         0.00000E+00
    0.00000E+00         0.00000E+00        -0.17318E+06
 
    0.71130E+05         0.11225E+07         0.00000E+00
    0.11225E+07        -0.94456E+06         0.00000E+00
    0.00000E+00         0.00000E+00        -0.17469E+06
 
    0.59926E+05         0.11586E+07         0.00000E+00
    0.11586E+07        -0.94088E+06         0.00000E+00
    0.00000E+00         0.00000E+00        -0.17619E+06
 
    0.48605E+05         0.11944E+07         0.00000E+00
    0.11944E+07        -0.93709E+06         0.00000E+00
    0.00000E+00         0.00000E+00        -0.17770E+06
 
    0.37166E+05         0.12298E+07         0.00000E+00
    0.12298E+07        -0.93319E+06         0.00000E+00
    0.00000E+00         0.00000E+00        -0.17920E+06
 
    0.25610E+05         0.12649E+07         0.00000E+00
    0.12649E+07        -0.92917E+06         0.00000E+00
    0.00000E+00         0.00000E+00        -0.18071E+06
 
    0.13938E+05         0.12996E+07         0.00000E+00
    0.12996E+07        -0.92504E+06         0.00000E+00
    0.00000E+00         0.00000E+00        -0.18222E+06
 
    0.21507E+04         0.13340E+07         0.00000E+00
    0.13340E+07        -0.92079E+06         0.00000E+00
    0.00000E+00         0.00000E+00        -0.18373E+06
 
   -0.97519E+04         0.13680E+07         0.00000E+00
    0.13680E+07        -0.91644E+06         0.00000E+00
    0.00000E+00         0.00000E+00        -0.18524E+06
 
   -0.21769E+05         0.14016E+07         0.00000E+00
    0.14016E+07        -0.91197E+06         0.00000E+00
    0.00000E+00         0.00000E+00        -0.18675E+06
 
   -0.33901E+05         0.14349E+07         0.00000E+00
    0.14349E+07        -0.90738E+06         0.00000E+00
    0.00000E+00         0.00000E+00        -0.18826E+06
 
   -0.46147E+05         0.14678E+07         0.00000E+00
    0.14678E+07        -0.90269E+06         0.00000E+00
    0.00000E+00         0.00000E+00        -0.18977E+06
 
   -0.58506E+05         0.15003E+07         0.00000E+00
    0.15003E+07        -0.89789E+06         0.00000E+00
    0.00000E+00         0.00000E+00        -0.19128E+06
 
   -0.70979E+05         0.15324E+07         0.00000E+00
    0.15324E+07        -0.89298E+06         0.00000E+00
    0.00000E+00         0.00000E+00        -0.19279E+06
 
   -0.83565E+05         0.15642E+07         0.00000E+00
    0.15642E+07        -0.88796E+06         0.00000E+00
    0.00000E+00         0.00000E+00        -0.19430E+06
 
   -0.96264E+05         0.15955E+07         0.00000E+00
    0.15955E+07        -0.88282E+06         0.00000E+00
    0.00000E+00         0.00000E+00        -0.19582E+06
 
   -0.10908E+06         0.16265E+07         0.00000E+00
    0.16265E+07        -0.87759E+06         0.00000E+00
    0.00000E+00         0.00000E+00        -0.19733E+06
 
   -0.12200E+06         0.16571E+07         0.00000E+00
    0.16571E+07        -0.87224E+06         0.00000E+00
    0.00000E+00         0.00000E+00        -0.19885E+06
 
   -0.13504E+06         0.16873E+07         0.00000E+00
    0.16873E+07        -0.86678E+06         0.00000E+00
    0.00000E+00         0.00000E+00        -0.20036E+06
 
   -0.14818E+06         0.17171E+07         0.00000E+00
    0.17171E+07        -0.86122E+06         0.00000E+00
    0.00000E+00         0.00000E+00        -0.20188E+06
 
   -0.16144E+06         0.17466E+07         0.00000E+00
    0.17466E+07        -0.85555E+06         0.00000E+00
    0.00000E+00         0.00000E+00        -0.20340E+06
 
   -0.17482E+06         0.17756E+07         0.00000E+00
    0.17756E+07        -0.84978E+06         0.00000E+00
    0.00000E+00         0.00000E+00        -0.20492E+06
 
   -0.18830E+06         0.18042E+07         0.00000E+00
    0.18042E+07        -0.84390E+06         0.00000E+00
    0.00000E+00         0.00000E+00        -0.20644E+06
 
   -0.20190E+06         0.18324E+07         0.00000E+00
    0.18324E+07        -0.83791E+06         0.00000E+00
    0.00000E+00         0.00000E+00        -0.20796E+06
 
    0.37103E+06         0.23044E+05         0.00000E+00
    0.23044E+05        -0.11769E+07         0.00000E+00
    0.00000E+00         0.00000E+00        -0.16117E+06
 
    0.36203E+06         0.68469E+05         0.00000E+00
    0.68469E+05        -0.11767E+07         0.00000E+00
    0.00000E+00         0.00000E+00        -0.16294E+06
 
    0.35285E+06         0.11361E+06         0.00000E+00
    0.11361E+06        -0.11764E+07         0.00000E+00
    0.00000E+00         0.00000E+00        -0.16471E+06
 
    0.34350E+06         0.15846E+06         0.00000E+00
    0.15846E+06        -0.11759E+07         0.00000E+00
    0.00000E+00         0.00000E+00        -0.16648E+06
 
    0.33399E+06         0.20301E+06         0.00000E+00
    0.20301E+06        -0.11752E+07         0.00000E+00
    0.00000E+00         0.00000E+00        -0.16824E+06
 
    0.32432E+06         0.24727E+06         0.00000E+00
    0.24727E+06        -0.11744E+07         0.00000E+00
    0.00000E+00         0.00000E+00        -0.17001E+06
 
    0.31448E+06         0.29123E+06         0.00000E+00
    0.29123E+06        -0.11734E+07         0.00000E+00
    0.00000E+00         0.00000E+00        -0.17178E+06
 
    0.30449E+06         0.33489E+06         0.00000E+00
    0.33489E+06        -0.11722E+07         0.00000E+00
    0.00000E+00         0.00000E+00        -0.17355E+06
 
    0.29434E+06         0.37825E+06         0.00000E+00
    0.37825E+06        -0.11709E+07         0.00000E+00
    0.00000E+00         0.00000E+00        -0.17531E+06
 
    0.28404E+06         0.42130E+06         0.00000E+00
    0.42130E+06        -0.11694E+07         0.00000E+00
    0.00000E+00         0.00000E+00        -0.17708E+06
 
    0.27359E+06         0.46404E+06         0.00000E+00
    0.46404E+06        -0.11678E+07         0.00000E+00
    0.00000E+00         0.00000E+00        -0.17885E+06
 
    0.26299E+06         0.50647E+06         0.00000E+00
    0.50647E+06        -0.11660E+07         0.00000E+00
    0.00000E+00         0.00000E+00        -0.18061E+06
 
    0.25223E+06         0.54859E+06         0.00000E+00
    0.54859E+06        -0.11641E+07         0.00000E+00
    0.00000E+00         0.00000E+00        -0.18238E+06
 
    0.24134E+06         0.59039E+06         0.00000E+00
    0.59039E+06        -0.11620E+07         0.00000E+00
    0.00000E+00         0.00000E+00        -0.18414E+06
 
    0.23029E+06         0.63187E+06         0.00000E+00
    0.63187E+06        -0.11598E+07         0.00000E+00
    0.00000E+00         0.00000E+00        -0.18591E+06
 
    0.21910E+06         0.67302E+06         0.00000E+00
    0.67302E+06        -0.11575E+07         0.00000E+00
    0.00000E+00         0.00000E+00        -0.18767E+06
 
    0.20778E+06         0.71386E+06         0.00000E+00
    0.71386E+06        -0.11549E+07         0.00000E+00
    0.00000E+00         0.00000E+00        -0.18943E+06
 
    0.19631E+06         0.75437E+06         0.00000E+00
    0.75437E+06        -0.11523E+07         0.00000E+00
    0.00000E+00         0.00000E+00        -0.19120E+06
 
    0.18470E+06         0.79455E+06         0.00000E+00
    0.79455E+06        -0.11495E+07         0.00000E+00
    0.00000E+00         0.00000E+00        -0.19296E+06
 
    0.17295E+06         0.83440E+06         0.00000E+00
    0.83440E+06        -0.11466E+07         0.00000E+00
    0.00000E+00         0.00000E+00        -0.19472E+06
 
    0.16106E+06         0.87392E+06         0.00000E+00
    0.87392E+06        -0.11435E+07         0.00000E+00
    0.00000E+00         0.00000E+00        -0.19648E+06
 
    0.14904E+06         0.91310E+06         0.00000E+00
    0.91310E+06        -0.11402E+07         0.00000E+00
    0.00000E+00         0.00000E+00        -0.19824E+06
 
    0.13689E+06         0.95194E+06         0.00000E+00
    0.95194E+06        -0.11369E+07         0.00000E+00
    0.00000E+00         0.00000E+00        -0.20000E+06
 
    0.12460E+06         0.99045E+06         0.00000E+00
    0.99045E+06        -0.11334E+07         0.00000E+00
    0.00000E+00         0.00000E+00        -0.20176E+06
 
    0.11217E+06         0.10286E+07         0.00000E+00
    0.10286E+07        -0.11298E+07         0.00000E+00
    0.00000E+00         0.00000E+00        -0.20352E+06
 
    0.99616E+05         0.10664E+07         0.00000E+00
    0.10664E+07        -0.11260E+07         0.00000E+00
    0.00000E+00         0.00000E+00        -0.20527E+06
 
    0.86929E+05         0.11039E+07         0.00000E+00
    0.11039E+07        -0.11221E+07         0.00000E+00
    0.00000E+00         0.00000E+00        -0.20703E+06
 
    0.74110E+05         0.11410E+07         0.00000E+00
    0.11410E+07        -0.11180E+07         0.00000E+00
    0.00000E+00         0.00000E+00        -0.20879E+06
 
    0.61161E+05         0.11778E+07         0.00000E+00
    0.11778E+07        -0.11139E+07         0.00000E+00
    0.00000E+00         0.00000E+00        -0.21054E+06
 
    0.48082E+05         0.12142E+07         0.00000E+00
    0.12142E+07        -0.11096E+07         0.00000E+00
    0.00000E+00         0.00000E+00        -0.21230E+06
 
    0.34873E+05         0.12503E+07         0.00000E+00
    0.12503E+07        -0.11051E+07         0.00000E+00
    0.00000E+00         0.00000E+00        -0.21405E+06
 
    0.21536E+05         0.12860E+07         0.00000E+00
    0.12860E+07        -0.11006E+07         0.00000E+00
    0.00000E+00         0.00000E+00        -0.21580E+06
 
    0.80703E+04         0.13214E+07         0.00000E+00
    0.13214E+07        -0.10959E+07         0.00000E+00
    0.00000E+00         0.00000E+00        -0.21756E+06
 
   -0.55238E+04         0.13563E+07         0.00000E+00
    0.13563E+07        -0.10910E+07         0.00000E+00
    0.00000E+00         0.00000E+00        -0.21931E+06
 
   -0.19246E+05         0.13910E+07         0.00000E+00
    0.13910E+07        -0.10861E+07         0.00000E+00
    0.00000E+00         0.00000E+00        -0.22106E+06
 
   -0.33095E+05         0.14252E+07         0.00000E+00
    0.14252E+07        -0.10810E+07         0.00000E+00
    0.00000E+00         0.00000E+00        -0.22281E+06
 
   -0.47072E+05         0.14591E+07         0.00000E+00
    0.14591E+07        -0.10757E+07         0.00000E+00
    0.00000E+00         0.00000E+00        -0.22456E+06
 
   -0.61177E+05         0.14926E+07         0.00000E+00
    0.14926E+07        -0.10704E+07         0.00000E+00
    0.00000E+00         0.00000E+00        -0.22631E+06
 
   -0.75408E+05         0.15258E+07         0.00000E+00
    0.15258E+07        -0.10649E+07         0.00000E+00
    0.00000E+00         0.00000E+00        -0.22806E+06
 
   -0.89766E+05         0.15585E+07         0.00000E+00
    0.15585E+07        -0.10593E+07         0.00000E+00
    0.00000E+00         0.00000E+00        -0.22981E+06
 
   -0.10425E+06         0.15909E+07         0.00000E+00
    0.15909E+07        -0.10536E+07         0.00000E+00
    0.00000E+00         0.00000E+00        -0.23156E+06
 
   -0.11886E+06         0.16229E+07         0.00000E+00
    0.16229E+07        -0.10477E+07         0.00000E+00
    0.00000E+00         0.00000E+00        -0.23331E+06
 
   -0.13360E+06         0.16545E+07         0.00000E+00
    0.16545E+07        -0.10417E+07         0.00000E+00
    0.00000E+00         0.00000E+00        -0.23506E+06
 
   -0.14847E+06         0.16858E+07         0.00000E+00
    0.16858E+07        -0.10356E+07         0.00000E+00
    0.00000E+00         0.00000E+00        -0.23681E+06
 
   -0.16346E+06         0.17166E+07         0.00000E+00
    0.17166E+07        -0.10293E+07         0.00000E+00
    0.00000E+00         0.00000E+00        -0.23856E+06
 
   -0.17858E+06         0.17471E+07         0.00000E+00
    0.17471E+07        -0.10230E+07         0.00000E+00
    0.00000E+00         0.00000E+00        -0.24031E+06
 
   -0.19383E+06         0.17771E+07         0.00000E+00
    0.17771E+07        -0.10165E+07         0.00000E+00
    0.00000E+00         0.00000E+00        -0.24206E+06
 
   -0.20921E+06         0.18068E+07         0.00000E+00
    0.18068E+07        -0.10098E+07         0.00000E+00
    0.00000E+00         0.00000E+00        -0.24381E+06
 
   -0.22471E+06         0.18360E+07         0.00000E+00
    0.18360E+07        -0.10031E+07         0.00000E+00
    0.00000E+00         0.00000E+00        -0.24556E+06
 
   -0.24034E+06         0.18648E+07         0.00000E+00
    0.18648E+07        -0.99622E+06         0.00000E+00
    0.00000E+00         0.00000E+00        -0.24731E+06
 
    0.41594E+06         0.23465E+05         0.00000E+00
    0.23465E+05        -0.13619E+07         0.00000E+00
    0.00000E+00         0.00000E+00        -0.18919E+06
 
    0.40549E+06         0.69715E+05         0.00000E+00
    0.69715E+05        -0.13617E+07         0.00000E+00
    0.00000E+00         0.00000E+00        -0.19124E+06
 
    0.39485E+06         0.11567E+06         0.00000E+00
    0.11567E+06        -0.13613E+07         0.00000E+00
    0.00000E+00         0.00000E+00        -0.19329E+06
 
    0.38404E+06         0.16133E+06         0.00000E+00
    0.16133E+06        -0.13607E+07         0.00000E+00
    0.00000E+00         0.00000E+00        -0.19534E+06
 
    0.37304E+06         0.20669E+06         0.00000E+00
    0.20669E+06        -0.13600E+07         0.00000E+00
    0.00000E+00         0.00000E+00        -0.19739E+06
 
    0.36188E+06         0.25175E+06         0.00000E+00
    0.25175E+06        -0.13591E+07         0.00000E+00
    0.00000E+00         0.00000E+00        -0.19944E+06
 
    0.35053E+06         0.29650E+06         0.00000E+00
    0.29650E+06        -0.13580E+07         0.00000E+00
    0.00000E+00         0.00000E+00        -0.20148E+06
 
    0.33902E+06         0.34094E+06         0.00000E+00
    0.34094E+06        -0.13567E+07         0.00000E+00
    0.00000E+00         0.00000E+00        -0.20353E+06
 
    0.32734E+06         0.38508E+06         0.00000E+00
    0.38508E+06        -0.13552E+07         0.00000E+00
    0.00000E+00         0.00000E+00        -0.20557E+06
 
    0.31550E+06         0.42890E+06         0.00000E+00
    0.42890E+06        -0.13536E+07         0.00000E+00
    0.00000E+00         0.00000E+00        -0.20761E+06
 
    0.30349E+06         0.47241E+06         0.00000E+00
    0.47241E+06        -0.13518E+07         0.00000E+00
    0.00000E+00         0.00000E+00        -0.20965E+06
 
    0.29132E+06         0.51561E+06         0.00000E+00
    0.51561E+06        -0.13498E+07         0.00000E+00
    0.00000E+00         0.00000E+00        -0.21169E+06
 
    0.27899E+06         0.55848E+06         0.00000E+00
    0.55848E+06        -0.13476E+07         0.00000E+00
    0.00000E+00         0.00000E+00        -0.21373E+06
 
    0.26650E+06         0.60104E+06         0.00000E+00
    0.60104E+06        -0.13453E+07         0.00000E+00
    0.00000E+00         0.00000E+00        -0.21577E+06
 
    0.25386E+06         0.64327E+06         0.00000E+00
    0.64327E+06        -0.13429E+07         0.00000E+00
    0.00000E+00         0.00000E+00        -0.21780E+06
 
    0.24106E+06         0.68518E+06         0.00000E+00
    0.68518E+06        -0.13402E+07         0.00000E+00
    0.00000E+00         0.00000E+00        -0.21983E+06
 
    0.22811E+06         0.72676E+06         0.00000E+00
    0.72676E+06        -0.13374E+07         0.00000E+00
    0.00000E+00         0.00000E+00        -0.22186E+06
 
    0.21500E+06         0.76801E+06         0.00000E+00
    0.76801E+06        -0.13345E+07         0.00000E+00
    0.00000E+00         0.00000E+00        -0.22389E+06
 
    0.20175E+06         0.80893E+06         0.00000E+00
    0.80893E+06        -0.13313E+07         0.00000E+00
    0.00000E+00         0.00000E+00        -0.22592E+06
 
    0.18835E+06         0.84952E+06         0.00000E+00
    0.84952E+06        -0.13281E+07         0.00000E+00
    0.00000E+00         0.00000E+00        -0.22794E+06
 
    0.17480E+06         0.88977E+06         0.00000E+00
    0.88977E+06        -0.13246E+07         0.00000E+00
    0.00000E+00         0.00000E+00        -0.22997E+06
 
    0.16110E+06         0.92968E+06         0.00000E+00
    0.92968E+06        -0.13210E+07         0.00000E+00
    0.00000E+00         0.00000E+00        -0.23199E+06
 
    0.14726E+06         0.96926E+06         0.00000E+00
    0.96926E+06        -0.13173E+07         0.00000E+00
    0.00000E+00         0.00000E+00        -0.23401E+06
 
    0.13328E+06         0.10085E+07         0.00000E+00
    0.10085E+07        -0.13134E+07         0.00000E+00
    0.00000E+00         0.00000E+00        -0.23602E+06
 
    0.11915E+06         0.10474E+07         0.00000E+00
    0.10474E+07        -0.13093E+07         0.00000E+00
    0.00000E+00         0.00000E+00        -0.23804E+06
 
    0.10487E+06         0.10859E+07         0.00000E+00
    0.10859E+07        -0.13051E+07         0.00000E+00
    0.00000E+00         0.00000E+00        -0.24005E+06
 
    0.90454E+05         0.11241E+07         0.00000E+00
    0.11241E+07        -0.13008E+07         0.00000E+00
    0.00000E+00         0.00000E+00        -0.24206E+06
 
    0.75896E+05         0.11620E+07         0.00000E+00
    0.11620E+07        -0.12962E+07         0.00000E+00
    0.00000E+00         0.00000E+00        -0.24407E+06
 
    0.61195E+05         0.11995E+07         0.00000E+00
    0.11995E+07        -0.12916E+07         0.00000E+00
    0.00000E+00         0.00000E+00        -0.24608E+06
 
    0.46354E+05         0.12366E+07         0.00000E+00
    0.12366E+07        -0.12868E+07         0.00000E+00
    0.00000E+00         0.00000E+00        -0.24808E+06
 
    0.31371E+05         0.12734E+07         0.00000E+00
    0.12734E+07        -0.12818E+07         0.00000E+00
    0.00000E+00         0.00000E+00        -0.25009E+06
 
    0.16248E+05         0.13099E+07         0.00000E+00
    0.13099E+07        -0.12767E+07         0.00000E+00
    0.00000E+00         0.00000E+00        -0.25209E+06
 
    0.98494E+03         0.13459E+07         0.00000E+00
    0.13459E+07        -0.12714E+07         0.00000E+00
    0.00000E+00         0.00000E+00        -0.25409E+06
 
   -0.14418E+05         0.13816E+07         0.00000E+00
    0.13816E+07        -0.12660E+07         0.00000E+00
    0.00000E+00         0.00000E+00        -0.25609E+06
 
   -0.29962E+05         0.14170E+07         0.00000E+00
    0.14170E+07        -0.12605E+07         0.00000E+00
    0.00000E+00         0.00000E+00        -0.25808E+06
 
   -0.45645E+05         0.14520E+07         0.00000E+00
    0.14520E+07        -0.12547E+07         0.00000E+00
    0.00000E+00         0.00000E+00        -0.26008E+06
 
   -0.61469E+05         0.14866E+07         0.00000E+00
    0.14866E+07        -0.12489E+07         0.00000E+00
    0.00000E+00         0.00000E+00        -0.26207E+06
 
   -0.77432E+05         0.15208E+07         0.00000E+00
    0.15208E+07        -0.12429E+07         0.00000E+00
    0.00000E+00         0.00000E+00        -0.26406E+06
 
   -0.93535E+05         0.15547E+07         0.00000E+00
    0.15547E+07        -0.12367E+07         0.00000E+00
    0.00000E+00         0.00000E+00        -0.26605E+06
 
   -0.10978E+06         0.15882E+07         0.00000E+00
    0.15882E+07        -0.12304E+07         0.00000E+00
    0.00000E+00         0.00000E+00        -0.26804E+06
 
   -0.12616E+06         0.16213E+07         0.00000E+00
    0.16213E+07        -0.12240E+07         0.00000E+00
    0.00000E+00         0.00000E+00        -0.27003E+06
 
   -0.14269E+06         0.16540E+07         0.00000E+00
    0.16540E+07        -0.12174E+07         0.00000E+00
    0.00000E+00         0.00000E+00        -0.27202E+06
 
   -0.15935E+06         0.16864E+07         0.00000E+00
    0.16864E+07        -0.12107E+07         0.00000E+00
    0.00000E+00         0.00000E+00        -0.27400E+06
 
   -0.17616E+06         0.17183E+07         0.00000E+00
    0.17183E+07        -0.12038E+07         0.00000E+00
    0.00000E+00         0.00000E+00        -0.27599E+06
 
   -0.19311E+06         0.17499E+07         0.00000E+00
    0.17499E+07        -0.11967E+07         0.00000E+00
    0.00000E+00         0.00000E+00        -0.27797E+06
 
   -0.21020E+06         0.17811E+07         0.00000E+00
    0.17811E+07        -0.11896E+07         0.00000E+00
    0.00000E+00         0.00000E+00        -0.27995E+06
 
   -0.22743E+06         0.18118E+07         0.00000E+00
    0.18118E+07        -0.11822E+07         0.00000E+00
    0.00000E+00         0.00000E+00        -0.28193E+06
 
   -0.24481E+06         0.18422E+07         0.00000E+00
    0.18422E+07        -0.11748E+07         0.00000E+00
    0.00000E+00         0.00000E+00        -0.28391E+06
 
   -0.26233E+06         0.18722E+07         0.00000E+00
    0.18722E+07        -0.11671E+07         0.00000E+00
    0.00000E+00         0.00000E+00        -0.28589E+06
 
   -0.27999E+06         0.19018E+07         0.00000E+00
    0.19018E+07        -0.11594E+07         0.00000E+00
    0.00000E+00         0.00000E+00        -0.28787E+06
 
    0.45991E+06         0.23933E+05         0.00000E+00
    0.23933E+05        -0.15522E+07         0.00000E+00
    0.00000E+00         0.00000E+00        -0.21845E+06
 
    0.44797E+06         0.71096E+05         0.00000E+00
    0.71096E+05        -0.15520E+07         0.00000E+00
    0.00000E+00         0.00000E+00        -0.22080E+06
 
    0.43584E+06         0.11796E+06         0.00000E+00
    0.11796E+06        -0.15515E+07         0.00000E+00
    0.00000E+00         0.00000E+00        -0.22314E+06
 
    0.42352E+06         0.16451E+06         0.00000E+00
    0.16451E+06        -0.15509E+07         0.00000E+00
    0.00000E+00         0.00000E+00        -0.22548E+06
 
    0.41101E+06         0.21076E+06         0.00000E+00
    0.21076E+06        -0.15501E+07         0.00000E+00
    0.00000E+00         0.00000E+00        -0.22782E+06
 
    0.39831E+06         0.25670E+06         0.00000E+00
    0.25670E+06        -0.15491E+07         0.00000E+00
    0.00000E+00         0.00000E+00        -0.23015E+06
 
    0.38543E+06         0.30233E+06         0.00000E+00
    0.30233E+06        -0.15478E+07         0.00000E+00
    0.00000E+00         0.00000E+00        -0.23248E+06
 
    0.37237E+06         0.34765E+06         0.00000E+00
    0.34765E+06        -0.15464E+07         0.00000E+00
    0.00000E+00         0.00000E+00        -0.23481E+06
 
    0.35913E+06         0.39265E+06         0.00000E+00
    0.39265E+06        -0.15448E+07         0.00000E+00
    0.00000E+00         0.00000E+00        -0.23714E+06
 
    0.34571E+06         0.43733E+06         0.00000E+00
    0.43733E+06        -0.15430E+07         0.00000E+00
    0.00000E+00         0.00000E+00        -0.23946E+06
 
    0.33212E+06         0.48170E+06         0.00000E+00
    0.48170E+06        -0.15410E+07         0.00000E+00
    0.00000E+00         0.00000E+00        -0.24179E+06
 
    0.31836E+06         0.52574E+06         0.00000E+00
    0.52574E+06        -0.15389E+07         0.00000E+00
    0.00000E+00         0.00000E+00        -0.24410E+06
 
    0.30443E+06         0.56946E+06         0.00000E+00
    0.56946E+06        -0.15365E+07         0.00000E+00
    0.00000E+00         0.00000E+00        -0.24642E+06
 
    0.29033E+06         0.61285E+06         0.00000E+00
    0.61285E+06        -0.15340E+07         0.00000E+00
    0.00000E+00         0.00000E+00        -0.24873E+06
 
    0.27606E+06         0.65592E+06         0.00000E+00
    0.65592E+06        -0.15313E+07         0.00000E+00
    0.00000E+00         0.00000E+00        -0.25104E+06
 
    0.26164E+06         0.69866E+06         0.00000E+00
    0.69866E+06        -0.15284E+07         0.00000E+00
    0.00000E+00         0.00000E+00        -0.25335E+06
 
    0.24705E+06         0.74107E+06         0.00000E+00
    0.74107E+06        -0.15253E+07         0.00000E+00
    0.00000E+00         0.00000E+00        -0.25565E+06
 
    0.23229E+06         0.78314E+06         0.00000E+00
    0.78314E+06        -0.15220E+07         0.00000E+00
    0.00000E+00         0.00000E+00        -0.25795E+06
 
    0.21738E+06         0.82489E+06         0.00000E+00
    0.82489E+06        -0.15186E+07         0.00000E+00
    0.00000E+00         0.00000E+00        -0.26024E+06
 
    0.20232E+06         0.86630E+06         0.00000E+00
    0.86630E+06        -0.15150E+07         0.00000E+00
    0.00000E+00         0.00000E+00        -0.26254E+06
 
    0.18709E+06         0.90737E+06         0.00000E+00
    0.90737E+06        -0.15112E+07         0.00000E+00
    0.00000E+00         0.00000E+00        -0.26483E+06
 
    0.17171E+06         0.94810E+06         0.00000E+00
    0.94810E+06        -0.15073E+07         0.00000E+00
    0.00000E+00         0.00000E+00        -0.26711E+06
 
    0.15617E+06         0.98849E+06         0.00000E+00
    0.98849E+06        -0.15031E+07         0.00000E+00
    0.00000E+00         0.00000E+00        -0.26939E+06
 
    0.14048E+06         0.10285E+07         0.00000E+00
    0.10285E+07        -0.14988E+07         0.00000E+00
    0.00000E+00         0.00000E+00        -0.27167E+06
 
    0.12463E+06         0.10682E+07         0.00000E+00
    0.10682E+07        -0.14944E+07         0.00000E+00
    0.00000E+00         0.00000E+00        -0.27395E+06
 
    0.10863E+06         0.11076E+07         0.00000E+00
    0.11076E+07        -0.14897E+07         0.00000E+00
    0.00000E+00         0.00000E+00        -0.27622E+06
 
    0.92483E+05         0.11466E+07         0.00000E+00
    0.11466E+07        -0.14849E+07         0.00000E+00
    0.00000E+00         0.00000E+00        -0.27849E+06
 
    0.76179E+05         0.11853E+07         0.00000E+00
    0.11853E+07        -0.14799E+07         0.00000E+00
    0.00000E+00         0.00000E+00        -0.28075E+06
 
    0.59724E+05         0.12236E+07         0.00000E+00
    0.12236E+07        -0.14748E+07         0.00000E+00
    0.00000E+00         0.00000E+00        -0.28302E+06
 
    0.43118E+05         0.12615E+07         0.00000E+00
    0.12615E+07        -0.14695E+07         0.00000E+00
    0.00000E+00         0.00000E+00        -0.28527E+06
 
    0.26360E+05         0.12992E+07         0.00000E+00
    0.12992E+07        -0.14640E+07         0.00000E+00
    0.00000E+00         0.00000E+00        -0.28753E+06
 
    0.94504E+04         0.13364E+07         0.00000E+00
    0.13364E+07        -0.14584E+07         0.00000E+00
    0.00000E+00         0.00000E+00        -0.28978E+06
 
   -0.76102E+04         0.13733E+07         0.00000E+00
    0.13733E+07        -0.14526E+07         0.00000E+00
    0.00000E+00         0.00000E+00        -0.29203E+06
 
   -0.24822E+05         0.14098E+07         0.00000E+00
    0.14098E+07        -0.14466E+07         0.00000E+00
    0.00000E+00         0.00000E+00        -0.29428E+06
 
   -0.42185E+05         0.14460E+07         0.00000E+00
    0.14460E+07        -0.14404E+07         0.00000E+00
    0.00000E+00         0.00000E+00        -0.29652E+06
 
   -0.59700E+05         0.14818E+07         0.00000E+00
    0.14818E+07        -0.14341E+07         0.00000E+00
    0.00000E+00         0.00000E+00        -0.29876E+06
 
   -0.77367E+05         0.15172E+07         0.00000E+00
    0.15172E+07        -0.14276E+07         0.00000E+00
    0.00000E+00         0.00000E+00        -0.30100E+06
 
   -0.95186E+05         0.15523E+07         0.00000E+00
    0.15523E+07        -0.14210E+07         0.00000E+00
    0.00000E+00         0.00000E+00        -0.30323E+06
 
   -0.11316E+06         0.15869E+07         0.00000E+00
    0.15869E+07        -0.14142E+07         0.00000E+00
    0.00000E+00         0.00000E+00        -0.30546E+06
 
   -0.13128E+06         0.16213E+07         0.00000E+00
    0.16213E+07        -0.14072E+07         0.00000E+00
    0.00000E+00         0.00000E+00        -0.30769E+06
 
   -0.14956E+06         0.16552E+07         0.00000E+00
    0.16552E+07        -0.14000E+07         0.00000E+00
    0.00000E+00         0.00000E+00        -0.30992E+06
 
   -0.16799E+06         0.16887E+07         0.00000E+00
    0.16887E+07        -0.13927E+07         0.00000E+00
    0.00000E+00         0.00000E+00        -0.31214E+06
 
   -0.18658E+06         0.17219E+07         0.00000E+00
    0.17219E+07        -0.13852E+07         0.00000E+00
    0.00000E+00         0.00000E+00        -0.31437E+06
 
   -0.20532E+06         0.17547E+07         0.00000E+00
    0.17547E+07        -0.13776E+07         0.00000E+00
    0.00000E+00         0.00000E+00        -0.31658E+06
 
   -0.22422E+06         0.17871E+07         0.00000E+00
    0.17871E+07        -0.13698E+07         0.00000E+00
    0.00000E+00         0.00000E+00        -0.31880E+06
 
   -0.24327E+06         0.18191E+07         0.00000E+00
    0.18191E+07        -0.13618E+07         0.00000E+00
    0.00000E+00         0.00000E+00        -0.32102E+06
 
   -0.26249E+06         0.18507E+07         0.00000E+00
    0.18507E+07        -0.13537E+07         0.00000E+00
    0.00000E+00         0.00000E+00        -0.32323E+06
 
   -0.28186E+06         0.18820E+07         0.00000E+00
    0.18820E+07        -0.13453E+07         0.00000E+00
    0.00000E+00         0.00000E+00        -0.32544E+06
 
   -0.30139E+06         0.19128E+07         0.00000E+00
    0.19128E+07        -0.13369E+07         0.00000E+00
    0.00000E+00         0.00000E+00        -0.32765E+06
 
   -0.32107E+06         0.19432E+07         0.00000E+00
    0.19432E+07        -0.13282E+07         0.00000E+00
    0.00000E+00         0.00000E+00        -0.32986E+06
 
    0.50262E+06         0.24445E+05         0.00000E+00
    0.24445E+05        -0.17485E+07         0.00000E+00
    0.00000E+00         0.00000E+00        -0.24918E+06
 
    0.48916E+06         0.72609E+05         0.00000E+00
    0.72609E+05        -0.17483E+07         0.00000E+00
    0.00000E+00         0.00000E+00        -0.25183E+06
 
    0.47549E+06         0.12046E+06         0.00000E+00
    0.12046E+06        -0.17478E+07         0.00000E+00
    0.00000E+00         0.00000E+00        -0.25447E+06
 
    0.46162E+06         0.16800E+06         0.00000E+00
    0.16800E+06        -0.17472E+07         0.00000E+00
    0.00000E+00         0.00000E+00        -0.25711E+06
 
    0.44755E+06         0.21523E+06         0.00000E+00
    0.21523E+06        -0.17463E+07         0.00000E+00
    0.00000E+00         0.00000E+00        -0.25974E+06
 
    0.43329E+06         0.26213E+06         0.00000E+00
    0.26213E+06        -0.17452E+07         0.00000E+00
    0.00000E+00         0.00000E+00        -0.26237E+06
 
    0.41883E+06         0.30872E+06         0.00000E+00
    0.30872E+06        -0.17438E+07         0.00000E+00
    0.00000E+00         0.00000E+00        -0.26500E+06
 
    0.40418E+06         0.35499E+06         0.00000E+00
    0.35499E+06        -0.17423E+07         0.00000E+00
    0.00000E+00         0.00000E+00        -0.26762E+06
 
    0.38935E+06         0.40094E+06         0.00000E+00
    0.40094E+06        -0.17406E+07         0.00000E+00
    0.00000E+00         0.00000E+00        -0.27024E+06
 
    0.37433E+06         0.44656E+06         0.00000E+00
    0.44656E+06        -0.17386E+07         0.00000E+00
    0.00000E+00         0.00000E+00        -0.27285E+06
 
    0.35913E+06         0.49186E+06         0.00000E+00
    0.49186E+06        -0.17364E+07         0.00000E+00
    0.00000E+00         0.00000E+00        -0.27546E+06
 
    0.34375E+06         0.53683E+06         0.00000E+00
    0.53683E+06        -0.17341E+07         0.00000E+00
    0.00000E+00         0.00000E+00        -0.27807E+06
 
    0.32820E+06         0.58148E+06         0.00000E+00
    0.58148E+06        -0.17315E+07         0.00000E+00
    0.00000E+00         0.00000E+00        -0.28067E+06
 
    0.31246E+06         0.62579E+06         0.00000E+00
    0.62579E+06        -0.17288E+07         0.00000E+00
    0.00000E+00         0.00000E+00        -0.28326E+06
 
    0.29656E+06         0.66977E+06         0.00000E+00
    0.66977E+06        -0.17258E+07         0.00000E+00
    0.00000E+00         0.00000E+00        -0.28585E+06
 
    0.28048E+06         0.71343E+06         0.00000E+00
    0.71343E+06        -0.17227E+07         0.00000E+00
    0.00000E+00         0.00000E+00        -0.28844E+06
 
    0.26424E+06         0.75675E+06         0.00000E+00
    0.75675E+06        -0.17193E+07         0.00000E+00
    0.00000E+00         0.00000E+00        -0.29102E+06
 
    0.24782E+06         0.79973E+06         0.00000E+00
    0.79973E+06        -0.17158E+07         0.00000E+00
    0.00000E+00         0.00000E+00        -0.29359E+06
 
    0.23124E+06         0.84238E+06         0.00000E+00
    0.84238E+06        -0.17121E+07         0.00000E+00
    0.00000E+00         0.00000E+00        -0.29616E+06
 
    0.21449E+06         0.88469E+06         0.00000E+00
    0.88469E+06        -0.17081E+07         0.00000E+00
    0.00000E+00         0.00000E+00        -0.29873E+06
 
    0.19758E+06         0.92666E+06         0.00000E+00
    0.92666E+06        -0.17040E+07         0.00000E+00
    0.00000E+00         0.00000E+00        -0.30129E+06
 
    0.18050E+06         0.96830E+06         0.00000E+00
    0.96830E+06        -0.16997E+07         0.00000E+00
    0.00000E+00         0.00000E+00        -0.30384E+06
 
    0.16326E+06         0.10096E+07         0.00000E+00
    0.10096E+07        -0.16952E+07         0.00000E+00
    0.00000E+00         0.00000E+00        -0.30639E+06
 
    0.14586E+06         0.10505E+07         0.00000E+00
    0.10505E+07        -0.16905E+07         0.00000E+00
    0.00000E+00         0.00000E+00        -0.30894E+06
 
    0.12829E+06         0.10911E+07         0.00000E+00
    0.10911E+07        -0.16857E+07         0.00000E+00
    0.00000E+00         0.00000E+00        -0.31148E+06
 
    0.11057E+06         0.11314E+07         0.00000E+00
    0.11314E+07        -0.16806E+07         0.00000E+00
    0.00000E+00         0.00000E+00        -0.31401E+06
 
    0.92678E+05         0.11713E+07         0.00000E+00
    0.11713E+07        -0.16754E+07         0.00000E+00
    0.00000E+00         0.00000E+00        -0.31654E+06
 
    0.74629E+05         0.12109E+07         0.00000E+00
    0.12109E+07        -0.16700E+07         0.00000E+00
    0.00000E+00         0.00000E+00        -0.31907E+06
 
    0.56419E+05         0.12501E+07         0.00000E+00
    0.12501E+07        -0.16644E+07         0.00000E+00
    0.00000E+00         0.00000E+00        -0.32159E+06
 
    0.38049E+05         0.12889E+07         0.00000E+00
    0.12889E+07        -0.16586E+07         0.00000E+00
    0.00000E+00         0.00000E+00        -0.32410E+06
 
    0.19517E+05         0.13274E+07         0.00000E+00
    0.13274E+07        -0.16526E+07         0.00000E+00
    0.00000E+00         0.00000E+00        -0.32661E+06
 
    0.82499E+03         0.13656E+07         0.00000E+00
    0.13656E+07        -0.16464E+07         0.00000E+00
    0.00000E+00         0.00000E+00        -0.32912E+06
 
   -0.18029E+05         0.14034E+07         0.00000E+00
    0.14034E+07        -0.16401E+07         0.00000E+00
    0.00000E+00         0.00000E+00        -0.33162E+06
 
   -0.37044E+05         0.14408E+07         0.00000E+00
    0.14408E+07        -0.16335E+07         0.00000E+00
    0.00000E+00         0.00000E+00        -0.33411E+06
 
   -0.56221E+05         0.14779E+07         0.00000E+00
    0.14779E+07        -0.16268E+07         0.00000E+00
    0.00000E+00         0.00000E+00        -0.33661E+06
 
   -0.75561E+05         0.15146E+07         0.00000E+00
    0.15146E+07        -0.16199E+07         0.00000E+00
    0.00000E+00         0.00000E+00        -0.33909E+06
 
   -0.95063E+05         0.15509E+07         0.00000E+00
    0.15509E+07        -0.16128E+07         0.00000E+00
    0.00000E+00         0.00000E+00        -0.34157E+06
 
   -0.11473E+06         0.15869E+07         0.00000E+00
    0.15869E+07        -0.16055E+07         0.00000E+00
    0.00000E+00         0.00000E+00        -0.34405E+06
 
   -0.13456E+06         0.16225E+07         0.00000E+00
    0.16225E+07        -0.15981E+07         0.00000E+00
    0.00000E+00         0.00000E+00        -0.34653E+06
 
   -0.15456E+06         0.16578E+07         0.00000E+00
    0.16578E+07        -0.15904E+07         0.00000E+00
    0.00000E+00         0.00000E+00        -0.34900E+06
 
   -0.17472E+06         0.16926E+07         0.00000E+00
    0.16926E+07        -0.15826E+07         0.00000E+00
    0.00000E+00         0.00000E+00        -0.35146E+06
 
   -0.19505E+06         0.17271E+07         0.00000E+00
    0.17271E+07        -0.15746E+07         0.00000E+00
    0.00000E+00         0.00000E+00        -0.35392E+06
 
   -0.21554E+06         0.17612E+07         0.00000E+00
    0.17612E+07        -0.15664E+07         0.00000E+00
    0.00000E+00         0.00000E+00        -0.35638E+06
 
   -0.23621E+06         0.17949E+07         0.00000E+00
    0.17949E+07        -0.15580E+07         0.00000E+00
    0.00000E+00         0.00000E+00        -0.35883E+06
 
   -0.25704E+06         0.18283E+07         0.00000E+00
    0.18283E+07        -0.15494E+07         0.00000E+00
    0.00000E+00         0.00000E+00        -0.36128E+06
 
   -0.27805E+06         0.18612E+07         0.00000E+00
    0.18612E+07        -0.15406E+07         0.00000E+00
    0.00000E+00         0.00000E+00        -0.36373E+06
 
   -0.29923E+06         0.18938E+07         0.00000E+00
    0.18938E+07        -0.15316E+07         0.00000E+00
    0.00000E+00         0.00000E+00        -0.36617E+06
 
   -0.32058E+06         0.19259E+07         0.00000E+00
    0.19259E+07        -0.15225E+07         0.00000E+00
    0.00000E+00         0.00000E+00        -0.36861E+06
 
   -0.34211E+06         0.19577E+07         0.00000E+00
    0.19577E+07        -0.15132E+07         0.00000E+00
    0.00000E+00         0.00000E+00        -0.37105E+06
 
   -0.36381E+06         0.19891E+07         0.00000E+00
    0.19891E+07        -0.15036E+07         0.00000E+00
    0.00000E+00         0.00000E+00        -0.37349E+06
 
    0.54372E+06         0.24999E+05         0.00000E+00
    0.24999E+05        -0.19517E+07         0.00000E+00
    0.00000E+00         0.00000E+00        -0.28160E+06
 
    0.52868E+06         0.74248E+05         0.00000E+00
    0.74248E+05        -0.19515E+07         0.00000E+00
    0.00000E+00         0.00000E+00        -0.28456E+06
 
    0.51342E+06         0.12317E+06         0.00000E+00
    0.12317E+06        -0.19510E+07         0.00000E+00
    0.00000E+00         0.00000E+00        -0.28751E+06
 
    0.49796E+06         0.17178E+06         0.00000E+00
    0.17178E+06        -0.19503E+07         0.00000E+00
    0.00000E+00         0.00000E+00        -0.29046E+06
 
    0.48229E+06         0.22006E+06         0.00000E+00
    0.22006E+06        -0.19493E+07         0.00000E+00
    0.00000E+00         0.00000E+00        -0.29340E+06
 
    0.46642E+06         0.26801E+06         0.00000E+00
    0.26801E+06        -0.19481E+07         0.00000E+00
    0.00000E+00         0.00000E+00        -0.29634E+06
 
    0.45035E+06         0.31564E+06         0.00000E+00
    0.31564E+06        -0.19467E+07         0.00000E+00
    0.00000E+00         0.00000E+00        -0.29927E+06
 
    0.43408E+06         0.36294E+06         0.00000E+00
    0.36294E+06        -0.19450E+07         0.00000E+00
    0.00000E+00         0.00000E+00        -0.30219E+06
 
    0.41762E+06         0.40991E+06         0.00000E+00
    0.40991E+06        -0.19432E+07         0.00000E+00
    0.00000E+00         0.00000E+00        -0.30511E+06
 
    0.40097E+06         0.45656E+06         0.00000E+00
    0.45656E+06        -0.19411E+07         0.00000E+00
    0.00000E+00         0.00000E+00        -0.30802E+06
 
    0.38414E+06         0.50287E+06         0.00000E+00
    0.50287E+06        -0.19388E+07         0.00000E+00
    0.00000E+00         0.00000E+00        -0.31092E+06
 
    0.36711E+06         0.54885E+06         0.00000E+00
    0.54885E+06        -0.19362E+07         0.00000E+00
    0.00000E+00         0.00000E+00        -0.31382E+06
 
    0.34991E+06         0.59450E+06         0.00000E+00
    0.59450E+06        -0.19335E+07         0.00000E+00
    0.00000E+00         0.00000E+00        -0.31671E+06
 
    0.33252E+06         0.63981E+06         0.00000E+00
    0.63981E+06        -0.19305E+07         0.00000E+00
    0.00000E+00         0.00000E+00        -0.31960E+06
 
    0.31496E+06         0.68479E+06         0.00000E+00
    0.68479E+06        -0.19273E+07         0.00000E+00
    0.00000E+00         0.00000E+00        -0.32247E+06
 
    0.29721E+06         0.72944E+06         0.00000E+00
    0.72944E+06        -0.19239E+07         0.00000E+00
    0.00000E+00         0.00000E+00        -0.32535E+06
 
    0.27930E+06         0.77375E+06         0.00000E+00
    0.77375E+06        -0.19203E+07         0.00000E+00
    0.00000E+00         0.00000E+00        -0.32821E+06
 
    0.26120E+06         0.81772E+06         0.00000E+00
    0.81772E+06        -0.19165E+07         0.00000E+00
    0.00000E+00         0.00000E+00        -0.33107E+06
 
    0.24294E+06         0.86135E+06         0.00000E+00
    0.86135E+06        -0.19125E+07         0.00000E+00
    0.00000E+00         0.00000E+00        -0.33392E+06
 
    0.22450E+06         0.90465E+06         0.00000E+00
    0.90465E+06        -0.19083E+07         0.00000E+00
    0.00000E+00         0.00000E+00        -0.33676E+06
 
    0.20589E+06         0.94760E+06         0.00000E+00
    0.94760E+06        -0.19039E+07         0.00000E+00
    0.00000E+00         0.00000E+00        -0.33960E+06
 
    0.18711E+06         0.99022E+06         0.00000E+00
    0.99022E+06        -0.18992E+07         0.00000E+00
    0.00000E+00         0.00000E+00        -0.34242E+06
 
    0.16816E+06         0.10325E+07         0.00000E+00
    0.10325E+07        -0.18944E+07         0.00000E+00
    0.00000E+00         0.00000E+00        -0.34525E+06
 
    0.14904E+06         0.10744E+07         0.00000E+00
    0.10744E+07        -0.18893E+07         0.00000E+00
    0.00000E+00         0.00000E+00        -0.34806E+06
 
    0.12976E+06         0.11160E+07         0.00000E+00
    0.11160E+07        -0.18841E+07         0.00000E+00
    0.00000E+00         0.00000E+00        -0.35087E+06
 
    0.11030E+06         0.11572E+07         0.00000E+00
    0.11572E+07        -0.18787E+07         0.00000E+00
    0.00000E+00         0.00000E+00        -0.35367E+06
 
    0.90677E+05         0.11981E+07         0.00000E+00
    0.11981E+07        -0.18730E+07         0.00000E+00
    0.00000E+00         0.00000E+00        -0.35646E+06
 
    0.70884E+05         0.12387E+07         0.00000E+00
    0.12387E+07        -0.18671E+07         0.00000E+00
    0.00000E+00         0.00000E+00        -0.35925E+06
 
    0.50924E+05         0.12789E+07         0.00000E+00
    0.12789E+07        -0.18611E+07         0.00000E+00
    0.00000E+00         0.00000E+00        -0.36203E+06
 
    0.30795E+05         0.13187E+07         0.00000E+00
    0.13187E+07        -0.18548E+07         0.00000E+00
    0.00000E+00         0.00000E+00        -0.36481E+06
 
    0.10496E+05         0.13582E+07         0.00000E+00
    0.13582E+07        -0.18484E+07         0.00000E+00
    0.00000E+00         0.00000E+00        -0.36757E+06
 
   -0.99714E+04         0.13974E+07         0.00000E+00
    0.13974E+07        -0.18417E+07         0.00000E+00
    0.00000E+00         0.00000E+00        -0.37033E+06
 
   -0.30609E+05         0.14362E+07         0.00000E+00
    0.14362E+07        -0.18348E+07         0.00000E+00
    0.00000E+00         0.00000E+00        -0.37309E+06
 
   -0.51418E+05         0.14746E+07         0.00000E+00
    0.14746E+07        -0.18278E+07         0.00000E+00
    0.00000E+00         0.00000E+00        -0.37583E+06
 
   -0.72398E+05         0.15127E+07         0.00000E+00
    0.15127E+07        -0.18205E+07         0.00000E+00
    0.00000E+00         0.00000E+00        -0.37858E+06
 
   -0.93550E+05         0.15504E+07         0.00000E+00
    0.15504E+07        -0.18130E+07         0.00000E+00
    0.00000E+00         0.00000E+00        -0.38131E+06
 
   -0.11488E+06         0.15877E+07         0.00000E+00
    0.15877E+07        -0.18053E+07         0.00000E+00
    0.00000E+00         0.00000E+00        -0.38404E+06
 
   -0.13637E+06         0.16247E+07         0.00000E+00
    0.16247E+07        -0.17974E+07         0.00000E+00
    0.00000E+00         0.00000E+00        -0.38676E+06
 
   -0.15805E+06         0.16614E+07         0.00000E+00
    0.16614E+07        -0.17893E+07         0.00000E+00
    0.00000E+00         0.00000E+00        -0.38948E+06
 
   -0.17990E+06         0.16976E+07         0.00000E+00
    0.16976E+07        -0.17810E+07         0.00000E+00
    0.00000E+00         0.00000E+00        -0.39219E+06
 
   -0.20193E+06         0.17335E+07         0.00000E+00
    0.17335E+07        -0.17725E+07         0.00000E+00
    0.00000E+00         0.00000E+00        -0.39489E+06
 
   -0.22414E+06         0.17690E+07         0.00000E+00
    0.17690E+07        -0.17638E+07         0.00000E+00
    0.00000E+00         0.00000E+00        -0.39759E+06
 
   -0.24653E+06         0.18041E+07         0.00000E+00
    0.18041E+07        -0.17549E+07         0.00000E+00
    0.00000E+00         0.00000E+00        -0.40028E+06
 
   -0.26910E+06         0.18389E+07         0.00000E+00
    0.18389E+07        -0.17458E+07         0.00000E+00
    0.00000E+00         0.00000E+00        -0.40297E+06
 
   -0.29185E+06         0.18733E+07         0.00000E+00
    0.18733E+07        -0.17364E+07         0.00000E+00
    0.00000E+00         0.00000E+00        -0.40565E+06
 
   -0.31479E+06         0.19073E+07         0.00000E+00
    0.19073E+07        -0.17269E+07         0.00000E+00
    0.00000E+00         0.00000E+00        -0.40833E+06
 
   -0.33792E+06         0.19409E+07         0.00000E+00
    0.19409E+07        -0.17171E+07         0.00000E+00
    0.00000E+00         0.00000E+00        -0.41100E+06
 
   -0.36123E+06         0.19741E+07         0.00000E+00
    0.19741E+07        -0.17071E+07         0.00000E+00
    0.00000E+00         0.00000E+00        -0.41367E+06
 
   -0.38473E+06         0.20070E+07         0.00000E+00
    0.20070E+07        -0.16969E+07         0.00000E+00
    0.00000E+00         0.00000E+00        -0.41634E+06
 
   -0.40843E+06         0.20394E+07         0.00000E+00
    0.20394E+07        -0.16865E+07         0.00000E+00
    0.00000E+00         0.00000E+00        -0.41899E+06
 
    0.58278E+06         0.25594E+05         0.00000E+00
    0.25594E+05        -0.21626E+07         0.00000E+00
    0.00000E+00         0.00000E+00        -0.31596E+06
 
    0.56611E+06         0.76005E+05         0.00000E+00
    0.76005E+05        -0.21623E+07         0.00000E+00
    0.00000E+00         0.00000E+00        -0.31925E+06
 
    0.54922E+06         0.12608E+06         0.00000E+00
    0.12608E+06        -0.21618E+07         0.00000E+00
    0.00000E+00         0.00000E+00        -0.32252E+06
 
    0.53212E+06         0.17583E+06         0.00000E+00
    0.17583E+06        -0.21611E+07         0.00000E+00
    0.00000E+00         0.00000E+00        -0.32579E+06
 
    0.51480E+06         0.22524E+06         0.00000E+00
    0.22524E+06        -0.21600E+07         0.00000E+00
    0.00000E+00         0.00000E+00        -0.32905E+06
 
    0.49728E+06         0.27432E+06         0.00000E+00
    0.27432E+06        -0.21588E+07         0.00000E+00
    0.00000E+00         0.00000E+00        -0.33230E+06
 
    0.47956E+06         0.32306E+06         0.00000E+00
    0.32306E+06        -0.21572E+07         0.00000E+00
    0.00000E+00         0.00000E+00        -0.33554E+06
 
    0.46163E+06         0.37147E+06         0.00000E+00
    0.37147E+06        -0.21555E+07         0.00000E+00
    0.00000E+00         0.00000E+00        -0.33877E+06
 
    0.44352E+06         0.41954E+06         0.00000E+00
    0.41954E+06        -0.21535E+07         0.00000E+00
    0.00000E+00         0.00000E+00        -0.34200E+06
 
    0.42520E+06         0.46728E+06         0.00000E+00
    0.46728E+06        -0.21513E+07         0.00000E+00
    0.00000E+00         0.00000E+00        -0.34521E+06
 
    0.40670E+06         0.51468E+06         0.00000E+00
    0.51468E+06        -0.21488E+07         0.00000E+00
    0.00000E+00         0.00000E+00        -0.34842E+06
 
    0.38801E+06         0.56174E+06         0.00000E+00
    0.56174E+06        -0.21461E+07         0.00000E+00
    0.00000E+00         0.00000E+00        -0.35162E+06
 
    0.36913E+06         0.60847E+06         0.00000E+00
    0.60847E+06        -0.21432E+07         0.00000E+00
    0.00000E+00         0.00000E+00        -0.35481E+06
 
    0.35006E+06         0.65486E+06         0.00000E+00
    0.65486E+06        -0.21400E+07         0.00000E+00
    0.00000E+00         0.00000E+00        -0.35799E+06
 
    0.33082E+06         0.70091E+06         0.00000E+00
    0.70091E+06        -0.21366E+07         0.00000E+00
    0.00000E+00         0.00000E+00        -0.36116E+06
 
    0.31139E+06         0.74662E+06         0.00000E+00
    0.74662E+06        -0.21330E+07         0.00000E+00
    0.00000E+00         0.00000E+00        -0.36433E+06
 
    0.29179E+06         0.79200E+06         0.00000E+00
    0.79200E+06        -0.21292E+07         0.00000E+00
    0.00000E+00         0.00000E+00        -0.36748E+06
 
    0.27200E+06         0.83703E+06         0.00000E+00
    0.83703E+06        -0.21251E+07         0.00000E+00
    0.00000E+00         0.00000E+00        -0.37062E+06
 
    0.25204E+06         0.88173E+06         0.00000E+00
    0.88173E+06        -0.21208E+07         0.00000E+00
    0.00000E+00         0.00000E+00        -0.37376E+06
 
    0.23191E+06         0.92609E+06         0.00000E+00
    0.92609E+06        -0.21163E+07         0.00000E+00
    0.00000E+00         0.00000E+00        -0.37689E+06
 
    0.21160E+06         0.97011E+06         0.00000E+00
    0.97011E+06        -0.21116E+07         0.00000E+00
    0.00000E+00         0.00000E+00        -0.38000E+06
 
    0.19111E+06         0.10138E+07         0.00000E+00
    0.10138E+07        -0.21067E+07         0.00000E+00
    0.00000E+00         0.00000E+00        -0.38311E+06
 
    0.17045E+06         0.10571E+07         0.00000E+00
    0.10571E+07        -0.21015E+07         0.00000E+00
    0.00000E+00         0.00000E+00        -0.38621E+06
 
    0.14962E+06         0.11001E+07         0.00000E+00
    0.11001E+07        -0.20961E+07         0.00000E+00
    0.00000E+00         0.00000E+00        -0.38930E+06
 
    0.12861E+06         0.11428E+07         0.00000E+00
    0.11428E+07        -0.20905E+07         0.00000E+00
    0.00000E+00         0.00000E+00        -0.39238E+06
 
    0.10743E+06         0.11851E+07         0.00000E+00
    0.11851E+07        -0.20847E+07         0.00000E+00
    0.00000E+00         0.00000E+00        -0.39545E+06
 
    0.86079E+05         0.12270E+07         0.00000E+00
    0.12270E+07        -0.20786E+07         0.00000E+00
    0.00000E+00         0.00000E+00        -0.39851E+06
 
    0.64551E+05         0.12687E+07         0.00000E+00
    0.12687E+07        -0.20724E+07         0.00000E+00
    0.00000E+00         0.00000E+00        -0.40156E+06
 
    0.42849E+05         0.13099E+07         0.00000E+00
    0.13099E+07        -0.20659E+07         0.00000E+00
    0.00000E+00         0.00000E+00        -0.40461E+06
 
    0.20971E+05         0.13509E+07         0.00000E+00
    0.13509E+07        -0.20592E+07         0.00000E+00
    0.00000E+00         0.00000E+00        -0.40764E+06
 
   -0.10819E+04         0.13914E+07         0.00000E+00
    0.13914E+07        -0.20523E+07         0.00000E+00
    0.00000E+00         0.00000E+00        -0.41067E+06
 
   -0.23312E+05         0.14317E+07         0.00000E+00
    0.14317E+07        -0.20451E+07         0.00000E+00
    0.00000E+00         0.00000E+00        -0.41369E+06
 
   -0.45719E+05         0.14715E+07         0.00000E+00
    0.14715E+07        -0.20377E+07         0.00000E+00
    0.00000E+00         0.00000E+00        -0.41669E+06
 
   -0.68305E+05         0.15111E+07         0.00000E+00
    0.15111E+07        -0.20302E+07         0.00000E+00
    0.00000E+00         0.00000E+00        -0.41969E+06
 
   -0.91070E+05         0.15502E+07         0.00000E+00
    0.15502E+07        -0.20224E+07         0.00000E+00
    0.00000E+00         0.00000E+00        -0.42268E+06
 
   -0.11402E+06         0.15890E+07         0.00000E+00
    0.15890E+07        -0.20143E+07         0.00000E+00
    0.00000E+00         0.00000E+00        -0.42567E+06
 
   -0.13715E+06         0.16275E+07         0.00000E+00
    0.16275E+07        -0.20061E+07         0.00000E+00
    0.00000E+00         0.00000E+00        -0.42864E+06
 
   -0.16046E+06         0.16656E+07         0.00000E+00
    0.16656E+07        -0.19976E+07         0.00000E+00
    0.00000E+00         0.00000E+00        -0.43161E+06
 
   -0.18396E+06         0.17033E+07         0.00000E+00
    0.17033E+07        -0.19889E+07         0.00000E+00
    0.00000E+00         0.00000E+00        -0.43457E+06
 
   -0.20764E+06         0.17407E+07         0.00000E+00
    0.17407E+07        -0.19800E+07         0.00000E+00
    0.00000E+00         0.00000E+00        -0.43752E+06
 
   -0.23151E+06         0.17777E+07         0.00000E+00
    0.17777E+07        -0.19708E+07         0.00000E+00
    0.00000E+00         0.00000E+00        -0.44046E+06
 
   -0.25558E+06         0.18144E+07         0.00000E+00
    0.18144E+07        -0.19614E+07         0.00000E+00
    0.00000E+00         0.00000E+00        -0.44340E+06
 
   -0.27983E+06         0.18507E+07         0.00000E+00
    0.18507E+07        -0.19518E+07         0.00000E+00
    0.00000E+00         0.00000E+00        -0.44632E+06
 
   -0.30428E+06         0.18866E+07         0.00000E+00
    0.18866E+07        -0.19419E+07         0.00000E+00
    0.00000E+00         0.00000E+00        -0.44924E+06
 
   -0.32893E+06         0.19221E+07         0.00000E+00
    0.19221E+07        -0.19319E+07         0.00000E+00
    0.00000E+00         0.00000E+00        -0.45216E+06
 
   -0.35378E+06         0.19573E+07         0.00000E+00
    0.19573E+07        -0.19215E+07         0.00000E+00
    0.00000E+00         0.00000E+00        -0.45506E+06
 
   -0.37882E+06         0.19921E+07         0.00000E+00
    0.19921E+07        -0.19110E+07         0.00000E+00
    0.00000E+00         0.00000E+00        -0.45796E+06
 
   -0.40407E+06         0.20264E+07         0.00000E+00
    0.20264E+07        -0.19002E+07         0.00000E+00
    0.00000E+00         0.00000E+00        -0.46086E+06
 
   -0.42952E+06         0.20605E+07         0.00000E+00
    0.20605E+07        -0.18892E+07         0.00000E+00
    0.00000E+00         0.00000E+00        -0.46375E+06
 
   -0.45518E+06         0.20941E+07         0.00000E+00
    0.20941E+07        -0.18779E+07         0.00000E+00
    0.00000E+00         0.00000E+00        -0.46663E+06
 
    0.61936E+06         0.26226E+05         0.00000E+00
    0.26226E+05        -0.23820E+07         0.00000E+00
    0.00000E+00         0.00000E+00        -0.35253E+06
 
    0.60099E+06         0.77873E+05         0.00000E+00
    0.77873E+05        -0.23817E+07         0.00000E+00
    0.00000E+00         0.00000E+00        -0.35615E+06
 
    0.58241E+06         0.12918E+06         0.00000E+00
    0.12918E+06        -0.23812E+07         0.00000E+00
    0.00000E+00         0.00000E+00        -0.35975E+06
 
    0.56362E+06         0.18013E+06         0.00000E+00
    0.18013E+06        -0.23804E+07         0.00000E+00
    0.00000E+00         0.00000E+00        -0.36335E+06
 
    0.54461E+06         0.23075E+06         0.00000E+00
    0.23075E+06        -0.23793E+07         0.00000E+00
    0.00000E+00         0.00000E+00        -0.36694E+06
 
    0.52539E+06         0.28102E+06         0.00000E+00
    0.28102E+06        -0.23780E+07         0.00000E+00
    0.00000E+00         0.00000E+00        -0.37051E+06
 
    0.50597E+06         0.33095E+06         0.00000E+00
    0.33095E+06        -0.23764E+07         0.00000E+00
    0.00000E+00         0.00000E+00        -0.37408E+06
 
    0.48636E+06         0.38053E+06         0.00000E+00
    0.38053E+06        -0.23745E+07         0.00000E+00
    0.00000E+00         0.00000E+00        -0.37763E+06
 
    0.46654E+06         0.42978E+06         0.00000E+00
    0.42978E+06        -0.23724E+07         0.00000E+00
    0.00000E+00         0.00000E+00        -0.38117E+06
 
    0.44653E+06         0.47868E+06         0.00000E+00
    0.47868E+06        -0.23701E+07         0.00000E+00
    0.00000E+00         0.00000E+00        -0.38470E+06
 
    0.42633E+06         0.52724E+06         0.00000E+00
    0.52724E+06        -0.23674E+07         0.00000E+00
    0.00000E+00         0.00000E+00        -0.38822E+06
 
    0.40594E+06         0.57545E+06         0.00000E+00
    0.57545E+06        -0.23646E+07         0.00000E+00
    0.00000E+00         0.00000E+00        -0.39173E+06
 
    0.38537E+06         0.62333E+06         0.00000E+00
    0.62333E+06        -0.23615E+07         0.00000E+00
    0.00000E+00         0.00000E+00        -0.39523E+06
 
    0.36461E+06         0.67087E+06         0.00000E+00
    0.67087E+06        -0.23582E+07         0.00000E+00
    0.00000E+00         0.00000E+00        -0.39871E+06
 
    0.34367E+06         0.71806E+06         0.00000E+00
    0.71806E+06        -0.23546E+07         0.00000E+00
    0.00000E+00         0.00000E+00        -0.40219E+06
 
    0.32254E+06         0.76491E+06         0.00000E+00
    0.76491E+06        -0.23508E+07         0.00000E+00
    0.00000E+00         0.00000E+00        -0.40565E+06
 
    0.30124E+06         0.81143E+06         0.00000E+00
    0.81143E+06        -0.23467E+07         0.00000E+00
    0.00000E+00         0.00000E+00        -0.40910E+06
 
    0.27975E+06         0.85760E+06         0.00000E+00
    0.85760E+06        -0.23424E+07         0.00000E+00
    0.00000E+00         0.00000E+00        -0.41254E+06
 
    0.25809E+06         0.90344E+06         0.00000E+00
    0.90344E+06        -0.23379E+07         0.00000E+00
    0.00000E+00         0.00000E+00        -0.41596E+06
 
    0.23625E+06         0.94893E+06         0.00000E+00
    0.94893E+06        -0.23331E+07         0.00000E+00
    0.00000E+00         0.00000E+00        -0.41938E+06
 
    0.21424E+06         0.99409E+06         0.00000E+00
    0.99409E+06        -0.23281E+07         0.00000E+00
    0.00000E+00         0.00000E+00        -0.42278E+06
 
    0.19205E+06         0.10389E+07         0.00000E+00
    0.10389E+07        -0.23229E+07         0.00000E+00
    0.00000E+00         0.00000E+00        -0.42617E+06
 
    0.16968E+06         0.10834E+07         0.00000E+00
    0.10834E+07        -0.23174E+07         0.00000E+00
    0.00000E+00         0.00000E+00        -0.42955E+06
 
    0.14714E+06         0.11275E+07         0.00000E+00
    0.11275E+07        -0.23117E+07         0.00000E+00
    0.00000E+00         0.00000E+00        -0.43292E+06
 
    0.12442E+06         0.11713E+07         0.00000E+00
    0.11713E+07        -0.23058E+07         0.00000E+00
    0.00000E+00         0.00000E+00        -0.43628E+06
 
    0.10152E+06         0.12148E+07         0.00000E+00
    0.12148E+07        -0.22996E+07         0.00000E+00
    0.00000E+00         0.00000E+00        -0.43962E+06
 
    0.78449E+05         0.12579E+07         0.00000E+00
    0.12579E+07        -0.22932E+07         0.00000E+00
    0.00000E+00         0.00000E+00        -0.44295E+06
 
    0.55198E+05         0.13007E+07         0.00000E+00
    0.13007E+07        -0.22866E+07         0.00000E+00
    0.00000E+00         0.00000E+00        -0.44627E+06
 
    0.31769E+05         0.13431E+07         0.00000E+00
    0.13431E+07        -0.22797E+07         0.00000E+00
    0.00000E+00         0.00000E+00        -0.44958E+06
 
    0.81595E+04         0.13852E+07         0.00000E+00
    0.13852E+07        -0.22726E+07         0.00000E+00
    0.00000E+00         0.00000E+00        -0.45288E+06
 
   -0.15630E+05         0.14269E+07         0.00000E+00
    0.14269E+07        -0.22652E+07         0.00000E+00
    0.00000E+00         0.00000E+00        -0.45617E+06
 
   -0.39602E+05         0.14683E+07         0.00000E+00
    0.14683E+07        -0.22576E+07         0.00000E+00
    0.00000E+00         0.00000E+00        -0.45944E+06
 
   -0.63757E+05         0.15094E+07         0.00000E+00
    0.15094E+07        -0.22498E+07         0.00000E+00
    0.00000E+00         0.00000E+00        -0.46271E+06
 
   -0.88097E+05         0.15501E+07         0.00000E+00
    0.15501E+07        -0.22417E+07         0.00000E+00
    0.00000E+00         0.00000E+00        -0.46596E+06
 
   -0.11262E+06         0.15905E+07         0.00000E+00
    0.15905E+07        -0.22334E+07         0.00000E+00
    0.00000E+00         0.00000E+00        -0.46920E+06
 
   -0.13734E+06         0.16305E+07         0.00000E+00
    0.16305E+07        -0.22248E+07         0.00000E+00
    0.00000E+00         0.00000E+00        -0.47243E+06
 
   -0.16224E+06         0.16701E+07         0.00000E+00
    0.16701E+07        -0.22160E+07         0.00000E+00
    0.00000E+00         0.00000E+00        -0.47565E+06
 
   -0.18734E+06         0.17094E+07         0.00000E+00
    0.17094E+07        -0.22070E+07         0.00000E+00
    0.00000E+00         0.00000E+00        -0.47886E+06
 
   -0.21263E+06         0.17484E+07         0.00000E+00
    0.17484E+07        -0.21977E+07         0.00000E+00
    0.00000E+00         0.00000E+00        -0.48206E+06
 
   -0.23812E+06         0.17870E+07         0.00000E+00
    0.17870E+07        -0.21882E+07         0.00000E+00
    0.00000E+00         0.00000E+00        -0.48525E+06
 
   -0.26380E+06         0.18253E+07         0.00000E+00
    0.18253E+07        -0.21784E+07         0.00000E+00
    0.00000E+00         0.00000E+00        -0.48843E+06
 
   -0.28969E+06         0.18632E+07         0.00000E+00
    0.18632E+07        -0.21683E+07         0.00000E+00
    0.00000E+00         0.00000E+00        -0.49160E+06
 
   -0.31578E+06         0.19007E+07         0.00000E+00
    0.19007E+07        -0.21580E+07         0.00000E+00
    0.00000E+00         0.00000E+00        -0.49476E+06
 
   -0.34208E+06         0.19378E+07         0.00000E+00
    0.19378E+07        -0.21475E+07         0.00000E+00
    0.00000E+00         0.00000E+00        -0.49792E+06
 
   -0.36858E+06         0.19746E+07         0.00000E+00
    0.19746E+07        -0.21367E+07         0.00000E+00
    0.00000E+00         0.00000E+00        -0.50106E+06
 
   -0.39530E+06         0.20111E+07         0.00000E+00
    0.20111E+07        -0.21257E+07         0.00000E+00
    0.00000E+00         0.00000E+00        -0.50419E+06
 
   -0.42223E+06         0.20471E+07         0.00000E+00
    0.20471E+07        -0.21143E+07         0.00000E+00
    0.00000E+00         0.00000E+00        -0.50731E+06
 
   -0.44938E+06         0.20828E+07         0.00000E+00
    0.20828E+07        -0.21028E+07         0.00000E+00
    0.00000E+00         0.00000E+00        -0.51043E+06
 
   -0.47674E+06         0.21181E+07         0.00000E+00
    0.21181E+07        -0.20909E+07         0.00000E+00
    0.00000E+00         0.00000E+00        -0.51354E+06
 
   -0.50433E+06         0.21531E+07         0.00000E+00
    0.21531E+07        -0.20788E+07         0.00000E+00
    0.00000E+00         0.00000E+00        -0.51664E+06
 
    0.65290E+06         0.26893E+05         0.00000E+00
    0.26893E+05        -0.26108E+07         0.00000E+00
    0.00000E+00         0.00000E+00        -0.39158E+06
 
    0.63279E+06         0.79840E+05         0.00000E+00
    0.79840E+05        -0.26105E+07         0.00000E+00
    0.00000E+00         0.00000E+00        -0.39555E+06
 
    0.61246E+06         0.13243E+06         0.00000E+00
    0.13243E+06        -0.26100E+07         0.00000E+00
    0.00000E+00         0.00000E+00        -0.39950E+06
 
    0.59192E+06         0.18467E+06         0.00000E+00
    0.18467E+06        -0.26091E+07         0.00000E+00
    0.00000E+00         0.00000E+00        -0.40344E+06
 
    0.57116E+06         0.23655E+06         0.00000E+00
    0.23655E+06        -0.26080E+07         0.00000E+00
    0.00000E+00         0.00000E+00        -0.40736E+06
 
    0.55021E+06         0.28808E+06         0.00000E+00
    0.28808E+06        -0.26066E+07         0.00000E+00
    0.00000E+00         0.00000E+00        -0.41127E+06
 
    0.52905E+06         0.33926E+06         0.00000E+00
    0.33926E+06        -0.26049E+07         0.00000E+00
    0.00000E+00         0.00000E+00        -0.41517E+06
 
    0.50770E+06         0.39009E+06         0.00000E+00
    0.39009E+06        -0.26030E+07         0.00000E+00
    0.00000E+00         0.00000E+00        -0.41905E+06
 
    0.48616E+06         0.44057E+06         0.00000E+00
    0.44057E+06        -0.26008E+07         0.00000E+00
    0.00000E+00         0.00000E+00        -0.42292E+06
 
    0.46442E+06         0.49070E+06         0.00000E+00
    0.49070E+06        -0.25983E+07         0.00000E+00
    0.00000E+00         0.00000E+00        -0.42678E+06
 
    0.44249E+06         0.54048E+06         0.00000E+00
    0.54048E+06        -0.25956E+07         0.00000E+00
    0.00000E+00         0.00000E+00        -0.43062E+06
 
    0.42038E+06         0.58991E+06         0.00000E+00
    0.58991E+06        -0.25926E+07         0.00000E+00
    0.00000E+00         0.00000E+00        -0.43445E+06
 
    0.39809E+06         0.63901E+06         0.00000E+00
    0.63901E+06        -0.25894E+07         0.00000E+00
    0.00000E+00         0.00000E+00        -0.43826E+06
 
    0.37561E+06         0.68775E+06         0.00000E+00
    0.68775E+06        -0.25859E+07         0.00000E+00
    0.00000E+00         0.00000E+00        -0.44205E+06
 
    0.35296E+06         0.73616E+06         0.00000E+00
    0.73616E+06        -0.25821E+07         0.00000E+00
    0.00000E+00         0.00000E+00        -0.44584E+06
 
    0.33012E+06         0.78422E+06         0.00000E+00
    0.78422E+06        -0.25781E+07         0.00000E+00
    0.00000E+00         0.00000E+00        -0.44960E+06
 
    0.30711E+06         0.83194E+06         0.00000E+00
    0.83194E+06        -0.25739E+07         0.00000E+00
    0.00000E+00         0.00000E+00        -0.45336E+06
 
    0.28392E+06         0.87933E+06         0.00000E+00
    0.87933E+06        -0.25694E+07         0.00000E+00
    0.00000E+00         0.00000E+00        -0.45710E+06
 
    0.26056E+06         0.92637E+06         0.00000E+00
    0.92637E+06        -0.25647E+07         0.00000E+00
    0.00000E+00         0.00000E+00        -0.46082E+06
 
    0.23702E+06         0.97307E+06         0.00000E+00
    0.97307E+06        -0.25597E+07         0.00000E+00
    0.00000E+00         0.00000E+00        -0.46453E+06
 
    0.21330E+06         0.10194E+07         0.00000E+00
    0.10194E+07        -0.25544E+07         0.00000E+00
    0.00000E+00         0.00000E+00        -0.46822E+06
 
    0.18941E+06         0.10655E+07         0.00000E+00
    0.10655E+07        -0.25489E+07         0.00000E+00
    0.00000E+00         0.00000E+00        -0.47190E+06
 
    0.16534E+06         0.11112E+07         0.00000E+00
    0.11112E+07        -0.25432E+07         0.00000E+00
    0.00000E+00         0.00000E+00        -0.47556E+06
 
    0.14110E+06         0.11565E+07         0.00000E+00
    0.11565E+07        -0.25372E+07         0.00000E+00
    0.00000E+00         0.00000E+00        -0.47921E+06
 
    0.11668E+06         0.12015E+07         0.00000E+00
    0.12015E+07        -0.25309E+07         0.00000E+00
    0.00000E+00         0.00000E+00        -0.48285E+06
 
    0.92081E+05         0.12462E+07         0.00000E+00
    0.12462E+07        -0.25244E+07         0.00000E+00
    0.00000E+00         0.00000E+00        -0.48647E+06
 
    0.67306E+05         0.12906E+07         0.00000E+00
    0.12906E+07        -0.25177E+07         0.00000E+00
    0.00000E+00         0.00000E+00        -0.49008E+06
 
    0.42352E+05         0.13346E+07         0.00000E+00
    0.13346E+07        -0.25107E+07         0.00000E+00
    0.00000E+00         0.00000E+00        -0.49367E+06
 
    0.17217E+05         0.13782E+07         0.00000E+00
    0.13782E+07        -0.25034E+07         0.00000E+00
    0.00000E+00         0.00000E+00        -0.49724E+06
 
   -0.80996E+04         0.14216E+07         0.00000E+00
    0.14216E+07        -0.24959E+07         0.00000E+00
    0.00000E+00         0.00000E+00        -0.50081E+06
 
   -0.33600E+05         0.14646E+07         0.00000E+00
    0.14646E+07        -0.24882E+07         0.00000E+00
    0.00000E+00         0.00000E+00        -0.50435E+06
 
   -0.59286E+05         0.15072E+07         0.00000E+00
    0.15072E+07        -0.24802E+07         0.00000E+00
    0.00000E+00         0.00000E+00        -0.50789E+06
 
   -0.85159E+05         0.15496E+07         0.00000E+00
    0.15496E+07        -0.24719E+07         0.00000E+00
    0.00000E+00         0.00000E+00        -0.51141E+06
 
   -0.11122E+06         0.15916E+07         0.00000E+00
    0.15916E+07        -0.24634E+07         0.00000E+00
    0.00000E+00         0.00000E+00        -0.51492E+06
 
   -0.13748E+06         0.16332E+07         0.00000E+00
    0.16332E+07        -0.24546E+07         0.00000E+00
    0.00000E+00         0.00000E+00        -0.51841E+06
 
   -0.16393E+06         0.16745E+07         0.00000E+00
    0.16745E+07        -0.24455E+07         0.00000E+00
    0.00000E+00         0.00000E+00        -0.52189E+06
 
   -0.19057E+06         0.17155E+07         0.00000E+00
    0.17155E+07        -0.24362E+07         0.00000E+00
    0.00000E+00         0.00000E+00        -0.52535E+06
 
   -0.21741E+06         0.17561E+07         0.00000E+00
    0.17561E+07        -0.24266E+07         0.00000E+00
    0.00000E+00         0.00000E+00        -0.52881E+06
 
   -0.24446E+06         0.17964E+07         0.00000E+00
    0.17964E+07        -0.24168E+07         0.00000E+00
    0.00000E+00         0.00000E+00        -0.53225E+06
 
   -0.27171E+06         0.18363E+07         0.00000E+00
    0.18363E+07        -0.24067E+07         0.00000E+00
    0.00000E+00         0.00000E+00        -0.53567E+06
 
   -0.29917E+06         0.18759E+07         0.00000E+00
    0.18759E+07        -0.23963E+07         0.00000E+00
    0.00000E+00         0.00000E+00        -0.53909E+06
 
   -0.32684E+06         0.19152E+07         0.00000E+00
    0.19152E+07        -0.23856E+07         0.00000E+00
    0.00000E+00         0.00000E+00        -0.54249E+06
 
   -0.35472E+06         0.19541E+07         0.00000E+00
    0.19541E+07        -0.23747E+07         0.00000E+00
    0.00000E+00         0.00000E+00        -0.54588E+06
 
   -0.38282E+06         0.19926E+07         0.00000E+00
    0.19926E+07        -0.23635E+07         0.00000E+00
    0.00000E+00         0.00000E+00        -0.54926E+06
 
   -0.41114E+06         0.20308E+07         0.00000E+00
    0.20308E+07        -0.23520E+07         0.00000E+00
    0.00000E+00         0.00000E+00        -0.55263E+06
 
   -0.43968E+06         0.20686E+07         0.00000E+00
    0.20686E+07        -0.23402E+07         0.00000E+00
    0.00000E+00         0.00000E+00        -0.55598E+06
 
   -0.46845E+06         0.21061E+07         0.00000E+00
    0.21061E+07        -0.23282E+07         0.00000E+00
    0.00000E+00         0.00000E+00        -0.55933E+06
 
   -0.49745E+06         0.21432E+07         0.00000E+00
    0.21432E+07        -0.23159E+07         0.00000E+00
    0.00000E+00         0.00000E+00        -0.56266E+06
 
   -0.52668E+06         0.21799E+07         0.00000E+00
    0.21799E+07        -0.23032E+07         0.00000E+00
    0.00000E+00         0.00000E+00        -0.56598E+06
 
   -0.55615E+06         0.22163E+07         0.00000E+00
    0.22163E+07        -0.22903E+07         0.00000E+00
    0.00000E+00         0.00000E+00        -0.56929E+06
 
    0.68282E+06         0.27589E+05         0.00000E+00
    0.27589E+05        -0.28499E+07         0.00000E+00
    0.00000E+00         0.00000E+00        -0.43342E+06
 
    0.66089E+06         0.81896E+05         0.00000E+00
    0.81896E+05        -0.28496E+07         0.00000E+00
    0.00000E+00         0.00000E+00        -0.43775E+06
 
    0.63875E+06         0.13584E+06         0.00000E+00
    0.13584E+06        -0.28490E+07         0.00000E+00
    0.00000E+00         0.00000E+00        -0.44206E+06
 
    0.61640E+06         0.18941E+06         0.00000E+00
    0.18941E+06        -0.28482E+07         0.00000E+00
    0.00000E+00         0.00000E+00        -0.44635E+06
 
    0.59386E+06         0.24262E+06         0.00000E+00
    0.24262E+06        -0.28470E+07         0.00000E+00
    0.00000E+00         0.00000E+00        -0.45063E+06
 
    0.57112E+06         0.29546E+06         0.00000E+00
    0.29546E+06        -0.28455E+07         0.00000E+00
    0.00000E+00         0.00000E+00        -0.45489E+06
 
    0.54818E+06         0.34795E+06         0.00000E+00
    0.34795E+06        -0.28438E+07         0.00000E+00
    0.00000E+00         0.00000E+00        -0.45913E+06
 
    0.52506E+06         0.40007E+06         0.00000E+00
    0.40007E+06        -0.28418E+07         0.00000E+00
    0.00000E+00         0.00000E+00        -0.46335E+06
 
    0.50174E+06         0.45185E+06         0.00000E+00
    0.45185E+06        -0.28395E+07         0.00000E+00
    0.00000E+00         0.00000E+00        -0.46756E+06
 
    0.47825E+06         0.50326E+06         0.00000E+00
    0.50326E+06        -0.28370E+07         0.00000E+00
    0.00000E+00         0.00000E+00        -0.47175E+06
 
    0.45457E+06         0.55433E+06         0.00000E+00
    0.55433E+06        -0.28342E+07         0.00000E+00
    0.00000E+00         0.00000E+00        -0.47592E+06
 
    0.43072E+06         0.60504E+06         0.00000E+00
    0.60504E+06        -0.28311E+07         0.00000E+00
    0.00000E+00         0.00000E+00        -0.48007E+06
 
    0.40669E+06         0.65541E+06         0.00000E+00
    0.65541E+06        -0.28277E+07         0.00000E+00
    0.00000E+00         0.00000E+00        -0.48420E+06
 
    0.38248E+06         0.70543E+06         0.00000E+00
    0.70543E+06        -0.28241E+07         0.00000E+00
    0.00000E+00         0.00000E+00        -0.48832E+06
 
    0.35810E+06         0.75511E+06         0.00000E+00
    0.75511E+06        -0.28202E+07         0.00000E+00
    0.00000E+00         0.00000E+00        -0.49242E+06
 
    0.33355E+06         0.80444E+06         0.00000E+00
    0.80444E+06        -0.28161E+07         0.00000E+00
    0.00000E+00         0.00000E+00        -0.49650E+06
 
    0.30882E+06         0.85344E+06         0.00000E+00
    0.85344E+06        -0.28116E+07         0.00000E+00
    0.00000E+00         0.00000E+00        -0.50056E+06
 
    0.28392E+06         0.90209E+06         0.00000E+00
    0.90209E+06        -0.28070E+07         0.00000E+00
    0.00000E+00         0.00000E+00        -0.50461E+06
 
    0.25886E+06         0.95041E+06         0.00000E+00
    0.95041E+06        -0.28020E+07         0.00000E+00
    0.00000E+00         0.00000E+00        -0.50863E+06
 
    0.23362E+06         0.99838E+06         0.00000E+00
    0.99838E+06        -0.27968E+07         0.00000E+00
    0.00000E+00         0.00000E+00        -0.51264E+06
 
    0.20821E+06         0.10460E+07         0.00000E+00
    0.10460E+07        -0.27914E+07         0.00000E+00
    0.00000E+00         0.00000E+00        -0.51663E+06
 
    0.18263E+06         0.10933E+07         0.00000E+00
    0.10933E+07        -0.27856E+07         0.00000E+00
    0.00000E+00         0.00000E+00        -0.52060E+06
 
    0.15688E+06         0.11403E+07         0.00000E+00
    0.11403E+07        -0.27796E+07         0.00000E+00
    0.00000E+00         0.00000E+00        -0.52455E+06
 
    0.13095E+06         0.11870E+07         0.00000E+00
    0.11870E+07        -0.27734E+07         0.00000E+00
    0.00000E+00         0.00000E+00        -0.52849E+06
 
    0.10485E+06         0.12333E+07         0.00000E+00
    0.12333E+07        -0.27669E+07         0.00000E+00
    0.00000E+00         0.00000E+00        -0.53241E+06
 
    0.78575E+05         0.12793E+07         0.00000E+00
    0.12793E+07        -0.27601E+07         0.00000E+00
    0.00000E+00         0.00000E+00        -0.53630E+06
 
    0.52123E+05         0.13249E+07         0.00000E+00
    0.13249E+07        -0.27531E+07         0.00000E+00
    0.00000E+00         0.00000E+00        -0.54019E+06
 
    0.25493E+05         0.13702E+07         0.00000E+00
    0.13702E+07        -0.27457E+07         0.00000E+00
    0.00000E+00         0.00000E+00        -0.54405E+06
 
   -0.13165E+04         0.14152E+07         0.00000E+00
    0.14152E+07        -0.27382E+07         0.00000E+00
    0.00000E+00         0.00000E+00        -0.54789E+06
 
   -0.28309E+05         0.14599E+07         0.00000E+00
    0.14599E+07        -0.27303E+07         0.00000E+00
    0.00000E+00         0.00000E+00        -0.55172E+06
 
   -0.55485E+05         0.15043E+07         0.00000E+00
    0.15043E+07        -0.27222E+07         0.00000E+00
    0.00000E+00         0.00000E+00        -0.55553E+06
 
   -0.82849E+05         0.15483E+07         0.00000E+00
    0.15483E+07        -0.27138E+07         0.00000E+00
    0.00000E+00         0.00000E+00        -0.55933E+06
 
   -0.11040E+06         0.15920E+07         0.00000E+00
    0.15920E+07        -0.27051E+07         0.00000E+00
    0.00000E+00         0.00000E+00        -0.56310E+06
 
   -0.13815E+06         0.16353E+07         0.00000E+00
    0.16353E+07        -0.26962E+07         0.00000E+00
    0.00000E+00         0.00000E+00        -0.56686E+06
 
   -0.16609E+06         0.16784E+07         0.00000E+00
    0.16784E+07        -0.26869E+07         0.00000E+00
    0.00000E+00         0.00000E+00        -0.57061E+06
 
   -0.19422E+06         0.17211E+07         0.00000E+00
    0.17211E+07        -0.26774E+07         0.00000E+00
    0.00000E+00         0.00000E+00        -0.57433E+06
 
   -0.22256E+06         0.17634E+07         0.00000E+00
    0.17634E+07        -0.26676E+07         0.00000E+00
    0.00000E+00         0.00000E+00        -0.57804E+06
 
   -0.25111E+06         0.18055E+07         0.00000E+00
    0.18055E+07        -0.26576E+07         0.00000E+00
    0.00000E+00         0.00000E+00        -0.58173E+06
 
   -0.27986E+06         0.18472E+07         0.00000E+00
    0.18472E+07        -0.26472E+07         0.00000E+00
    0.00000E+00         0.00000E+00        -0.58541E+06
 
   -0.30882E+06         0.18886E+07         0.00000E+00
    0.18886E+07        -0.26366E+07         0.00000E+00
    0.00000E+00         0.00000E+00        -0.58907E+06
 
   -0.33800E+06         0.19296E+07         0.00000E+00
    0.19296E+07        -0.26256E+07         0.00000E+00
    0.00000E+00         0.00000E+00        -0.59272E+06
 
   -0.36739E+06         0.19703E+07         0.00000E+00
    0.19703E+07        -0.26144E+07         0.00000E+00
    0.00000E+00         0.00000E+00        -0.59635E+06
 
   -0.39701E+06         0.20107E+07         0.00000E+00
    0.20107E+07        -0.26028E+07         0.00000E+00
    0.00000E+00         0.00000E+00        -0.59997E+06
 
   -0.42686E+06         0.20507E+07         0.00000E+00
    0.20507E+07        -0.25910E+07         0.00000E+00
    0.00000E+00         0.00000E+00        -0.60357E+06
 
   -0.45694E+06         0.20904E+07         0.00000E+00
    0.20904E+07        -0.25788E+07         0.00000E+00
    0.00000E+00         0.00000E+00        -0.60716E+06
 
   -0.48725E+06         0.21297E+07         0.00000E+00
    0.21297E+07        -0.25664E+07         0.00000E+00
    0.00000E+00         0.00000E+00        -0.61073E+06
 
   -0.51780E+06         0.21687E+07         0.00000E+00
    0.21687E+07        -0.25536E+07         0.00000E+00
    0.00000E+00         0.00000E+00        -0.61429E+06
 
   -0.54859E+06         0.22073E+07         0.00000E+00
    0.22073E+07        -0.25406E+07         0.00000E+00
    0.00000E+00         0.00000E+00        -0.61783E+06
 
   -0.57964E+06         0.22456E+07         0.00000E+00
    0.22456E+07        -0.25272E+07         0.00000E+00
    0.00000E+00         0.00000E+00        -0.62137E+06
 
   -0.61093E+06         0.22836E+07         0.00000E+00
    0.22836E+07        -0.25135E+07         0.00000E+00
    0.00000E+00         0.00000E+00        -0.62489E+06
 
    0.70841E+06         0.28310E+05         0.00000E+00
    0.28310E+05        -0.31003E+07         0.00000E+00
    0.00000E+00         0.00000E+00        -0.47838E+06
 
    0.68460E+06         0.84026E+05         0.00000E+00
    0.84026E+05        -0.31000E+07         0.00000E+00
    0.00000E+00         0.00000E+00        -0.48309E+06
 
    0.66059E+06         0.13936E+06         0.00000E+00
    0.13936E+06        -0.30994E+07         0.00000E+00
    0.00000E+00         0.00000E+00        -0.48777E+06
 
    0.63639E+06         0.19432E+06         0.00000E+00
    0.19432E+06        -0.30985E+07         0.00000E+00
    0.00000E+00         0.00000E+00        -0.49243E+06
 
    0.61200E+06         0.24890E+06         0.00000E+00
    0.24890E+06        -0.30973E+07         0.00000E+00
    0.00000E+00         0.00000E+00        -0.49706E+06
 
    0.58742E+06         0.30311E+06         0.00000E+00
    0.30311E+06        -0.30958E+07         0.00000E+00
    0.00000E+00         0.00000E+00        -0.50168E+06
 
    0.56266E+06         0.35695E+06         0.00000E+00
    0.35695E+06        -0.30941E+07         0.00000E+00
    0.00000E+00         0.00000E+00        -0.50628E+06
 
    0.53773E+06         0.41043E+06         0.00000E+00
    0.41043E+06        -0.30920E+07         0.00000E+00
    0.00000E+00         0.00000E+00        -0.51085E+06
 
    0.51262E+06         0.46355E+06         0.00000E+00
    0.46355E+06        -0.30897E+07         0.00000E+00
    0.00000E+00         0.00000E+00        -0.51541E+06
 
    0.48734E+06         0.51630E+06         0.00000E+00
    0.51630E+06        -0.30870E+07         0.00000E+00
    0.00000E+00         0.00000E+00        -0.51994E+06
 
    0.46189E+06         0.56870E+06         0.00000E+00
    0.56870E+06        -0.30841E+07         0.00000E+00
    0.00000E+00         0.00000E+00        -0.52445E+06
 
    0.43627E+06         0.62075E+06         0.00000E+00
    0.62075E+06        -0.30810E+07         0.00000E+00
    0.00000E+00         0.00000E+00        -0.52894E+06
 
    0.41049E+06         0.67244E+06         0.00000E+00
    0.67244E+06        -0.30775E+07         0.00000E+00
    0.00000E+00         0.00000E+00        -0.53340E+06
 
    0.38454E+06         0.72379E+06         0.00000E+00
    0.72379E+06        -0.30738E+07         0.00000E+00
    0.00000E+00         0.00000E+00        -0.53785E+06
 
    0.35842E+06         0.77479E+06         0.00000E+00
    0.77479E+06        -0.30698E+07         0.00000E+00
    0.00000E+00         0.00000E+00        -0.54227E+06
 
    0.33215E+06         0.82546E+06         0.00000E+00
    0.82546E+06        -0.30655E+07         0.00000E+00
    0.00000E+00         0.00000E+00        -0.54667E+06
 
    0.30571E+06         0.87578E+06         0.00000E+00
    0.87578E+06        -0.30609E+07         0.00000E+00
    0.00000E+00         0.00000E+00        -0.55105E+06
 
    0.27911E+06         0.92576E+06         0.00000E+00
    0.92576E+06        -0.30561E+07         0.00000E+00
    0.00000E+00         0.00000E+00        -0.55540E+06
 
    0.25235E+06         0.97541E+06         0.00000E+00
    0.97541E+06        -0.30510E+07         0.00000E+00
    0.00000E+00         0.00000E+00        -0.55974E+06
 
    0.22542E+06         0.10247E+07         0.00000E+00
    0.10247E+07        -0.30457E+07         0.00000E+00
    0.00000E+00         0.00000E+00        -0.56405E+06
 
    0.19834E+06         0.10737E+07         0.00000E+00
    0.10737E+07        -0.30400E+07         0.00000E+00
    0.00000E+00         0.00000E+00        -0.56834E+06
 
    0.17109E+06         0.11224E+07         0.00000E+00
    0.11224E+07        -0.30341E+07         0.00000E+00
    0.00000E+00         0.00000E+00        -0.57260E+06
 
    0.14367E+06         0.11707E+07         0.00000E+00
    0.11707E+07        -0.30279E+07         0.00000E+00
    0.00000E+00         0.00000E+00        -0.57685E+06
 
    0.11609E+06         0.12187E+07         0.00000E+00
    0.12187E+07        -0.30214E+07         0.00000E+00
    0.00000E+00         0.00000E+00        -0.58107E+06
 
    0.88335E+05         0.12664E+07         0.00000E+00
    0.12664E+07        -0.30147E+07         0.00000E+00
    0.00000E+00         0.00000E+00        -0.58527E+06
 
    0.60413E+05         0.13138E+07         0.00000E+00
    0.13138E+07        -0.30077E+07         0.00000E+00
    0.00000E+00         0.00000E+00        -0.58945E+06
 
    0.32320E+05         0.13608E+07         0.00000E+00
    0.13608E+07        -0.30004E+07         0.00000E+00
    0.00000E+00         0.00000E+00        -0.59361E+06
 
    0.40517E+04         0.14075E+07         0.00000E+00
    0.14075E+07        -0.29928E+07         0.00000E+00
    0.00000E+00         0.00000E+00        -0.59775E+06
 
   -0.24393E+05         0.14539E+07         0.00000E+00
    0.14539E+07        -0.29849E+07         0.00000E+00
    0.00000E+00         0.00000E+00        -0.60186E+06
 
   -0.53018E+05         0.15000E+07         0.00000E+00
    0.15000E+07        -0.29768E+07         0.00000E+00
    0.00000E+00         0.00000E+00        -0.60596E+06
 
   -0.81826E+05         0.15458E+07         0.00000E+00
    0.15458E+07        -0.29683E+07         0.00000E+00
    0.00000E+00         0.00000E+00        -0.61003E+06
 
   -0.11082E+06         0.15912E+07         0.00000E+00
    0.15912E+07        -0.29596E+07         0.00000E+00
    0.00000E+00         0.00000E+00        -0.61408E+06
 
   -0.14000E+06         0.16364E+07         0.00000E+00
    0.16364E+07        -0.29506E+07         0.00000E+00
    0.00000E+00         0.00000E+00        -0.61811E+06
 
   -0.16938E+06         0.16812E+07         0.00000E+00
    0.16812E+07        -0.29412E+07         0.00000E+00
    0.00000E+00         0.00000E+00        -0.62212E+06
 
   -0.19895E+06         0.17257E+07         0.00000E+00
    0.17257E+07        -0.29316E+07         0.00000E+00
    0.00000E+00         0.00000E+00        -0.62611E+06
 
   -0.22872E+06         0.17699E+07         0.00000E+00
    0.17699E+07        -0.29217E+07         0.00000E+00
    0.00000E+00         0.00000E+00        -0.63008E+06
 
   -0.25869E+06         0.18138E+07         0.00000E+00
    0.18138E+07        -0.29115E+07         0.00000E+00
    0.00000E+00         0.00000E+00        -0.63403E+06
 
   -0.28888E+06         0.18573E+07         0.00000E+00
    0.18573E+07        -0.29009E+07         0.00000E+00
    0.00000E+00         0.00000E+00        -0.63796E+06
 
   -0.31927E+06         0.19006E+07         0.00000E+00
    0.19006E+07        -0.28901E+07         0.00000E+00
    0.00000E+00         0.00000E+00        -0.64187E+06
 
   -0.34988E+06         0.19435E+07         0.00000E+00
    0.19435E+07        -0.28790E+07         0.00000E+00
    0.00000E+00         0.00000E+00        -0.64577E+06
 
   -0.38072E+06         0.19861E+07         0.00000E+00
    0.19861E+07        -0.28675E+07         0.00000E+00
    0.00000E+00         0.00000E+00        -0.64964E+06
 
   -0.41178E+06         0.20284E+07         0.00000E+00
    0.20284E+07        -0.28557E+07         0.00000E+00
    0.00000E+00         0.00000E+00        -0.65350E+06
 
   -0.44307E+06         0.20703E+07         0.00000E+00
    0.20703E+07        -0.28436E+07         0.00000E+00
    0.00000E+00         0.00000E+00        -0.65733E+06
 
   -0.47459E+06         0.21119E+07         0.00000E+00
    0.21119E+07        -0.28312E+07         0.00000E+00
    0.00000E+00         0.00000E+00        -0.66115E+06
 
   -0.50636E+06         0.21532E+07         0.00000E+00
    0.21532E+07        -0.28184E+07         0.00000E+00
    0.00000E+00         0.00000E+00        -0.66495E+06
 
   -0.53837E+06         0.21942E+07         0.00000E+00
    0.21942E+07        -0.28053E+07         0.00000E+00
    0.00000E+00         0.00000E+00        -0.66874E+06
 
   -0.57063E+06         0.22349E+07         0.00000E+00
    0.22349E+07        -0.27919E+07         0.00000E+00
    0.00000E+00         0.00000E+00        -0.67250E+06
 
   -0.60315E+06         0.22752E+07         0.00000E+00
    0.22752E+07        -0.27781E+07         0.00000E+00
    0.00000E+00         0.00000E+00        -0.67626E+06
 
   -0.63593E+06         0.23151E+07         0.00000E+00
    0.23151E+07        -0.27640E+07         0.00000E+00
    0.00000E+00         0.00000E+00        -0.67999E+06
 
   -0.66897E+06         0.23548E+07         0.00000E+00
    0.23548E+07        -0.27496E+07         0.00000E+00
    0.00000E+00         0.00000E+00        -0.68371E+06
 
    0.72891E+06         0.29051E+05         0.00000E+00
    0.29051E+05        -0.33630E+07         0.00000E+00
    0.00000E+00         0.00000E+00        -0.52682E+06
 
    0.70315E+06         0.86215E+05         0.00000E+00
    0.86215E+05        -0.33627E+07         0.00000E+00
    0.00000E+00         0.00000E+00        -0.53191E+06
 
    0.67721E+06         0.14299E+06         0.00000E+00
    0.14299E+06        -0.33621E+07         0.00000E+00
    0.00000E+00         0.00000E+00        -0.53697E+06
 
    0.65109E+06         0.19937E+06         0.00000E+00
    0.19937E+06        -0.33612E+07         0.00000E+00
    0.00000E+00         0.00000E+00        -0.54201E+06
 
    0.62480E+06         0.25536E+06         0.00000E+00
    0.25536E+06        -0.33599E+07         0.00000E+00
    0.00000E+00         0.00000E+00        -0.54703E+06
 
    0.59835E+06         0.31098E+06         0.00000E+00
    0.31098E+06        -0.33584E+07         0.00000E+00
    0.00000E+00         0.00000E+00        -0.55202E+06
 
    0.57173E+06         0.36621E+06         0.00000E+00
    0.36621E+06        -0.33566E+07         0.00000E+00
    0.00000E+00         0.00000E+00        -0.55698E+06
 
    0.54495E+06         0.42108E+06         0.00000E+00
    0.42108E+06        -0.33545E+07         0.00000E+00
    0.00000E+00         0.00000E+00        -0.56192E+06
 
    0.51801E+06         0.47558E+06         0.00000E+00
    0.47558E+06        -0.33521E+07         0.00000E+00
    0.00000E+00         0.00000E+00        -0.56683E+06
 
    0.49092E+06         0.52972E+06         0.00000E+00
    0.52972E+06        -0.33495E+07         0.00000E+00
    0.00000E+00         0.00000E+00        -0.57171E+06
 
    0.46367E+06         0.58349E+06         0.00000E+00
    0.58349E+06        -0.33465E+07         0.00000E+00
    0.00000E+00         0.00000E+00        -0.57657E+06
 
    0.43628E+06         0.63691E+06         0.00000E+00
    0.63691E+06        -0.33433E+07         0.00000E+00
    0.00000E+00         0.00000E+00        -0.58140E+06
 
    0.40873E+06         0.68998E+06         0.00000E+00
    0.68998E+06        -0.33398E+07         0.00000E+00
    0.00000E+00         0.00000E+00        -0.58621E+06
 
    0.38103E+06         0.74271E+06         0.00000E+00
    0.74271E+06        -0.33360E+07         0.00000E+00
    0.00000E+00         0.00000E+00        -0.59099E+06
 
    0.35319E+06         0.79508E+06         0.00000E+00
    0.79508E+06        -0.33319E+07         0.00000E+00
    0.00000E+00         0.00000E+00        -0.59574E+06
 
    0.32519E+06         0.84712E+06         0.00000E+00
    0.84712E+06        -0.33275E+07         0.00000E+00
    0.00000E+00         0.00000E+00        -0.60046E+06
 
    0.29705E+06         0.89883E+06         0.00000E+00
    0.89883E+06        -0.33229E+07         0.00000E+00
    0.00000E+00         0.00000E+00        -0.60516E+06
 
    0.26876E+06         0.95019E+06         0.00000E+00
    0.95019E+06        -0.33179E+07         0.00000E+00
    0.00000E+00         0.00000E+00        -0.60983E+06
 
    0.24032E+06         0.10012E+07         0.00000E+00
    0.10012E+07        -0.33127E+07         0.00000E+00
    0.00000E+00         0.00000E+00        -0.61448E+06
 
    0.21173E+06         0.10519E+07         0.00000E+00
    0.10519E+07        -0.33072E+07         0.00000E+00
    0.00000E+00         0.00000E+00        -0.61910E+06
 
    0.18299E+06         0.11023E+07         0.00000E+00
    0.11023E+07        -0.33014E+07         0.00000E+00
    0.00000E+00         0.00000E+00        -0.62369E+06
 
    0.15409E+06         0.11524E+07         0.00000E+00
    0.11524E+07        -0.32954E+07         0.00000E+00
    0.00000E+00         0.00000E+00        -0.62826E+06
 
    0.12505E+06         0.12022E+07         0.00000E+00
    0.12022E+07        -0.32890E+07         0.00000E+00
    0.00000E+00         0.00000E+00        -0.63280E+06
 
    0.95840E+05         0.12516E+07         0.00000E+00
    0.12516E+07        -0.32824E+07         0.00000E+00
    0.00000E+00         0.00000E+00        -0.63731E+06
 
    0.66476E+05         0.13007E+07         0.00000E+00
    0.13007E+07        -0.32755E+07         0.00000E+00
    0.00000E+00         0.00000E+00        -0.64180E+06
 
    0.36950E+05         0.13495E+07         0.00000E+00
    0.13495E+07        -0.32682E+07         0.00000E+00
    0.00000E+00         0.00000E+00        -0.64626E+06
 
    0.72590E+04         0.13980E+07         0.00000E+00
    0.13980E+07        -0.32607E+07         0.00000E+00
    0.00000E+00         0.00000E+00        -0.65069E+06
 
   -0.22599E+05         0.14462E+07         0.00000E+00
    0.14462E+07        -0.32529E+07         0.00000E+00
    0.00000E+00         0.00000E+00        -0.65510E+06
 
   -0.52628E+05         0.14941E+07         0.00000E+00
    0.14941E+07        -0.32448E+07         0.00000E+00
    0.00000E+00         0.00000E+00        -0.65949E+06
 
   -0.82832E+05         0.15417E+07         0.00000E+00
    0.15417E+07        -0.32364E+07         0.00000E+00
    0.00000E+00         0.00000E+00        -0.66385E+06
 
   -0.11321E+06         0.15890E+07         0.00000E+00
    0.15890E+07        -0.32277E+07         0.00000E+00
    0.00000E+00         0.00000E+00        -0.66818E+06
 
   -0.14378E+06         0.16359E+07         0.00000E+00
    0.16359E+07        -0.32187E+07         0.00000E+00
    0.00000E+00         0.00000E+00        -0.67249E+06
 
   -0.17453E+06         0.16826E+07         0.00000E+00
    0.16826E+07        -0.32093E+07         0.00000E+00
    0.00000E+00         0.00000E+00        -0.67677E+06
 
   -0.20547E+06         0.17290E+07         0.00000E+00
    0.17290E+07        -0.31997E+07         0.00000E+00
    0.00000E+00         0.00000E+00        -0.68103E+06
 
   -0.23660E+06         0.17750E+07         0.00000E+00
    0.17750E+07        -0.31897E+07         0.00000E+00
    0.00000E+00         0.00000E+00        -0.68527E+06
 
   -0.26794E+06         0.18208E+07         0.00000E+00
    0.18208E+07        -0.31794E+07         0.00000E+00
    0.00000E+00         0.00000E+00        -0.68948E+06
 
   -0.29948E+06         0.18663E+07         0.00000E+00
    0.18663E+07        -0.31688E+07         0.00000E+00
    0.00000E+00         0.00000E+00        -0.69366E+06
 
   -0.33123E+06         0.19115E+07         0.00000E+00
    0.19115E+07        -0.31579E+07         0.00000E+00
    0.00000E+00         0.00000E+00        -0.69783E+06
 
   -0.36319E+06         0.19563E+07         0.00000E+00
    0.19563E+07        -0.31466E+07         0.00000E+00
    0.00000E+00         0.00000E+00        -0.70197E+06
 
   -0.39538E+06         0.20009E+07         0.00000E+00
    0.20009E+07        -0.31350E+07         0.00000E+00
    0.00000E+00         0.00000E+00        -0.70608E+06
 
   -0.42779E+06         0.20452E+07         0.00000E+00
    0.20452E+07        -0.31231E+07         0.00000E+00
    0.00000E+00         0.00000E+00        -0.71018E+06
 
   -0.46043E+06         0.20891E+07         0.00000E+00
    0.20891E+07        -0.31108E+07         0.00000E+00
    0.00000E+00         0.00000E+00        -0.71425E+06
 
   -0.49331E+06         0.21328E+07         0.00000E+00
    0.21328E+07        -0.30982E+07         0.00000E+00
    0.00000E+00         0.00000E+00        -0.71830E+06
 
   -0.52643E+06         0.21762E+07         0.00000E+00
    0.21762E+07        -0.30852E+07         0.00000E+00
    0.00000E+00         0.00000E+00        -0.72233E+06
 
   -0.55980E+06         0.22192E+07         0.00000E+00
    0.22192E+07        -0.30719E+07         0.00000E+00
    0.00000E+00         0.00000E+00        -0.72634E+06
 
   -0.59343E+06         0.22619E+07         0.00000E+00
    0.22619E+07        -0.30582E+07         0.00000E+00
    0.00000E+00         0.00000E+00        -0.73033E+06
 
   -0.62731E+06         0.23044E+07         0.00000E+00
    0.23044E+07        -0.30442E+07         0.00000E+00
    0.00000E+00         0.00000E+00        -0.73430E+06
 
   -0.66147E+06         0.23465E+07         0.00000E+00
    0.23465E+07        -0.30297E+07         0.00000E+00
    0.00000E+00         0.00000E+00        -0.73824E+06
 
   -0.69590E+06         0.23883E+07         0.00000E+00
    0.23883E+07        -0.30150E+07         0.00000E+00
    0.00000E+00         0.00000E+00        -0.74217E+06
 
   -0.73060E+06         0.24297E+07         0.00000E+00
    0.24297E+07        -0.29998E+07         0.00000E+00
    0.00000E+00         0.00000E+00        -0.74608E+06
 
    0.74344E+06         0.29805E+05         0.00000E+00
    0.29805E+05        -0.36390E+07         0.00000E+00
    0.00000E+00         0.00000E+00        -0.57911E+06
 
    0.71566E+06         0.88444E+05         0.00000E+00
    0.88444E+05        -0.36387E+07         0.00000E+00
    0.00000E+00         0.00000E+00        -0.58461E+06
 
    0.68773E+06         0.14668E+06         0.00000E+00
    0.14668E+06        -0.36381E+07         0.00000E+00
    0.00000E+00         0.00000E+00        -0.59007E+06
 
    0.65964E+06         0.20451E+06         0.00000E+00
    0.20451E+06        -0.36371E+07         0.00000E+00
    0.00000E+00         0.00000E+00        -0.59550E+06
 
    0.63140E+06         0.26194E+06         0.00000E+00
    0.26194E+06        -0.36359E+07         0.00000E+00
    0.00000E+00         0.00000E+00        -0.60090E+06
 
    0.60303E+06         0.31899E+06         0.00000E+00
    0.31899E+06        -0.36344E+07         0.00000E+00
    0.00000E+00         0.00000E+00        -0.60627E+06
 
    0.57451E+06         0.37565E+06         0.00000E+00
    0.37565E+06        -0.36326E+07         0.00000E+00
    0.00000E+00         0.00000E+00        -0.61161E+06
 
    0.54585E+06         0.43194E+06         0.00000E+00
    0.43194E+06        -0.36305E+07         0.00000E+00
    0.00000E+00         0.00000E+00        -0.61692E+06
 
    0.51706E+06         0.48785E+06         0.00000E+00
    0.48785E+06        -0.36281E+07         0.00000E+00
    0.00000E+00         0.00000E+00        -0.62220E+06
 
    0.48814E+06         0.54340E+06         0.00000E+00
    0.54340E+06        -0.36254E+07         0.00000E+00
    0.00000E+00         0.00000E+00        -0.62745E+06
 
    0.45908E+06         0.59859E+06         0.00000E+00
    0.59859E+06        -0.36224E+07         0.00000E+00
    0.00000E+00         0.00000E+00        -0.63266E+06
 
    0.42990E+06         0.65342E+06         0.00000E+00
    0.65342E+06        -0.36191E+07         0.00000E+00
    0.00000E+00         0.00000E+00        -0.63785E+06
 
    0.40058E+06         0.70790E+06         0.00000E+00
    0.70790E+06        -0.36156E+07         0.00000E+00
    0.00000E+00         0.00000E+00        -0.64300E+06
 
    0.37114E+06         0.76203E+06         0.00000E+00
    0.76203E+06        -0.36117E+07         0.00000E+00
    0.00000E+00         0.00000E+00        -0.64812E+06
 
    0.34157E+06         0.81583E+06         0.00000E+00
    0.81583E+06        -0.36076E+07         0.00000E+00
    0.00000E+00         0.00000E+00        -0.65321E+06
 
    0.31187E+06         0.86928E+06         0.00000E+00
    0.86928E+06        -0.36032E+07         0.00000E+00
    0.00000E+00         0.00000E+00        -0.65826E+06
 
    0.28203E+06         0.92241E+06         0.00000E+00
    0.92241E+06        -0.35985E+07         0.00000E+00
    0.00000E+00         0.00000E+00        -0.66329E+06
 
    0.25207E+06         0.97521E+06         0.00000E+00
    0.97521E+06        -0.35935E+07         0.00000E+00
    0.00000E+00         0.00000E+00        -0.66828E+06
 
    0.22198E+06         0.10277E+07         0.00000E+00
    0.10277E+07        -0.35882E+07         0.00000E+00
    0.00000E+00         0.00000E+00        -0.67324E+06
 
    0.19176E+06         0.10798E+07         0.00000E+00
    0.10798E+07        -0.35826E+07         0.00000E+00
    0.00000E+00         0.00000E+00        -0.67817E+06
 
    0.16139E+06         0.11317E+07         0.00000E+00
    0.11317E+07        -0.35768E+07         0.00000E+00
    0.00000E+00         0.00000E+00        -0.68307E+06
 
    0.13090E+06         0.11832E+07         0.00000E+00
    0.11832E+07        -0.35706E+07         0.00000E+00
    0.00000E+00         0.00000E+00        -0.68794E+06
 
    0.10026E+06         0.12344E+07         0.00000E+00
    0.12344E+07        -0.35641E+07         0.00000E+00
    0.00000E+00         0.00000E+00        -0.69278E+06
 
    0.69476E+05         0.12854E+07         0.00000E+00
    0.12854E+07        -0.35574E+07         0.00000E+00
    0.00000E+00         0.00000E+00        -0.69758E+06
 
    0.38549E+05         0.13360E+07         0.00000E+00
    0.13360E+07        -0.35503E+07         0.00000E+00
    0.00000E+00         0.00000E+00        -0.70235E+06
 
    0.74719E+04         0.13863E+07         0.00000E+00
    0.13863E+07        -0.35430E+07         0.00000E+00
    0.00000E+00         0.00000E+00        -0.70710E+06
 
   -0.23758E+05         0.14363E+07         0.00000E+00
    0.14363E+07        -0.35353E+07         0.00000E+00
    0.00000E+00         0.00000E+00        -0.71181E+06
 
   -0.55145E+05         0.14860E+07         0.00000E+00
    0.14860E+07        -0.35273E+07         0.00000E+00
    0.00000E+00         0.00000E+00        -0.71649E+06
 
   -0.86694E+05         0.15355E+07         0.00000E+00
    0.15355E+07        -0.35190E+07         0.00000E+00
    0.00000E+00         0.00000E+00        -0.72114E+06
 
   -0.11841E+06         0.15846E+07         0.00000E+00
    0.15846E+07        -0.35104E+07         0.00000E+00
    0.00000E+00         0.00000E+00        -0.72576E+06
 
   -0.15029E+06         0.16335E+07         0.00000E+00
    0.16335E+07        -0.35015E+07         0.00000E+00
    0.00000E+00         0.00000E+00        -0.73035E+06
 
   -0.18235E+06         0.16821E+07         0.00000E+00
    0.16821E+07        -0.34922E+07         0.00000E+00
    0.00000E+00         0.00000E+00        -0.73492E+06
 
   -0.21459E+06         0.17304E+07         0.00000E+00
    0.17304E+07        -0.34826E+07         0.00000E+00
    0.00000E+00         0.00000E+00        -0.73945E+06
 
   -0.24702E+06         0.17784E+07         0.00000E+00
    0.17784E+07        -0.34727E+07         0.00000E+00
    0.00000E+00         0.00000E+00        -0.74395E+06
 
   -0.27964E+06         0.18261E+07         0.00000E+00
    0.18261E+07        -0.34625E+07         0.00000E+00
    0.00000E+00         0.00000E+00        -0.74843E+06
 
   -0.31245E+06         0.18736E+07         0.00000E+00
    0.18736E+07        -0.34519E+07         0.00000E+00
    0.00000E+00         0.00000E+00        -0.75287E+06
 
   -0.34547E+06         0.19208E+07         0.00000E+00
    0.19208E+07        -0.34410E+07         0.00000E+00
    0.00000E+00         0.00000E+00        -0.75729E+06
 
   -0.37870E+06         0.19676E+07         0.00000E+00
    0.19676E+07        -0.34297E+07         0.00000E+00
    0.00000E+00         0.00000E+00        -0.76168E+06
 
   -0.41214E+06         0.20143E+07         0.00000E+00
    0.20143E+07        -0.34181E+07         0.00000E+00
    0.00000E+00         0.00000E+00        -0.76604E+06
 
   -0.44580E+06         0.20606E+07         0.00000E+00
    0.20606E+07        -0.34061E+07         0.00000E+00
    0.00000E+00         0.00000E+00        -0.77038E+06
 
   -0.47970E+06         0.21066E+07         0.00000E+00
    0.21066E+07        -0.33937E+07         0.00000E+00
    0.00000E+00         0.00000E+00        -0.77469E+06
 
   -0.51382E+06         0.21524E+07         0.00000E+00
    0.21524E+07        -0.33810E+07         0.00000E+00
    0.00000E+00         0.00000E+00        -0.77897E+06
 
   -0.54819E+06         0.21979E+07         0.00000E+00
    0.21979E+07        -0.33679E+07         0.00000E+00
    0.00000E+00         0.00000E+00        -0.78323E+06
 
   -0.58281E+06         0.22431E+07         0.00000E+00
    0.22431E+07        -0.33545E+07         0.00000E+00
    0.00000E+00         0.00000E+00        -0.78746E+06
 
   -0.61769E+06         0.22880E+07         0.00000E+00
    0.22880E+07        -0.33406E+07         0.00000E+00
    0.00000E+00         0.00000E+00        -0.79166E+06
 
   -0.65283E+06         0.23327E+07         0.00000E+00
    0.23327E+07        -0.33264E+07         0.00000E+00
    0.00000E+00         0.00000E+00        -0.79584E+06
 
   -0.68823E+06         0.23770E+07         0.00000E+00
    0.23770E+07        -0.33118E+07         0.00000E+00
    0.00000E+00         0.00000E+00        -0.80000E+06
 
   -0.72392E+06         0.24210E+07         0.00000E+00
    0.24210E+07        -0.32967E+07         0.00000E+00
    0.00000E+00         0.00000E+00        -0.80413E+06
 
   -0.75990E+06         0.24648E+07         0.00000E+00
    0.24648E+07        -0.32813E+07         0.00000E+00
    0.00000E+00         0.00000E+00        -0.80824E+06
 
   -0.79616E+06         0.25082E+07         0.00000E+00
    0.25082E+07        -0.32655E+07         0.00000E+00
    0.00000E+00         0.00000E+00        -0.81233E+06
 
    0.75100E+06         0.30565E+05         0.00000E+00
    0.30565E+05        -0.39294E+07         0.00000E+00
    0.00000E+00         0.00000E+00        -0.63568E+06
 
    0.72114E+06         0.90691E+05         0.00000E+00
    0.90691E+05        -0.39291E+07         0.00000E+00
    0.00000E+00         0.00000E+00        -0.64159E+06
 
    0.69116E+06         0.15040E+06         0.00000E+00
    0.15040E+06        -0.39285E+07         0.00000E+00
    0.00000E+00         0.00000E+00        -0.64746E+06
 
    0.66105E+06         0.20969E+06         0.00000E+00
    0.20969E+06        -0.39276E+07         0.00000E+00
    0.00000E+00         0.00000E+00        -0.65330E+06
 
    0.63082E+06         0.26859E+06         0.00000E+00
    0.26859E+06        -0.39263E+07         0.00000E+00
    0.00000E+00         0.00000E+00        -0.65910E+06
 
    0.60048E+06         0.32708E+06         0.00000E+00
    0.32708E+06        -0.39248E+07         0.00000E+00
    0.00000E+00         0.00000E+00        -0.66487E+06
 
    0.57003E+06         0.38519E+06         0.00000E+00
    0.38519E+06        -0.39230E+07         0.00000E+00
    0.00000E+00         0.00000E+00        -0.67060E+06
 
    0.53947E+06         0.44291E+06         0.00000E+00
    0.44291E+06        -0.39209E+07         0.00000E+00
    0.00000E+00         0.00000E+00        -0.67629E+06
 
    0.50881E+06         0.50026E+06         0.00000E+00
    0.50026E+06        -0.39185E+07         0.00000E+00
    0.00000E+00         0.00000E+00        -0.68194E+06
 
    0.47804E+06         0.55724E+06         0.00000E+00
    0.55724E+06        -0.39158E+07         0.00000E+00
    0.00000E+00         0.00000E+00        -0.68756E+06
 
    0.44717E+06         0.61386E+06         0.00000E+00
    0.61386E+06        -0.39129E+07         0.00000E+00
    0.00000E+00         0.00000E+00        -0.69314E+06
 
    0.41619E+06         0.67012E+06         0.00000E+00
    0.67012E+06        -0.39096E+07         0.00000E+00
    0.00000E+00         0.00000E+00        -0.69868E+06
 
    0.38511E+06         0.72604E+06         0.00000E+00
    0.72604E+06        -0.39060E+07         0.00000E+00
    0.00000E+00         0.00000E+00        -0.70419E+06
 
    0.35393E+06         0.78161E+06         0.00000E+00
    0.78161E+06        -0.39022E+07         0.00000E+00
    0.00000E+00         0.00000E+00        -0.70965E+06
 
    0.32265E+06         0.83685E+06         0.00000E+00
    0.83685E+06        -0.38981E+07         0.00000E+00
    0.00000E+00         0.00000E+00        -0.71508E+06
 
    0.29126E+06         0.89176E+06         0.00000E+00
    0.89176E+06        -0.38936E+07         0.00000E+00
    0.00000E+00         0.00000E+00        -0.72048E+06
 
    0.25977E+06         0.94634E+06         0.00000E+00
    0.94634E+06        -0.38889E+07         0.00000E+00
    0.00000E+00         0.00000E+00        -0.72583E+06
 
    0.22817E+06         0.10006E+07         0.00000E+00
    0.10006E+07        -0.38839E+07         0.00000E+00
    0.00000E+00         0.00000E+00        -0.73115E+06
 
    0.19646E+06         0.10546E+07         0.00000E+00
    0.10546E+07        -0.38786E+07         0.00000E+00
    0.00000E+00         0.00000E+00        -0.73643E+06
 
    0.16464E+06         0.11082E+07         0.00000E+00
    0.11082E+07        -0.38730E+07         0.00000E+00
    0.00000E+00         0.00000E+00        -0.74167E+06
 
    0.13271E+06         0.11615E+07         0.00000E+00
    0.11615E+07        -0.38671E+07         0.00000E+00
    0.00000E+00         0.00000E+00        -0.74688E+06
 
    0.10066E+06         0.12146E+07         0.00000E+00
    0.12146E+07        -0.38609E+07         0.00000E+00
    0.00000E+00         0.00000E+00        -0.75205E+06
 
    0.68484E+05         0.12673E+07         0.00000E+00
    0.12673E+07        -0.38544E+07         0.00000E+00
    0.00000E+00         0.00000E+00        -0.75718E+06
 
    0.36187E+05         0.13198E+07         0.00000E+00
    0.13198E+07        -0.38476E+07         0.00000E+00
    0.00000E+00         0.00000E+00        -0.76228E+06
 
    0.37606E+04         0.13720E+07         0.00000E+00
    0.13720E+07        -0.38404E+07         0.00000E+00
    0.00000E+00         0.00000E+00        -0.76734E+06
 
   -0.28799E+05         0.14238E+07         0.00000E+00
    0.14238E+07        -0.38330E+07         0.00000E+00
    0.00000E+00         0.00000E+00        -0.77236E+06
 
   -0.61496E+05         0.14755E+07         0.00000E+00
    0.14755E+07        -0.38252E+07         0.00000E+00
    0.00000E+00         0.00000E+00        -0.77735E+06
 
   -0.94336E+05         0.15268E+07         0.00000E+00
    0.15268E+07        -0.38171E+07         0.00000E+00
    0.00000E+00         0.00000E+00        -0.78230E+06
 
   -0.12732E+06         0.15779E+07         0.00000E+00
    0.15779E+07        -0.38087E+07         0.00000E+00
    0.00000E+00         0.00000E+00        -0.78721E+06
 
   -0.16047E+06         0.16287E+07         0.00000E+00
    0.16287E+07        -0.38000E+07         0.00000E+00
    0.00000E+00         0.00000E+00        -0.79209E+06
 
   -0.19377E+06         0.16792E+07         0.00000E+00
    0.16792E+07        -0.37909E+07         0.00000E+00
    0.00000E+00         0.00000E+00        -0.79694E+06
 
   -0.22723E+06         0.17294E+07         0.00000E+00
    0.17294E+07        -0.37815E+07         0.00000E+00
    0.00000E+00         0.00000E+00        -0.80175E+06
 
   -0.26087E+06         0.17794E+07         0.00000E+00
    0.17794E+07        -0.37717E+07         0.00000E+00
    0.00000E+00         0.00000E+00        -0.80652E+06
 
   -0.29469E+06         0.18292E+07         0.00000E+00
    0.18292E+07        -0.37616E+07         0.00000E+00
    0.00000E+00         0.00000E+00        -0.81126E+06
 
   -0.32869E+06         0.18787E+07         0.00000E+00
    0.18787E+07        -0.37512E+07         0.00000E+00
    0.00000E+00         0.00000E+00        -0.81597E+06
 
   -0.36288E+06         0.19279E+07         0.00000E+00
    0.19279E+07        -0.37404E+07         0.00000E+00
    0.00000E+00         0.00000E+00        -0.82065E+06
 
   -0.39727E+06         0.19769E+07         0.00000E+00
    0.19769E+07        -0.37292E+07         0.00000E+00
    0.00000E+00         0.00000E+00        -0.82529E+06
 
   -0.43187E+06         0.20256E+07         0.00000E+00
    0.20256E+07        -0.37176E+07         0.00000E+00
    0.00000E+00         0.00000E+00        -0.82990E+06
 
   -0.46668E+06         0.20740E+07         0.00000E+00
    0.20740E+07        -0.37057E+07         0.00000E+00
    0.00000E+00         0.00000E+00        -0.83447E+06
 
   -0.50172E+06         0.21222E+07         0.00000E+00
    0.21222E+07        -0.36934E+07         0.00000E+00
    0.00000E+00         0.00000E+00        -0.83902E+06
 
   -0.53698E+06         0.21702E+07         0.00000E+00
    0.21702E+07        -0.36807E+07         0.00000E+00
    0.00000E+00         0.00000E+00        -0.84353E+06
 
   -0.57248E+06         0.22179E+07         0.00000E+00
    0.22179E+07        -0.36676E+07         0.00000E+00
    0.00000E+00         0.00000E+00        -0.84801E+06
 
   -0.60822E+06         0.22653E+07         0.00000E+00
    0.22653E+07        -0.36541E+07         0.00000E+00
    0.00000E+00         0.00000E+00        -0.85247E+06
 
   -0.64422E+06         0.23125E+07         0.00000E+00
    0.23125E+07        -0.36402E+07         0.00000E+00
    0.00000E+00         0.00000E+00        -0.85689E+06
 
   -0.68048E+06         0.23594E+07         0.00000E+00
    0.23594E+07        -0.36259E+07         0.00000E+00
    0.00000E+00         0.00000E+00        -0.86128E+06
 
   -0.71701E+06         0.24061E+07         0.00000E+00
    0.24061E+07        -0.36112E+07         0.00000E+00
    0.00000E+00         0.00000E+00        -0.86564E+06
 
   -0.75382E+06         0.24525E+07         0.00000E+00
    0.24525E+07        -0.35961E+07         0.00000E+00
    0.00000E+00         0.00000E+00        -0.86998E+06
 
   -0.79091E+06         0.24986E+07         0.00000E+00
    0.24986E+07        -0.35805E+07         0.00000E+00
    0.00000E+00         0.00000E+00        -0.87428E+06
 
   -0.82831E+06         0.25444E+07         0.00000E+00
    0.25444E+07        -0.35645E+07         0.00000E+00
    0.00000E+00         0.00000E+00        -0.87856E+06
 
   -0.86601E+06         0.25900E+07         0.00000E+00
    0.25900E+07        -0.35481E+07         0.00000E+00
    0.00000E+00         0.00000E+00        -0.88282E+06
 
    0.75051E+06         0.31323E+05         0.00000E+00
    0.31323E+05        -0.42353E+07         0.00000E+00
    0.00000E+00         0.00000E+00        -0.69696E+06
 
    0.71850E+06         0.92933E+05         0.00000E+00
    0.92933E+05        -0.42350E+07         0.00000E+00
    0.00000E+00         0.00000E+00        -0.70331E+06
 
    0.68640E+06         0.15411E+06         0.00000E+00
    0.15411E+06        -0.42344E+07         0.00000E+00
    0.00000E+00         0.00000E+00        -0.70960E+06
 
    0.65422E+06         0.21487E+06         0.00000E+00
    0.21487E+06        -0.42335E+07         0.00000E+00
    0.00000E+00         0.00000E+00        -0.71586E+06
 
    0.62196E+06         0.27522E+06         0.00000E+00
    0.27522E+06        -0.42323E+07         0.00000E+00
    0.00000E+00         0.00000E+00        -0.72207E+06
 
    0.58963E+06         0.33516E+06         0.00000E+00
    0.33516E+06        -0.42308E+07         0.00000E+00
    0.00000E+00         0.00000E+00        -0.72824E+06
 
    0.55722E+06         0.39471E+06         0.00000E+00
    0.39471E+06        -0.42291E+07         0.00000E+00
    0.00000E+00         0.00000E+00        -0.73437E+06
 
    0.52474E+06         0.45388E+06         0.00000E+00
    0.45388E+06        -0.42270E+07         0.00000E+00
    0.00000E+00         0.00000E+00        -0.74045E+06
 
    0.49219E+06         0.51267E+06         0.00000E+00
    0.51267E+06        -0.42246E+07         0.00000E+00
    0.00000E+00         0.00000E+00        -0.74649E+06
 
    0.45957E+06         0.57109E+06         0.00000E+00
    0.57109E+06        -0.42220E+07         0.00000E+00
    0.00000E+00         0.00000E+00        -0.75248E+06
 
    0.42688E+06         0.62915E+06         0.00000E+00
    0.62915E+06        -0.42191E+07         0.00000E+00
    0.00000E+00         0.00000E+00        -0.75843E+06
 
    0.39413E+06         0.68686E+06         0.00000E+00
    0.68686E+06        -0.42158E+07         0.00000E+00
    0.00000E+00         0.00000E+00        -0.76434E+06
 
    0.36130E+06         0.74422E+06         0.00000E+00
    0.74422E+06        -0.42123E+07         0.00000E+00
    0.00000E+00         0.00000E+00        -0.77021E+06
 
    0.32840E+06         0.80125E+06         0.00000E+00
    0.80125E+06        -0.42085E+07         0.00000E+00
    0.00000E+00         0.00000E+00        -0.77603E+06
 
    0.29544E+06         0.85795E+06         0.00000E+00
    0.85795E+06        -0.42044E+07         0.00000E+00
    0.00000E+00         0.00000E+00        -0.78180E+06
 
    0.26240E+06         0.91433E+06         0.00000E+00
    0.91433E+06        -0.42001E+07         0.00000E+00
    0.00000E+00         0.00000E+00        -0.78753E+06
 
    0.22928E+06         0.97040E+06         0.00000E+00
    0.97040E+06        -0.41954E+07         0.00000E+00
    0.00000E+00         0.00000E+00        -0.79322E+06
 
    0.19609E+06         0.10262E+07         0.00000E+00
    0.10262E+07        -0.41904E+07         0.00000E+00
    0.00000E+00         0.00000E+00        -0.79887E+06
 
    0.16281E+06         0.10816E+07         0.00000E+00
    0.10816E+07        -0.41851E+07         0.00000E+00
    0.00000E+00         0.00000E+00        -0.80447E+06
 
    0.12945E+06         0.11368E+07         0.00000E+00
    0.11368E+07        -0.41796E+07         0.00000E+00
    0.00000E+00         0.00000E+00        -0.81002E+06
 
    0.96004E+05         0.11916E+07         0.00000E+00
    0.11916E+07        -0.41737E+07         0.00000E+00
    0.00000E+00         0.00000E+00        -0.81554E+06
 
    0.62464E+05         0.12462E+07         0.00000E+00
    0.12462E+07        -0.41675E+07         0.00000E+00
    0.00000E+00         0.00000E+00        -0.82101E+06
 
    0.28827E+05         0.13006E+07         0.00000E+00
    0.13006E+07        -0.41610E+07         0.00000E+00
    0.00000E+00         0.00000E+00        -0.82644E+06
 
   -0.49112E+04         0.13546E+07         0.00000E+00
    0.13546E+07        -0.41542E+07         0.00000E+00
    0.00000E+00         0.00000E+00        -0.83182E+06
 
   -0.38756E+05         0.14084E+07         0.00000E+00
    0.14084E+07        -0.41471E+07         0.00000E+00
    0.00000E+00         0.00000E+00        -0.83717E+06
 
   -0.72714E+05         0.14619E+07         0.00000E+00
    0.14619E+07        -0.41396E+07         0.00000E+00
    0.00000E+00         0.00000E+00        -0.84247E+06
 
   -0.10679E+06         0.15151E+07         0.00000E+00
    0.15151E+07        -0.41318E+07         0.00000E+00
    0.00000E+00         0.00000E+00        -0.84772E+06
 
   -0.14099E+06         0.15681E+07         0.00000E+00
    0.15681E+07        -0.41237E+07         0.00000E+00
    0.00000E+00         0.00000E+00        -0.85294E+06
 
   -0.17532E+06         0.16209E+07         0.00000E+00
    0.16209E+07        -0.41153E+07         0.00000E+00
    0.00000E+00         0.00000E+00        -0.85811E+06
 
   -0.20979E+06         0.16734E+07         0.00000E+00
    0.16734E+07        -0.41065E+07         0.00000E+00
    0.00000E+00         0.00000E+00        -0.86325E+06
 
   -0.24440E+06         0.17257E+07         0.00000E+00
    0.17257E+07        -0.40973E+07         0.00000E+00
    0.00000E+00         0.00000E+00        -0.86834E+06
 
   -0.27917E+06         0.17777E+07         0.00000E+00
    0.17777E+07        -0.40878E+07         0.00000E+00
    0.00000E+00         0.00000E+00        -0.87339E+06
 
   -0.31409E+06         0.18295E+07         0.00000E+00
    0.18295E+07        -0.40779E+07         0.00000E+00
    0.00000E+00         0.00000E+00        -0.87840E+06
 
   -0.34918E+06         0.18810E+07         0.00000E+00
    0.18810E+07        -0.40677E+07         0.00000E+00
    0.00000E+00         0.00000E+00        -0.88338E+06
 
   -0.38445E+06         0.19323E+07         0.00000E+00
    0.19323E+07        -0.40571E+07         0.00000E+00
    0.00000E+00         0.00000E+00        -0.88831E+06
 
   -0.41990E+06         0.19834E+07         0.00000E+00
    0.19834E+07        -0.40461E+07         0.00000E+00
    0.00000E+00         0.00000E+00        -0.89320E+06
 
   -0.45554E+06         0.20343E+07         0.00000E+00
    0.20343E+07        -0.40348E+07         0.00000E+00
    0.00000E+00         0.00000E+00        -0.89806E+06
 
   -0.49139E+06         0.20849E+07         0.00000E+00
    0.20849E+07        -0.40230E+07         0.00000E+00
    0.00000E+00         0.00000E+00        -0.90288E+06
 
   -0.52744E+06         0.21353E+07         0.00000E+00
    0.21353E+07        -0.40108E+07         0.00000E+00
    0.00000E+00         0.00000E+00        -0.90766E+06
 
   -0.56371E+06         0.21855E+07         0.00000E+00
    0.21855E+07        -0.39983E+07         0.00000E+00
    0.00000E+00         0.00000E+00        -0.91240E+06
 
   -0.60021E+06         0.22355E+07         0.00000E+00
    0.22355E+07        -0.39853E+07         0.00000E+00
    0.00000E+00         0.00000E+00        -0.91711E+06
 
   -0.63694E+06         0.22852E+07         0.00000E+00
    0.22852E+07        -0.39719E+07         0.00000E+00
    0.00000E+00         0.00000E+00        -0.92178E+06
 
   -0.67392E+06         0.23347E+07         0.00000E+00
    0.23347E+07        -0.39581E+07         0.00000E+00
    0.00000E+00         0.00000E+00        -0.92641E+06
 
   -0.71116E+06         0.23840E+07         0.00000E+00
    0.23840E+07        -0.39439E+07         0.00000E+00
    0.00000E+00         0.00000E+00        -0.93101E+06
 
   -0.74866E+06         0.24330E+07         0.00000E+00
    0.24330E+07        -0.39292E+07         0.00000E+00
    0.00000E+00         0.00000E+00        -0.93557E+06
 
   -0.78644E+06         0.24819E+07         0.00000E+00
    0.24819E+07        -0.39141E+07         0.00000E+00
    0.00000E+00         0.00000E+00        -0.94010E+06
 
   -0.82451E+06         0.25304E+07         0.00000E+00
    0.25304E+07        -0.38985E+07         0.00000E+00
    0.00000E+00         0.00000E+00        -0.94460E+06
 
   -0.86287E+06         0.25788E+07         0.00000E+00
    0.25788E+07        -0.38825E+07         0.00000E+00
    0.00000E+00         0.00000E+00        -0.94907E+06
 
   -0.90154E+06         0.26269E+07         0.00000E+00
    0.26269E+07        -0.38660E+07         0.00000E+00
    0.00000E+00         0.00000E+00        -0.95350E+06
 
   -0.94052E+06         0.26748E+07         0.00000E+00
    0.26748E+07        -0.38490E+07         0.00000E+00
    0.00000E+00         0.00000E+00        -0.95790E+06
 
    0.74071E+06         0.32070E+05         0.00000E+00
    0.32070E+05        -0.45580E+07         0.00000E+00
    0.00000E+00         0.00000E+00        -0.76345E+06
 
    0.70649E+06         0.95144E+05         0.00000E+00
    0.95144E+05        -0.45577E+07         0.00000E+00
    0.00000E+00         0.00000E+00        -0.77023E+06
 
    0.67224E+06         0.15778E+06         0.00000E+00
    0.15778E+06        -0.45571E+07         0.00000E+00
    0.00000E+00         0.00000E+00        -0.77697E+06
 
    0.63795E+06         0.21998E+06         0.00000E+00
    0.21998E+06        -0.45562E+07         0.00000E+00
    0.00000E+00         0.00000E+00        -0.78365E+06
 
    0.60362E+06         0.28177E+06         0.00000E+00
    0.28177E+06        -0.45551E+07         0.00000E+00
    0.00000E+00         0.00000E+00        -0.79029E+06
 
    0.56926E+06         0.34314E+06         0.00000E+00
    0.34314E+06        -0.45536E+07         0.00000E+00
    0.00000E+00         0.00000E+00        -0.79687E+06
 
    0.53488E+06         0.40412E+06         0.00000E+00
    0.40412E+06        -0.45519E+07         0.00000E+00
    0.00000E+00         0.00000E+00        -0.80340E+06
 
    0.50047E+06         0.46472E+06         0.00000E+00
    0.46472E+06        -0.45499E+07         0.00000E+00
    0.00000E+00         0.00000E+00        -0.80988E+06
 
    0.46603E+06         0.52494E+06         0.00000E+00
    0.52494E+06        -0.45476E+07         0.00000E+00
    0.00000E+00         0.00000E+00        -0.81632E+06
 
    0.43156E+06         0.58479E+06         0.00000E+00
    0.58479E+06        -0.45450E+07         0.00000E+00
    0.00000E+00         0.00000E+00        -0.82270E+06
 
    0.39707E+06         0.64429E+06         0.00000E+00
    0.64429E+06        -0.45422E+07         0.00000E+00
    0.00000E+00         0.00000E+00        -0.82902E+06
 
    0.36255E+06         0.70344E+06         0.00000E+00
    0.70344E+06        -0.45391E+07         0.00000E+00
    0.00000E+00         0.00000E+00        -0.83530E+06
 
    0.32800E+06         0.76226E+06         0.00000E+00
    0.76226E+06        -0.45356E+07         0.00000E+00
    0.00000E+00         0.00000E+00        -0.84153E+06
 
    0.29342E+06         0.82075E+06         0.00000E+00
    0.82075E+06        -0.45319E+07         0.00000E+00
    0.00000E+00         0.00000E+00        -0.84770E+06
 
    0.25881E+06         0.87892E+06         0.00000E+00
    0.87892E+06        -0.45280E+07         0.00000E+00
    0.00000E+00         0.00000E+00        -0.85383E+06
 
    0.22417E+06         0.93678E+06         0.00000E+00
    0.93678E+06        -0.45237E+07         0.00000E+00
    0.00000E+00         0.00000E+00        -0.85990E+06
 
    0.18948E+06         0.99434E+06         0.00000E+00
    0.99434E+06        -0.45191E+07         0.00000E+00
    0.00000E+00         0.00000E+00        -0.86592E+06
 
    0.15475E+06         0.10516E+07         0.00000E+00
    0.10516E+07        -0.45142E+07         0.00000E+00
    0.00000E+00         0.00000E+00        -0.87190E+06
 
    0.11997E+06         0.11086E+07         0.00000E+00
    0.11086E+07        -0.45091E+07         0.00000E+00
    0.00000E+00         0.00000E+00        -0.87782E+06
 
    0.85146E+05         0.11653E+07         0.00000E+00
    0.11653E+07        -0.45036E+07         0.00000E+00
    0.00000E+00         0.00000E+00        -0.88369E+06
 
    0.50262E+05         0.12217E+07         0.00000E+00
    0.12217E+07        -0.44978E+07         0.00000E+00
    0.00000E+00         0.00000E+00        -0.88951E+06
 
    0.15317E+05         0.12779E+07         0.00000E+00
    0.12779E+07        -0.44917E+07         0.00000E+00
    0.00000E+00         0.00000E+00        -0.89528E+06
 
   -0.19696E+05         0.13338E+07         0.00000E+00
    0.13338E+07        -0.44853E+07         0.00000E+00
    0.00000E+00         0.00000E+00        -0.90100E+06
 
   -0.54782E+05         0.13895E+07         0.00000E+00
    0.13895E+07        -0.44786E+07         0.00000E+00
    0.00000E+00         0.00000E+00        -0.90667E+06
 
   -0.89948E+05         0.14449E+07         0.00000E+00
    0.14449E+07        -0.44715E+07         0.00000E+00
    0.00000E+00         0.00000E+00        -0.91229E+06
 
   -0.12520E+06         0.15001E+07         0.00000E+00
    0.15001E+07        -0.44641E+07         0.00000E+00
    0.00000E+00         0.00000E+00        -0.91786E+06
 
   -0.16055E+06         0.15550E+07         0.00000E+00
    0.15550E+07        -0.44564E+07         0.00000E+00
    0.00000E+00         0.00000E+00        -0.92339E+06
 
   -0.19600E+06         0.16097E+07         0.00000E+00
    0.16097E+07        -0.44483E+07         0.00000E+00
    0.00000E+00         0.00000E+00        -0.92886E+06
 
   -0.23155E+06         0.16642E+07         0.00000E+00
    0.16642E+07        -0.44399E+07         0.00000E+00
    0.00000E+00         0.00000E+00        -0.93429E+06
 
   -0.26723E+06         0.17185E+07         0.00000E+00
    0.17185E+07        -0.44311E+07         0.00000E+00
    0.00000E+00         0.00000E+00        -0.93967E+06
 
   -0.30303E+06         0.17726E+07         0.00000E+00
    0.17726E+07        -0.44220E+07         0.00000E+00
    0.00000E+00         0.00000E+00        -0.94500E+06
 
   -0.33897E+06         0.18264E+07         0.00000E+00
    0.18264E+07        -0.44125E+07         0.00000E+00
    0.00000E+00         0.00000E+00        -0.95028E+06
 
   -0.37504E+06         0.18801E+07         0.00000E+00
    0.18801E+07        -0.44026E+07         0.00000E+00
    0.00000E+00         0.00000E+00        -0.95552E+06
 
   -0.41128E+06         0.19335E+07         0.00000E+00
    0.19335E+07        -0.43923E+07         0.00000E+00
    0.00000E+00         0.00000E+00        -0.96072E+06
 
   -0.44767E+06         0.19868E+07         0.00000E+00
    0.19868E+07        -0.43816E+07         0.00000E+00
    0.00000E+00         0.00000E+00        -0.96586E+06
 
   -0.48423E+06         0.20398E+07         0.00000E+00
    0.20398E+07        -0.43706E+07         0.00000E+00
    0.00000E+00         0.00000E+00        -0.97097E+06
 
   -0.52098E+06         0.20927E+07         0.00000E+00
    0.20927E+07        -0.43591E+07         0.00000E+00
    0.00000E+00         0.00000E+00        -0.97602E+06
 
   -0.55792E+06         0.21453E+07         0.00000E+00
    0.21453E+07        -0.43473E+07         0.00000E+00
    0.00000E+00         0.00000E+00        -0.98104E+06
 
   -0.59506E+06         0.21978E+07         0.00000E+00
    0.21978E+07        -0.43350E+07         0.00000E+00
    0.00000E+00         0.00000E+00        -0.98601E+06
 
   -0.63241E+06         0.22501E+07         0.00000E+00
    0.22501E+07        -0.43223E+07         0.00000E+00
    0.00000E+00         0.00000E+00        -0.99093E+06
 
   -0.66999E+06         0.23021E+07         0.00000E+00
    0.23021E+07        -0.43091E+07         0.00000E+00
    0.00000E+00         0.00000E+00        -0.99582E+06
 
   -0.70780E+06         0.23540E+07         0.00000E+00
    0.23540E+07        -0.42955E+07         0.00000E+00
    0.00000E+00         0.00000E+00        -0.10007E+07
 
   -0.74586E+06         0.24057E+07         0.00000E+00
    0.24057E+07        -0.42815E+07         0.00000E+00
    0.00000E+00         0.00000E+00        -0.10055E+07
 
   -0.78417E+06         0.24572E+07         0.00000E+00
    0.24572E+07        -0.42669E+07         0.00000E+00
    0.00000E+00         0.00000E+00        -0.10102E+07
 
   -0.82276E+06         0.25085E+07         0.00000E+00
    0.25085E+07        -0.42520E+07         0.00000E+00
    0.00000E+00         0.00000E+00        -0.10149E+07
 
   -0.86162E+06         0.25597E+07         0.00000E+00
    0.25597E+07        -0.42365E+07         0.00000E+00
    0.00000E+00         0.00000E+00        -0.10196E+07
 
   -0.90077E+06         0.26106E+07         0.00000E+00
    0.26106E+07        -0.42206E+07         0.00000E+00
    0.00000E+00         0.00000E+00        -0.10243E+07
 
   -0.94023E+06         0.26613E+07         0.00000E+00
    0.26613E+07        -0.42042E+07         0.00000E+00
    0.00000E+00         0.00000E+00        -0.10289E+07
 
   -0.98000E+06         0.27118E+07         0.00000E+00
    0.27118E+07        -0.41872E+07         0.00000E+00
    0.00000E+00         0.00000E+00        -0.10334E+07
 
   -0.10201E+07         0.27622E+07         0.00000E+00
    0.27622E+07        -0.41698E+07         0.00000E+00
    0.00000E+00         0.00000E+00        -0.10380E+07
 
    0.72025E+06         0.32795E+05         0.00000E+00
    0.32795E+05        -0.48985E+07         0.00000E+00
    0.00000E+00         0.00000E+00        -0.83565E+06
 
    0.68377E+06         0.97291E+05         0.00000E+00
    0.97291E+05        -0.48982E+07         0.00000E+00
    0.00000E+00         0.00000E+00        -0.84289E+06
 
    0.64731E+06         0.16134E+06         0.00000E+00
    0.16134E+06        -0.48977E+07         0.00000E+00
    0.00000E+00         0.00000E+00        -0.85007E+06
 
    0.61087E+06         0.22495E+06         0.00000E+00
    0.22495E+06        -0.48969E+07         0.00000E+00
    0.00000E+00         0.00000E+00        -0.85720E+06
 
    0.57445E+06         0.28814E+06         0.00000E+00
    0.28814E+06        -0.48958E+07         0.00000E+00
    0.00000E+00         0.00000E+00        -0.86426E+06
 
    0.53805E+06         0.35091E+06         0.00000E+00
    0.35091E+06        -0.48944E+07         0.00000E+00
    0.00000E+00         0.00000E+00        -0.87127E+06
 
    0.50168E+06         0.41330E+06         0.00000E+00
    0.41330E+06        -0.48928E+07         0.00000E+00
    0.00000E+00         0.00000E+00        -0.87822E+06
 
    0.46534E+06         0.47529E+06         0.00000E+00
    0.47529E+06        -0.48909E+07         0.00000E+00
    0.00000E+00         0.00000E+00        -0.88510E+06
 
    0.42902E+06         0.53692E+06         0.00000E+00
    0.53692E+06        -0.48887E+07         0.00000E+00
    0.00000E+00         0.00000E+00        -0.89193E+06
 
    0.39273E+06         0.59818E+06         0.00000E+00
    0.59818E+06        -0.48862E+07         0.00000E+00
    0.00000E+00         0.00000E+00        -0.89870E+06
 
    0.35646E+06         0.65910E+06         0.00000E+00
    0.65910E+06        -0.48835E+07         0.00000E+00
    0.00000E+00         0.00000E+00        -0.90541E+06
 
    0.32021E+06         0.71967E+06         0.00000E+00
    0.71967E+06        -0.48805E+07         0.00000E+00
    0.00000E+00         0.00000E+00        -0.91206E+06
 
    0.28398E+06         0.77993E+06         0.00000E+00
    0.77993E+06        -0.48773E+07         0.00000E+00
    0.00000E+00         0.00000E+00        -0.91865E+06
 
    0.24777E+06         0.83986E+06         0.00000E+00
    0.83986E+06        -0.48737E+07         0.00000E+00
    0.00000E+00         0.00000E+00        -0.92519E+06
 
    0.21157E+06         0.89950E+06         0.00000E+00
    0.89950E+06        -0.48699E+07         0.00000E+00
    0.00000E+00         0.00000E+00        -0.93166E+06
 
    0.17538E+06         0.95883E+06         0.00000E+00
    0.95883E+06        -0.48658E+07         0.00000E+00
    0.00000E+00         0.00000E+00        -0.93808E+06
 
    0.13919E+06         0.10179E+07         0.00000E+00
    0.10179E+07        -0.48613E+07         0.00000E+00
    0.00000E+00         0.00000E+00        -0.94443E+06
 
    0.10300E+06         0.10767E+07         0.00000E+00
    0.10767E+07        -0.48566E+07         0.00000E+00
    0.00000E+00         0.00000E+00        -0.95073E+06
 
    0.66806E+05         0.11352E+07         0.00000E+00
    0.11352E+07        -0.48516E+07         0.00000E+00
    0.00000E+00         0.00000E+00        -0.95697E+06
 
    0.30601E+05         0.11934E+07         0.00000E+00
    0.11934E+07        -0.48463E+07         0.00000E+00
    0.00000E+00         0.00000E+00        -0.96315E+06
 
   -0.56236E+04         0.12514E+07         0.00000E+00
    0.12514E+07        -0.48407E+07         0.00000E+00
    0.00000E+00         0.00000E+00        -0.96927E+06
 
   -0.41873E+05         0.13092E+07         0.00000E+00
    0.13092E+07        -0.48348E+07         0.00000E+00
    0.00000E+00         0.00000E+00        -0.97534E+06
 
   -0.78154E+05         0.13668E+07         0.00000E+00
    0.13668E+07        -0.48286E+07         0.00000E+00
    0.00000E+00         0.00000E+00        -0.98134E+06
 
   -0.11447E+06         0.14241E+07         0.00000E+00
    0.14241E+07        -0.48220E+07         0.00000E+00
    0.00000E+00         0.00000E+00        -0.98729E+06
 
   -0.15084E+06         0.14812E+07         0.00000E+00
    0.14812E+07        -0.48151E+07         0.00000E+00
    0.00000E+00         0.00000E+00        -0.99319E+06
 
   -0.18727E+06         0.15381E+07         0.00000E+00
    0.15381E+07        -0.48078E+07         0.00000E+00
    0.00000E+00         0.00000E+00        -0.99902E+06
 
   -0.22376E+06         0.15947E+07         0.00000E+00
    0.15947E+07        -0.48003E+07         0.00000E+00
    0.00000E+00         0.00000E+00        -0.10048E+07
 
   -0.26032E+06         0.16512E+07         0.00000E+00
    0.16512E+07        -0.47923E+07         0.00000E+00
    0.00000E+00         0.00000E+00        -0.10105E+07
 
   -0.29697E+06         0.17075E+07         0.00000E+00
    0.17075E+07        -0.47840E+07         0.00000E+00
    0.00000E+00         0.00000E+00        -0.10162E+07
 
   -0.33370E+06         0.17636E+07         0.00000E+00
    0.17636E+07        -0.47754E+07         0.00000E+00
    0.00000E+00         0.00000E+00        -0.10218E+07
 
   -0.37054E+06         0.18196E+07         0.00000E+00
    0.18196E+07        -0.47663E+07         0.00000E+00
    0.00000E+00         0.00000E+00        -0.10274E+07
 
   -0.40750E+06         0.18753E+07         0.00000E+00
    0.18753E+07        -0.47569E+07         0.00000E+00
    0.00000E+00         0.00000E+00        -0.10329E+07
 
   -0.44457E+06         0.19309E+07         0.00000E+00
    0.19309E+07        -0.47471E+07         0.00000E+00
    0.00000E+00         0.00000E+00        -0.10383E+07
 
   -0.48179E+06         0.19863E+07         0.00000E+00
    0.19863E+07        -0.47369E+07         0.00000E+00
    0.00000E+00         0.00000E+00        -0.10437E+07
 
   -0.51914E+06         0.20416E+07         0.00000E+00
    0.20416E+07        -0.47263E+07         0.00000E+00
    0.00000E+00         0.00000E+00        -0.10491E+07
 
   -0.55666E+06         0.20966E+07         0.00000E+00
    0.20966E+07        -0.47152E+07         0.00000E+00
    0.00000E+00         0.00000E+00        -0.10544E+07
 
   -0.59434E+06         0.21516E+07         0.00000E+00
    0.21516E+07        -0.47038E+07         0.00000E+00
    0.00000E+00         0.00000E+00        -0.10596E+07
 
   -0.63220E+06         0.22063E+07         0.00000E+00
    0.22063E+07        -0.46919E+07         0.00000E+00
    0.00000E+00         0.00000E+00        -0.10648E+07
 
   -0.67025E+06         0.22610E+07         0.00000E+00
    0.22610E+07        -0.46796E+07         0.00000E+00
    0.00000E+00         0.00000E+00        -0.10700E+07
 
   -0.70851E+06         0.23154E+07         0.00000E+00
    0.23154E+07        -0.46668E+07         0.00000E+00
    0.00000E+00         0.00000E+00        -0.10751E+07
 
   -0.74699E+06         0.23697E+07         0.00000E+00
    0.23697E+07        -0.46535E+07         0.00000E+00
    0.00000E+00         0.00000E+00        -0.10801E+07
 
   -0.78569E+06         0.24239E+07         0.00000E+00
    0.24239E+07        -0.46398E+07         0.00000E+00
    0.00000E+00         0.00000E+00        -0.10851E+07
 
   -0.82464E+06         0.24779E+07         0.00000E+00
    0.24779E+07        -0.46256E+07         0.00000E+00
    0.00000E+00         0.00000E+00        -0.10901E+07
 
   -0.86384E+06         0.25318E+07         0.00000E+00
    0.25318E+07        -0.46109E+07         0.00000E+00
    0.00000E+00         0.00000E+00        -0.10950E+07
 
   -0.90331E+06         0.25855E+07         0.00000E+00
    0.25855E+07        -0.45958E+07         0.00000E+00
    0.00000E+00         0.00000E+00        -0.10998E+07
 
   -0.94306E+06         0.26390E+07         0.00000E+00
    0.26390E+07        -0.45801E+07         0.00000E+00
    0.00000E+00         0.00000E+00        -0.11046E+07
 
   -0.98311E+06         0.26924E+07         0.00000E+00
    0.26924E+07        -0.45639E+07         0.00000E+00
    0.00000E+00         0.00000E+00        -0.11094E+07
 
   -0.10235E+07         0.27457E+07         0.00000E+00
    0.27457E+07        -0.45472E+07         0.00000E+00
    0.00000E+00         0.00000E+00        -0.11141E+07
 
   -0.10641E+07         0.27988E+07         0.00000E+00
    0.27988E+07        -0.45299E+07         0.00000E+00
    0.00000E+00         0.00000E+00        -0.11188E+07
 
   -0.11052E+07         0.28517E+07         0.00000E+00
    0.28517E+07        -0.45121E+07         0.00000E+00
    0.00000E+00         0.00000E+00        -0.11234E+07
 
    0.68759E+06         0.33486E+05         0.00000E+00
    0.33486E+05        -0.52582E+07         0.00000E+00
    0.00000E+00         0.00000E+00        -0.91413E+06
 
    0.64880E+06         0.99341E+05         0.00000E+00
    0.99341E+05        -0.52580E+07         0.00000E+00
    0.00000E+00         0.00000E+00        -0.92184E+06
 
    0.61010E+06         0.16474E+06         0.00000E+00
    0.16474E+06        -0.52575E+07         0.00000E+00
    0.00000E+00         0.00000E+00        -0.92947E+06
 
    0.57149E+06         0.22970E+06         0.00000E+00
    0.22970E+06        -0.52567E+07         0.00000E+00
    0.00000E+00         0.00000E+00        -0.93704E+06
 
    0.53296E+06         0.29423E+06         0.00000E+00
    0.29423E+06        -0.52557E+07         0.00000E+00
    0.00000E+00         0.00000E+00        -0.94455E+06
 
    0.49452E+06         0.35836E+06         0.00000E+00
    0.35836E+06        -0.52544E+07         0.00000E+00
    0.00000E+00         0.00000E+00        -0.95198E+06
 
    0.45618E+06         0.42209E+06         0.00000E+00
    0.42209E+06        -0.52529E+07         0.00000E+00
    0.00000E+00         0.00000E+00        -0.95935E+06
 
    0.41792E+06         0.48544E+06         0.00000E+00
    0.48544E+06        -0.52511E+07         0.00000E+00
    0.00000E+00         0.00000E+00        -0.96665E+06
 
    0.37974E+06         0.54842E+06         0.00000E+00
    0.54842E+06        -0.52491E+07         0.00000E+00
    0.00000E+00         0.00000E+00        -0.97388E+06
 
    0.34165E+06         0.61105E+06         0.00000E+00
    0.61105E+06        -0.52468E+07         0.00000E+00
    0.00000E+00         0.00000E+00        -0.98104E+06
 
    0.30365E+06         0.67334E+06         0.00000E+00
    0.67334E+06        -0.52443E+07         0.00000E+00
    0.00000E+00         0.00000E+00        -0.98813E+06
 
    0.26572E+06         0.73531E+06         0.00000E+00
    0.73531E+06        -0.52415E+07         0.00000E+00
    0.00000E+00         0.00000E+00        -0.99516E+06
 
    0.22787E+06         0.79697E+06         0.00000E+00
    0.79697E+06        -0.52384E+07         0.00000E+00
    0.00000E+00         0.00000E+00        -0.10021E+07
 
    0.19008E+06         0.85833E+06         0.00000E+00
    0.85833E+06        -0.52351E+07         0.00000E+00
    0.00000E+00         0.00000E+00        -0.10090E+07
 
    0.15237E+06         0.91940E+06         0.00000E+00
    0.91940E+06        -0.52315E+07         0.00000E+00
    0.00000E+00         0.00000E+00        -0.10158E+07
 
    0.11472E+06         0.98020E+06         0.00000E+00
    0.98020E+06        -0.52276E+07         0.00000E+00
    0.00000E+00         0.00000E+00        -0.10226E+07
 
    0.77119E+05         0.10407E+07         0.00000E+00
    0.10407E+07        -0.52234E+07         0.00000E+00
    0.00000E+00         0.00000E+00        -0.10293E+07
 
    0.39570E+05         0.11010E+07         0.00000E+00
    0.11010E+07        -0.52190E+07         0.00000E+00
    0.00000E+00         0.00000E+00        -0.10359E+07
 
    0.20619E+04         0.11611E+07         0.00000E+00
    0.11611E+07        -0.52142E+07         0.00000E+00
    0.00000E+00         0.00000E+00        -0.10424E+07
 
   -0.35412E+05         0.12209E+07         0.00000E+00
    0.12209E+07        -0.52092E+07         0.00000E+00
    0.00000E+00         0.00000E+00        -0.10489E+07
 
   -0.72858E+05         0.12805E+07         0.00000E+00
    0.12805E+07        -0.52038E+07         0.00000E+00
    0.00000E+00         0.00000E+00        -0.10553E+07
 
   -0.11029E+06         0.13398E+07         0.00000E+00
    0.13398E+07        -0.51982E+07         0.00000E+00
    0.00000E+00         0.00000E+00        -0.10617E+07
 
   -0.14771E+06         0.13990E+07         0.00000E+00
    0.13990E+07        -0.51922E+07         0.00000E+00
    0.00000E+00         0.00000E+00        -0.10680E+07
 
   -0.18513E+06         0.14580E+07         0.00000E+00
    0.14580E+07        -0.51859E+07         0.00000E+00
    0.00000E+00         0.00000E+00        -0.10742E+07
 
   -0.22255E+06         0.15168E+07         0.00000E+00
    0.15168E+07        -0.51792E+07         0.00000E+00
    0.00000E+00         0.00000E+00        -0.10804E+07
 
   -0.26000E+06         0.15754E+07         0.00000E+00
    0.15754E+07        -0.51722E+07         0.00000E+00
    0.00000E+00         0.00000E+00        -0.10864E+07
 
   -0.29748E+06         0.16339E+07         0.00000E+00
    0.16339E+07        -0.51649E+07         0.00000E+00
    0.00000E+00         0.00000E+00        -0.10925E+07
 
   -0.33500E+06         0.16922E+07         0.00000E+00
    0.16922E+07        -0.51572E+07         0.00000E+00
    0.00000E+00         0.00000E+00        -0.10984E+07
 
   -0.37257E+06         0.17503E+07         0.00000E+00
    0.17503E+07        -0.51491E+07         0.00000E+00
    0.00000E+00         0.00000E+00        -0.11043E+07
 
   -0.41020E+06         0.18083E+07         0.00000E+00
    0.18083E+07        -0.51407E+07         0.00000E+00
    0.00000E+00         0.00000E+00        -0.11102E+07
 
   -0.44791E+06         0.18661E+07         0.00000E+00
    0.18661E+07        -0.51318E+07         0.00000E+00
    0.00000E+00         0.00000E+00        -0.11159E+07
 
   -0.48570E+06         0.19238E+07         0.00000E+00
    0.19238E+07        -0.51226E+07         0.00000E+00
    0.00000E+00         0.00000E+00        -0.11217E+07
 
   -0.52360E+06         0.19814E+07         0.00000E+00
    0.19814E+07        -0.51130E+07         0.00000E+00
    0.00000E+00         0.00000E+00        -0.11273E+07
 
   -0.56160E+06         0.20389E+07         0.00000E+00
    0.20389E+07        -0.51029E+07         0.00000E+00
    0.00000E+00         0.00000E+00        -0.11329E+07
 
   -0.59973E+06         0.20962E+07         0.00000E+00
    0.20962E+07        -0.50925E+07         0.00000E+00
    0.00000E+00         0.00000E+00        -0.11384E+07
 
   -0.63800E+06         0.21534E+07         0.00000E+00
    0.21534E+07        -0.50815E+07         0.00000E+00
    0.00000E+00         0.00000E+00        -0.11439E+07
 
   -0.67642E+06         0.22105E+07         0.00000E+00
    0.22105E+07        -0.50702E+07         0.00000E+00
    0.00000E+00         0.00000E+00        -0.11493E+07
 
   -0.71500E+06         0.22675E+07         0.00000E+00
    0.22675E+07        -0.50584E+07         0.00000E+00
    0.00000E+00         0.00000E+00        -0.11547E+07
 
   -0.75377E+06         0.23244E+07         0.00000E+00
    0.23244E+07        -0.50461E+07         0.00000E+00
    0.00000E+00         0.00000E+00        -0.11600E+07
 
   -0.79272E+06         0.23811E+07         0.00000E+00
    0.23811E+07        -0.50334E+07         0.00000E+00
    0.00000E+00         0.00000E+00        -0.11652E+07
 
   -0.83189E+06         0.24378E+07         0.00000E+00
    0.24378E+07        -0.50202E+07         0.00000E+00
    0.00000E+00         0.00000E+00        -0.11704E+07
 
   -0.87127E+06         0.24943E+07         0.00000E+00
    0.24943E+07        -0.50065E+07         0.00000E+00
    0.00000E+00         0.00000E+00        -0.11755E+07
 
   -0.91090E+06         0.25508E+07         0.00000E+00
    0.25508E+07        -0.49922E+07         0.00000E+00
    0.00000E+00         0.00000E+00        -0.11806E+07
 
   -0.95077E+06         0.26071E+07         0.00000E+00
    0.26071E+07        -0.49775E+07         0.00000E+00
    0.00000E+00         0.00000E+00        -0.11857E+07
 
   -0.99091E+06         0.26634E+07         0.00000E+00
    0.26634E+07        -0.49622E+07         0.00000E+00
    0.00000E+00         0.00000E+00        -0.11906E+07
 
   -0.10313E+07         0.27195E+07         0.00000E+00
    0.27195E+07        -0.49464E+07         0.00000E+00
    0.00000E+00         0.00000E+00        -0.11955E+07
 
   -0.10721E+07         0.27755E+07         0.00000E+00
    0.27755E+07        -0.49301E+07         0.00000E+00
    0.00000E+00         0.00000E+00        -0.12004E+07
 
   -0.11131E+07         0.28315E+07         0.00000E+00
    0.28315E+07        -0.49131E+07         0.00000E+00
    0.00000E+00         0.00000E+00        -0.12052E+07
 
   -0.11544E+07         0.28873E+07         0.00000E+00
    0.28873E+07        -0.48956E+07         0.00000E+00
    0.00000E+00         0.00000E+00        -0.12100E+07
 
   -0.11962E+07         0.29430E+07         0.00000E+00
    0.29430E+07        -0.48776E+07         0.00000E+00
    0.00000E+00         0.00000E+00        -0.12147E+07
 
    0.64106E+06         0.34130E+05         0.00000E+00
    0.34130E+05        -0.56384E+07         0.00000E+00
    0.00000E+00         0.00000E+00        -0.99948E+06
 
    0.59993E+06         0.10125E+06         0.00000E+00
    0.10125E+06        -0.56382E+07         0.00000E+00
    0.00000E+00         0.00000E+00        -0.10077E+07
 
    0.55897E+06         0.16792E+06         0.00000E+00
    0.16792E+06        -0.56378E+07         0.00000E+00
    0.00000E+00         0.00000E+00        -0.10158E+07
 
    0.51817E+06         0.23414E+06         0.00000E+00
    0.23414E+06        -0.56371E+07         0.00000E+00
    0.00000E+00         0.00000E+00        -0.10238E+07
 
    0.47754E+06         0.29994E+06         0.00000E+00
    0.29994E+06        -0.56362E+07         0.00000E+00
    0.00000E+00         0.00000E+00        -0.10317E+07
 
    0.43706E+06         0.36533E+06         0.00000E+00
    0.36533E+06        -0.56350E+07         0.00000E+00
    0.00000E+00         0.00000E+00        -0.10396E+07
 
    0.39676E+06         0.43034E+06         0.00000E+00
    0.43034E+06        -0.56337E+07         0.00000E+00
    0.00000E+00         0.00000E+00        -0.10474E+07
 
    0.35661E+06         0.49497E+06         0.00000E+00
    0.49497E+06        -0.56321E+07         0.00000E+00
    0.00000E+00         0.00000E+00        -0.10551E+07
 
    0.31662E+06         0.55925E+06         0.00000E+00
    0.55925E+06        -0.56303E+07         0.00000E+00
    0.00000E+00         0.00000E+00        -0.10627E+07
 
    0.27679E+06         0.62318E+06         0.00000E+00
    0.62318E+06        -0.56282E+07         0.00000E+00
    0.00000E+00         0.00000E+00        -0.10703E+07
 
    0.23710E+06         0.68680E+06         0.00000E+00
    0.68680E+06        -0.56259E+07         0.00000E+00
    0.00000E+00         0.00000E+00        -0.10778E+07
 
    0.19757E+06         0.75010E+06         0.00000E+00
    0.75010E+06        -0.56233E+07         0.00000E+00
    0.00000E+00         0.00000E+00        -0.10852E+07
 
    0.15817E+06         0.81312E+06         0.00000E+00
    0.81312E+06        -0.56205E+07         0.00000E+00
    0.00000E+00         0.00000E+00        -0.10925E+07
 
    0.11891E+06         0.87585E+06         0.00000E+00
    0.87585E+06        -0.56175E+07         0.00000E+00
    0.00000E+00         0.00000E+00        -0.10997E+07
 
    0.79777E+05         0.93832E+06         0.00000E+00
    0.93832E+06        -0.56142E+07         0.00000E+00
    0.00000E+00         0.00000E+00        -0.11069E+07
 
    0.40767E+05         0.10005E+07         0.00000E+00
    0.10005E+07        -0.56106E+07         0.00000E+00
    0.00000E+00         0.00000E+00        -0.11140E+07
 
    0.18704E+04         0.10625E+07         0.00000E+00
    0.10625E+07        -0.56068E+07         0.00000E+00
    0.00000E+00         0.00000E+00        -0.11210E+07
 
   -0.36920E+05         0.11243E+07         0.00000E+00
    0.11243E+07        -0.56026E+07         0.00000E+00
    0.00000E+00         0.00000E+00        -0.11279E+07
 
   -0.75614E+05         0.11858E+07         0.00000E+00
    0.11858E+07        -0.55982E+07         0.00000E+00
    0.00000E+00         0.00000E+00        -0.11348E+07
 
   -0.11422E+06         0.12472E+07         0.00000E+00
    0.12472E+07        -0.55935E+07         0.00000E+00
    0.00000E+00         0.00000E+00        -0.11415E+07
 
   -0.15275E+06         0.13083E+07         0.00000E+00
    0.13083E+07        -0.55885E+07         0.00000E+00
    0.00000E+00         0.00000E+00        -0.11483E+07
 
   -0.19121E+06         0.13693E+07         0.00000E+00
    0.13693E+07        -0.55832E+07         0.00000E+00
    0.00000E+00         0.00000E+00        -0.11549E+07
 
   -0.22961E+06         0.14301E+07         0.00000E+00
    0.14301E+07        -0.55776E+07         0.00000E+00
    0.00000E+00         0.00000E+00        -0.11614E+07
 
   -0.26796E+06         0.14908E+07         0.00000E+00
    0.14908E+07        -0.55716E+07         0.00000E+00
    0.00000E+00         0.00000E+00        -0.11679E+07
 
   -0.30628E+06         0.15513E+07         0.00000E+00
    0.15513E+07        -0.55653E+07         0.00000E+00
    0.00000E+00         0.00000E+00        -0.11743E+07
 
   -0.34458E+06         0.16117E+07         0.00000E+00
    0.16117E+07        -0.55587E+07         0.00000E+00
    0.00000E+00         0.00000E+00        -0.11807E+07
 
   -0.38286E+06         0.16719E+07         0.00000E+00
    0.16719E+07        -0.55517E+07         0.00000E+00
    0.00000E+00         0.00000E+00        -0.11869E+07
 
   -0.42115E+06         0.17320E+07         0.00000E+00
    0.17320E+07        -0.55443E+07         0.00000E+00
    0.00000E+00         0.00000E+00        -0.11931E+07
 
   -0.45945E+06         0.17921E+07         0.00000E+00
    0.17921E+07        -0.55366E+07         0.00000E+00
    0.00000E+00         0.00000E+00        -0.11992E+07
 
   -0.49779E+06         0.18520E+07         0.00000E+00
    0.18520E+07        -0.55285E+07         0.00000E+00
    0.00000E+00         0.00000E+00        -0.12053E+07
 
   -0.53616E+06         0.19118E+07         0.00000E+00
    0.19118E+07        -0.55200E+07         0.00000E+00
    0.00000E+00         0.00000E+00        -0.12112E+07
 
   -0.57459E+06         0.19715E+07         0.00000E+00
    0.19715E+07        -0.55111E+07         0.00000E+00
    0.00000E+00         0.00000E+00        -0.12171E+07
 
   -0.61309E+06         0.20311E+07         0.00000E+00
    0.20311E+07        -0.55017E+07         0.00000E+00
    0.00000E+00         0.00000E+00        -0.12230E+07
 
   -0.65167E+06         0.20907E+07         0.00000E+00
    0.20907E+07        -0.54920E+07         0.00000E+00
    0.00000E+00         0.00000E+00        -0.12287E+07
 
   -0.69036E+06         0.21502E+07         0.00000E+00
    0.21502E+07        -0.54818E+07         0.00000E+00
    0.00000E+00         0.00000E+00        -0.12344E+07
 
   -0.72916E+06         0.22096E+07         0.00000E+00
    0.22096E+07        -0.54711E+07         0.00000E+00
    0.00000E+00         0.00000E+00        -0.12401E+07
 
   -0.76809E+06         0.22689E+07         0.00000E+00
    0.22689E+07        -0.54600E+07         0.00000E+00
    0.00000E+00         0.00000E+00        -0.12456E+07
 
   -0.80717E+06         0.23282E+07         0.00000E+00
    0.23282E+07        -0.54484E+07         0.00000E+00
    0.00000E+00         0.00000E+00        -0.12511E+07
 
   -0.84640E+06         0.23874E+07         0.00000E+00
    0.23874E+07        -0.54363E+07         0.00000E+00
    0.00000E+00         0.00000E+00        -0.12565E+07
 
   -0.88582E+06         0.24466E+07         0.00000E+00
    0.24466E+07        -0.54238E+07         0.00000E+00
    0.00000E+00         0.00000E+00        -0.12619E+07
 
   -0.92544E+06         0.25057E+07         0.00000E+00
    0.25057E+07        -0.54107E+07         0.00000E+00
    0.00000E+00         0.00000E+00        -0.12672E+07
 
   -0.96526E+06         0.25648E+07         0.00000E+00
    0.25648E+07        -0.53971E+07         0.00000E+00
    0.00000E+00         0.00000E+00        -0.12725E+07
 
   -0.10053E+07         0.26238E+07         0.00000E+00
    0.26238E+07        -0.53829E+07         0.00000E+00
    0.00000E+00         0.00000E+00        -0.12777E+07
 
   -0.10456E+07         0.26828E+07         0.00000E+00
    0.26828E+07        -0.53683E+07         0.00000E+00
    0.00000E+00         0.00000E+00        -0.12828E+07
 
   -0.10862E+07         0.27417E+07         0.00000E+00
    0.27417E+07        -0.53530E+07         0.00000E+00
    0.00000E+00         0.00000E+00        -0.12878E+07
 
   -0.11270E+07         0.28005E+07         0.00000E+00
    0.28005E+07        -0.53372E+07         0.00000E+00
    0.00000E+00         0.00000E+00        -0.12928E+07
 
   -0.11681E+07         0.28593E+07         0.00000E+00
    0.28593E+07        -0.53208E+07         0.00000E+00
    0.00000E+00         0.00000E+00        -0.12978E+07
 
   -0.12096E+07         0.29181E+07         0.00000E+00
    0.29181E+07        -0.53038E+07         0.00000E+00
    0.00000E+00         0.00000E+00        -0.13027E+07
 
   -0.12514E+07         0.29768E+07         0.00000E+00
    0.29768E+07        -0.52862E+07         0.00000E+00
    0.00000E+00         0.00000E+00        -0.13075E+07
 
   -0.12935E+07         0.30355E+07         0.00000E+00
    0.30355E+07        -0.52680E+07         0.00000E+00
    0.00000E+00         0.00000E+00        -0.13123E+07
 
    0.57880E+06         0.34711E+05         0.00000E+00
    0.34711E+05        -0.60404E+07         0.00000E+00
    0.00000E+00         0.00000E+00        -0.10923E+07
 
    0.53531E+06         0.10299E+06         0.00000E+00
    0.10299E+06        -0.60402E+07         0.00000E+00
    0.00000E+00         0.00000E+00        -0.11010E+07
 
    0.49208E+06         0.17080E+06         0.00000E+00
    0.17080E+06        -0.60399E+07         0.00000E+00
    0.00000E+00         0.00000E+00        -0.11096E+07
 
    0.44910E+06         0.23818E+06         0.00000E+00
    0.23818E+06        -0.60393E+07         0.00000E+00
    0.00000E+00         0.00000E+00        -0.11180E+07
 
    0.40638E+06         0.30514E+06         0.00000E+00
    0.30514E+06        -0.60385E+07         0.00000E+00
    0.00000E+00         0.00000E+00        -0.11264E+07
 
    0.36390E+06         0.37170E+06         0.00000E+00
    0.37170E+06        -0.60375E+07         0.00000E+00
    0.00000E+00         0.00000E+00        -0.11347E+07
 
    0.32167E+06         0.43787E+06         0.00000E+00
    0.43787E+06        -0.60364E+07         0.00000E+00
    0.00000E+00         0.00000E+00        -0.11429E+07
 
    0.27969E+06         0.50369E+06         0.00000E+00
    0.50369E+06        -0.60350E+07         0.00000E+00
    0.00000E+00         0.00000E+00        -0.11511E+07
 
    0.23795E+06         0.56917E+06         0.00000E+00
    0.56917E+06        -0.60334E+07         0.00000E+00
    0.00000E+00         0.00000E+00        -0.11591E+07
 
    0.19644E+06         0.63433E+06         0.00000E+00
    0.63433E+06        -0.60316E+07         0.00000E+00
    0.00000E+00         0.00000E+00        -0.11670E+07
 
    0.15517E+06         0.69918E+06         0.00000E+00
    0.69918E+06        -0.60296E+07         0.00000E+00
    0.00000E+00         0.00000E+00        -0.11749E+07
 
    0.11411E+06         0.76375E+06         0.00000E+00
    0.76375E+06        -0.60274E+07         0.00000E+00
    0.00000E+00         0.00000E+00        -0.11827E+07
 
    0.73276E+05         0.82805E+06         0.00000E+00
    0.82805E+06        -0.60250E+07         0.00000E+00
    0.00000E+00         0.00000E+00        -0.11903E+07
 
    0.32647E+05         0.89209E+06         0.00000E+00
    0.89209E+06        -0.60223E+07         0.00000E+00
    0.00000E+00         0.00000E+00        -0.11979E+07
 
   -0.77813E+04         0.95590E+06         0.00000E+00
    0.95590E+06        -0.60193E+07         0.00000E+00
    0.00000E+00         0.00000E+00        -0.12054E+07
 
   -0.48019E+05         0.10195E+07         0.00000E+00
    0.10195E+07        -0.60162E+07         0.00000E+00
    0.00000E+00         0.00000E+00        -0.12128E+07
 
   -0.88074E+05         0.10829E+07         0.00000E+00
    0.10829E+07        -0.60127E+07         0.00000E+00
    0.00000E+00         0.00000E+00        -0.12202E+07
 
   -0.12796E+06         0.11461E+07         0.00000E+00
    0.11461E+07        -0.60090E+07         0.00000E+00
    0.00000E+00         0.00000E+00        -0.12274E+07
 
   -0.16768E+06         0.12091E+07         0.00000E+00
    0.12091E+07        -0.60050E+07         0.00000E+00
    0.00000E+00         0.00000E+00        -0.12345E+07
 
   -0.20726E+06         0.12719E+07         0.00000E+00
    0.12719E+07        -0.60008E+07         0.00000E+00
    0.00000E+00         0.00000E+00        -0.12416E+07
 
   -0.24669E+06         0.13346E+07         0.00000E+00
    0.13346E+07        -0.59962E+07         0.00000E+00
    0.00000E+00         0.00000E+00        -0.12486E+07
 
   -0.28600E+06         0.13972E+07         0.00000E+00
    0.13972E+07        -0.59914E+07         0.00000E+00
    0.00000E+00         0.00000E+00        -0.12555E+07
 
   -0.32520E+06         0.14596E+07         0.00000E+00
    0.14596E+07        -0.59862E+07         0.00000E+00
    0.00000E+00         0.00000E+00        -0.12623E+07
 
   -0.36430E+06         0.15220E+07         0.00000E+00
    0.15220E+07        -0.59807E+07         0.00000E+00
    0.00000E+00         0.00000E+00        -0.12690E+07
 
   -0.40331E+06         0.15842E+07         0.00000E+00
    0.15842E+07        -0.59749E+07         0.00000E+00
    0.00000E+00         0.00000E+00        -0.12756E+07
 
   -0.44225E+06         0.16463E+07         0.00000E+00
    0.16463E+07        -0.59687E+07         0.00000E+00
    0.00000E+00         0.00000E+00        -0.12822E+07
 
   -0.48113E+06         0.17084E+07         0.00000E+00
    0.17084E+07        -0.59622E+07         0.00000E+00
    0.00000E+00         0.00000E+00        -0.12887E+07
 
   -0.51997E+06         0.17704E+07         0.00000E+00
    0.17704E+07        -0.59553E+07         0.00000E+00
    0.00000E+00         0.00000E+00        -0.12951E+07
 
   -0.55879E+06         0.18323E+07         0.00000E+00
    0.18323E+07        -0.59481E+07         0.00000E+00
    0.00000E+00         0.00000E+00        -0.13014E+07
 
   -0.59759E+06         0.18941E+07         0.00000E+00
    0.18941E+07        -0.59404E+07         0.00000E+00
    0.00000E+00         0.00000E+00        -0.13076E+07
 
   -0.63639E+06         0.19560E+07         0.00000E+00
    0.19560E+07        -0.59323E+07         0.00000E+00
    0.00000E+00         0.00000E+00        -0.13137E+07
 
   -0.67522E+06         0.20177E+07         0.00000E+00
    0.20177E+07        -0.59239E+07         0.00000E+00
    0.00000E+00         0.00000E+00        -0.13198E+07
 
   -0.71408E+06         0.20795E+07         0.00000E+00
    0.20795E+07        -0.59150E+07         0.00000E+00
    0.00000E+00         0.00000E+00        -0.13258E+07
 
   -0.75300E+06         0.21412E+07         0.00000E+00
    0.21412E+07        -0.59056E+07         0.00000E+00
    0.00000E+00         0.00000E+00        -0.13317E+07
 
   -0.79199E+06         0.22029E+07         0.00000E+00
    0.22029E+07        -0.58958E+07         0.00000E+00
    0.00000E+00         0.00000E+00        -0.13376E+07
 
   -0.83106E+06         0.22646E+07         0.00000E+00
    0.22646E+07        -0.58855E+07         0.00000E+00
    0.00000E+00         0.00000E+00        -0.13433E+07
 
   -0.87025E+06         0.23263E+07         0.00000E+00
    0.23263E+07        -0.58748E+07         0.00000E+00
    0.00000E+00         0.00000E+00        -0.13490E+07
 
   -0.90955E+06         0.23879E+07         0.00000E+00
    0.23879E+07        -0.58635E+07         0.00000E+00
    0.00000E+00         0.00000E+00        -0.13546E+07
 
   -0.94900E+06         0.24496E+07         0.00000E+00
    0.24496E+07        -0.58518E+07         0.00000E+00
    0.00000E+00         0.00000E+00        -0.13602E+07
 
   -0.98861E+06         0.25113E+07         0.00000E+00
    0.25113E+07        -0.58395E+07         0.00000E+00
    0.00000E+00         0.00000E+00        -0.13656E+07
 
   -0.10284E+07         0.25730E+07         0.00000E+00
    0.25730E+07        -0.58267E+07         0.00000E+00
    0.00000E+00         0.00000E+00        -0.13710E+07
 
   -0.10684E+07         0.26346E+07         0.00000E+00
    0.26346E+07        -0.58134E+07         0.00000E+00
    0.00000E+00         0.00000E+00        -0.13764E+07
 
   -0.11086E+07         0.26963E+07         0.00000E+00
    0.26963E+07        -0.57995E+07         0.00000E+00
    0.00000E+00         0.00000E+00        -0.13816E+07
 
   -0.11490E+07         0.27580E+07         0.00000E+00
    0.27580E+07        -0.57850E+07         0.00000E+00
    0.00000E+00         0.00000E+00        -0.13868E+07
 
   -0.11897E+07         0.28198E+07         0.00000E+00
    0.28198E+07        -0.57699E+07         0.00000E+00
    0.00000E+00         0.00000E+00        -0.13919E+07
 
   -0.12307E+07         0.28815E+07         0.00000E+00
    0.28815E+07        -0.57542E+07         0.00000E+00
    0.00000E+00         0.00000E+00        -0.13970E+07
 
   -0.12720E+07         0.29432E+07         0.00000E+00
    0.29432E+07        -0.57379E+07         0.00000E+00
    0.00000E+00         0.00000E+00        -0.14020E+07
 
   -0.13135E+07         0.30050E+07         0.00000E+00
    0.30050E+07        -0.57210E+07         0.00000E+00
    0.00000E+00         0.00000E+00        -0.14069E+07
 
   -0.13555E+07         0.30667E+07         0.00000E+00
    0.30667E+07        -0.57034E+07         0.00000E+00
    0.00000E+00         0.00000E+00        -0.14118E+07
 
   -0.13977E+07         0.31285E+07         0.00000E+00
    0.31285E+07        -0.56851E+07         0.00000E+00
    0.00000E+00         0.00000E+00        -0.14166E+07
 
    0.49879E+06         0.35213E+05         0.00000E+00
    0.35213E+05        -0.64656E+07         0.00000E+00
    0.00000E+00         0.00000E+00        -0.11934E+07
 
    0.45294E+06         0.10449E+06         0.00000E+00
    0.10449E+06        -0.64654E+07         0.00000E+00
    0.00000E+00         0.00000E+00        -0.12025E+07
 
    0.40745E+06         0.17331E+06         0.00000E+00
    0.17331E+06        -0.64651E+07         0.00000E+00
    0.00000E+00         0.00000E+00        -0.12115E+07
 
    0.36231E+06         0.24170E+06         0.00000E+00
    0.24170E+06        -0.64647E+07         0.00000E+00
    0.00000E+00         0.00000E+00        -0.12205E+07
 
    0.31753E+06         0.30968E+06         0.00000E+00
    0.30968E+06        -0.64641E+07         0.00000E+00
    0.00000E+00         0.00000E+00        -0.12293E+07
 
    0.27310E+06         0.37727E+06         0.00000E+00
    0.37727E+06        -0.64633E+07         0.00000E+00
    0.00000E+00         0.00000E+00        -0.12380E+07
 
    0.22902E+06         0.44450E+06         0.00000E+00
    0.44450E+06        -0.64624E+07         0.00000E+00
    0.00000E+00         0.00000E+00        -0.12467E+07
 
    0.18528E+06         0.51139E+06         0.00000E+00
    0.51139E+06        -0.64613E+07         0.00000E+00
    0.00000E+00         0.00000E+00        -0.12552E+07
 
    0.14187E+06         0.57795E+06         0.00000E+00
    0.57795E+06        -0.64600E+07         0.00000E+00
    0.00000E+00         0.00000E+00        -0.12636E+07
 
    0.98787E+05         0.64422E+06         0.00000E+00
    0.64422E+06        -0.64586E+07         0.00000E+00
    0.00000E+00         0.00000E+00        -0.12720E+07
 
    0.56026E+05         0.71020E+06         0.00000E+00
    0.71020E+06        -0.64569E+07         0.00000E+00
    0.00000E+00         0.00000E+00        -0.12802E+07
 
    0.13576E+05         0.77593E+06         0.00000E+00
    0.77593E+06        -0.64551E+07         0.00000E+00
    0.00000E+00         0.00000E+00        -0.12883E+07
 
   -0.28571E+05         0.84142E+06         0.00000E+00
    0.84142E+06        -0.64531E+07         0.00000E+00
    0.00000E+00         0.00000E+00        -0.12963E+07
 
   -0.70427E+05         0.90669E+06         0.00000E+00
    0.90669E+06        -0.64508E+07         0.00000E+00
    0.00000E+00         0.00000E+00        -0.13043E+07
 
   -0.11200E+06         0.97175E+06         0.00000E+00
    0.97175E+06        -0.64484E+07         0.00000E+00
    0.00000E+00         0.00000E+00        -0.13121E+07
 
   -0.15330E+06         0.10366E+07         0.00000E+00
    0.10366E+07        -0.64457E+07         0.00000E+00
    0.00000E+00         0.00000E+00        -0.13198E+07
 
   -0.19435E+06         0.11013E+07         0.00000E+00
    0.11013E+07        -0.64428E+07         0.00000E+00
    0.00000E+00         0.00000E+00        -0.13274E+07
 
   -0.23515E+06         0.11659E+07         0.00000E+00
    0.11659E+07        -0.64396E+07         0.00000E+00
    0.00000E+00         0.00000E+00        -0.13349E+07
 
   -0.27571E+06         0.12303E+07         0.00000E+00
    0.12303E+07        -0.64361E+07         0.00000E+00
    0.00000E+00         0.00000E+00        -0.13424E+07
 
   -0.31606E+06         0.12946E+07         0.00000E+00
    0.12946E+07        -0.64324E+07         0.00000E+00
    0.00000E+00         0.00000E+00        -0.13497E+07
 
   -0.35620E+06         0.13589E+07         0.00000E+00
    0.13589E+07        -0.64285E+07         0.00000E+00
    0.00000E+00         0.00000E+00        -0.13569E+07
 
   -0.39615E+06         0.14230E+07         0.00000E+00
    0.14230E+07        -0.64242E+07         0.00000E+00
    0.00000E+00         0.00000E+00        -0.13641E+07
 
   -0.43593E+06         0.14870E+07         0.00000E+00
    0.14870E+07        -0.64196E+07         0.00000E+00
    0.00000E+00         0.00000E+00        -0.13711E+07
 
   -0.47554E+06         0.15510E+07         0.00000E+00
    0.15510E+07        -0.64147E+07         0.00000E+00
    0.00000E+00         0.00000E+00        -0.13781E+07
 
   -0.51501E+06         0.16149E+07         0.00000E+00
    0.16149E+07        -0.64095E+07         0.00000E+00
    0.00000E+00         0.00000E+00        -0.13849E+07
 
   -0.55436E+06         0.16788E+07         0.00000E+00
    0.16788E+07        -0.64039E+07         0.00000E+00
    0.00000E+00         0.00000E+00        -0.13917E+07
 
   -0.59359E+06         0.17427E+07         0.00000E+00
    0.17427E+07        -0.63980E+07         0.00000E+00
    0.00000E+00         0.00000E+00        -0.13983E+07
 
   -0.63274E+06         0.18065E+07         0.00000E+00
    0.18065E+07        -0.63917E+07         0.00000E+00
    0.00000E+00         0.00000E+00        -0.14049E+07
 
   -0.67180E+06         0.18703E+07         0.00000E+00
    0.18703E+07        -0.63850E+07         0.00000E+00
    0.00000E+00         0.00000E+00        -0.14114E+07
 
   -0.71081E+06         0.19342E+07         0.00000E+00
    0.19342E+07        -0.63780E+07         0.00000E+00
    0.00000E+00         0.00000E+00        -0.14178E+07
 
   -0.74978E+06         0.19980E+07         0.00000E+00
    0.19980E+07        -0.63705E+07         0.00000E+00
    0.00000E+00         0.00000E+00        -0.14241E+07
 
   -0.78873E+06         0.20619E+07         0.00000E+00
    0.20619E+07        -0.63626E+07         0.00000E+00
    0.00000E+00         0.00000E+00        -0.14303E+07
 
   -0.82768E+06         0.21258E+07         0.00000E+00
    0.21258E+07        -0.63543E+07         0.00000E+00
    0.00000E+00         0.00000E+00        -0.14364E+07
 
   -0.86665E+06         0.21897E+07         0.00000E+00
    0.21897E+07        -0.63455E+07         0.00000E+00
    0.00000E+00         0.00000E+00        -0.14424E+07
 
   -0.90565E+06         0.22537E+07         0.00000E+00
    0.22537E+07        -0.63362E+07         0.00000E+00
    0.00000E+00         0.00000E+00        -0.14484E+07
 
   -0.94471E+06         0.23177E+07         0.00000E+00
    0.23177E+07        -0.63265E+07         0.00000E+00
    0.00000E+00         0.00000E+00        -0.14542E+07
 
   -0.98385E+06         0.23818E+07         0.00000E+00
    0.23818E+07        -0.63163E+07         0.00000E+00
    0.00000E+00         0.00000E+00        -0.14600E+07
 
   -0.10231E+07         0.24460E+07         0.00000E+00
    0.24460E+07        -0.63055E+07         0.00000E+00
    0.00000E+00         0.00000E+00        -0.14657E+07
 
   -0.10624E+07         0.25102E+07         0.00000E+00
    0.25102E+07        -0.62942E+07         0.00000E+00
    0.00000E+00         0.00000E+00        -0.14713E+07
 
   -0.11019E+07         0.25744E+07         0.00000E+00
    0.25744E+07        -0.62824E+07         0.00000E+00
    0.00000E+00         0.00000E+00        -0.14769E+07
 
   -0.11416E+07         0.26388E+07         0.00000E+00
    0.26388E+07        -0.62700E+07         0.00000E+00
    0.00000E+00         0.00000E+00        -0.14823E+07
 
   -0.11814E+07         0.27032E+07         0.00000E+00
    0.27032E+07        -0.62571E+07         0.00000E+00
    0.00000E+00         0.00000E+00        -0.14877E+07
 
   -0.12215E+07         0.27677E+07         0.00000E+00
    0.27677E+07        -0.62435E+07         0.00000E+00
    0.00000E+00         0.00000E+00        -0.14930E+07
 
   -0.12617E+07         0.28323E+07         0.00000E+00
    0.28323E+07        -0.62294E+07         0.00000E+00
    0.00000E+00         0.00000E+00        -0.14982E+07
 
   -0.13023E+07         0.28969E+07         0.00000E+00
    0.28969E+07        -0.62146E+07         0.00000E+00
    0.00000E+00         0.00000E+00        -0.15034E+07
 
   -0.13430E+07         0.29616E+07         0.00000E+00
    0.29616E+07        -0.61992E+07         0.00000E+00
    0.00000E+00         0.00000E+00        -0.15084E+07
 
   -0.13841E+07         0.30264E+07         0.00000E+00
    0.30264E+07        -0.61831E+07         0.00000E+00
    0.00000E+00         0.00000E+00        -0.15135E+07
 
   -0.14255E+07         0.30913E+07         0.00000E+00
    0.30913E+07        -0.61664E+07         0.00000E+00
    0.00000E+00         0.00000E+00        -0.15184E+07
 
   -0.14672E+07         0.31563E+07         0.00000E+00
    0.31563E+07        -0.61490E+07         0.00000E+00
    0.00000E+00         0.00000E+00        -0.15232E+07
 
   -0.15093E+07         0.32213E+07         0.00000E+00
    0.32213E+07        -0.61309E+07         0.00000E+00
    0.00000E+00         0.00000E+00        -0.15280E+07
 
    0.39880E+06         0.35618E+05         0.00000E+00
    0.35618E+05        -0.69153E+07         0.00000E+00
    0.00000E+00         0.00000E+00        -0.13033E+07
 
    0.35060E+06         0.10571E+06         0.00000E+00
    0.10571E+06        -0.69152E+07         0.00000E+00
    0.00000E+00         0.00000E+00        -0.13129E+07
 
    0.30288E+06         0.17536E+06         0.00000E+00
    0.17536E+06        -0.69150E+07         0.00000E+00
    0.00000E+00         0.00000E+00        -0.13224E+07
 
    0.25564E+06         0.24459E+06         0.00000E+00
    0.24459E+06        -0.69147E+07         0.00000E+00
    0.00000E+00         0.00000E+00        -0.13318E+07
 
    0.20887E+06         0.31342E+06         0.00000E+00
    0.31342E+06        -0.69143E+07         0.00000E+00
    0.00000E+00         0.00000E+00        -0.13411E+07
 
    0.16256E+06         0.38188E+06         0.00000E+00
    0.38188E+06        -0.69138E+07         0.00000E+00
    0.00000E+00         0.00000E+00        -0.13502E+07
 
    0.11671E+06         0.44999E+06         0.00000E+00
    0.44999E+06        -0.69131E+07         0.00000E+00
    0.00000E+00         0.00000E+00        -0.13593E+07
 
    0.71313E+05         0.51779E+06         0.00000E+00
    0.51779E+06        -0.69124E+07         0.00000E+00
    0.00000E+00         0.00000E+00        -0.13682E+07
 
    0.26355E+05         0.58530E+06         0.00000E+00
    0.58530E+06        -0.69115E+07         0.00000E+00
    0.00000E+00         0.00000E+00        -0.13770E+07
 
   -0.18171E+05         0.65253E+06         0.00000E+00
    0.65253E+06        -0.69104E+07         0.00000E+00
    0.00000E+00         0.00000E+00        -0.13857E+07
 
   -0.62275E+05         0.71952E+06         0.00000E+00
    0.71952E+06        -0.69092E+07         0.00000E+00
    0.00000E+00         0.00000E+00        -0.13943E+07
 
   -0.10597E+06         0.78628E+06         0.00000E+00
    0.78628E+06        -0.69079E+07         0.00000E+00
    0.00000E+00         0.00000E+00        -0.14028E+07
 
   -0.14926E+06         0.85284E+06         0.00000E+00
    0.85284E+06        -0.69063E+07         0.00000E+00
    0.00000E+00         0.00000E+00        -0.14111E+07
 
   -0.19217E+06         0.91922E+06         0.00000E+00
    0.91922E+06        -0.69046E+07         0.00000E+00
    0.00000E+00         0.00000E+00        -0.14194E+07
 
   -0.23470E+06         0.98544E+06         0.00000E+00
    0.98544E+06        -0.69027E+07         0.00000E+00
    0.00000E+00         0.00000E+00        -0.14275E+07
 
   -0.27688E+06         0.10515E+07         0.00000E+00
    0.10515E+07        -0.69006E+07         0.00000E+00
    0.00000E+00         0.00000E+00        -0.14355E+07
 
   -0.31871E+06         0.11175E+07         0.00000E+00
    0.11175E+07        -0.68983E+07         0.00000E+00
    0.00000E+00         0.00000E+00        -0.14434E+07
 
   -0.36020E+06         0.11833E+07         0.00000E+00
    0.11833E+07        -0.68958E+07         0.00000E+00
    0.00000E+00         0.00000E+00        -0.14512E+07
 
   -0.40139E+06         0.12491E+07         0.00000E+00
    0.12491E+07        -0.68930E+07         0.00000E+00
    0.00000E+00         0.00000E+00        -0.14589E+07
 
   -0.44228E+06         0.13148E+07         0.00000E+00
    0.13148E+07        -0.68900E+07         0.00000E+00
    0.00000E+00         0.00000E+00        -0.14665E+07
 
   -0.48288E+06         0.13804E+07         0.00000E+00
    0.13804E+07        -0.68867E+07         0.00000E+00
    0.00000E+00         0.00000E+00        -0.14739E+07
 
   -0.52322E+06         0.14461E+07         0.00000E+00
    0.14461E+07        -0.68831E+07         0.00000E+00
    0.00000E+00         0.00000E+00        -0.14813E+07
 
   -0.56332E+06         0.15116E+07         0.00000E+00
    0.15116E+07        -0.68793E+07         0.00000E+00
    0.00000E+00         0.00000E+00        -0.14885E+07
 
   -0.60319E+06         0.15772E+07         0.00000E+00
    0.15772E+07        -0.68751E+07         0.00000E+00
    0.00000E+00         0.00000E+00        -0.14957E+07
 
   -0.64285E+06         0.16428E+07         0.00000E+00
    0.16428E+07        -0.68706E+07         0.00000E+00
    0.00000E+00         0.00000E+00        -0.15027E+07
 
   -0.68232E+06         0.17085E+07         0.00000E+00
    0.17085E+07        -0.68658E+07         0.00000E+00
    0.00000E+00         0.00000E+00        -0.15096E+07
 
   -0.72162E+06         0.17741E+07         0.00000E+00
    0.17741E+07        -0.68606E+07         0.00000E+00
    0.00000E+00         0.00000E+00        -0.15164E+07
 
   -0.76078E+06         0.18398E+07         0.00000E+00
    0.18398E+07        -0.68551E+07         0.00000E+00
    0.00000E+00         0.00000E+00        -0.15232E+07
 
   -0.79980E+06         0.19056E+07         0.00000E+00
    0.19056E+07        -0.68492E+07         0.00000E+00
    0.00000E+00         0.00000E+00        -0.15298E+07
 
   -0.83871E+06         0.19714E+07         0.00000E+00
    0.19714E+07        -0.68428E+07         0.00000E+00
    0.00000E+00         0.00000E+00        -0.15363E+07
 
   -0.87754E+06         0.20373E+07         0.00000E+00
    0.20373E+07        -0.68361E+07         0.00000E+00
    0.00000E+00         0.00000E+00        -0.15427E+07
 
   -0.91630E+06         0.21033E+07         0.00000E+00
    0.21033E+07        -0.68289E+07         0.00000E+00
    0.00000E+00         0.00000E+00        -0.15490E+07
 
   -0.95502E+06         0.21694E+07         0.00000E+00
    0.21694E+07        -0.68213E+07         0.00000E+00
    0.00000E+00         0.00000E+00        -0.15553E+07
 
   -0.99372E+06         0.22356E+07         0.00000E+00
    0.22356E+07        -0.68133E+07         0.00000E+00
    0.00000E+00         0.00000E+00        -0.15614E+07
 
   -0.10324E+07         0.23019E+07         0.00000E+00
    0.23019E+07        -0.68047E+07         0.00000E+00
    0.00000E+00         0.00000E+00        -0.15674E+07
 
   -0.10711E+07         0.23683E+07         0.00000E+00
    0.23683E+07        -0.67957E+07         0.00000E+00
    0.00000E+00         0.00000E+00        -0.15734E+07
 
   -0.11099E+07         0.24349E+07         0.00000E+00
    0.24349E+07        -0.67861E+07         0.00000E+00
    0.00000E+00         0.00000E+00        -0.15792E+07
 
   -0.11487E+07         0.25016E+07         0.00000E+00
    0.25016E+07        -0.67760E+07         0.00000E+00
    0.00000E+00         0.00000E+00        -0.15849E+07
 
   -0.11877E+07         0.25684E+07         0.00000E+00
    0.25684E+07        -0.67654E+07         0.00000E+00
    0.00000E+00         0.00000E+00        -0.15906E+07
 
   -0.12267E+07         0.26353E+07         0.00000E+00
    0.26353E+07        -0.67542E+07         0.00000E+00
    0.00000E+00         0.00000E+00        -0.15962E+07
 
   -0.12659E+07         0.27024E+07         0.00000E+00
    0.27024E+07        -0.67424E+07         0.00000E+00
    0.00000E+00         0.00000E+00        -0.16016E+07
 
   -0.13052E+07         0.27697E+07         0.00000E+00
    0.27697E+07        -0.67300E+07         0.00000E+00
    0.00000E+00         0.00000E+00        -0.16070E+07
 
   -0.13447E+07         0.28371E+07         0.00000E+00
    0.28371E+07        -0.67170E+07         0.00000E+00
    0.00000E+00         0.00000E+00        -0.16123E+07
 
   -0.13845E+07         0.29047E+07         0.00000E+00
    0.29047E+07        -0.67033E+07         0.00000E+00
    0.00000E+00         0.00000E+00        -0.16176E+07
 
   -0.14244E+07         0.29724E+07         0.00000E+00
    0.29724E+07        -0.66890E+07         0.00000E+00
    0.00000E+00         0.00000E+00        -0.16227E+07
 
   -0.14647E+07         0.30402E+07         0.00000E+00
    0.30402E+07        -0.66741E+07         0.00000E+00
    0.00000E+00         0.00000E+00        -0.16278E+07
 
   -0.15052E+07         0.31083E+07         0.00000E+00
    0.31083E+07        -0.66584E+07         0.00000E+00
    0.00000E+00         0.00000E+00        -0.16327E+07
 
   -0.15460E+07         0.31765E+07         0.00000E+00
    0.31765E+07        -0.66421E+07         0.00000E+00
    0.00000E+00         0.00000E+00        -0.16376E+07
 
   -0.15872E+07         0.32448E+07         0.00000E+00
    0.32448E+07        -0.66250E+07         0.00000E+00
    0.00000E+00         0.00000E+00        -0.16424E+07
 
   -0.16287E+07         0.33133E+07         0.00000E+00
    0.33133E+07        -0.66072E+07         0.00000E+00
    0.00000E+00         0.00000E+00        -0.16472E+07
 
    0.27640E+06         0.35903E+05         0.00000E+00
    0.35903E+05        -0.73909E+07         0.00000E+00
    0.00000E+00         0.00000E+00        -0.14229E+07
 
    0.22590E+06         0.10659E+06         0.00000E+00
    0.10659E+06        -0.73909E+07         0.00000E+00
    0.00000E+00         0.00000E+00        -0.14330E+07
 
    0.17602E+06         0.17684E+06         0.00000E+00
    0.17684E+06        -0.73908E+07         0.00000E+00
    0.00000E+00         0.00000E+00        -0.14430E+07
 
    0.12675E+06         0.24669E+06         0.00000E+00
    0.24669E+06        -0.73907E+07         0.00000E+00
    0.00000E+00         0.00000E+00        -0.14528E+07
 
    0.78080E+05         0.31616E+06         0.00000E+00
    0.31616E+06        -0.73905E+07         0.00000E+00
    0.00000E+00         0.00000E+00        -0.14625E+07
 
    0.30003E+05         0.38529E+06         0.00000E+00
    0.38529E+06        -0.73903E+07         0.00000E+00
    0.00000E+00         0.00000E+00        -0.14721E+07
 
   -0.17489E+05         0.45411E+06         0.00000E+00
    0.45411E+06        -0.73900E+07         0.00000E+00
    0.00000E+00         0.00000E+00        -0.14815E+07
 
   -0.64408E+05         0.52263E+06         0.00000E+00
    0.52263E+06        -0.73896E+07         0.00000E+00
    0.00000E+00         0.00000E+00        -0.14908E+07
 
   -0.11077E+06         0.59090E+06         0.00000E+00
    0.59090E+06        -0.73891E+07         0.00000E+00
    0.00000E+00         0.00000E+00        -0.15000E+07
 
   -0.15657E+06         0.65893E+06         0.00000E+00
    0.65893E+06        -0.73886E+07         0.00000E+00
    0.00000E+00         0.00000E+00        -0.15090E+07
 
   -0.20184E+06         0.72675E+06         0.00000E+00
    0.72675E+06        -0.73879E+07         0.00000E+00
    0.00000E+00         0.00000E+00        -0.15179E+07
 
   -0.24659E+06         0.79440E+06         0.00000E+00
    0.79440E+06        -0.73871E+07         0.00000E+00
    0.00000E+00         0.00000E+00        -0.15267E+07
 
   -0.29083E+06         0.86188E+06         0.00000E+00
    0.86188E+06        -0.73862E+07         0.00000E+00
    0.00000E+00         0.00000E+00        -0.15354E+07
 
   -0.33457E+06         0.92923E+06         0.00000E+00
    0.92923E+06        -0.73851E+07         0.00000E+00
    0.00000E+00         0.00000E+00        -0.15439E+07
 
   -0.37784E+06         0.99647E+06         0.00000E+00
    0.99647E+06        -0.73839E+07         0.00000E+00
    0.00000E+00         0.00000E+00        -0.15523E+07
 
   -0.42065E+06         0.10636E+07         0.00000E+00
    0.10636E+07        -0.73825E+07         0.00000E+00
    0.00000E+00         0.00000E+00        -0.15606E+07
 
   -0.46302E+06         0.11307E+07         0.00000E+00
    0.11307E+07        -0.73809E+07         0.00000E+00
    0.00000E+00         0.00000E+00        -0.15688E+07
 
   -0.50496E+06         0.11977E+07         0.00000E+00
    0.11977E+07        -0.73792E+07         0.00000E+00
    0.00000E+00         0.00000E+00        -0.15768E+07
 
   -0.54650E+06         0.12648E+07         0.00000E+00
    0.12648E+07        -0.73772E+07         0.00000E+00
    0.00000E+00         0.00000E+00        -0.15847E+07
 
   -0.58765E+06         0.13318E+07         0.00000E+00
    0.13318E+07        -0.73750E+07         0.00000E+00
    0.00000E+00         0.00000E+00        -0.15925E+07
 
   -0.62844E+06         0.13988E+07         0.00000E+00
    0.13988E+07        -0.73725E+07         0.00000E+00
    0.00000E+00         0.00000E+00        -0.16002E+07
 
   -0.66888E+06         0.14658E+07         0.00000E+00
    0.14658E+07        -0.73698E+07         0.00000E+00
    0.00000E+00         0.00000E+00        -0.16077E+07
 
   -0.70900E+06         0.15329E+07         0.00000E+00
    0.15329E+07        -0.73668E+07         0.00000E+00
    0.00000E+00         0.00000E+00        -0.16152E+07
 
   -0.74882E+06         0.16000E+07         0.00000E+00
    0.16000E+07        -0.73635E+07         0.00000E+00
    0.00000E+00         0.00000E+00        -0.16225E+07
 
   -0.78835E+06         0.16673E+07         0.00000E+00
    0.16673E+07        -0.73599E+07         0.00000E+00
    0.00000E+00         0.00000E+00        -0.16296E+07
 
   -0.82763E+06         0.17346E+07         0.00000E+00
    0.17346E+07        -0.73560E+07         0.00000E+00
    0.00000E+00         0.00000E+00        -0.16367E+07
 
   -0.86667E+06         0.18020E+07         0.00000E+00
    0.18020E+07        -0.73517E+07         0.00000E+00
    0.00000E+00         0.00000E+00        -0.16437E+07
 
   -0.90550E+06         0.18696E+07         0.00000E+00
    0.18696E+07        -0.73471E+07         0.00000E+00
    0.00000E+00         0.00000E+00        -0.16505E+07
 
   -0.94415E+06         0.19372E+07         0.00000E+00
    0.19372E+07        -0.73420E+07         0.00000E+00
    0.00000E+00         0.00000E+00        -0.16572E+07
 
   -0.98262E+06         0.20050E+07         0.00000E+00
    0.20050E+07        -0.73366E+07         0.00000E+00
    0.00000E+00         0.00000E+00        -0.16638E+07
 
   -0.10210E+07         0.20730E+07         0.00000E+00
    0.20730E+07        -0.73308E+07         0.00000E+00
    0.00000E+00         0.00000E+00        -0.16704E+07
 
   -0.10592E+07         0.21411E+07         0.00000E+00
    0.21411E+07        -0.73245E+07         0.00000E+00
    0.00000E+00         0.00000E+00        -0.16767E+07
 
   -0.10973E+07         0.22095E+07         0.00000E+00
    0.22095E+07        -0.73178E+07         0.00000E+00
    0.00000E+00         0.00000E+00        -0.16830E+07
 
   -0.11354E+07         0.22779E+07         0.00000E+00
    0.22779E+07        -0.73106E+07         0.00000E+00
    0.00000E+00         0.00000E+00        -0.16892E+07
 
   -0.11734E+07         0.23466E+07         0.00000E+00
    0.23466E+07        -0.73030E+07         0.00000E+00
    0.00000E+00         0.00000E+00        -0.16953E+07
 
   -0.12114E+07         0.24155E+07         0.00000E+00
    0.24155E+07        -0.72948E+07         0.00000E+00
    0.00000E+00         0.00000E+00        -0.17012E+07
 
   -0.12494E+07         0.24846E+07         0.00000E+00
    0.24846E+07        -0.72861E+07         0.00000E+00
    0.00000E+00         0.00000E+00        -0.17071E+07
 
   -0.12875E+07         0.25539E+07         0.00000E+00
    0.25539E+07        -0.72768E+07         0.00000E+00
    0.00000E+00         0.00000E+00        -0.17129E+07
 
   -0.13256E+07         0.26234E+07         0.00000E+00
    0.26234E+07        -0.72670E+07         0.00000E+00
    0.00000E+00         0.00000E+00        -0.17185E+07
 
   -0.13638E+07         0.26931E+07         0.00000E+00
    0.26931E+07        -0.72566E+07         0.00000E+00
    0.00000E+00         0.00000E+00        -0.17241E+07
 
   -0.14021E+07         0.27631E+07         0.00000E+00
    0.27631E+07        -0.72455E+07         0.00000E+00
    0.00000E+00         0.00000E+00        -0.17295E+07
 
   -0.14405E+07         0.28333E+07         0.00000E+00
    0.28333E+07        -0.72339E+07         0.00000E+00
    0.00000E+00         0.00000E+00        -0.17349E+07
 
   -0.14792E+07         0.29037E+07         0.00000E+00
    0.29037E+07        -0.72216E+07         0.00000E+00
    0.00000E+00         0.00000E+00        -0.17402E+07
 
   -0.15180E+07         0.29744E+07         0.00000E+00
    0.29744E+07        -0.72087E+07         0.00000E+00
    0.00000E+00         0.00000E+00        -0.17453E+07
 
   -0.15570E+07         0.30453E+07         0.00000E+00
    0.30453E+07        -0.71950E+07         0.00000E+00
    0.00000E+00         0.00000E+00        -0.17504E+07
 
   -0.15963E+07         0.31165E+07         0.00000E+00
    0.31165E+07        -0.71807E+07         0.00000E+00
    0.00000E+00         0.00000E+00        -0.17554E+07
 
   -0.16358E+07         0.31878E+07         0.00000E+00
    0.31878E+07        -0.71656E+07         0.00000E+00
    0.00000E+00         0.00000E+00        -0.17603E+07
 
   -0.16757E+07         0.32595E+07         0.00000E+00
    0.32595E+07        -0.71498E+07         0.00000E+00
    0.00000E+00         0.00000E+00        -0.17651E+07
 
   -0.17159E+07         0.33313E+07         0.00000E+00
    0.33313E+07        -0.71332E+07         0.00000E+00
    0.00000E+00         0.00000E+00        -0.17698E+07
 
   -0.17564E+07         0.34034E+07         0.00000E+00
    0.34034E+07        -0.71159E+07         0.00000E+00
    0.00000E+00         0.00000E+00        -0.17745E+07
 
    0.12895E+06         0.36044E+05         0.00000E+00
    0.36044E+05        -0.78938E+07         0.00000E+00
    0.00000E+00         0.00000E+00        -0.15530E+07
 
    0.76234E+05         0.10705E+06         0.00000E+00
    0.10705E+06        -0.78938E+07         0.00000E+00
    0.00000E+00         0.00000E+00        -0.15635E+07
 
    0.24285E+05         0.17765E+06         0.00000E+00
    0.17765E+06        -0.78939E+07         0.00000E+00
    0.00000E+00         0.00000E+00        -0.15739E+07
 
   -0.26904E+05         0.24786E+06         0.00000E+00
    0.24786E+06        -0.78940E+07         0.00000E+00
    0.00000E+00         0.00000E+00        -0.15842E+07
 
   -0.77342E+05         0.31773E+06         0.00000E+00
    0.31773E+06        -0.78941E+07         0.00000E+00
    0.00000E+00         0.00000E+00        -0.15943E+07
 
   -0.12704E+06         0.38729E+06         0.00000E+00
    0.38729E+06        -0.78942E+07         0.00000E+00
    0.00000E+00         0.00000E+00        -0.16043E+07
 
   -0.17602E+06         0.45657E+06         0.00000E+00
    0.45657E+06        -0.78943E+07         0.00000E+00
    0.00000E+00         0.00000E+00        -0.16141E+07
 
   -0.22428E+06         0.52560E+06         0.00000E+00
    0.52560E+06        -0.78944E+07         0.00000E+00
    0.00000E+00         0.00000E+00        -0.16237E+07
 
   -0.27184E+06         0.59441E+06         0.00000E+00
    0.59441E+06        -0.78945E+07         0.00000E+00
    0.00000E+00         0.00000E+00        -0.16333E+07
 
   -0.31872E+06         0.66303E+06         0.00000E+00
    0.66303E+06        -0.78945E+07         0.00000E+00
    0.00000E+00         0.00000E+00        -0.16426E+07
 
   -0.36493E+06         0.73150E+06         0.00000E+00
    0.73150E+06        -0.78944E+07         0.00000E+00
    0.00000E+00         0.00000E+00        -0.16519E+07
 
   -0.41050E+06         0.79983E+06         0.00000E+00
    0.79983E+06        -0.78943E+07         0.00000E+00
    0.00000E+00         0.00000E+00        -0.16610E+07
 
   -0.45543E+06         0.86806E+06         0.00000E+00
    0.86806E+06        -0.78941E+07         0.00000E+00
    0.00000E+00         0.00000E+00        -0.16699E+07
 
   -0.49976E+06         0.93622E+06         0.00000E+00
    0.93622E+06        -0.78938E+07         0.00000E+00
    0.00000E+00         0.00000E+00        -0.16787E+07
 
   -0.54349E+06         0.10043E+07         0.00000E+00
    0.10043E+07        -0.78933E+07         0.00000E+00
    0.00000E+00         0.00000E+00        -0.16874E+07
 
   -0.58665E+06         0.10724E+07         0.00000E+00
    0.10724E+07        -0.78928E+07         0.00000E+00
    0.00000E+00         0.00000E+00        -0.16959E+07
 
   -0.62926E+06         0.11405E+07         0.00000E+00
    0.11405E+07        -0.78921E+07         0.00000E+00
    0.00000E+00         0.00000E+00        -0.17043E+07
 
   -0.67135E+06         0.12086E+07         0.00000E+00
    0.12086E+07        -0.78912E+07         0.00000E+00
    0.00000E+00         0.00000E+00        -0.17125E+07
 
   -0.71293E+06         0.12767E+07         0.00000E+00
    0.12767E+07        -0.78901E+07         0.00000E+00
    0.00000E+00         0.00000E+00        -0.17206E+07
 
   -0.75403E+06         0.13449E+07         0.00000E+00
    0.13449E+07        -0.78889E+07         0.00000E+00
    0.00000E+00         0.00000E+00        -0.17286E+07
 
   -0.79466E+06         0.14132E+07         0.00000E+00
    0.14132E+07        -0.78874E+07         0.00000E+00
    0.00000E+00         0.00000E+00        -0.17364E+07
 
   -0.83487E+06         0.14815E+07         0.00000E+00
    0.14815E+07        -0.78856E+07         0.00000E+00
    0.00000E+00         0.00000E+00        -0.17441E+07
 
   -0.87466E+06         0.15500E+07         0.00000E+00
    0.15500E+07        -0.78837E+07         0.00000E+00
    0.00000E+00         0.00000E+00        -0.17517E+07
 
   -0.91407E+06         0.16187E+07         0.00000E+00
    0.16187E+07        -0.78814E+07         0.00000E+00
    0.00000E+00         0.00000E+00        -0.17591E+07
 
   -0.95312E+06         0.16875E+07         0.00000E+00
    0.16875E+07        -0.78789E+07         0.00000E+00
    0.00000E+00         0.00000E+00        -0.17664E+07
 
   -0.99184E+06         0.17564E+07         0.00000E+00
    0.17564E+07        -0.78760E+07         0.00000E+00
    0.00000E+00         0.00000E+00        -0.17736E+07
 
   -0.10302E+07         0.18256E+07         0.00000E+00
    0.18256E+07        -0.78728E+07         0.00000E+00
    0.00000E+00         0.00000E+00        -0.17806E+07
 
   -0.10684E+07         0.18950E+07         0.00000E+00
    0.18950E+07        -0.78692E+07         0.00000E+00
    0.00000E+00         0.00000E+00        -0.17875E+07
 
   -0.11063E+07         0.19645E+07         0.00000E+00
    0.19645E+07        -0.78653E+07         0.00000E+00
    0.00000E+00         0.00000E+00        -0.17943E+07
 
   -0.11439E+07         0.20343E+07         0.00000E+00
    0.20343E+07        -0.78610E+07         0.00000E+00
    0.00000E+00         0.00000E+00        -0.18010E+07
 
   -0.11814E+07         0.21043E+07         0.00000E+00
    0.21043E+07        -0.78562E+07         0.00000E+00
    0.00000E+00         0.00000E+00        -0.18075E+07
 
   -0.12186E+07         0.21746E+07         0.00000E+00
    0.21746E+07        -0.78511E+07         0.00000E+00
    0.00000E+00         0.00000E+00        -0.18139E+07
 
   -0.12558E+07         0.22452E+07         0.00000E+00
    0.22452E+07        -0.78454E+07         0.00000E+00
    0.00000E+00         0.00000E+00        -0.18202E+07
 
   -0.12928E+07         0.23160E+07         0.00000E+00
    0.23160E+07        -0.78393E+07         0.00000E+00
    0.00000E+00         0.00000E+00        -0.18264E+07
 
   -0.13297E+07         0.23871E+07         0.00000E+00
    0.23871E+07        -0.78327E+07         0.00000E+00
    0.00000E+00         0.00000E+00        -0.18325E+07
 
   -0.13666E+07         0.24584E+07         0.00000E+00
    0.24584E+07        -0.78256E+07         0.00000E+00
    0.00000E+00         0.00000E+00        -0.18384E+07
 
   -0.14034E+07         0.25301E+07         0.00000E+00
    0.25301E+07        -0.78179E+07         0.00000E+00
    0.00000E+00         0.00000E+00        -0.18443E+07
 
   -0.14403E+07         0.26021E+07         0.00000E+00
    0.26021E+07        -0.78097E+07         0.00000E+00
    0.00000E+00         0.00000E+00        -0.18500E+07
 
   -0.14772E+07         0.26744E+07         0.00000E+00
    0.26744E+07        -0.78008E+07         0.00000E+00
    0.00000E+00         0.00000E+00        -0.18556E+07
 
   -0.15141E+07         0.27470E+07         0.00000E+00
    0.27470E+07        -0.77914E+07         0.00000E+00
    0.00000E+00         0.00000E+00        -0.18611E+07
 
   -0.15511E+07         0.28199E+07         0.00000E+00
    0.28199E+07        -0.77813E+07         0.00000E+00
    0.00000E+00         0.00000E+00        -0.18665E+07
 
   -0.15882E+07         0.28931E+07         0.00000E+00
    0.28931E+07        -0.77706E+07         0.00000E+00
    0.00000E+00         0.00000E+00        -0.18718E+07
 
   -0.16255E+07         0.29667E+07         0.00000E+00
    0.29667E+07        -0.77593E+07         0.00000E+00
    0.00000E+00         0.00000E+00        -0.18770E+07
 
   -0.16630E+07         0.30405E+07         0.00000E+00
    0.30405E+07        -0.77472E+07         0.00000E+00
    0.00000E+00         0.00000E+00        -0.18820E+07
 
   -0.17006E+07         0.31148E+07         0.00000E+00
    0.31148E+07        -0.77344E+07         0.00000E+00
    0.00000E+00         0.00000E+00        -0.18870E+07
 
   -0.17385E+07         0.31893E+07         0.00000E+00
    0.31893E+07        -0.77209E+07         0.00000E+00
    0.00000E+00         0.00000E+00        -0.18919E+07
 
   -0.17767E+07         0.32642E+07         0.00000E+00
    0.32642E+07        -0.77066E+07         0.00000E+00
    0.00000E+00         0.00000E+00        -0.18967E+07
 
   -0.18151E+07         0.33394E+07         0.00000E+00
    0.33394E+07        -0.76916E+07         0.00000E+00
    0.00000E+00         0.00000E+00        -0.19013E+07
 
   -0.18539E+07         0.34150E+07         0.00000E+00
    0.34150E+07        -0.76757E+07         0.00000E+00
    0.00000E+00         0.00000E+00        -0.19059E+07
 
   -0.18930E+07         0.34908E+07         0.00000E+00
    0.34908E+07        -0.76590E+07         0.00000E+00
    0.00000E+00         0.00000E+00        -0.19104E+07
 
   -0.46404E+05         0.36016E+05         0.00000E+00
    0.36016E+05        -0.84254E+07         0.00000E+00
    0.00000E+00         0.00000E+00        -0.16944E+07
 
   -0.10123E+06         0.10702E+06         0.00000E+00
    0.10702E+06        -0.84255E+07         0.00000E+00
    0.00000E+00         0.00000E+00        -0.17054E+07
 
   -0.15511E+06         0.17765E+06         0.00000E+00
    0.17765E+06        -0.84258E+07         0.00000E+00
    0.00000E+00         0.00000E+00        -0.17162E+07
 
   -0.20806E+06         0.24793E+06         0.00000E+00
    0.24793E+06        -0.84261E+07         0.00000E+00
    0.00000E+00         0.00000E+00        -0.17268E+07
 
   -0.26010E+06         0.31790E+06         0.00000E+00
    0.31790E+06        -0.84265E+07         0.00000E+00
    0.00000E+00         0.00000E+00        -0.17373E+07
 
   -0.31123E+06         0.38760E+06         0.00000E+00
    0.38760E+06        -0.84270E+07         0.00000E+00
    0.00000E+00         0.00000E+00        -0.17477E+07
 
   -0.36147E+06         0.45706E+06         0.00000E+00
    0.45706E+06        -0.84276E+07         0.00000E+00
    0.00000E+00         0.00000E+00        -0.17578E+07
 
   -0.41085E+06         0.52633E+06         0.00000E+00
    0.52633E+06        -0.84282E+07         0.00000E+00
    0.00000E+00         0.00000E+00        -0.17678E+07
 
   -0.45938E+06         0.59544E+06         0.00000E+00
    0.59544E+06        -0.84288E+07         0.00000E+00
    0.00000E+00         0.00000E+00        -0.17776E+07
 
   -0.50707E+06         0.66441E+06         0.00000E+00
    0.66441E+06        -0.84295E+07         0.00000E+00
    0.00000E+00         0.00000E+00        -0.17873E+07
 
   -0.55396E+06         0.73328E+06         0.00000E+00
    0.73328E+06        -0.84302E+07         0.00000E+00
    0.00000E+00         0.00000E+00        -0.17968E+07
 
   -0.60006E+06         0.80209E+06         0.00000E+00
    0.80209E+06        -0.84308E+07         0.00000E+00
    0.00000E+00         0.00000E+00        -0.18062E+07
 
   -0.64539E+06         0.87085E+06         0.00000E+00
    0.87085E+06        -0.84314E+07         0.00000E+00
    0.00000E+00         0.00000E+00        -0.18154E+07
 
   -0.68998E+06         0.93961E+06         0.00000E+00
    0.93961E+06        -0.84320E+07         0.00000E+00
    0.00000E+00         0.00000E+00        -0.18244E+07
 
   -0.73386E+06         0.10084E+07         0.00000E+00
    0.10084E+07        -0.84325E+07         0.00000E+00
    0.00000E+00         0.00000E+00        -0.18333E+07
 
   -0.77704E+06         0.10772E+07         0.00000E+00
    0.10772E+07        -0.84329E+07         0.00000E+00
    0.00000E+00         0.00000E+00        -0.18420E+07
 
   -0.81955E+06         0.11461E+07         0.00000E+00
    0.11461E+07        -0.84332E+07         0.00000E+00
    0.00000E+00         0.00000E+00        -0.18505E+07
 
   -0.86142E+06         0.12151E+07         0.00000E+00
    0.12151E+07        -0.84333E+07         0.00000E+00
    0.00000E+00         0.00000E+00        -0.18590E+07
 
   -0.90267E+06         0.12842E+07         0.00000E+00
    0.12842E+07        -0.84334E+07         0.00000E+00
    0.00000E+00         0.00000E+00        -0.18672E+07
 
   -0.94333E+06         0.13535E+07         0.00000E+00
    0.13535E+07        -0.84332E+07         0.00000E+00
    0.00000E+00         0.00000E+00        -0.18753E+07
 
   -0.98344E+06         0.14229E+07         0.00000E+00
    0.14229E+07        -0.84329E+07         0.00000E+00
    0.00000E+00         0.00000E+00        -0.18833E+07
 
   -0.10230E+07         0.14925E+07         0.00000E+00
    0.14925E+07        -0.84323E+07         0.00000E+00
    0.00000E+00         0.00000E+00        -0.18911E+07
 
   -0.10621E+07         0.15623E+07         0.00000E+00
    0.15623E+07        -0.84315E+07         0.00000E+00
    0.00000E+00         0.00000E+00        -0.18987E+07
 
   -0.11007E+07         0.16323E+07         0.00000E+00
    0.16323E+07        -0.84305E+07         0.00000E+00
    0.00000E+00         0.00000E+00        -0.19062E+07
 
   -0.11388E+07         0.17026E+07         0.00000E+00
    0.17026E+07        -0.84291E+07         0.00000E+00
    0.00000E+00         0.00000E+00        -0.19136E+07
 
   -0.11766E+07         0.17732E+07         0.00000E+00
    0.17732E+07        -0.84275E+07         0.00000E+00
    0.00000E+00         0.00000E+00        -0.19208E+07
 
   -0.12139E+07         0.18440E+07         0.00000E+00
    0.18440E+07        -0.84256E+07         0.00000E+00
    0.00000E+00         0.00000E+00        -0.19279E+07
 
   -0.12509E+07         0.19151E+07         0.00000E+00
    0.19151E+07        -0.84233E+07         0.00000E+00
    0.00000E+00         0.00000E+00        -0.19348E+07
 
   -0.12876E+07         0.19865E+07         0.00000E+00
    0.19865E+07        -0.84206E+07         0.00000E+00
    0.00000E+00         0.00000E+00        -0.19416E+07
 
   -0.13240E+07         0.20583E+07         0.00000E+00
    0.20583E+07        -0.84176E+07         0.00000E+00
    0.00000E+00         0.00000E+00        -0.19483E+07
 
   -0.13601E+07         0.21304E+07         0.00000E+00
    0.21304E+07        -0.84141E+07         0.00000E+00
    0.00000E+00         0.00000E+00        -0.19548E+07
 
   -0.13960E+07         0.22028E+07         0.00000E+00
    0.22028E+07        -0.84102E+07         0.00000E+00
    0.00000E+00         0.00000E+00        -0.19612E+07
 
   -0.14317E+07         0.22756E+07         0.00000E+00
    0.22756E+07        -0.84058E+07         0.00000E+00
    0.00000E+00         0.00000E+00        -0.19675E+07
 
   -0.14672E+07         0.23487E+07         0.00000E+00
    0.23487E+07        -0.84010E+07         0.00000E+00
    0.00000E+00         0.00000E+00        -0.19736E+07
 
   -0.15026E+07         0.24222E+07         0.00000E+00
    0.24222E+07        -0.83956E+07         0.00000E+00
    0.00000E+00         0.00000E+00        -0.19796E+07
 
   -0.15378E+07         0.24962E+07         0.00000E+00
    0.24962E+07        -0.83898E+07         0.00000E+00
    0.00000E+00         0.00000E+00        -0.19855E+07
 
   -0.15731E+07         0.25705E+07         0.00000E+00
    0.25705E+07        -0.83833E+07         0.00000E+00
    0.00000E+00         0.00000E+00        -0.19913E+07
 
   -0.16082E+07         0.26452E+07         0.00000E+00
    0.26452E+07        -0.83763E+07         0.00000E+00
    0.00000E+00         0.00000E+00        -0.19969E+07
 
   -0.16434E+07         0.27203E+07         0.00000E+00
    0.27203E+07        -0.83687E+07         0.00000E+00
    0.00000E+00         0.00000E+00        -0.20024E+07
 
   -0.16786E+07         0.27958E+07         0.00000E+00
    0.27958E+07        -0.83605E+07         0.00000E+00
    0.00000E+00         0.00000E+00        -0.20078E+07
 
   -0.17138E+07         0.28717E+07         0.00000E+00
    0.28717E+07        -0.83516E+07         0.00000E+00
    0.00000E+00         0.00000E+00        -0.20131E+07
 
   -0.17492E+07         0.29481E+07         0.00000E+00
    0.29481E+07        -0.83420E+07         0.00000E+00
    0.00000E+00         0.00000E+00        -0.20182E+07
 
   -0.17846E+07         0.30249E+07         0.00000E+00
    0.30249E+07        -0.83317E+07         0.00000E+00
    0.00000E+00         0.00000E+00        -0.20233E+07
 
   -0.18202E+07         0.31021E+07         0.00000E+00
    0.31021E+07        -0.83208E+07         0.00000E+00
    0.00000E+00         0.00000E+00        -0.20282E+07
 
   -0.18560E+07         0.31797E+07         0.00000E+00
    0.31797E+07        -0.83091E+07         0.00000E+00
    0.00000E+00         0.00000E+00        -0.20330E+07
 
   -0.18920E+07         0.32578E+07         0.00000E+00
    0.32578E+07        -0.82966E+07         0.00000E+00
    0.00000E+00         0.00000E+00        -0.20377E+07
 
   -0.19283E+07         0.33363E+07         0.00000E+00
    0.33363E+07        -0.82833E+07         0.00000E+00
    0.00000E+00         0.00000E+00        -0.20423E+07
 
   -0.19648E+07         0.34153E+07         0.00000E+00
    0.34153E+07        -0.82692E+07         0.00000E+00
    0.00000E+00         0.00000E+00        -0.20468E+07
 
   -0.20017E+07         0.34946E+07         0.00000E+00
    0.34946E+07        -0.82543E+07         0.00000E+00
    0.00000E+00         0.00000E+00        -0.20512E+07
 
   -0.20389E+07         0.35745E+07         0.00000E+00
    0.35745E+07        -0.82385E+07         0.00000E+00
    0.00000E+00         0.00000E+00        -0.20555E+07
 
   -0.25278E+06         0.35787E+05         0.00000E+00
    0.35787E+05        -0.89870E+07         0.00000E+00
    0.00000E+00         0.00000E+00        -0.18480E+07
 
   -0.30955E+06         0.10642E+06         0.00000E+00
    0.10642E+06        -0.89872E+07         0.00000E+00
    0.00000E+00         0.00000E+00        -0.18594E+07
 
   -0.36518E+06         0.17670E+06         0.00000E+00
    0.17670E+06        -0.89877E+07         0.00000E+00
    0.00000E+00         0.00000E+00        -0.18706E+07
 
   -0.41969E+06         0.24669E+06         0.00000E+00
    0.24669E+06        -0.89883E+07         0.00000E+00
    0.00000E+00         0.00000E+00        -0.18816E+07
 
   -0.47309E+06         0.31641E+06         0.00000E+00
    0.31641E+06        -0.89891E+07         0.00000E+00
    0.00000E+00         0.00000E+00        -0.18924E+07
 
   -0.52541E+06         0.38593E+06         0.00000E+00
    0.38593E+06        -0.89900E+07         0.00000E+00
    0.00000E+00         0.00000E+00        -0.19031E+07
 
   -0.57666E+06         0.45526E+06         0.00000E+00
    0.45526E+06        -0.89911E+07         0.00000E+00
    0.00000E+00         0.00000E+00        -0.19136E+07
 
   -0.62687E+06         0.52446E+06         0.00000E+00
    0.52446E+06        -0.89923E+07         0.00000E+00
    0.00000E+00         0.00000E+00        -0.19238E+07
 
   -0.67606E+06         0.59355E+06         0.00000E+00
    0.59355E+06        -0.89937E+07         0.00000E+00
    0.00000E+00         0.00000E+00        -0.19339E+07
 
   -0.72426E+06         0.66259E+06         0.00000E+00
    0.66259E+06        -0.89951E+07         0.00000E+00
    0.00000E+00         0.00000E+00        -0.19439E+07
 
   -0.77149E+06         0.73160E+06         0.00000E+00
    0.73160E+06        -0.89966E+07         0.00000E+00
    0.00000E+00         0.00000E+00        -0.19536E+07
 
   -0.81778E+06         0.80061E+06         0.00000E+00
    0.80061E+06        -0.89981E+07         0.00000E+00
    0.00000E+00         0.00000E+00        -0.19632E+07
 
   -0.86315E+06         0.86967E+06         0.00000E+00
    0.86967E+06        -0.89997E+07         0.00000E+00
    0.00000E+00         0.00000E+00        -0.19726E+07
 
   -0.90763E+06         0.93879E+06         0.00000E+00
    0.93879E+06        -0.90012E+07         0.00000E+00
    0.00000E+00         0.00000E+00        -0.19818E+07
 
   -0.95126E+06         0.10080E+07         0.00000E+00
    0.10080E+07        -0.90028E+07         0.00000E+00
    0.00000E+00         0.00000E+00        -0.19908E+07
 
   -0.99406E+06         0.10774E+07         0.00000E+00
    0.10774E+07        -0.90043E+07         0.00000E+00
    0.00000E+00         0.00000E+00        -0.19997E+07
 
   -0.10361E+07         0.11469E+07         0.00000E+00
    0.11469E+07        -0.90058E+07         0.00000E+00
    0.00000E+00         0.00000E+00        -0.20084E+07
 
   -0.10773E+07         0.12166E+07         0.00000E+00
    0.12166E+07        -0.90071E+07         0.00000E+00
    0.00000E+00         0.00000E+00        -0.20169E+07
 
   -0.11178E+07         0.12865E+07         0.00000E+00
    0.12865E+07        -0.90084E+07         0.00000E+00
    0.00000E+00         0.00000E+00        -0.20252E+07
 
   -0.11576E+07         0.13567E+07         0.00000E+00
    0.13567E+07        -0.90095E+07         0.00000E+00
    0.00000E+00         0.00000E+00        -0.20334E+07
 
   -0.11967E+07         0.14271E+07         0.00000E+00
    0.14271E+07        -0.90105E+07         0.00000E+00
    0.00000E+00         0.00000E+00        -0.20414E+07
 
   -0.12352E+07         0.14978E+07         0.00000E+00
    0.14978E+07        -0.90112E+07         0.00000E+00
    0.00000E+00         0.00000E+00        -0.20493E+07
 
   -0.12731E+07         0.15688E+07         0.00000E+00
    0.15688E+07        -0.90118E+07         0.00000E+00
    0.00000E+00         0.00000E+00        -0.20570E+07
 
   -0.13104E+07         0.16402E+07         0.00000E+00
    0.16402E+07        -0.90122E+07         0.00000E+00
    0.00000E+00         0.00000E+00        -0.20645E+07
 
   -0.13472E+07         0.17118E+07         0.00000E+00
    0.17118E+07        -0.90123E+07         0.00000E+00
    0.00000E+00         0.00000E+00        -0.20719E+07
 
   -0.13834E+07         0.17839E+07         0.00000E+00
    0.17839E+07        -0.90121E+07         0.00000E+00
    0.00000E+00         0.00000E+00        -0.20791E+07
 
   -0.14192E+07         0.18563E+07         0.00000E+00
    0.18563E+07        -0.90116E+07         0.00000E+00
    0.00000E+00         0.00000E+00        -0.20862E+07
 
   -0.14546E+07         0.19291E+07         0.00000E+00
    0.19291E+07        -0.90107E+07         0.00000E+00
    0.00000E+00         0.00000E+00        -0.20931E+07
 
   -0.14896E+07         0.20024E+07         0.00000E+00
    0.20024E+07        -0.90095E+07         0.00000E+00
    0.00000E+00         0.00000E+00        -0.20998E+07
 
   -0.15242E+07         0.20760E+07         0.00000E+00
    0.20760E+07        -0.90080E+07         0.00000E+00
    0.00000E+00         0.00000E+00        -0.21064E+07
 
   -0.15585E+07         0.21501E+07         0.00000E+00
    0.21501E+07        -0.90060E+07         0.00000E+00
    0.00000E+00         0.00000E+00        -0.21129E+07
 
   -0.15925E+07         0.22247E+07         0.00000E+00
    0.22247E+07        -0.90036E+07         0.00000E+00
    0.00000E+00         0.00000E+00        -0.21192E+07
 
   -0.16262E+07         0.22997E+07         0.00000E+00
    0.22997E+07        -0.90007E+07         0.00000E+00
    0.00000E+00         0.00000E+00        -0.21254E+07
 
   -0.16597E+07         0.23752E+07         0.00000E+00
    0.23752E+07        -0.89973E+07         0.00000E+00
    0.00000E+00         0.00000E+00        -0.21314E+07
 
   -0.16931E+07         0.24512E+07         0.00000E+00
    0.24512E+07        -0.89935E+07         0.00000E+00
    0.00000E+00         0.00000E+00        -0.21373E+07
 
   -0.17262E+07         0.25276E+07         0.00000E+00
    0.25276E+07        -0.89890E+07         0.00000E+00
    0.00000E+00         0.00000E+00        -0.21431E+07
 
   -0.17593E+07         0.26046E+07         0.00000E+00
    0.26046E+07        -0.89841E+07         0.00000E+00
    0.00000E+00         0.00000E+00        -0.21487E+07
 
   -0.17923E+07         0.26821E+07         0.00000E+00
    0.26821E+07        -0.89785E+07         0.00000E+00
    0.00000E+00         0.00000E+00        -0.21542E+07
 
   -0.18252E+07         0.27601E+07         0.00000E+00
    0.27601E+07        -0.89723E+07         0.00000E+00
    0.00000E+00         0.00000E+00        -0.21595E+07
 
   -0.18582E+07         0.28386E+07         0.00000E+00
    0.28386E+07        -0.89655E+07         0.00000E+00
    0.00000E+00         0.00000E+00        -0.21647E+07
 
   -0.18911E+07         0.29176E+07         0.00000E+00
    0.29176E+07        -0.89580E+07         0.00000E+00
    0.00000E+00         0.00000E+00        -0.21698E+07
 
   -0.19241E+07         0.29972E+07         0.00000E+00
    0.29972E+07        -0.89498E+07         0.00000E+00
    0.00000E+00         0.00000E+00        -0.21748E+07
 
   -0.19573E+07         0.30773E+07         0.00000E+00
    0.30773E+07        -0.89409E+07         0.00000E+00
    0.00000E+00         0.00000E+00        -0.21796E+07
 
   -0.19905E+07         0.31579E+07         0.00000E+00
    0.31579E+07        -0.89312E+07         0.00000E+00
    0.00000E+00         0.00000E+00        -0.21843E+07
 
   -0.20239E+07         0.32391E+07         0.00000E+00
    0.32391E+07        -0.89208E+07         0.00000E+00
    0.00000E+00         0.00000E+00        -0.21889E+07
 
   -0.20575E+07         0.33208E+07         0.00000E+00
    0.33208E+07        -0.89096E+07         0.00000E+00
    0.00000E+00         0.00000E+00        -0.21934E+07
 
   -0.20914E+07         0.34031E+07         0.00000E+00
    0.34031E+07        -0.88975E+07         0.00000E+00
    0.00000E+00         0.00000E+00        -0.21978E+07
 
   -0.21255E+07         0.34859E+07         0.00000E+00
    0.34859E+07        -0.88846E+07         0.00000E+00
    0.00000E+00         0.00000E+00        -0.22020E+07
 
   -0.21599E+07         0.35693E+07         0.00000E+00
    0.35693E+07        -0.88709E+07         0.00000E+00
    0.00000E+00         0.00000E+00        -0.22062E+07
 
   -0.21947E+07         0.36532E+07         0.00000E+00
    0.36532E+07        -0.88562E+07         0.00000E+00
    0.00000E+00         0.00000E+00        -0.22102E+07
 
   -0.49354E+06         0.35323E+05         0.00000E+00
    0.35323E+05        -0.95799E+07         0.00000E+00
    0.00000E+00         0.00000E+00        -0.20147E+07
 
   -0.55203E+06         0.10513E+06         0.00000E+00
    0.10513E+06        -0.95802E+07         0.00000E+00
    0.00000E+00         0.00000E+00        -0.20265E+07
 
   -0.60917E+06         0.17465E+06         0.00000E+00
    0.17465E+06        -0.95809E+07         0.00000E+00
    0.00000E+00         0.00000E+00        -0.20380E+07
 
   -0.66497E+06         0.24393E+06         0.00000E+00
    0.24393E+06        -0.95818E+07         0.00000E+00
    0.00000E+00         0.00000E+00        -0.20494E+07
 
   -0.71945E+06         0.31301E+06         0.00000E+00
    0.31301E+06        -0.95830E+07         0.00000E+00
    0.00000E+00         0.00000E+00        -0.20605E+07
 
   -0.77264E+06         0.38194E+06         0.00000E+00
    0.38194E+06        -0.95845E+07         0.00000E+00
    0.00000E+00         0.00000E+00        -0.20714E+07
 
   -0.82457E+06         0.45077E+06         0.00000E+00
    0.45077E+06        -0.95862E+07         0.00000E+00
    0.00000E+00         0.00000E+00        -0.20822E+07
 
   -0.87526E+06         0.51954E+06         0.00000E+00
    0.51954E+06        -0.95882E+07         0.00000E+00
    0.00000E+00         0.00000E+00        -0.20927E+07
 
   -0.92475E+06         0.58828E+06         0.00000E+00
    0.58828E+06        -0.95903E+07         0.00000E+00
    0.00000E+00         0.00000E+00        -0.21030E+07
 
   -0.97307E+06         0.65705E+06         0.00000E+00
    0.65705E+06        -0.95926E+07         0.00000E+00
    0.00000E+00         0.00000E+00        -0.21131E+07
 
   -0.10202E+07         0.72588E+06         0.00000E+00
    0.72588E+06        -0.95950E+07         0.00000E+00
    0.00000E+00         0.00000E+00        -0.21230E+07
 
   -0.10663E+07         0.79480E+06         0.00000E+00
    0.79480E+06        -0.95975E+07         0.00000E+00
    0.00000E+00         0.00000E+00        -0.21328E+07
 
   -0.11113E+07         0.86385E+06         0.00000E+00
    0.86385E+06        -0.96002E+07         0.00000E+00
    0.00000E+00         0.00000E+00        -0.21423E+07
 
   -0.11552E+07         0.93308E+06         0.00000E+00
    0.93308E+06        -0.96029E+07         0.00000E+00
    0.00000E+00         0.00000E+00        -0.21516E+07
 
   -0.11981E+07         0.10025E+07         0.00000E+00
    0.10025E+07        -0.96056E+07         0.00000E+00
    0.00000E+00         0.00000E+00        -0.21608E+07
 
   -0.12401E+07         0.10722E+07         0.00000E+00
    0.10722E+07        -0.96084E+07         0.00000E+00
    0.00000E+00         0.00000E+00        -0.21697E+07
 
   -0.12811E+07         0.11421E+07         0.00000E+00
    0.11421E+07        -0.96112E+07         0.00000E+00
    0.00000E+00         0.00000E+00        -0.21785E+07
 
   -0.13212E+07         0.12123E+07         0.00000E+00
    0.12123E+07        -0.96139E+07         0.00000E+00
    0.00000E+00         0.00000E+00        -0.21870E+07
 
   -0.13604E+07         0.12828E+07         0.00000E+00
    0.12828E+07        -0.96166E+07         0.00000E+00
    0.00000E+00         0.00000E+00        -0.21954E+07
 
   -0.13989E+07         0.13537E+07         0.00000E+00
    0.13537E+07        -0.96192E+07         0.00000E+00
    0.00000E+00         0.00000E+00        -0.22036E+07
 
   -0.14365E+07         0.14249E+07         0.00000E+00
    0.14249E+07        -0.96216E+07         0.00000E+00
    0.00000E+00         0.00000E+00        -0.22116E+07
 
   -0.14734E+07         0.14966E+07         0.00000E+00
    0.14966E+07        -0.96239E+07         0.00000E+00
    0.00000E+00         0.00000E+00        -0.22195E+07
 
   -0.15095E+07         0.15687E+07         0.00000E+00
    0.15687E+07        -0.96261E+07         0.00000E+00
    0.00000E+00         0.00000E+00        -0.22271E+07
 
   -0.15450E+07         0.16412E+07         0.00000E+00
    0.16412E+07        -0.96280E+07         0.00000E+00
    0.00000E+00         0.00000E+00        -0.22346E+07
 
   -0.15799E+07         0.17141E+07         0.00000E+00
    0.17141E+07        -0.96297E+07         0.00000E+00
    0.00000E+00         0.00000E+00        -0.22419E+07
 
   -0.16141E+07         0.17876E+07         0.00000E+00
    0.17876E+07        -0.96312E+07         0.00000E+00
    0.00000E+00         0.00000E+00        -0.22491E+07
 
   -0.16478E+07         0.18615E+07         0.00000E+00
    0.18615E+07        -0.96323E+07         0.00000E+00
    0.00000E+00         0.00000E+00        -0.22560E+07
 
   -0.16810E+07         0.19360E+07         0.00000E+00
    0.19360E+07        -0.96332E+07         0.00000E+00
    0.00000E+00         0.00000E+00        -0.22628E+07
 
   -0.17138E+07         0.20109E+07         0.00000E+00
    0.20109E+07        -0.96337E+07         0.00000E+00
    0.00000E+00         0.00000E+00        -0.22695E+07
 
   -0.17460E+07         0.20865E+07         0.00000E+00
    0.20865E+07        -0.96338E+07         0.00000E+00
    0.00000E+00         0.00000E+00        -0.22760E+07
 
   -0.17779E+07         0.21626E+07         0.00000E+00
    0.21626E+07        -0.96335E+07         0.00000E+00
    0.00000E+00         0.00000E+00        -0.22823E+07
 
   -0.18095E+07         0.22392E+07         0.00000E+00
    0.22392E+07        -0.96328E+07         0.00000E+00
    0.00000E+00         0.00000E+00        -0.22885E+07
 
   -0.18407E+07         0.23165E+07         0.00000E+00
    0.23165E+07        -0.96316E+07         0.00000E+00
    0.00000E+00         0.00000E+00        -0.22945E+07
 
   -0.18716E+07         0.23943E+07         0.00000E+00
    0.23943E+07        -0.96299E+07         0.00000E+00
    0.00000E+00         0.00000E+00        -0.23003E+07
 
   -0.19023E+07         0.24727E+07         0.00000E+00
    0.24727E+07        -0.96278E+07         0.00000E+00
    0.00000E+00         0.00000E+00        -0.23060E+07
 
   -0.19329E+07         0.25518E+07         0.00000E+00
    0.25518E+07        -0.96250E+07         0.00000E+00
    0.00000E+00         0.00000E+00        -0.23116E+07
 
   -0.19632E+07         0.26314E+07         0.00000E+00
    0.26314E+07        -0.96217E+07         0.00000E+00
    0.00000E+00         0.00000E+00        -0.23170E+07
 
   -0.19934E+07         0.27117E+07         0.00000E+00
    0.27117E+07        -0.96178E+07         0.00000E+00
    0.00000E+00         0.00000E+00        -0.23223E+07
 
   -0.20236E+07         0.27927E+07         0.00000E+00
    0.27927E+07        -0.96133E+07         0.00000E+00
    0.00000E+00         0.00000E+00        -0.23274E+07
 
   -0.20537E+07         0.28742E+07         0.00000E+00
    0.28742E+07        -0.96081E+07         0.00000E+00
    0.00000E+00         0.00000E+00        -0.23324E+07
 
   -0.20838E+07         0.29564E+07         0.00000E+00
    0.29564E+07        -0.96022E+07         0.00000E+00
    0.00000E+00         0.00000E+00        -0.23372E+07
 
   -0.21139E+07         0.30393E+07         0.00000E+00
    0.30393E+07        -0.95956E+07         0.00000E+00
    0.00000E+00         0.00000E+00        -0.23419E+07
 
   -0.21441E+07         0.31228E+07         0.00000E+00
    0.31228E+07        -0.95883E+07         0.00000E+00
    0.00000E+00         0.00000E+00        -0.23465E+07
 
   -0.21745E+07         0.32069E+07         0.00000E+00
    0.32069E+07        -0.95802E+07         0.00000E+00
    0.00000E+00         0.00000E+00        -0.23509E+07
 
   -0.22049E+07         0.32918E+07         0.00000E+00
    0.32918E+07        -0.95713E+07         0.00000E+00
    0.00000E+00         0.00000E+00        -0.23552E+07
 
   -0.22356E+07         0.33772E+07         0.00000E+00
    0.33772E+07        -0.95616E+07         0.00000E+00
    0.00000E+00         0.00000E+00        -0.23594E+07
 
   -0.22665E+07         0.34634E+07         0.00000E+00
    0.34634E+07        -0.95510E+07         0.00000E+00
    0.00000E+00         0.00000E+00        -0.23635E+07
 
   -0.22976E+07         0.35502E+07         0.00000E+00
    0.35502E+07        -0.95396E+07         0.00000E+00
    0.00000E+00         0.00000E+00        -0.23674E+07
 
   -0.23290E+07         0.36376E+07         0.00000E+00
    0.36376E+07        -0.95272E+07         0.00000E+00
    0.00000E+00         0.00000E+00        -0.23713E+07
 
   -0.23608E+07         0.37257E+07         0.00000E+00
    0.37257E+07        -0.95139E+07         0.00000E+00
    0.00000E+00         0.00000E+00        -0.23749E+07
 
   -0.77230E+06         0.34585E+05         0.00000E+00
    0.34585E+05        -0.10205E+08         0.00000E+00
    0.00000E+00         0.00000E+00        -0.21955E+07
 
   -0.83223E+06         0.10306E+06         0.00000E+00
    0.10306E+06        -0.10206E+08         0.00000E+00
    0.00000E+00         0.00000E+00        -0.22076E+07
 
   -0.89055E+06         0.17132E+06         0.00000E+00
    0.17132E+06        -0.10207E+08         0.00000E+00
    0.00000E+00         0.00000E+00        -0.22194E+07
 
   -0.94730E+06         0.23941E+06         0.00000E+00
    0.23941E+06        -0.10208E+08         0.00000E+00
    0.00000E+00         0.00000E+00        -0.22311E+07
 
   -0.10025E+07         0.30738E+06         0.00000E+00
    0.30738E+06        -0.10210E+08         0.00000E+00
    0.00000E+00         0.00000E+00        -0.22424E+07
 
   -0.10562E+07         0.37529E+06         0.00000E+00
    0.37529E+06        -0.10212E+08         0.00000E+00
    0.00000E+00         0.00000E+00        -0.22536E+07
 
   -0.11084E+07         0.44318E+06         0.00000E+00
    0.44318E+06        -0.10214E+08         0.00000E+00
    0.00000E+00         0.00000E+00        -0.22645E+07
 
   -0.11591E+07         0.51110E+06         0.00000E+00
    0.51110E+06        -0.10217E+08         0.00000E+00
    0.00000E+00         0.00000E+00        -0.22752E+07
 
   -0.12085E+07         0.57910E+06         0.00000E+00
    0.57910E+06        -0.10220E+08         0.00000E+00
    0.00000E+00         0.00000E+00        -0.22857E+07
 
   -0.12564E+07         0.64722E+06         0.00000E+00
    0.64722E+06        -0.10223E+08         0.00000E+00
    0.00000E+00         0.00000E+00        -0.22959E+07
 
   -0.13031E+07         0.71550E+06         0.00000E+00
    0.71550E+06        -0.10227E+08         0.00000E+00
    0.00000E+00         0.00000E+00        -0.23059E+07
 
   -0.13484E+07         0.78398E+06         0.00000E+00
    0.78398E+06        -0.10230E+08         0.00000E+00
    0.00000E+00         0.00000E+00        -0.23157E+07
 
   -0.13925E+07         0.85271E+06         0.00000E+00
    0.85271E+06        -0.10234E+08         0.00000E+00
    0.00000E+00         0.00000E+00        -0.23253E+07
 
   -0.14353E+07         0.92172E+06         0.00000E+00
    0.92172E+06        -0.10238E+08         0.00000E+00
    0.00000E+00         0.00000E+00        -0.23347E+07
 
   -0.14770E+07         0.99104E+06         0.00000E+00
    0.99104E+06        -0.10242E+08         0.00000E+00
    0.00000E+00         0.00000E+00        -0.23439E+07
 
   -0.15175E+07         0.10607E+07         0.00000E+00
    0.10607E+07        -0.10247E+08         0.00000E+00
    0.00000E+00         0.00000E+00        -0.23528E+07
 
   -0.15570E+07         0.11308E+07         0.00000E+00
    0.11308E+07        -0.10251E+08         0.00000E+00
    0.00000E+00         0.00000E+00        -0.23616E+07
 
   -0.15954E+07         0.12012E+07         0.00000E+00
    0.12012E+07        -0.10255E+08         0.00000E+00
    0.00000E+00         0.00000E+00        -0.23701E+07
 
   -0.16328E+07         0.12722E+07         0.00000E+00
    0.12722E+07        -0.10259E+08         0.00000E+00
    0.00000E+00         0.00000E+00        -0.23784E+07
 
   -0.16693E+07         0.13436E+07         0.00000E+00
    0.13436E+07        -0.10264E+08         0.00000E+00
    0.00000E+00         0.00000E+00        -0.23866E+07
 
   -0.17048E+07         0.14154E+07         0.00000E+00
    0.14154E+07        -0.10268E+08         0.00000E+00
    0.00000E+00         0.00000E+00        -0.23945E+07
 
   -0.17395E+07         0.14878E+07         0.00000E+00
    0.14878E+07        -0.10272E+08         0.00000E+00
    0.00000E+00         0.00000E+00        -0.24022E+07
 
   -0.17733E+07         0.15608E+07         0.00000E+00
    0.15608E+07        -0.10276E+08         0.00000E+00
    0.00000E+00         0.00000E+00        -0.24098E+07
 
   -0.18064E+07         0.16343E+07         0.00000E+00
    0.16343E+07        -0.10279E+08         0.00000E+00
    0.00000E+00         0.00000E+00        -0.24172E+07
 
   -0.18387E+07         0.17084E+07         0.00000E+00
    0.17084E+07        -0.10283E+08         0.00000E+00
    0.00000E+00         0.00000E+00        -0.24243E+07
 
   -0.18703E+07         0.17832E+07         0.00000E+00
    0.17832E+07        -0.10286E+08         0.00000E+00
    0.00000E+00         0.00000E+00        -0.24313E+07
 
   -0.19013E+07         0.18585E+07         0.00000E+00
    0.18585E+07        -0.10289E+08         0.00000E+00
    0.00000E+00         0.00000E+00        -0.24381E+07
 
   -0.19317E+07         0.19345E+07         0.00000E+00
    0.19345E+07        -0.10292E+08         0.00000E+00
    0.00000E+00         0.00000E+00        -0.24447E+07
 
   -0.19616E+07         0.20112E+07         0.00000E+00
    0.20112E+07        -0.10294E+08         0.00000E+00
    0.00000E+00         0.00000E+00        -0.24512E+07
 
   -0.19909E+07         0.20885E+07         0.00000E+00
    0.20885E+07        -0.10296E+08         0.00000E+00
    0.00000E+00         0.00000E+00        -0.24575E+07
 
   -0.20198E+07         0.21666E+07         0.00000E+00
    0.21666E+07        -0.10298E+08         0.00000E+00
    0.00000E+00         0.00000E+00        -0.24636E+07
 
   -0.20482E+07         0.22453E+07         0.00000E+00
    0.22453E+07        -0.10299E+08         0.00000E+00
    0.00000E+00         0.00000E+00        -0.24695E+07
 
   -0.20763E+07         0.23247E+07         0.00000E+00
    0.23247E+07        -0.10300E+08         0.00000E+00
    0.00000E+00         0.00000E+00        -0.24753E+07
 
   -0.21040E+07         0.24049E+07         0.00000E+00
    0.24049E+07        -0.10300E+08         0.00000E+00
    0.00000E+00         0.00000E+00        -0.24809E+07
 
   -0.21315E+07         0.24858E+07         0.00000E+00
    0.24858E+07        -0.10300E+08         0.00000E+00
    0.00000E+00         0.00000E+00        -0.24863E+07
 
   -0.21587E+07         0.25674E+07         0.00000E+00
    0.25674E+07        -0.10299E+08         0.00000E+00
    0.00000E+00         0.00000E+00        -0.24916E+07
 
   -0.21857E+07         0.26498E+07         0.00000E+00
    0.26498E+07        -0.10298E+08         0.00000E+00
    0.00000E+00         0.00000E+00        -0.24967E+07
 
   -0.22126E+07         0.27329E+07         0.00000E+00
    0.27329E+07        -0.10296E+08         0.00000E+00
    0.00000E+00         0.00000E+00        -0.25017E+07
 
   -0.22393E+07         0.28168E+07         0.00000E+00
    0.28168E+07        -0.10293E+08         0.00000E+00
    0.00000E+00         0.00000E+00        -0.25065E+07
 
   -0.22660E+07         0.29015E+07         0.00000E+00
    0.29015E+07        -0.10290E+08         0.00000E+00
    0.00000E+00         0.00000E+00        -0.25112E+07
 
   -0.22926E+07         0.29869E+07         0.00000E+00
    0.29869E+07        -0.10286E+08         0.00000E+00
    0.00000E+00         0.00000E+00        -0.25157E+07
 
   -0.23193E+07         0.30731E+07         0.00000E+00
    0.30731E+07        -0.10281E+08         0.00000E+00
    0.00000E+00         0.00000E+00        -0.25201E+07
 
   -0.23460E+07         0.31601E+07         0.00000E+00
    0.31601E+07        -0.10276E+08         0.00000E+00
    0.00000E+00         0.00000E+00        -0.25243E+07
 
   -0.23728E+07         0.32479E+07         0.00000E+00
    0.32479E+07        -0.10269E+08         0.00000E+00
    0.00000E+00         0.00000E+00        -0.25284E+07
 
   -0.23997E+07         0.33364E+07         0.00000E+00
    0.33364E+07        -0.10262E+08         0.00000E+00
    0.00000E+00         0.00000E+00        -0.25324E+07
 
   -0.24268E+07         0.34258E+07         0.00000E+00
    0.34258E+07        -0.10254E+08         0.00000E+00
    0.00000E+00         0.00000E+00        -0.25362E+07
 
   -0.24541E+07         0.35159E+07         0.00000E+00
    0.35159E+07        -0.10245E+08         0.00000E+00
    0.00000E+00         0.00000E+00        -0.25399E+07
 
   -0.24816E+07         0.36068E+07         0.00000E+00
    0.36068E+07        -0.10236E+08         0.00000E+00
    0.00000E+00         0.00000E+00        -0.25435E+07
 
   -0.25095E+07         0.36984E+07         0.00000E+00
    0.36984E+07        -0.10225E+08         0.00000E+00
    0.00000E+00         0.00000E+00        -0.25469E+07
 
   -0.25377E+07         0.37909E+07         0.00000E+00
    0.37909E+07        -0.10213E+08         0.00000E+00
    0.00000E+00         0.00000E+00        -0.25502E+07
 
   -0.10930E+07         0.33531E+05         0.00000E+00
    0.33531E+05        -0.10864E+08         0.00000E+00
    0.00000E+00         0.00000E+00        -0.23915E+07
 
   -0.11540E+07         0.10009E+06         0.00000E+00
    0.10009E+06        -0.10865E+08         0.00000E+00
    0.00000E+00         0.00000E+00        -0.24038E+07
 
   -0.12131E+07         0.16651E+06         0.00000E+00
    0.16651E+06        -0.10866E+08         0.00000E+00
    0.00000E+00         0.00000E+00        -0.24158E+07
 
   -0.12703E+07         0.23286E+06         0.00000E+00
    0.23286E+06        -0.10868E+08         0.00000E+00
    0.00000E+00         0.00000E+00        -0.24276E+07
 
   -0.13258E+07         0.29919E+06         0.00000E+00
    0.29919E+06        -0.10870E+08         0.00000E+00
    0.00000E+00         0.00000E+00        -0.24392E+07
 
   -0.13795E+07         0.36555E+06         0.00000E+00
    0.36555E+06        -0.10873E+08         0.00000E+00
    0.00000E+00         0.00000E+00        -0.24505E+07
 
   -0.14315E+07         0.43201E+06         0.00000E+00
    0.43201E+06        -0.10876E+08         0.00000E+00
    0.00000E+00         0.00000E+00        -0.24615E+07
 
   -0.14817E+07         0.49862E+06         0.00000E+00
    0.49862E+06        -0.10880E+08         0.00000E+00
    0.00000E+00         0.00000E+00        -0.24723E+07
 
   -0.15304E+07         0.56541E+06         0.00000E+00
    0.56541E+06        -0.10884E+08         0.00000E+00
    0.00000E+00         0.00000E+00        -0.24828E+07
 
   -0.15774E+07         0.63245E+06         0.00000E+00
    0.63245E+06        -0.10888E+08         0.00000E+00
    0.00000E+00         0.00000E+00        -0.24931E+07
 
   -0.16229E+07         0.69977E+06         0.00000E+00
    0.69977E+06        -0.10893E+08         0.00000E+00
    0.00000E+00         0.00000E+00        -0.25031E+07
 
   -0.16669E+07         0.76743E+06         0.00000E+00
    0.76743E+06        -0.10898E+08         0.00000E+00
    0.00000E+00         0.00000E+00        -0.25129E+07
 
   -0.17095E+07         0.83546E+06         0.00000E+00
    0.83546E+06        -0.10903E+08         0.00000E+00
    0.00000E+00         0.00000E+00        -0.25225E+07
 
   -0.17506E+07         0.90390E+06         0.00000E+00
    0.90390E+06        -0.10908E+08         0.00000E+00
    0.00000E+00         0.00000E+00        -0.25318E+07
 
   -0.17904E+07         0.97280E+06         0.00000E+00
    0.97280E+06        -0.10914E+08         0.00000E+00
    0.00000E+00         0.00000E+00        -0.25409E+07
 
   -0.18289E+07         0.10422E+07         0.00000E+00
    0.10422E+07        -0.10920E+08         0.00000E+00
    0.00000E+00         0.00000E+00        -0.25498E+07
 
   -0.18662E+07         0.11121E+07         0.00000E+00
    0.11121E+07        -0.10926E+08         0.00000E+00
    0.00000E+00         0.00000E+00        -0.25584E+07
 
   -0.19022E+07         0.11825E+07         0.00000E+00
    0.11825E+07        -0.10932E+08         0.00000E+00
    0.00000E+00         0.00000E+00        -0.25668E+07
 
   -0.19371E+07         0.12536E+07         0.00000E+00
    0.12536E+07        -0.10938E+08         0.00000E+00
    0.00000E+00         0.00000E+00        -0.25750E+07
 
   -0.19709E+07         0.13253E+07         0.00000E+00
    0.13253E+07        -0.10944E+08         0.00000E+00
    0.00000E+00         0.00000E+00        -0.25830E+07
 
   -0.20037E+07         0.13976E+07         0.00000E+00
    0.13976E+07        -0.10950E+08         0.00000E+00
    0.00000E+00         0.00000E+00        -0.25907E+07
 
   -0.20354E+07         0.14705E+07         0.00000E+00
    0.14705E+07        -0.10956E+08         0.00000E+00
    0.00000E+00         0.00000E+00        -0.25983E+07
 
   -0.20663E+07         0.15442E+07         0.00000E+00
    0.15442E+07        -0.10962E+08         0.00000E+00
    0.00000E+00         0.00000E+00        -0.26056E+07
 
   -0.20962E+07         0.16186E+07         0.00000E+00
    0.16186E+07        -0.10968E+08         0.00000E+00
    0.00000E+00         0.00000E+00        -0.26128E+07
 
   -0.21253E+07         0.16937E+07         0.00000E+00
    0.16937E+07        -0.10973E+08         0.00000E+00
    0.00000E+00         0.00000E+00        -0.26197E+07
 
   -0.21536E+07         0.17696E+07         0.00000E+00
    0.17696E+07        -0.10979E+08         0.00000E+00
    0.00000E+00         0.00000E+00        -0.26264E+07
 
   -0.21812E+07         0.18462E+07         0.00000E+00
    0.18462E+07        -0.10984E+08         0.00000E+00
    0.00000E+00         0.00000E+00        -0.26330E+07
 
   -0.22081E+07         0.19237E+07         0.00000E+00
    0.19237E+07        -0.10989E+08         0.00000E+00
    0.00000E+00         0.00000E+00        -0.26393E+07
 
   -0.22343E+07         0.20019E+07         0.00000E+00
    0.20019E+07        -0.10993E+08         0.00000E+00
    0.00000E+00         0.00000E+00        -0.26455E+07
 
   -0.22600E+07         0.20810E+07         0.00000E+00
    0.20810E+07        -0.10997E+08         0.00000E+00
    0.00000E+00         0.00000E+00        -0.26515E+07
 
   -0.22852E+07         0.21609E+07         0.00000E+00
    0.21609E+07        -0.11001E+08         0.00000E+00
    0.00000E+00         0.00000E+00        -0.26573E+07
 
   -0.23099E+07         0.22417E+07         0.00000E+00
    0.22417E+07        -0.11004E+08         0.00000E+00
    0.00000E+00         0.00000E+00        -0.26629E+07
 
   -0.23341E+07         0.23233E+07         0.00000E+00
    0.23233E+07        -0.11007E+08         0.00000E+00
    0.00000E+00         0.00000E+00        -0.26683E+07
 
   -0.23580E+07         0.24058E+07         0.00000E+00
    0.24058E+07        -0.11010E+08         0.00000E+00
    0.00000E+00         0.00000E+00        -0.26736E+07
 
   -0.23815E+07         0.24891E+07         0.00000E+00
    0.24891E+07        -0.11012E+08         0.00000E+00
    0.00000E+00         0.00000E+00        -0.26787E+07
 
   -0.24047E+07         0.25733E+07         0.00000E+00
    0.25733E+07        -0.11013E+08         0.00000E+00
    0.00000E+00         0.00000E+00        -0.26836E+07
 
   -0.24277E+07         0.26585E+07         0.00000E+00
    0.26585E+07        -0.11014E+08         0.00000E+00
    0.00000E+00         0.00000E+00        -0.26883E+07
 
   -0.24506E+07         0.27445E+07         0.00000E+00
    0.27445E+07        -0.11014E+08         0.00000E+00
    0.00000E+00         0.00000E+00        -0.26929E+07
 
   -0.24732E+07         0.28314E+07         0.00000E+00
    0.28314E+07        -0.11014E+08         0.00000E+00
    0.00000E+00         0.00000E+00        -0.26974E+07
 
   -0.24958E+07         0.29192E+07         0.00000E+00
    0.29192E+07        -0.11012E+08         0.00000E+00
    0.00000E+00         0.00000E+00        -0.27016E+07
 
   -0.25183E+07         0.30079E+07         0.00000E+00
    0.30079E+07        -0.11011E+08         0.00000E+00
    0.00000E+00         0.00000E+00        -0.27058E+07
 
   -0.25408E+07         0.30975E+07         0.00000E+00
    0.30975E+07        -0.11008E+08         0.00000E+00
    0.00000E+00         0.00000E+00        -0.27097E+07
 
   -0.25634E+07         0.31881E+07         0.00000E+00
    0.31881E+07        -0.11004E+08         0.00000E+00
    0.00000E+00         0.00000E+00        -0.27136E+07
 
   -0.25860E+07         0.32795E+07         0.00000E+00
    0.32795E+07        -0.11000E+08         0.00000E+00
    0.00000E+00         0.00000E+00        -0.27172E+07
 
   -0.26087E+07         0.33719E+07         0.00000E+00
    0.33719E+07        -0.10995E+08         0.00000E+00
    0.00000E+00         0.00000E+00        -0.27208E+07
 
   -0.26316E+07         0.34651E+07         0.00000E+00
    0.34651E+07        -0.10989E+08         0.00000E+00
    0.00000E+00         0.00000E+00        -0.27242E+07
 
   -0.26547E+07         0.35593E+07         0.00000E+00
    0.35593E+07        -0.10982E+08         0.00000E+00
    0.00000E+00         0.00000E+00        -0.27274E+07
 
   -0.26781E+07         0.36544E+07         0.00000E+00
    0.36544E+07        -0.10975E+08         0.00000E+00
    0.00000E+00         0.00000E+00        -0.27305E+07
 
   -0.27017E+07         0.37504E+07         0.00000E+00
    0.37504E+07        -0.10966E+08         0.00000E+00
    0.00000E+00         0.00000E+00        -0.27335E+07
 
   -0.27257E+07         0.38473E+07         0.00000E+00
    0.38473E+07        -0.10956E+08         0.00000E+00
    0.00000E+00         0.00000E+00        -0.27363E+07
 
   -0.14598E+07         0.32113E+05         0.00000E+00
    0.32113E+05        -0.11558E+08         0.00000E+00
    0.00000E+00         0.00000E+00        -0.26035E+07
 
   -0.15214E+07         0.96071E+05         0.00000E+00
    0.96071E+05        -0.11559E+08         0.00000E+00
    0.00000E+00         0.00000E+00        -0.26160E+07
 
   -0.15807E+07         0.16000E+06         0.00000E+00
    0.16000E+06        -0.11560E+08         0.00000E+00
    0.00000E+00         0.00000E+00        -0.26282E+07
 
   -0.16380E+07         0.22398E+06         0.00000E+00
    0.22398E+06        -0.11562E+08         0.00000E+00
    0.00000E+00         0.00000E+00        -0.26401E+07
 
   -0.16931E+07         0.28806E+06         0.00000E+00
    0.28806E+06        -0.11565E+08         0.00000E+00
    0.00000E+00         0.00000E+00        -0.26517E+07
 
   -0.17462E+07         0.35230E+06         0.00000E+00
    0.35230E+06        -0.11569E+08         0.00000E+00
    0.00000E+00         0.00000E+00        -0.26630E+07
 
   -0.17974E+07         0.41677E+06         0.00000E+00
    0.41677E+06        -0.11573E+08         0.00000E+00
    0.00000E+00         0.00000E+00        -0.26740E+07
 
   -0.18465E+07         0.48152E+06         0.00000E+00
    0.48152E+06        -0.11578E+08         0.00000E+00
    0.00000E+00         0.00000E+00        -0.26848E+07
 
   -0.18938E+07         0.54660E+06         0.00000E+00
    0.54660E+06        -0.11583E+08         0.00000E+00
    0.00000E+00         0.00000E+00        -0.26953E+07
 
   -0.19393E+07         0.61207E+06         0.00000E+00
    0.61207E+06        -0.11588E+08         0.00000E+00
    0.00000E+00         0.00000E+00        -0.27055E+07
 
   -0.19830E+07         0.67797E+06         0.00000E+00
    0.67797E+06        -0.11594E+08         0.00000E+00
    0.00000E+00         0.00000E+00        -0.27155E+07
 
   -0.20249E+07         0.74436E+06         0.00000E+00
    0.74436E+06        -0.11601E+08         0.00000E+00
    0.00000E+00         0.00000E+00        -0.27251E+07
 
   -0.20653E+07         0.81127E+06         0.00000E+00
    0.81127E+06        -0.11608E+08         0.00000E+00
    0.00000E+00         0.00000E+00        -0.27346E+07
 
   -0.21040E+07         0.87876E+06         0.00000E+00
    0.87876E+06        -0.11615E+08         0.00000E+00
    0.00000E+00         0.00000E+00        -0.27437E+07
 
   -0.21411E+07         0.94685E+06         0.00000E+00
    0.94685E+06        -0.11622E+08         0.00000E+00
    0.00000E+00         0.00000E+00        -0.27526E+07
 
   -0.21768E+07         0.10156E+07         0.00000E+00
    0.10156E+07        -0.11630E+08         0.00000E+00
    0.00000E+00         0.00000E+00        -0.27613E+07
 
   -0.22111E+07         0.10850E+07         0.00000E+00
    0.10850E+07        -0.11637E+08         0.00000E+00
    0.00000E+00         0.00000E+00        -0.27697E+07
 
   -0.22440E+07         0.11552E+07         0.00000E+00
    0.11552E+07        -0.11645E+08         0.00000E+00
    0.00000E+00         0.00000E+00        -0.27779E+07
 
   -0.22756E+07         0.12261E+07         0.00000E+00
    0.12261E+07        -0.11653E+08         0.00000E+00
    0.00000E+00         0.00000E+00        -0.27858E+07
 
   -0.23060E+07         0.12977E+07         0.00000E+00
    0.12977E+07        -0.11662E+08         0.00000E+00
    0.00000E+00         0.00000E+00        -0.27935E+07
 
   -0.23352E+07         0.13702E+07         0.00000E+00
    0.13702E+07        -0.11670E+08         0.00000E+00
    0.00000E+00         0.00000E+00        -0.28010E+07
 
   -0.23633E+07         0.14435E+07         0.00000E+00
    0.14435E+07        -0.11678E+08         0.00000E+00
    0.00000E+00         0.00000E+00        -0.28082E+07
 
   -0.23903E+07         0.15177E+07         0.00000E+00
    0.15177E+07        -0.11686E+08         0.00000E+00
    0.00000E+00         0.00000E+00        -0.28152E+07
 
   -0.24163E+07         0.15928E+07         0.00000E+00
    0.15928E+07        -0.11694E+08         0.00000E+00
    0.00000E+00         0.00000E+00        -0.28220E+07
 
   -0.24414E+07         0.16687E+07         0.00000E+00
    0.16687E+07        -0.11702E+08         0.00000E+00
    0.00000E+00         0.00000E+00        -0.28286E+07
 
   -0.24656E+07         0.17456E+07         0.00000E+00
    0.17456E+07        -0.11709E+08         0.00000E+00
    0.00000E+00         0.00000E+00        -0.28350E+07
 
   -0.24889E+07         0.18234E+07         0.00000E+00
    0.18234E+07        -0.11717E+08         0.00000E+00
    0.00000E+00         0.00000E+00        -0.28412E+07
 
   -0.25115E+07         0.19022E+07         0.00000E+00
    0.19022E+07        -0.11724E+08         0.00000E+00
    0.00000E+00         0.00000E+00        -0.28471E+07
 
   -0.25334E+07         0.19820E+07         0.00000E+00
    0.19820E+07        -0.11731E+08         0.00000E+00
    0.00000E+00         0.00000E+00        -0.28529E+07
 
   -0.25547E+07         0.20627E+07         0.00000E+00
    0.20627E+07        -0.11738E+08         0.00000E+00
    0.00000E+00         0.00000E+00        -0.28584E+07
 
   -0.25754E+07         0.21444E+07         0.00000E+00
    0.21444E+07        -0.11744E+08         0.00000E+00
    0.00000E+00         0.00000E+00        -0.28638E+07
 
   -0.25955E+07         0.22272E+07         0.00000E+00
    0.22272E+07        -0.11750E+08         0.00000E+00
    0.00000E+00         0.00000E+00        -0.28690E+07
 
   -0.26152E+07         0.23109E+07         0.00000E+00
    0.23109E+07        -0.11755E+08         0.00000E+00
    0.00000E+00         0.00000E+00        -0.28740E+07
 
   -0.26344E+07         0.23957E+07         0.00000E+00
    0.23957E+07        -0.11760E+08         0.00000E+00
    0.00000E+00         0.00000E+00        -0.28788E+07
 
   -0.26532E+07         0.24815E+07         0.00000E+00
    0.24815E+07        -0.11764E+08         0.00000E+00
    0.00000E+00         0.00000E+00        -0.28835E+07
 
   -0.26718E+07         0.25683E+07         0.00000E+00
    0.25683E+07        -0.11768E+08         0.00000E+00
    0.00000E+00         0.00000E+00        -0.28879E+07
 
   -0.26900E+07         0.26561E+07         0.00000E+00
    0.26561E+07        -0.11771E+08         0.00000E+00
    0.00000E+00         0.00000E+00        -0.28922E+07
 
   -0.27081E+07         0.27451E+07         0.00000E+00
    0.27451E+07        -0.11774E+08         0.00000E+00
    0.00000E+00         0.00000E+00        -0.28963E+07
 
   -0.27260E+07         0.28350E+07         0.00000E+00
    0.28350E+07        -0.11775E+08         0.00000E+00
    0.00000E+00         0.00000E+00        -0.29003E+07
 
   -0.27437E+07         0.29260E+07         0.00000E+00
    0.29260E+07        -0.11777E+08         0.00000E+00
    0.00000E+00         0.00000E+00        -0.29041E+07
 
   -0.27614E+07         0.30181E+07         0.00000E+00
    0.30181E+07        -0.11777E+08         0.00000E+00
    0.00000E+00         0.00000E+00        -0.29077E+07
 
   -0.27791E+07         0.31111E+07         0.00000E+00
    0.31111E+07        -0.11777E+08         0.00000E+00
    0.00000E+00         0.00000E+00        -0.29112E+07
 
   -0.27968E+07         0.32053E+07         0.00000E+00
    0.32053E+07        -0.11776E+08         0.00000E+00
    0.00000E+00         0.00000E+00        -0.29145E+07
 
   -0.28146E+07         0.33005E+07         0.00000E+00
    0.33005E+07        -0.11774E+08         0.00000E+00
    0.00000E+00         0.00000E+00        -0.29177E+07
 
   -0.28325E+07         0.33967E+07         0.00000E+00
    0.33967E+07        -0.11771E+08         0.00000E+00
    0.00000E+00         0.00000E+00        -0.29207E+07
 
   -0.28505E+07         0.34940E+07         0.00000E+00
    0.34940E+07        -0.11767E+08         0.00000E+00
    0.00000E+00         0.00000E+00        -0.29236E+07
 
   -0.28688E+07         0.35924E+07         0.00000E+00
    0.35924E+07        -0.11763E+08         0.00000E+00
    0.00000E+00         0.00000E+00        -0.29263E+07
 
   -0.28873E+07         0.36917E+07         0.00000E+00
    0.36917E+07        -0.11757E+08         0.00000E+00
    0.00000E+00         0.00000E+00        -0.29289E+07
 
   -0.29060E+07         0.37921E+07         0.00000E+00
    0.37921E+07        -0.11751E+08         0.00000E+00
    0.00000E+00         0.00000E+00        -0.29313E+07
 
   -0.29251E+07         0.38936E+07         0.00000E+00
    0.38936E+07        -0.11743E+08         0.00000E+00
    0.00000E+00         0.00000E+00        -0.29336E+07
 
   -0.18772E+07         0.30275E+05         0.00000E+00
    0.30275E+05        -0.12287E+08         0.00000E+00
    0.00000E+00         0.00000E+00        -0.28329E+07
 
   -0.19388E+07         0.90861E+05         0.00000E+00
    0.90861E+05        -0.12288E+08         0.00000E+00
    0.00000E+00         0.00000E+00        -0.28454E+07
 
   -0.19978E+07         0.15156E+06         0.00000E+00
    0.15156E+06        -0.12290E+08         0.00000E+00
    0.00000E+00         0.00000E+00        -0.28575E+07
 
   -0.20544E+07         0.21245E+06         0.00000E+00
    0.21245E+06        -0.12293E+08         0.00000E+00
    0.00000E+00         0.00000E+00        -0.28694E+07
 
   -0.21085E+07         0.27359E+06         0.00000E+00
    0.27359E+06        -0.12296E+08         0.00000E+00
    0.00000E+00         0.00000E+00        -0.28809E+07
 
   -0.21603E+07         0.33505E+06         0.00000E+00
    0.33505E+06        -0.12301E+08         0.00000E+00
    0.00000E+00         0.00000E+00        -0.28922E+07
 
   -0.22098E+07         0.39689E+06         0.00000E+00
    0.39689E+06        -0.12306E+08         0.00000E+00
    0.00000E+00         0.00000E+00        -0.29031E+07
 
   -0.22571E+07         0.45919E+06         0.00000E+00
    0.45919E+06        -0.12311E+08         0.00000E+00
    0.00000E+00         0.00000E+00        -0.29137E+07
 
   -0.23023E+07         0.52198E+06         0.00000E+00
    0.52198E+06        -0.12318E+08         0.00000E+00
    0.00000E+00         0.00000E+00        -0.29240E+07
 
   -0.23453E+07         0.58533E+06         0.00000E+00
    0.58533E+06        -0.12325E+08         0.00000E+00
    0.00000E+00         0.00000E+00        -0.29340E+07
 
   -0.23864E+07         0.64930E+06         0.00000E+00
    0.64930E+06        -0.12332E+08         0.00000E+00
    0.00000E+00         0.00000E+00        -0.29437E+07
 
   -0.24255E+07         0.71393E+06         0.00000E+00
    0.71393E+06        -0.12340E+08         0.00000E+00
    0.00000E+00         0.00000E+00        -0.29531E+07
 
   -0.24627E+07         0.77926E+06         0.00000E+00
    0.77926E+06        -0.12349E+08         0.00000E+00
    0.00000E+00         0.00000E+00        -0.29623E+07
 
   -0.24981E+07         0.84535E+06         0.00000E+00
    0.84535E+06        -0.12358E+08         0.00000E+00
    0.00000E+00         0.00000E+00        -0.29711E+07
 
   -0.25318E+07         0.91223E+06         0.00000E+00
    0.91223E+06        -0.12367E+08         0.00000E+00
    0.00000E+00         0.00000E+00        -0.29797E+07
 
   -0.25638E+07         0.97995E+06         0.00000E+00
    0.97995E+06        -0.12376E+08         0.00000E+00
    0.00000E+00         0.00000E+00        -0.29880E+07
 
   -0.25942E+07         0.10485E+07         0.00000E+00
    0.10485E+07        -0.12386E+08         0.00000E+00
    0.00000E+00         0.00000E+00        -0.29961E+07
 
   -0.26231E+07         0.11180E+07         0.00000E+00
    0.11180E+07        -0.12396E+08         0.00000E+00
    0.00000E+00         0.00000E+00        -0.30039E+07
 
   -0.26505E+07         0.11885E+07         0.00000E+00
    0.11885E+07        -0.12407E+08         0.00000E+00
    0.00000E+00         0.00000E+00        -0.30114E+07
 
   -0.26765E+07         0.12599E+07         0.00000E+00
    0.12599E+07        -0.12417E+08         0.00000E+00
    0.00000E+00         0.00000E+00        -0.30187E+07
 
   -0.27013E+07         0.13323E+07         0.00000E+00
    0.13323E+07        -0.12428E+08         0.00000E+00
    0.00000E+00         0.00000E+00        -0.30258E+07
 
   -0.27247E+07         0.14057E+07         0.00000E+00
    0.14057E+07        -0.12438E+08         0.00000E+00
    0.00000E+00         0.00000E+00        -0.30326E+07
 
   -0.27471E+07         0.14802E+07         0.00000E+00
    0.14802E+07        -0.12449E+08         0.00000E+00
    0.00000E+00         0.00000E+00        -0.30391E+07
 
   -0.27683E+07         0.15557E+07         0.00000E+00
    0.15557E+07        -0.12459E+08         0.00000E+00
    0.00000E+00         0.00000E+00        -0.30454E+07
 
   -0.27884E+07         0.16323E+07         0.00000E+00
    0.16323E+07        -0.12469E+08         0.00000E+00
    0.00000E+00         0.00000E+00        -0.30515E+07
 
   -0.28076E+07         0.17101E+07         0.00000E+00
    0.17101E+07        -0.12480E+08         0.00000E+00
    0.00000E+00         0.00000E+00        -0.30574E+07
 
   -0.28259E+07         0.17889E+07         0.00000E+00
    0.17889E+07        -0.12490E+08         0.00000E+00
    0.00000E+00         0.00000E+00        -0.30631E+07
 
   -0.28434E+07         0.18689E+07         0.00000E+00
    0.18689E+07        -0.12499E+08         0.00000E+00
    0.00000E+00         0.00000E+00        -0.30685E+07
 
   -0.28600E+07         0.19500E+07         0.00000E+00
    0.19500E+07        -0.12509E+08         0.00000E+00
    0.00000E+00         0.00000E+00        -0.30738E+07
 
   -0.28760E+07         0.20323E+07         0.00000E+00
    0.20323E+07        -0.12518E+08         0.00000E+00
    0.00000E+00         0.00000E+00        -0.30788E+07
 
   -0.28913E+07         0.21158E+07         0.00000E+00
    0.21158E+07        -0.12527E+08         0.00000E+00
    0.00000E+00         0.00000E+00        -0.30836E+07
 
   -0.29061E+07         0.22005E+07         0.00000E+00
    0.22005E+07        -0.12535E+08         0.00000E+00
    0.00000E+00         0.00000E+00        -0.30883E+07
 
   -0.29203E+07         0.22863E+07         0.00000E+00
    0.22863E+07        -0.12543E+08         0.00000E+00
    0.00000E+00         0.00000E+00        -0.30927E+07
 
   -0.29341E+07         0.23733E+07         0.00000E+00
    0.23733E+07        -0.12551E+08         0.00000E+00
    0.00000E+00         0.00000E+00        -0.30970E+07
 
   -0.29474E+07         0.24615E+07         0.00000E+00
    0.24615E+07        -0.12558E+08         0.00000E+00
    0.00000E+00         0.00000E+00        -0.31011E+07
 
   -0.29605E+07         0.25510E+07         0.00000E+00
    0.25510E+07        -0.12564E+08         0.00000E+00
    0.00000E+00         0.00000E+00        -0.31049E+07
 
   -0.29732E+07         0.26416E+07         0.00000E+00
    0.26416E+07        -0.12570E+08         0.00000E+00
    0.00000E+00         0.00000E+00        -0.31087E+07
 
   -0.29857E+07         0.27334E+07         0.00000E+00
    0.27334E+07        -0.12575E+08         0.00000E+00
    0.00000E+00         0.00000E+00        -0.31122E+07
 
   -0.29980E+07         0.28264E+07         0.00000E+00
    0.28264E+07        -0.12580E+08         0.00000E+00
    0.00000E+00         0.00000E+00        -0.31156E+07
 
   -0.30103E+07         0.29206E+07         0.00000E+00
    0.29206E+07        -0.12584E+08         0.00000E+00
    0.00000E+00         0.00000E+00        -0.31188E+07
 
   -0.30224E+07         0.30161E+07         0.00000E+00
    0.30161E+07        -0.12587E+08         0.00000E+00
    0.00000E+00         0.00000E+00        -0.31218E+07
 
   -0.30345E+07         0.31127E+07         0.00000E+00
    0.31127E+07        -0.12589E+08         0.00000E+00
    0.00000E+00         0.00000E+00        -0.31247E+07
 
   -0.30467E+07         0.32105E+07         0.00000E+00
    0.32105E+07        -0.12591E+08         0.00000E+00
    0.00000E+00         0.00000E+00        -0.31274E+07
 
   -0.30589E+07         0.33095E+07         0.00000E+00
    0.33095E+07        -0.12591E+08         0.00000E+00
    0.00000E+00         0.00000E+00        -0.31300E+07
 
   -0.30712E+07         0.34097E+07         0.00000E+00
    0.34097E+07        -0.12591E+08         0.00000E+00
    0.00000E+00         0.00000E+00        -0.31324E+07
 
   -0.30837E+07         0.35111E+07         0.00000E+00
    0.35111E+07        -0.12590E+08         0.00000E+00
    0.00000E+00         0.00000E+00        -0.31347E+07
 
   -0.30964E+07         0.36137E+07         0.00000E+00
    0.36137E+07        -0.12588E+08         0.00000E+00
    0.00000E+00         0.00000E+00        -0.31368E+07
 
   -0.31094E+07         0.37174E+07         0.00000E+00
    0.37174E+07        -0.12585E+08         0.00000E+00
    0.00000E+00         0.00000E+00        -0.31388E+07
 
   -0.31227E+07         0.38223E+07         0.00000E+00
    0.38223E+07        -0.12581E+08         0.00000E+00
    0.00000E+00         0.00000E+00        -0.31407E+07
 
   -0.31363E+07         0.39284E+07         0.00000E+00
    0.39284E+07        -0.12575E+08         0.00000E+00
    0.00000E+00         0.00000E+00        -0.31424E+07
 
   -0.23501E+07         0.27960E+05         0.00000E+00
    0.27960E+05        -0.13052E+08         0.00000E+00
    0.00000E+00         0.00000E+00        -0.30805E+07
 
   -0.24109E+07         0.84298E+05         0.00000E+00
    0.84298E+05        -0.13053E+08         0.00000E+00
    0.00000E+00         0.00000E+00        -0.30929E+07
 
   -0.24688E+07         0.14092E+06         0.00000E+00
    0.14092E+06        -0.13056E+08         0.00000E+00
    0.00000E+00         0.00000E+00        -0.31049E+07
 
   -0.25238E+07         0.19791E+06         0.00000E+00
    0.19791E+06        -0.13059E+08         0.00000E+00
    0.00000E+00         0.00000E+00        -0.31166E+07
 
   -0.25761E+07         0.25534E+06         0.00000E+00
    0.25534E+06        -0.13063E+08         0.00000E+00
    0.00000E+00         0.00000E+00        -0.31279E+07
 
   -0.26257E+07         0.31328E+06         0.00000E+00
    0.31328E+06        -0.13069E+08         0.00000E+00
    0.00000E+00         0.00000E+00        -0.31389E+07
 
   -0.26727E+07         0.37180E+06         0.00000E+00
    0.37180E+06        -0.13075E+08         0.00000E+00
    0.00000E+00         0.00000E+00        -0.31495E+07
 
   -0.27172E+07         0.43097E+06         0.00000E+00
    0.43097E+06        -0.13082E+08         0.00000E+00
    0.00000E+00         0.00000E+00        -0.31598E+07
 
   -0.27593E+07         0.49084E+06         0.00000E+00
    0.49084E+06        -0.13089E+08         0.00000E+00
    0.00000E+00         0.00000E+00        -0.31697E+07
 
   -0.27990E+07         0.55147E+06         0.00000E+00
    0.55147E+06        -0.13098E+08         0.00000E+00
    0.00000E+00         0.00000E+00        -0.31794E+07
 
   -0.28364E+07         0.61293E+06         0.00000E+00
    0.61293E+06        -0.13107E+08         0.00000E+00
    0.00000E+00         0.00000E+00        -0.31887E+07
 
   -0.28716E+07         0.67526E+06         0.00000E+00
    0.67526E+06        -0.13117E+08         0.00000E+00
    0.00000E+00         0.00000E+00        -0.31977E+07
 
   -0.29048E+07         0.73850E+06         0.00000E+00
    0.73850E+06        -0.13127E+08         0.00000E+00
    0.00000E+00         0.00000E+00        -0.32064E+07
 
   -0.29359E+07         0.80272E+06         0.00000E+00
    0.80272E+06        -0.13138E+08         0.00000E+00
    0.00000E+00         0.00000E+00        -0.32148E+07
 
   -0.29650E+07         0.86794E+06         0.00000E+00
    0.86794E+06        -0.13149E+08         0.00000E+00
    0.00000E+00         0.00000E+00        -0.32229E+07
 
   -0.29923E+07         0.93422E+06         0.00000E+00
    0.93422E+06        -0.13161E+08         0.00000E+00
    0.00000E+00         0.00000E+00        -0.32307E+07
 
   -0.30178E+07         0.10016E+07         0.00000E+00
    0.10016E+07        -0.13173E+08         0.00000E+00
    0.00000E+00         0.00000E+00        -0.32382E+07
 
   -0.30416E+07         0.10701E+07         0.00000E+00
    0.10701E+07        -0.13186E+08         0.00000E+00
    0.00000E+00         0.00000E+00        -0.32455E+07
 
   -0.30639E+07         0.11397E+07         0.00000E+00
    0.11397E+07        -0.13198E+08         0.00000E+00
    0.00000E+00         0.00000E+00        -0.32525E+07
 
   -0.30845E+07         0.12105E+07         0.00000E+00
    0.12105E+07        -0.13211E+08         0.00000E+00
    0.00000E+00         0.00000E+00        -0.32592E+07
 
   -0.31038E+07         0.12826E+07         0.00000E+00
    0.12826E+07        -0.13224E+08         0.00000E+00
    0.00000E+00         0.00000E+00        -0.32656E+07
 
   -0.31217E+07         0.13558E+07         0.00000E+00
    0.13558E+07        -0.13237E+08         0.00000E+00
    0.00000E+00         0.00000E+00        -0.32718E+07
 
   -0.31382E+07         0.14304E+07         0.00000E+00
    0.14304E+07        -0.13250E+08         0.00000E+00
    0.00000E+00         0.00000E+00        -0.32777E+07
 
   -0.31536E+07         0.15062E+07         0.00000E+00
    0.15062E+07        -0.13264E+08         0.00000E+00
    0.00000E+00         0.00000E+00        -0.32834E+07
 
   -0.31679E+07         0.15833E+07         0.00000E+00
    0.15833E+07        -0.13277E+08         0.00000E+00
    0.00000E+00         0.00000E+00        -0.32889E+07
 
   -0.31811E+07         0.16617E+07         0.00000E+00
    0.16617E+07        -0.13290E+08         0.00000E+00
    0.00000E+00         0.00000E+00        -0.32941E+07
 
   -0.31933E+07         0.17414E+07         0.00000E+00
    0.17414E+07        -0.13302E+08         0.00000E+00
    0.00000E+00         0.00000E+00        -0.32991E+07
 
   -0.32046E+07         0.18225E+07         0.00000E+00
    0.18225E+07        -0.13315E+08         0.00000E+00
    0.00000E+00         0.00000E+00        -0.33039E+07
 
   -0.32151E+07         0.19049E+07         0.00000E+00
    0.19049E+07        -0.13327E+08         0.00000E+00
    0.00000E+00         0.00000E+00        -0.33085E+07
 
   -0.32248E+07         0.19887E+07         0.00000E+00
    0.19887E+07        -0.13339E+08         0.00000E+00
    0.00000E+00         0.00000E+00        -0.33129E+07
 
   -0.32339E+07         0.20738E+07         0.00000E+00
    0.20738E+07        -0.13351E+08         0.00000E+00
    0.00000E+00         0.00000E+00        -0.33170E+07
 
   -0.32423E+07         0.21603E+07         0.00000E+00
    0.21603E+07        -0.13362E+08         0.00000E+00
    0.00000E+00         0.00000E+00        -0.33210E+07
 
   -0.32502E+07         0.22482E+07         0.00000E+00
    0.22482E+07        -0.13373E+08         0.00000E+00
    0.00000E+00         0.00000E+00        -0.33247E+07
 
   -0.32577E+07         0.23375E+07         0.00000E+00
    0.23375E+07        -0.13384E+08         0.00000E+00
    0.00000E+00         0.00000E+00        -0.33283E+07
 
   -0.32647E+07         0.24281E+07         0.00000E+00
    0.24281E+07        -0.13394E+08         0.00000E+00
    0.00000E+00         0.00000E+00        -0.33317E+07
 
   -0.32713E+07         0.25201E+07         0.00000E+00
    0.25201E+07        -0.13403E+08         0.00000E+00
    0.00000E+00         0.00000E+00        -0.33349E+07
 
   -0.32777E+07         0.26135E+07         0.00000E+00
    0.26135E+07        -0.13412E+08         0.00000E+00
    0.00000E+00         0.00000E+00        -0.33379E+07
 
   -0.32838E+07         0.27082E+07         0.00000E+00
    0.27082E+07        -0.13420E+08         0.00000E+00
    0.00000E+00         0.00000E+00        -0.33407E+07
 
   -0.32898E+07         0.28043E+07         0.00000E+00
    0.28043E+07        -0.13427E+08         0.00000E+00
    0.00000E+00         0.00000E+00        -0.33434E+07
 
   -0.32956E+07         0.29018E+07         0.00000E+00
    0.29018E+07        -0.13434E+08         0.00000E+00
    0.00000E+00         0.00000E+00        -0.33459E+07
 
   -0.33014E+07         0.30007E+07         0.00000E+00
    0.30007E+07        -0.13440E+08         0.00000E+00
    0.00000E+00         0.00000E+00        -0.33483E+07
 
   -0.33072E+07         0.31008E+07         0.00000E+00
    0.31008E+07        -0.13445E+08         0.00000E+00
    0.00000E+00         0.00000E+00        -0.33504E+07
 
   -0.33131E+07         0.32024E+07         0.00000E+00
    0.32024E+07        -0.13449E+08         0.00000E+00
    0.00000E+00         0.00000E+00        -0.33525E+07
 
   -0.33190E+07         0.33053E+07         0.00000E+00
    0.33053E+07        -0.13453E+08         0.00000E+00
    0.00000E+00         0.00000E+00        -0.33544E+07
 
   -0.33251E+07         0.34095E+07         0.00000E+00
    0.34095E+07        -0.13455E+08         0.00000E+00
    0.00000E+00         0.00000E+00        -0.33561E+07
 
   -0.33313E+07         0.35150E+07         0.00000E+00
    0.35150E+07        -0.13457E+08         0.00000E+00
    0.00000E+00         0.00000E+00        -0.33577E+07
 
   -0.33379E+07         0.36219E+07         0.00000E+00
    0.36219E+07        -0.13458E+08         0.00000E+00
    0.00000E+00         0.00000E+00        -0.33591E+07
 
   -0.33446E+07         0.37300E+07         0.00000E+00
    0.37300E+07        -0.13457E+08         0.00000E+00
    0.00000E+00         0.00000E+00        -0.33604E+07
 
   -0.33518E+07         0.38395E+07         0.00000E+00
    0.38395E+07        -0.13456E+08         0.00000E+00
    0.00000E+00         0.00000E+00        -0.33616E+07
 
   -0.33592E+07         0.39502E+07         0.00000E+00
    0.39502E+07        -0.13454E+08         0.00000E+00
    0.00000E+00         0.00000E+00        -0.33626E+07
 
   -0.28837E+07         0.25103E+05         0.00000E+00
    0.25103E+05        -0.13854E+08         0.00000E+00
    0.00000E+00         0.00000E+00        -0.33475E+07
 
   -0.29427E+07         0.76210E+05         0.00000E+00
    0.76210E+05        -0.13855E+08         0.00000E+00
    0.00000E+00         0.00000E+00        -0.33596E+07
 
   -0.29985E+07         0.12782E+06         0.00000E+00
    0.12782E+06        -0.13858E+08         0.00000E+00
    0.00000E+00         0.00000E+00        -0.33713E+07
 
   -0.30510E+07         0.18001E+06         0.00000E+00
    0.18001E+06        -0.13862E+08         0.00000E+00
    0.00000E+00         0.00000E+00        -0.33826E+07
 
   -0.31004E+07         0.23287E+06         0.00000E+00
    0.23287E+06        -0.13867E+08         0.00000E+00
    0.00000E+00         0.00000E+00        -0.33935E+07
 
   -0.31467E+07         0.28647E+06         0.00000E+00
    0.28647E+06        -0.13873E+08         0.00000E+00
    0.00000E+00         0.00000E+00        -0.34040E+07
 
   -0.31901E+07         0.34089E+06         0.00000E+00
    0.34089E+06        -0.13881E+08         0.00000E+00
    0.00000E+00         0.00000E+00        -0.34142E+07
 
   -0.32307E+07         0.39619E+06         0.00000E+00
    0.39619E+06        -0.13889E+08         0.00000E+00
    0.00000E+00         0.00000E+00        -0.34240E+07
 
   -0.32685E+07         0.45244E+06         0.00000E+00
    0.45244E+06        -0.13898E+08         0.00000E+00
    0.00000E+00         0.00000E+00        -0.34334E+07
 
   -0.33037E+07         0.50969E+06         0.00000E+00
    0.50969E+06        -0.13908E+08         0.00000E+00
    0.00000E+00         0.00000E+00        -0.34424E+07
 
   -0.33364E+07         0.56802E+06         0.00000E+00
    0.56802E+06        -0.13919E+08         0.00000E+00
    0.00000E+00         0.00000E+00        -0.34512E+07
 
   -0.33666E+07         0.62746E+06         0.00000E+00
    0.62746E+06        -0.13931E+08         0.00000E+00
    0.00000E+00         0.00000E+00        -0.34595E+07
 
   -0.33944E+07         0.68807E+06         0.00000E+00
    0.68807E+06        -0.13944E+08         0.00000E+00
    0.00000E+00         0.00000E+00        -0.34676E+07
 
   -0.34200E+07         0.74989E+06         0.00000E+00
    0.74989E+06        -0.13957E+08         0.00000E+00
    0.00000E+00         0.00000E+00        -0.34753E+07
 
   -0.34435E+07         0.81298E+06         0.00000E+00
    0.81298E+06        -0.13970E+08         0.00000E+00
    0.00000E+00         0.00000E+00        -0.34827E+07
 
   -0.34649E+07         0.87736E+06         0.00000E+00
    0.87736E+06        -0.13984E+08         0.00000E+00
    0.00000E+00         0.00000E+00        -0.34898E+07
 
   -0.34843E+07         0.94308E+06         0.00000E+00
    0.94308E+06        -0.13999E+08         0.00000E+00
    0.00000E+00         0.00000E+00        -0.34966E+07
 
   -0.35019E+07         0.10102E+07         0.00000E+00
    0.10102E+07        -0.14014E+08         0.00000E+00
    0.00000E+00         0.00000E+00        -0.35031E+07
 
   -0.35177E+07         0.10787E+07         0.00000E+00
    0.10787E+07        -0.14029E+08         0.00000E+00
    0.00000E+00         0.00000E+00        -0.35093E+07
 
   -0.35319E+07         0.11486E+07         0.00000E+00
    0.11486E+07        -0.14044E+08         0.00000E+00
    0.00000E+00         0.00000E+00        -0.35153E+07
 
   -0.35445E+07         0.12199E+07         0.00000E+00
    0.12199E+07        -0.14060E+08         0.00000E+00
    0.00000E+00         0.00000E+00        -0.35209E+07
 
   -0.35556E+07         0.12928E+07         0.00000E+00
    0.12928E+07        -0.14076E+08         0.00000E+00
    0.00000E+00         0.00000E+00        -0.35263E+07
 
   -0.35653E+07         0.13671E+07         0.00000E+00
    0.13671E+07        -0.14092E+08         0.00000E+00
    0.00000E+00         0.00000E+00        -0.35315E+07
 
   -0.35737E+07         0.14430E+07         0.00000E+00
    0.14430E+07        -0.14108E+08         0.00000E+00
    0.00000E+00         0.00000E+00        -0.35363E+07
 
   -0.35809E+07         0.15203E+07         0.00000E+00
    0.15203E+07        -0.14124E+08         0.00000E+00
    0.00000E+00         0.00000E+00        -0.35410E+07
 
   -0.35870E+07         0.15993E+07         0.00000E+00
    0.15993E+07        -0.14140E+08         0.00000E+00
    0.00000E+00         0.00000E+00        -0.35454E+07
 
   -0.35921E+07         0.16797E+07         0.00000E+00
    0.16797E+07        -0.14156E+08         0.00000E+00
    0.00000E+00         0.00000E+00        -0.35496E+07
 
   -0.35962E+07         0.17617E+07         0.00000E+00
    0.17617E+07        -0.14171E+08         0.00000E+00
    0.00000E+00         0.00000E+00        -0.35535E+07
 
   -0.35995E+07         0.18453E+07         0.00000E+00
    0.18453E+07        -0.14187E+08         0.00000E+00
    0.00000E+00         0.00000E+00        -0.35572E+07
 
   -0.36019E+07         0.19305E+07         0.00000E+00
    0.19305E+07        -0.14202E+08         0.00000E+00
    0.00000E+00         0.00000E+00        -0.35607E+07
 
   -0.36037E+07         0.20172E+07         0.00000E+00
    0.20172E+07        -0.14217E+08         0.00000E+00
    0.00000E+00         0.00000E+00        -0.35641E+07
 
   -0.36048E+07         0.21055E+07         0.00000E+00
    0.21055E+07        -0.14231E+08         0.00000E+00
    0.00000E+00         0.00000E+00        -0.35672E+07
 
   -0.36054E+07         0.21954E+07         0.00000E+00
    0.21954E+07        -0.14245E+08         0.00000E+00
    0.00000E+00         0.00000E+00        -0.35701E+07
 
   -0.36055E+07         0.22869E+07         0.00000E+00
    0.22869E+07        -0.14258E+08         0.00000E+00
    0.00000E+00         0.00000E+00        -0.35728E+07
 
   -0.36052E+07         0.23799E+07         0.00000E+00
    0.23799E+07        -0.14272E+08         0.00000E+00
    0.00000E+00         0.00000E+00        -0.35753E+07
 
   -0.36046E+07         0.24744E+07         0.00000E+00
    0.24744E+07        -0.14284E+08         0.00000E+00
    0.00000E+00         0.00000E+00        -0.35777E+07
 
   -0.36036E+07         0.25706E+07         0.00000E+00
    0.25706E+07        -0.14296E+08         0.00000E+00
    0.00000E+00         0.00000E+00        -0.35799E+07
 
   -0.36025E+07         0.26683E+07         0.00000E+00
    0.26683E+07        -0.14307E+08         0.00000E+00
    0.00000E+00         0.00000E+00        -0.35819E+07
 
   -0.36013E+07         0.27675E+07         0.00000E+00
    0.27675E+07        -0.14318E+08         0.00000E+00
    0.00000E+00         0.00000E+00        -0.35838E+07
 
   -0.35999E+07         0.28683E+07         0.00000E+00
    0.28683E+07        -0.14327E+08         0.00000E+00
    0.00000E+00         0.00000E+00        -0.35854E+07
 
   -0.35986E+07         0.29706E+07         0.00000E+00
    0.29706E+07        -0.14336E+08         0.00000E+00
    0.00000E+00         0.00000E+00        -0.35870E+07
 
   -0.35972E+07         0.30744E+07         0.00000E+00
    0.30744E+07        -0.14345E+08         0.00000E+00
    0.00000E+00         0.00000E+00        -0.35884E+07
 
   -0.35960E+07         0.31797E+07         0.00000E+00
    0.31797E+07        -0.14352E+08         0.00000E+00
    0.00000E+00         0.00000E+00        -0.35896E+07
 
   -0.35949E+07         0.32865E+07         0.00000E+00
    0.32865E+07        -0.14359E+08         0.00000E+00
    0.00000E+00         0.00000E+00        -0.35907E+07
 
   -0.35940E+07         0.33947E+07         0.00000E+00
    0.33947E+07        -0.14364E+08         0.00000E+00
    0.00000E+00         0.00000E+00        -0.35916E+07
 
   -0.35933E+07         0.35045E+07         0.00000E+00
    0.35045E+07        -0.14369E+08         0.00000E+00
    0.00000E+00         0.00000E+00        -0.35924E+07
 
   -0.35929E+07         0.36157E+07         0.00000E+00
    0.36157E+07        -0.14373E+08         0.00000E+00
    0.00000E+00         0.00000E+00        -0.35931E+07
 
   -0.35929E+07         0.37283E+07         0.00000E+00
    0.37283E+07        -0.14375E+08         0.00000E+00
    0.00000E+00         0.00000E+00        -0.35936E+07
 
   -0.35932E+07         0.38424E+07         0.00000E+00
    0.38424E+07        -0.14377E+08         0.00000E+00
    0.00000E+00         0.00000E+00        -0.35940E+07
 
   -0.35939E+07         0.39578E+07         0.00000E+00
    0.39578E+07        -0.14377E+08         0.00000E+00
    0.00000E+00         0.00000E+00        -0.35943E+07
 
   -0.34834E+07         0.21639E+05         0.00000E+00
    0.21639E+05        -0.14692E+08         0.00000E+00
    0.00000E+00         0.00000E+00        -0.36351E+07
 
   -0.35395E+07         0.66419E+05         0.00000E+00
    0.66419E+05        -0.14694E+08         0.00000E+00
    0.00000E+00         0.00000E+00        -0.36467E+07
 
   -0.35919E+07         0.11197E+06         0.00000E+00
    0.11197E+06        -0.14697E+08         0.00000E+00
    0.00000E+00         0.00000E+00        -0.36578E+07
 
   -0.36406E+07         0.15837E+06         0.00000E+00
    0.15837E+06        -0.14702E+08         0.00000E+00
    0.00000E+00         0.00000E+00        -0.36685E+07
 
   -0.36858E+07         0.20572E+06         0.00000E+00
    0.20572E+06        -0.14708E+08         0.00000E+00
    0.00000E+00         0.00000E+00        -0.36787E+07
 
   -0.37276E+07         0.25408E+06         0.00000E+00
    0.25408E+06        -0.14715E+08         0.00000E+00
    0.00000E+00         0.00000E+00        -0.36886E+07
 
   -0.37661E+07         0.30355E+06         0.00000E+00
    0.30355E+06        -0.14724E+08         0.00000E+00
    0.00000E+00         0.00000E+00        -0.36980E+07
 
   -0.38014E+07         0.35418E+06         0.00000E+00
    0.35418E+06        -0.14734E+08         0.00000E+00
    0.00000E+00         0.00000E+00        -0.37070E+07
 
   -0.38337E+07         0.40605E+06         0.00000E+00
    0.40605E+06        -0.14744E+08         0.00000E+00
    0.00000E+00         0.00000E+00        -0.37156E+07
 
   -0.38630E+07         0.45922E+06         0.00000E+00
    0.45922E+06        -0.14756E+08         0.00000E+00
    0.00000E+00         0.00000E+00        -0.37239E+07
 
   -0.38895E+07         0.51374E+06         0.00000E+00
    0.51374E+06        -0.14769E+08         0.00000E+00
    0.00000E+00         0.00000E+00        -0.37318E+07
 
   -0.39133E+07         0.56967E+06         0.00000E+00
    0.56967E+06        -0.14783E+08         0.00000E+00
    0.00000E+00         0.00000E+00        -0.37393E+07
 
   -0.39345E+07         0.62705E+06         0.00000E+00
    0.62705E+06        -0.14798E+08         0.00000E+00
    0.00000E+00         0.00000E+00        -0.37464E+07
 
   -0.39532E+07         0.68594E+06         0.00000E+00
    0.68594E+06        -0.14813E+08         0.00000E+00
    0.00000E+00         0.00000E+00        -0.37532E+07
 
   -0.39696E+07         0.74638E+06         0.00000E+00
    0.74638E+06        -0.14829E+08         0.00000E+00
    0.00000E+00         0.00000E+00        -0.37597E+07
 
   -0.39838E+07         0.80840E+06         0.00000E+00
    0.80840E+06        -0.14845E+08         0.00000E+00
    0.00000E+00         0.00000E+00        -0.37659E+07
 
   -0.39958E+07         0.87203E+06         0.00000E+00
    0.87203E+06        -0.14863E+08         0.00000E+00
    0.00000E+00         0.00000E+00        -0.37717E+07
 
   -0.40058E+07         0.93732E+06         0.00000E+00
    0.93732E+06        -0.14880E+08         0.00000E+00
    0.00000E+00         0.00000E+00        -0.37772E+07
 
   -0.40139E+07         0.10043E+07         0.00000E+00
    0.10043E+07        -0.14898E+08         0.00000E+00
    0.00000E+00         0.00000E+00        -0.37824E+07
 
   -0.40202E+07         0.10729E+07         0.00000E+00
    0.10729E+07        -0.14917E+08         0.00000E+00
    0.00000E+00         0.00000E+00        -0.37873E+07
 
   -0.40248E+07         0.11433E+07         0.00000E+00
    0.11433E+07        -0.14935E+08         0.00000E+00
    0.00000E+00         0.00000E+00        -0.37920E+07
 
   -0.40279E+07         0.12155E+07         0.00000E+00
    0.12155E+07        -0.14954E+08         0.00000E+00
    0.00000E+00         0.00000E+00        -0.37964E+07
 
   -0.40295E+07         0.12894E+07         0.00000E+00
    0.12894E+07        -0.14973E+08         0.00000E+00
    0.00000E+00         0.00000E+00        -0.38005E+07
 
   -0.40297E+07         0.13650E+07         0.00000E+00
    0.13650E+07        -0.14992E+08         0.00000E+00
    0.00000E+00         0.00000E+00        -0.38043E+07
 
   -0.40286E+07         0.14425E+07         0.00000E+00
    0.14425E+07        -0.15011E+08         0.00000E+00
    0.00000E+00         0.00000E+00        -0.38079E+07
 
   -0.40264E+07         0.15217E+07         0.00000E+00
    0.15217E+07        -0.15030E+08         0.00000E+00
    0.00000E+00         0.00000E+00        -0.38113E+07
 
   -0.40231E+07         0.16027E+07         0.00000E+00
    0.16027E+07        -0.15049E+08         0.00000E+00
    0.00000E+00         0.00000E+00        -0.38144E+07
 
   -0.40188E+07         0.16856E+07         0.00000E+00
    0.16856E+07        -0.15068E+08         0.00000E+00
    0.00000E+00         0.00000E+00        -0.38173E+07
 
   -0.40137E+07         0.17702E+07         0.00000E+00
    0.17702E+07        -0.15086E+08         0.00000E+00
    0.00000E+00         0.00000E+00        -0.38200E+07
 
   -0.40077E+07         0.18566E+07         0.00000E+00
    0.18566E+07        -0.15105E+08         0.00000E+00
    0.00000E+00         0.00000E+00        -0.38225E+07
 
   -0.40011E+07         0.19449E+07         0.00000E+00
    0.19449E+07        -0.15123E+08         0.00000E+00
    0.00000E+00         0.00000E+00        -0.38248E+07
 
   -0.39938E+07         0.20349E+07         0.00000E+00
    0.20349E+07        -0.15141E+08         0.00000E+00
    0.00000E+00         0.00000E+00        -0.38269E+07
 
   -0.39860E+07         0.21267E+07         0.00000E+00
    0.21267E+07        -0.15158E+08         0.00000E+00
    0.00000E+00         0.00000E+00        -0.38288E+07
 
   -0.39778E+07         0.22203E+07         0.00000E+00
    0.22203E+07        -0.15175E+08         0.00000E+00
    0.00000E+00         0.00000E+00        -0.38305E+07
 
   -0.39691E+07         0.23157E+07         0.00000E+00
    0.23157E+07        -0.15191E+08         0.00000E+00
    0.00000E+00         0.00000E+00        -0.38320E+07
 
   -0.39602E+07         0.24128E+07         0.00000E+00
    0.24128E+07        -0.15207E+08         0.00000E+00
    0.00000E+00         0.00000E+00        -0.38334E+07
 
   -0.39510E+07         0.25117E+07         0.00000E+00
    0.25117E+07        -0.15222E+08         0.00000E+00
    0.00000E+00         0.00000E+00        -0.38346E+07
 
   -0.39417E+07         0.26124E+07         0.00000E+00
    0.26124E+07        -0.15236E+08         0.00000E+00
    0.00000E+00         0.00000E+00        -0.38356E+07
 
   -0.39323E+07         0.27147E+07         0.00000E+00
    0.27147E+07        -0.15250E+08         0.00000E+00
    0.00000E+00         0.00000E+00        -0.38365E+07
 
   -0.39229E+07         0.28188E+07         0.00000E+00
    0.28188E+07        -0.15263E+08         0.00000E+00
    0.00000E+00         0.00000E+00        -0.38372E+07
 
   -0.39136E+07         0.29246E+07         0.00000E+00
    0.29246E+07        -0.15276E+08         0.00000E+00
    0.00000E+00         0.00000E+00        -0.38378E+07
 
   -0.39043E+07         0.30320E+07         0.00000E+00
    0.30320E+07        -0.15287E+08         0.00000E+00
    0.00000E+00         0.00000E+00        -0.38383E+07
 
   -0.38952E+07         0.31411E+07         0.00000E+00
    0.31411E+07        -0.15298E+08         0.00000E+00
    0.00000E+00         0.00000E+00        -0.38386E+07
 
   -0.38863E+07         0.32519E+07         0.00000E+00
    0.32519E+07        -0.15308E+08         0.00000E+00
    0.00000E+00         0.00000E+00        -0.38388E+07
 
   -0.38777E+07         0.33642E+07         0.00000E+00
    0.33642E+07        -0.15317E+08         0.00000E+00
    0.00000E+00         0.00000E+00        -0.38388E+07
 
   -0.38694E+07         0.34782E+07         0.00000E+00
    0.34782E+07        -0.15324E+08         0.00000E+00
    0.00000E+00         0.00000E+00        -0.38388E+07
 
   -0.38614E+07         0.35938E+07         0.00000E+00
    0.35938E+07        -0.15331E+08         0.00000E+00
    0.00000E+00         0.00000E+00        -0.38386E+07
 
   -0.38539E+07         0.37110E+07         0.00000E+00
    0.37110E+07        -0.15337E+08         0.00000E+00
    0.00000E+00         0.00000E+00        -0.38382E+07
 
   -0.38468E+07         0.38297E+07         0.00000E+00
    0.38297E+07        -0.15342E+08         0.00000E+00
    0.00000E+00         0.00000E+00        -0.38378E+07
 
   -0.38401E+07         0.39499E+07         0.00000E+00
    0.39499E+07        -0.15346E+08         0.00000E+00
    0.00000E+00         0.00000E+00        -0.38373E+07
 
   -0.41549E+07         0.17499E+05         0.00000E+00
    0.17499E+05        -0.15567E+08         0.00000E+00
    0.00000E+00         0.00000E+00        -0.39444E+07
 
   -0.42067E+07         0.54751E+05         0.00000E+00
    0.54751E+05        -0.15569E+08         0.00000E+00
    0.00000E+00         0.00000E+00        -0.39551E+07
 
   -0.42542E+07         0.93095E+05         0.00000E+00
    0.93095E+05        -0.15573E+08         0.00000E+00
    0.00000E+00         0.00000E+00        -0.39654E+07
 
   -0.42976E+07         0.13263E+06         0.00000E+00
    0.13263E+06        -0.15578E+08         0.00000E+00
    0.00000E+00         0.00000E+00        -0.39752E+07
 
   -0.43371E+07         0.17344E+06         0.00000E+00
    0.17344E+06        -0.15585E+08         0.00000E+00
    0.00000E+00         0.00000E+00        -0.39845E+07
 
   -0.43728E+07         0.21561E+06         0.00000E+00
    0.21561E+06        -0.15594E+08         0.00000E+00
    0.00000E+00         0.00000E+00        -0.39933E+07
 
   -0.44048E+07         0.25921E+06         0.00000E+00
    0.25921E+06        -0.15604E+08         0.00000E+00
    0.00000E+00         0.00000E+00        -0.40017E+07
 
   -0.44332E+07         0.30432E+06         0.00000E+00
    0.30432E+06        -0.15615E+08         0.00000E+00
    0.00000E+00         0.00000E+00        -0.40097E+07
 
   -0.44583E+07         0.35101E+06         0.00000E+00
    0.35101E+06        -0.15628E+08         0.00000E+00
    0.00000E+00         0.00000E+00        -0.40172E+07
 
   -0.44802E+07         0.39933E+06         0.00000E+00
    0.39933E+06        -0.15641E+08         0.00000E+00
    0.00000E+00         0.00000E+00        -0.40243E+07
 
   -0.44990E+07         0.44935E+06         0.00000E+00
    0.44935E+06        -0.15656E+08         0.00000E+00
    0.00000E+00         0.00000E+00        -0.40311E+07
 
   -0.45148E+07         0.50111E+06         0.00000E+00
    0.50111E+06        -0.15672E+08         0.00000E+00
    0.00000E+00         0.00000E+00        -0.40374E+07
 
   -0.45278E+07         0.55466E+06         0.00000E+00
    0.55466E+06        -0.15689E+08         0.00000E+00
    0.00000E+00         0.00000E+00        -0.40434E+07
 
   -0.45381E+07         0.61004E+06         0.00000E+00
    0.61004E+06        -0.15707E+08         0.00000E+00
    0.00000E+00         0.00000E+00        -0.40490E+07
 
   -0.45458E+07         0.66730E+06         0.00000E+00
    0.66730E+06        -0.15725E+08         0.00000E+00
    0.00000E+00         0.00000E+00        -0.40542E+07
 
   -0.45512E+07         0.72647E+06         0.00000E+00
    0.72647E+06        -0.15745E+08         0.00000E+00
    0.00000E+00         0.00000E+00        -0.40591E+07
 
   -0.45542E+07         0.78757E+06         0.00000E+00
    0.78757E+06        -0.15764E+08         0.00000E+00
    0.00000E+00         0.00000E+00        -0.40637E+07
 
   -0.45551E+07         0.85064E+06         0.00000E+00
    0.85064E+06        -0.15785E+08         0.00000E+00
    0.00000E+00         0.00000E+00        -0.40680E+07
 
   -0.45540E+07         0.91569E+06         0.00000E+00
    0.91569E+06        -0.15806E+08         0.00000E+00
    0.00000E+00         0.00000E+00        -0.40719E+07
 
   -0.45510E+07         0.98275E+06         0.00000E+00
    0.98275E+06        -0.15827E+08         0.00000E+00
    0.00000E+00         0.00000E+00        -0.40756E+07
 
   -0.45462E+07         0.10518E+07         0.00000E+00
    0.10518E+07        -0.15848E+08         0.00000E+00
    0.00000E+00         0.00000E+00        -0.40789E+07
 
   -0.45397E+07         0.11230E+07         0.00000E+00
    0.11230E+07        -0.15870E+08         0.00000E+00
    0.00000E+00         0.00000E+00        -0.40820E+07
 
   -0.45317E+07         0.11961E+07         0.00000E+00
    0.11961E+07        -0.15892E+08         0.00000E+00
    0.00000E+00         0.00000E+00        -0.40848E+07
 
   -0.45223E+07         0.12714E+07         0.00000E+00
    0.12714E+07        -0.15915E+08         0.00000E+00
    0.00000E+00         0.00000E+00        -0.40874E+07
 
   -0.45116E+07         0.13487E+07         0.00000E+00
    0.13487E+07        -0.15937E+08         0.00000E+00
    0.00000E+00         0.00000E+00        -0.40897E+07
 
   -0.44998E+07         0.14280E+07         0.00000E+00
    0.14280E+07        -0.15959E+08         0.00000E+00
    0.00000E+00         0.00000E+00        -0.40918E+07
 
   -0.44868E+07         0.15095E+07         0.00000E+00
    0.15095E+07        -0.15981E+08         0.00000E+00
    0.00000E+00         0.00000E+00        -0.40936E+07
 
   -0.44728E+07         0.15929E+07         0.00000E+00
    0.15929E+07        -0.16004E+08         0.00000E+00
    0.00000E+00         0.00000E+00        -0.40953E+07
 
   -0.44580E+07         0.16785E+07         0.00000E+00
    0.16785E+07        -0.16026E+08         0.00000E+00
    0.00000E+00         0.00000E+00        -0.40967E+07
 
   -0.44424E+07         0.17661E+07         0.00000E+00
    0.17661E+07        -0.16047E+08         0.00000E+00
    0.00000E+00         0.00000E+00        -0.40979E+07
 
   -0.44262E+07         0.18557E+07         0.00000E+00
    0.18557E+07        -0.16069E+08         0.00000E+00
    0.00000E+00         0.00000E+00        -0.40990E+07
 
   -0.44093E+07         0.19474E+07         0.00000E+00
    0.19474E+07        -0.16090E+08         0.00000E+00
    0.00000E+00         0.00000E+00        -0.40998E+07
 
   -0.43920E+07         0.20411E+07         0.00000E+00
    0.20411E+07        -0.16110E+08         0.00000E+00
    0.00000E+00         0.00000E+00        -0.41005E+07
 
   -0.43743E+07         0.21368E+07         0.00000E+00
    0.21368E+07        -0.16131E+08         0.00000E+00
    0.00000E+00         0.00000E+00        -0.41010E+07
 
   -0.43562E+07         0.22345E+07         0.00000E+00
    0.22345E+07        -0.16151E+08         0.00000E+00
    0.00000E+00         0.00000E+00        -0.41013E+07
 
   -0.43380E+07         0.23342E+07         0.00000E+00
    0.23342E+07        -0.16170E+08         0.00000E+00
    0.00000E+00         0.00000E+00        -0.41015E+07
 
   -0.43195E+07         0.24358E+07         0.00000E+00
    0.24358E+07        -0.16188E+08         0.00000E+00
    0.00000E+00         0.00000E+00        -0.41016E+07
 
   -0.43011E+07         0.25394E+07         0.00000E+00
    0.25394E+07        -0.16206E+08         0.00000E+00
    0.00000E+00         0.00000E+00        -0.41015E+07
 
   -0.42826E+07         0.26449E+07         0.00000E+00
    0.26449E+07        -0.16224E+08         0.00000E+00
    0.00000E+00         0.00000E+00        -0.41013E+07
 
   -0.42642E+07         0.27523E+07         0.00000E+00
    0.27523E+07        -0.16240E+08         0.00000E+00
    0.00000E+00         0.00000E+00        -0.41009E+07
 
   -0.42459E+07         0.28616E+07         0.00000E+00
    0.28616E+07        -0.16256E+08         0.00000E+00
    0.00000E+00         0.00000E+00        -0.41004E+07
 
   -0.42279E+07         0.29727E+07         0.00000E+00
    0.29727E+07        -0.16271E+08         0.00000E+00
    0.00000E+00         0.00000E+00        -0.40998E+07
 
   -0.42101E+07         0.30856E+07         0.00000E+00
    0.30856E+07        -0.16285E+08         0.00000E+00
    0.00000E+00         0.00000E+00        -0.40991E+07
 
   -0.41926E+07         0.32004E+07         0.00000E+00
    0.32004E+07        -0.16299E+08         0.00000E+00
    0.00000E+00         0.00000E+00        -0.40982E+07
 
   -0.41755E+07         0.33169E+07         0.00000E+00
    0.33169E+07        -0.16311E+08         0.00000E+00
    0.00000E+00         0.00000E+00        -0.40973E+07
 
   -0.41589E+07         0.34352E+07         0.00000E+00
    0.34352E+07        -0.16322E+08         0.00000E+00
    0.00000E+00         0.00000E+00        -0.40962E+07
 
   -0.41427E+07         0.35552E+07         0.00000E+00
    0.35552E+07        -0.16333E+08         0.00000E+00
    0.00000E+00         0.00000E+00        -0.40951E+07
 
   -0.41270E+07         0.36769E+07         0.00000E+00
    0.36769E+07        -0.16342E+08         0.00000E+00
    0.00000E+00         0.00000E+00        -0.40938E+07
 
   -0.41119E+07         0.38002E+07         0.00000E+00
    0.38002E+07        -0.16350E+08         0.00000E+00
    0.00000E+00         0.00000E+00        -0.40925E+07
 
   -0.40974E+07         0.39252E+07         0.00000E+00
    0.39252E+07        -0.16358E+08         0.00000E+00
    0.00000E+00         0.00000E+00        -0.40910E+07
 
   -0.49043E+07         0.12620E+05         0.00000E+00
    0.12620E+05        -0.16478E+08         0.00000E+00
    0.00000E+00         0.00000E+00        -0.42765E+07
 
   -0.49498E+07         0.41043E+05         0.00000E+00
    0.41043E+05        -0.16480E+08         0.00000E+00
    0.00000E+00         0.00000E+00        -0.42860E+07
 
   -0.49907E+07         0.70960E+05         0.00000E+00
    0.70960E+05        -0.16485E+08         0.00000E+00
    0.00000E+00         0.00000E+00        -0.42950E+07
 
   -0.50269E+07         0.10247E+06         0.00000E+00
    0.10247E+06        -0.16491E+08         0.00000E+00
    0.00000E+00         0.00000E+00        -0.43035E+07
 
   -0.50588E+07         0.13566E+06         0.00000E+00
    0.13566E+06        -0.16499E+08         0.00000E+00
    0.00000E+00         0.00000E+00        -0.43115E+07
 
   -0.50865E+07         0.17061E+06         0.00000E+00
    0.17061E+06        -0.16509E+08         0.00000E+00
    0.00000E+00         0.00000E+00        -0.43190E+07
 
   -0.51101E+07         0.20740E+06         0.00000E+00
    0.20740E+06        -0.16520E+08         0.00000E+00
    0.00000E+00         0.00000E+00        -0.43260E+07
 
   -0.51299E+07         0.24610E+06         0.00000E+00
    0.24610E+06        -0.16533E+08         0.00000E+00
    0.00000E+00         0.00000E+00        -0.43326E+07
 
   -0.51460E+07         0.28677E+06         0.00000E+00
    0.28677E+06        -0.16547E+08         0.00000E+00
    0.00000E+00         0.00000E+00        -0.43387E+07
 
   -0.51585E+07         0.32948E+06         0.00000E+00
    0.32948E+06        -0.16563E+08         0.00000E+00
    0.00000E+00         0.00000E+00        -0.43443E+07
 
   -0.51677E+07         0.37426E+06         0.00000E+00
    0.37426E+06        -0.16580E+08         0.00000E+00
    0.00000E+00         0.00000E+00        -0.43495E+07
 
   -0.51737E+07         0.42118E+06         0.00000E+00
    0.42118E+06        -0.16598E+08         0.00000E+00
    0.00000E+00         0.00000E+00        -0.43544E+07
 
   -0.51766E+07         0.47027E+06         0.00000E+00
    0.47027E+06        -0.16617E+08         0.00000E+00
    0.00000E+00         0.00000E+00        -0.43588E+07
 
   -0.51767E+07         0.52158E+06         0.00000E+00
    0.52158E+06        -0.16637E+08         0.00000E+00
    0.00000E+00         0.00000E+00        -0.43628E+07
 
   -0.51740E+07         0.57513E+06         0.00000E+00
    0.57513E+06        -0.16658E+08         0.00000E+00
    0.00000E+00         0.00000E+00        -0.43665E+07
 
   -0.51688E+07         0.63094E+06         0.00000E+00
    0.63094E+06        -0.16680E+08         0.00000E+00
    0.00000E+00         0.00000E+00        -0.43698E+07
 
   -0.51612E+07         0.68906E+06         0.00000E+00
    0.68906E+06        -0.16703E+08         0.00000E+00
    0.00000E+00         0.00000E+00        -0.43728E+07
 
   -0.51513E+07         0.74949E+06         0.00000E+00
    0.74949E+06        -0.16726E+08         0.00000E+00
    0.00000E+00         0.00000E+00        -0.43755E+07
 
   -0.51392E+07         0.81226E+06         0.00000E+00
    0.81226E+06        -0.16750E+08         0.00000E+00
    0.00000E+00         0.00000E+00        -0.43778E+07
 
   -0.51253E+07         0.87737E+06         0.00000E+00
    0.87737E+06        -0.16774E+08         0.00000E+00
    0.00000E+00         0.00000E+00        -0.43799E+07
 
   -0.51094E+07         0.94483E+06         0.00000E+00
    0.94483E+06        -0.16799E+08         0.00000E+00
    0.00000E+00         0.00000E+00        -0.43816E+07
 
   -0.50919E+07         0.10147E+07         0.00000E+00
    0.10147E+07        -0.16824E+08         0.00000E+00
    0.00000E+00         0.00000E+00        -0.43831E+07
 
   -0.50728E+07         0.10869E+07         0.00000E+00
    0.10869E+07        -0.16849E+08         0.00000E+00
    0.00000E+00         0.00000E+00        -0.43843E+07
 
   -0.50523E+07         0.11614E+07         0.00000E+00
    0.11614E+07        -0.16874E+08         0.00000E+00
    0.00000E+00         0.00000E+00        -0.43853E+07
 
   -0.50304E+07         0.12383E+07         0.00000E+00
    0.12383E+07        -0.16900E+08         0.00000E+00
    0.00000E+00         0.00000E+00        -0.43861E+07
 
   -0.50074E+07         0.13176E+07         0.00000E+00
    0.13176E+07        -0.16925E+08         0.00000E+00
    0.00000E+00         0.00000E+00        -0.43866E+07
 
   -0.49834E+07         0.13993E+07         0.00000E+00
    0.13993E+07        -0.16951E+08         0.00000E+00
    0.00000E+00         0.00000E+00        -0.43869E+07
 
   -0.49583E+07         0.14833E+07         0.00000E+00
    0.14833E+07        -0.16977E+08         0.00000E+00
    0.00000E+00         0.00000E+00        -0.43870E+07
 
   -0.49325E+07         0.15696E+07         0.00000E+00
    0.15696E+07        -0.17002E+08         0.00000E+00
    0.00000E+00         0.00000E+00        -0.43869E+07
 
   -0.49059E+07         0.16582E+07         0.00000E+00
    0.16582E+07        -0.17027E+08         0.00000E+00
    0.00000E+00         0.00000E+00        -0.43866E+07
 
   -0.48788E+07         0.17491E+07         0.00000E+00
    0.17491E+07        -0.17052E+08         0.00000E+00
    0.00000E+00         0.00000E+00        -0.43861E+07
 
   -0.48511E+07         0.18424E+07         0.00000E+00
    0.18424E+07        -0.17077E+08         0.00000E+00
    0.00000E+00         0.00000E+00        -0.43855E+07
 
   -0.48230E+07         0.19379E+07         0.00000E+00
    0.19379E+07        -0.17101E+08         0.00000E+00
    0.00000E+00         0.00000E+00        -0.43848E+07
 
   -0.47946E+07         0.20356E+07         0.00000E+00
    0.20356E+07        -0.17125E+08         0.00000E+00
    0.00000E+00         0.00000E+00        -0.43838E+07
 
   -0.47661E+07         0.21356E+07         0.00000E+00
    0.21356E+07        -0.17148E+08         0.00000E+00
    0.00000E+00         0.00000E+00        -0.43828E+07
 
   -0.47373E+07         0.22377E+07         0.00000E+00
    0.22377E+07        -0.17171E+08         0.00000E+00
    0.00000E+00         0.00000E+00        -0.43816E+07
 
   -0.47086E+07         0.23421E+07         0.00000E+00
    0.23421E+07        -0.17193E+08         0.00000E+00
    0.00000E+00         0.00000E+00        -0.43803E+07
 
   -0.46799E+07         0.24486E+07         0.00000E+00
    0.24486E+07        -0.17214E+08         0.00000E+00
    0.00000E+00         0.00000E+00        -0.43789E+07
 
   -0.46513E+07         0.25572E+07         0.00000E+00
    0.25572E+07        -0.17235E+08         0.00000E+00
    0.00000E+00         0.00000E+00        -0.43774E+07
 
   -0.46230E+07         0.26679E+07         0.00000E+00
    0.26679E+07        -0.17256E+08         0.00000E+00
    0.00000E+00         0.00000E+00        -0.43757E+07
 
   -0.45949E+07         0.27806E+07         0.00000E+00
    0.27806E+07        -0.17275E+08         0.00000E+00
    0.00000E+00         0.00000E+00        -0.43740E+07
 
   -0.45672E+07         0.28954E+07         0.00000E+00
    0.28954E+07        -0.17294E+08         0.00000E+00
    0.00000E+00         0.00000E+00        -0.43722E+07
 
   -0.45399E+07         0.30122E+07         0.00000E+00
    0.30122E+07        -0.17312E+08         0.00000E+00
    0.00000E+00         0.00000E+00        -0.43703E+07
 
   -0.45131E+07         0.31310E+07         0.00000E+00
    0.31310E+07        -0.17328E+08         0.00000E+00
    0.00000E+00         0.00000E+00        -0.43683E+07
 
   -0.44868E+07         0.32516E+07         0.00000E+00
    0.32516E+07        -0.17344E+08         0.00000E+00
    0.00000E+00         0.00000E+00        -0.43662E+07
 
   -0.44611E+07         0.33742E+07         0.00000E+00
    0.33742E+07        -0.17360E+08         0.00000E+00
    0.00000E+00         0.00000E+00        -0.43641E+07
 
   -0.44360E+07         0.34987E+07         0.00000E+00
    0.34987E+07        -0.17374E+08         0.00000E+00
    0.00000E+00         0.00000E+00        -0.43619E+07
 
   -0.44116E+07         0.36249E+07         0.00000E+00
    0.36249E+07        -0.17387E+08         0.00000E+00
    0.00000E+00         0.00000E+00        -0.43596E+07
 
   -0.43879E+07         0.37529E+07         0.00000E+00
    0.37529E+07        -0.17399E+08         0.00000E+00
    0.00000E+00         0.00000E+00        -0.43573E+07
 
   -0.43650E+07         0.38827E+07         0.00000E+00
    0.38827E+07        -0.17410E+08         0.00000E+00
    0.00000E+00         0.00000E+00        -0.43549E+07
 
   -0.57375E+07         0.69462E+04         0.00000E+00
    0.69462E+04        -0.17424E+08         0.00000E+00
    0.00000E+00         0.00000E+00        -0.46323E+07
 
   -0.57746E+07         0.25165E+05         0.00000E+00
    0.25165E+05        -0.17427E+08         0.00000E+00
    0.00000E+00         0.00000E+00        -0.46403E+07
 
   -0.58065E+07         0.45368E+05         0.00000E+00
    0.45368E+05        -0.17432E+08         0.00000E+00
    0.00000E+00         0.00000E+00        -0.46476E+07
 
   -0.58334E+07         0.67649E+05         0.00000E+00
    0.67649E+05        -0.17439E+08         0.00000E+00
    0.00000E+00         0.00000E+00        -0.46544E+07
 
   -0.58555E+07         0.92096E+05         0.00000E+00
    0.92096E+05        -0.17448E+08         0.00000E+00
    0.00000E+00         0.00000E+00        -0.46606E+07
 
   -0.58729E+07         0.11879E+06         0.00000E+00
    0.11879E+06        -0.17459E+08         0.00000E+00
    0.00000E+00         0.00000E+00        -0.46663E+07
 
   -0.58860E+07         0.14779E+06         0.00000E+00
    0.14779E+06        -0.17471E+08         0.00000E+00
    0.00000E+00         0.00000E+00        -0.46715E+07
 
   -0.58949E+07         0.17918E+06         0.00000E+00
    0.17918E+06        -0.17486E+08         0.00000E+00
    0.00000E+00         0.00000E+00        -0.46762E+07
 
   -0.58997E+07         0.21301E+06         0.00000E+00
    0.21301E+06        -0.17502E+08         0.00000E+00
    0.00000E+00         0.00000E+00        -0.46804E+07
 
   -0.59008E+07         0.24932E+06         0.00000E+00
    0.24932E+06        -0.17520E+08         0.00000E+00
    0.00000E+00         0.00000E+00        -0.46841E+07
 
   -0.58983E+07         0.28817E+06         0.00000E+00
    0.28817E+06        -0.17539E+08         0.00000E+00
    0.00000E+00         0.00000E+00        -0.46874E+07
 
   -0.58923E+07         0.32959E+06         0.00000E+00
    0.32959E+06        -0.17559E+08         0.00000E+00
    0.00000E+00         0.00000E+00        -0.46903E+07
 
   -0.58832E+07         0.37362E+06         0.00000E+00
    0.37362E+06        -0.17581E+08         0.00000E+00
    0.00000E+00         0.00000E+00        -0.46928E+07
 
   -0.58710E+07         0.42028E+06         0.00000E+00
    0.42028E+06        -0.17603E+08         0.00000E+00
    0.00000E+00         0.00000E+00        -0.46948E+07
 
   -0.58559E+07         0.46960E+06         0.00000E+00
    0.46960E+06        -0.17627E+08         0.00000E+00
    0.00000E+00         0.00000E+00        -0.46965E+07
 
   -0.58382E+07         0.52160E+06         0.00000E+00
    0.52160E+06        -0.17651E+08         0.00000E+00
    0.00000E+00         0.00000E+00        -0.46979E+07
 
   -0.58179E+07         0.57629E+06         0.00000E+00
    0.57629E+06        -0.17676E+08         0.00000E+00
    0.00000E+00         0.00000E+00        -0.46989E+07
 
   -0.57953E+07         0.63369E+06         0.00000E+00
    0.63369E+06        -0.17702E+08         0.00000E+00
    0.00000E+00         0.00000E+00        -0.46995E+07
 
   -0.57706E+07         0.69379E+06         0.00000E+00
    0.69379E+06        -0.17729E+08         0.00000E+00
    0.00000E+00         0.00000E+00        -0.46999E+07
 
   -0.57438E+07         0.75661E+06         0.00000E+00
    0.75661E+06        -0.17756E+08         0.00000E+00
    0.00000E+00         0.00000E+00        -0.47000E+07
 
   -0.57152E+07         0.82214E+06         0.00000E+00
    0.82214E+06        -0.17784E+08         0.00000E+00
    0.00000E+00         0.00000E+00        -0.46998E+07
 
   -0.56849E+07         0.89038E+06         0.00000E+00
    0.89038E+06        -0.17812E+08         0.00000E+00
    0.00000E+00         0.00000E+00        -0.46993E+07
 
   -0.56530E+07         0.96132E+06         0.00000E+00
    0.96132E+06        -0.17840E+08         0.00000E+00
    0.00000E+00         0.00000E+00        -0.46986E+07
 
   -0.56197E+07         0.10350E+07         0.00000E+00
    0.10350E+07        -0.17869E+08         0.00000E+00
    0.00000E+00         0.00000E+00        -0.46977E+07
 
   -0.55851E+07         0.11113E+07         0.00000E+00
    0.11113E+07        -0.17897E+08         0.00000E+00
    0.00000E+00         0.00000E+00        -0.46965E+07
 
   -0.55495E+07         0.11903E+07         0.00000E+00
    0.11903E+07        -0.17926E+08         0.00000E+00
    0.00000E+00         0.00000E+00        -0.46951E+07
 
   -0.55128E+07         0.12719E+07         0.00000E+00
    0.12719E+07        -0.17955E+08         0.00000E+00
    0.00000E+00         0.00000E+00        -0.46935E+07
 
   -0.54752E+07         0.13562E+07         0.00000E+00
    0.13562E+07        -0.17984E+08         0.00000E+00
    0.00000E+00         0.00000E+00        -0.46918E+07
 
   -0.54369E+07         0.14431E+07         0.00000E+00
    0.14431E+07        -0.18012E+08         0.00000E+00
    0.00000E+00         0.00000E+00        -0.46899E+07
 
   -0.53980E+07         0.15326E+07         0.00000E+00
    0.15326E+07        -0.18041E+08         0.00000E+00
    0.00000E+00         0.00000E+00        -0.46878E+07
 
   -0.53586E+07         0.16247E+07         0.00000E+00
    0.16247E+07        -0.18069E+08         0.00000E+00
    0.00000E+00         0.00000E+00        -0.46856E+07
 
   -0.53187E+07         0.17193E+07         0.00000E+00
    0.17193E+07        -0.18097E+08         0.00000E+00
    0.00000E+00         0.00000E+00        -0.46832E+07
 
   -0.52786E+07         0.18165E+07         0.00000E+00
    0.18165E+07        -0.18125E+08         0.00000E+00
    0.00000E+00         0.00000E+00        -0.46807E+07
 
   -0.52383E+07         0.19161E+07         0.00000E+00
    0.19161E+07        -0.18152E+08         0.00000E+00
    0.00000E+00         0.00000E+00        -0.46782E+07
 
   -0.51980E+07         0.20183E+07         0.00000E+00
    0.20183E+07        -0.18179E+08         0.00000E+00
    0.00000E+00         0.00000E+00        -0.46755E+07
 
   -0.51577E+07         0.21228E+07         0.00000E+00
    0.21228E+07        -0.18206E+08         0.00000E+00
    0.00000E+00         0.00000E+00        -0.46727E+07
 
   -0.51175E+07         0.22298E+07         0.00000E+00
    0.22298E+07        -0.18232E+08         0.00000E+00
    0.00000E+00         0.00000E+00        -0.46698E+07
 
   -0.50775E+07         0.23391E+07         0.00000E+00
    0.23391E+07        -0.18257E+08         0.00000E+00
    0.00000E+00         0.00000E+00        -0.46669E+07
 
   -0.50378E+07         0.24508E+07         0.00000E+00
    0.24508E+07        -0.18281E+08         0.00000E+00
    0.00000E+00         0.00000E+00        -0.46638E+07
 
   -0.49984E+07         0.25647E+07         0.00000E+00
    0.25647E+07        -0.18305E+08         0.00000E+00
    0.00000E+00         0.00000E+00        -0.46608E+07
 
   -0.49596E+07         0.26809E+07         0.00000E+00
    0.26809E+07        -0.18329E+08         0.00000E+00
    0.00000E+00         0.00000E+00        -0.46576E+07
 
   -0.49213E+07         0.27994E+07         0.00000E+00
    0.27994E+07        -0.18351E+08         0.00000E+00
    0.00000E+00         0.00000E+00        -0.46544E+07
 
   -0.48836E+07         0.29200E+07         0.00000E+00
    0.29200E+07        -0.18373E+08         0.00000E+00
    0.00000E+00         0.00000E+00        -0.46512E+07
 
   -0.48466E+07         0.30427E+07         0.00000E+00
    0.30427E+07        -0.18393E+08         0.00000E+00
    0.00000E+00         0.00000E+00        -0.46480E+07
 
   -0.48103E+07         0.31676E+07         0.00000E+00
    0.31676E+07        -0.18413E+08         0.00000E+00
    0.00000E+00         0.00000E+00        -0.46447E+07
 
   -0.47748E+07         0.32944E+07         0.00000E+00
    0.32944E+07        -0.18432E+08         0.00000E+00
    0.00000E+00         0.00000E+00        -0.46413E+07
 
   -0.47402E+07         0.34233E+07         0.00000E+00
    0.34233E+07        -0.18450E+08         0.00000E+00
    0.00000E+00         0.00000E+00        -0.46380E+07
 
   -0.47064E+07         0.35541E+07         0.00000E+00
    0.35541E+07        -0.18467E+08         0.00000E+00
    0.00000E+00         0.00000E+00        -0.46346E+07
 
   -0.46736E+07         0.36869E+07         0.00000E+00
    0.36869E+07        -0.18483E+08         0.00000E+00
    0.00000E+00         0.00000E+00        -0.46312E+07
 
   -0.46418E+07         0.38214E+07         0.00000E+00
    0.38214E+07        -0.18497E+08         0.00000E+00
    0.00000E+00         0.00000E+00        -0.46278E+07
 
   -0.66605E+07         0.43776E+03         0.00000E+00
    0.43776E+03        -0.18404E+08         0.00000E+00
    0.00000E+00         0.00000E+00        -0.50129E+07
 
   -0.66865E+07         0.70417E+04         0.00000E+00
    0.70417E+04        -0.18407E+08         0.00000E+00
    0.00000E+00         0.00000E+00        -0.50187E+07
 
   -0.67068E+07         0.16222E+05         0.00000E+00
    0.16222E+05        -0.18412E+08         0.00000E+00
    0.00000E+00         0.00000E+00        -0.50238E+07
 
   -0.67216E+07         0.28067E+05         0.00000E+00
    0.28067E+05        -0.18420E+08         0.00000E+00
    0.00000E+00         0.00000E+00        -0.50284E+07
 
   -0.67312E+07         0.42656E+05         0.00000E+00
    0.42656E+05        -0.18430E+08         0.00000E+00
    0.00000E+00         0.00000E+00        -0.50323E+07
 
   -0.67358E+07         0.60059E+05         0.00000E+00
    0.60059E+05        -0.18443E+08         0.00000E+00
    0.00000E+00         0.00000E+00        -0.50357E+07
 
   -0.67357E+07         0.80338E+05         0.00000E+00
    0.80338E+05        -0.18457E+08         0.00000E+00
    0.00000E+00         0.00000E+00        -0.50385E+07
 
   -0.67311E+07         0.10355E+06         0.00000E+00
    0.10355E+06        -0.18473E+08         0.00000E+00
    0.00000E+00         0.00000E+00        -0.50408E+07
 
   -0.67222E+07         0.12973E+06         0.00000E+00
    0.12973E+06        -0.18491E+08         0.00000E+00
    0.00000E+00         0.00000E+00        -0.50426E+07
 
   -0.67093E+07         0.15893E+06         0.00000E+00
    0.15893E+06        -0.18510E+08         0.00000E+00
    0.00000E+00         0.00000E+00        -0.50439E+07
 
   -0.66927E+07         0.19118E+06         0.00000E+00
    0.19118E+06        -0.18531E+08         0.00000E+00
    0.00000E+00         0.00000E+00        -0.50448E+07
 
   -0.66724E+07         0.22649E+06         0.00000E+00
    0.22649E+06        -0.18554E+08         0.00000E+00
    0.00000E+00         0.00000E+00        -0.50452E+07
 
   -0.66488E+07         0.26491E+06         0.00000E+00
    0.26491E+06        -0.18577E+08         0.00000E+00
    0.00000E+00         0.00000E+00        -0.50452E+07
 
   -0.66221E+07         0.30642E+06         0.00000E+00
    0.30642E+06        -0.18602E+08         0.00000E+00
    0.00000E+00         0.00000E+00        -0.50448E+07
 
   -0.65924E+07         0.35105E+06         0.00000E+00
    0.35105E+06        -0.18628E+08         0.00000E+00
    0.00000E+00         0.00000E+00        -0.50441E+07
 
   -0.65600E+07         0.39881E+06         0.00000E+00
    0.39881E+06        -0.18655E+08         0.00000E+00
    0.00000E+00         0.00000E+00        -0.50429E+07
 
   -0.65251E+07         0.44968E+06         0.00000E+00
    0.44968E+06        -0.18682E+08         0.00000E+00
    0.00000E+00         0.00000E+00        -0.50415E+07
 
   -0.64878E+07         0.50367E+06         0.00000E+00
    0.50367E+06        -0.18711E+08         0.00000E+00
    0.00000E+00         0.00000E+00        -0.50397E+07
 
   -0.64483E+07         0.56078E+06         0.00000E+00
    0.56078E+06        -0.18740E+08         0.00000E+00
    0.00000E+00         0.00000E+00        -0.50377E+07
 
   -0.64069E+07         0.62098E+06         0.00000E+00
    0.62098E+06        -0.18770E+08         0.00000E+00
    0.00000E+00         0.00000E+00        -0.50354E+07
 
   -0.63636E+07         0.68427E+06         0.00000E+00
    0.68427E+06        -0.18800E+08         0.00000E+00
    0.00000E+00         0.00000E+00        -0.50328E+07
 
   -0.63187E+07         0.75063E+06         0.00000E+00
    0.75063E+06        -0.18831E+08         0.00000E+00
    0.00000E+00         0.00000E+00        -0.50299E+07
 
   -0.62722E+07         0.82005E+06         0.00000E+00
    0.82005E+06        -0.18862E+08         0.00000E+00
    0.00000E+00         0.00000E+00        -0.50269E+07
 
   -0.62245E+07         0.89250E+06         0.00000E+00
    0.89250E+06        -0.18893E+08         0.00000E+00
    0.00000E+00         0.00000E+00        -0.50236E+07
 
   -0.61756E+07         0.96797E+06         0.00000E+00
    0.96797E+06        -0.18925E+08         0.00000E+00
    0.00000E+00         0.00000E+00        -0.50201E+07
 
   -0.61256E+07         0.10464E+07         0.00000E+00
    0.10464E+07        -0.18957E+08         0.00000E+00
    0.00000E+00         0.00000E+00        -0.50165E+07
 
   -0.60747E+07         0.11278E+07         0.00000E+00
    0.11278E+07        -0.18989E+08         0.00000E+00
    0.00000E+00         0.00000E+00        -0.50127E+07
 
   -0.60231E+07         0.12122E+07         0.00000E+00
    0.12122E+07        -0.19021E+08         0.00000E+00
    0.00000E+00         0.00000E+00        -0.50087E+07
 
   -0.59709E+07         0.12995E+07         0.00000E+00
    0.12995E+07        -0.19052E+08         0.00000E+00
    0.00000E+00         0.00000E+00        -0.50047E+07
 
   -0.59181E+07         0.13896E+07         0.00000E+00
    0.13896E+07        -0.19084E+08         0.00000E+00
    0.00000E+00         0.00000E+00        -0.50005E+07
 
   -0.58650E+07         0.14826E+07         0.00000E+00
    0.14826E+07        -0.19116E+08         0.00000E+00
    0.00000E+00         0.00000E+00        -0.49962E+07
 
   -0.58117E+07         0.15785E+07         0.00000E+00
    0.15785E+07        -0.19147E+08         0.00000E+00
    0.00000E+00         0.00000E+00        -0.49918E+07
 
   -0.57582E+07         0.16771E+07         0.00000E+00
    0.16771E+07        -0.19178E+08         0.00000E+00
    0.00000E+00         0.00000E+00        -0.49873E+07
 
   -0.57047E+07         0.17784E+07         0.00000E+00
    0.17784E+07        -0.19209E+08         0.00000E+00
    0.00000E+00         0.00000E+00        -0.49828E+07
 
   -0.56514E+07         0.18825E+07         0.00000E+00
    0.18825E+07        -0.19239E+08         0.00000E+00
    0.00000E+00         0.00000E+00        -0.49782E+07
 
   -0.55982E+07         0.19893E+07         0.00000E+00
    0.19893E+07        -0.19269E+08         0.00000E+00
    0.00000E+00         0.00000E+00        -0.49735E+07
 
   -0.55453E+07         0.20987E+07         0.00000E+00
    0.20987E+07        -0.19299E+08         0.00000E+00
    0.00000E+00         0.00000E+00        -0.49688E+07
 
   -0.54929E+07         0.22107E+07         0.00000E+00
    0.22107E+07        -0.19328E+08         0.00000E+00
    0.00000E+00         0.00000E+00        -0.49641E+07
 
   -0.54409E+07         0.23252E+07         0.00000E+00
    0.23252E+07        -0.19356E+08         0.00000E+00
    0.00000E+00         0.00000E+00        -0.49594E+07
 
   -0.53896E+07         0.24423E+07         0.00000E+00
    0.24423E+07        -0.19384E+08         0.00000E+00
    0.00000E+00         0.00000E+00        -0.49547E+07
 
   -0.53389E+07         0.25619E+07         0.00000E+00
    0.25619E+07        -0.19411E+08         0.00000E+00
    0.00000E+00         0.00000E+00        -0.49499E+07
 
   -0.52890E+07         0.26838E+07         0.00000E+00
    0.26838E+07        -0.19437E+08         0.00000E+00
    0.00000E+00         0.00000E+00        -0.49452E+07
 
   -0.52400E+07         0.28082E+07         0.00000E+00
    0.28082E+07        -0.19462E+08         0.00000E+00
    0.00000E+00         0.00000E+00        -0.49405E+07
 
   -0.51919E+07         0.29348E+07         0.00000E+00
    0.29348E+07        -0.19487E+08         0.00000E+00
    0.00000E+00         0.00000E+00        -0.49358E+07
 
   -0.51448E+07         0.30638E+07         0.00000E+00
    0.30638E+07        -0.19511E+08         0.00000E+00
    0.00000E+00         0.00000E+00        -0.49311E+07
 
   -0.50988E+07         0.31949E+07         0.00000E+00
    0.31949E+07        -0.19534E+08         0.00000E+00
    0.00000E+00         0.00000E+00        -0.49265E+07
 
   -0.50538E+07         0.33282E+07         0.00000E+00
    0.33282E+07        -0.19556E+08         0.00000E+00
    0.00000E+00         0.00000E+00        -0.49219E+07
 
   -0.50101E+07         0.34636E+07         0.00000E+00
    0.34636E+07        -0.19577E+08         0.00000E+00
    0.00000E+00         0.00000E+00        -0.49173E+07
 
   -0.49676E+07         0.36010E+07         0.00000E+00
    0.36010E+07        -0.19596E+08         0.00000E+00
    0.00000E+00         0.00000E+00        -0.49128E+07
 
   -0.49264E+07         0.37404E+07         0.00000E+00
    0.37404E+07        -0.19615E+08         0.00000E+00
    0.00000E+00         0.00000E+00        -0.49083E+07
 
   -0.76790E+07        -0.69189E+04         0.00000E+00
   -0.69189E+04        -0.19416E+08         0.00000E+00
    0.00000E+00         0.00000E+00        -0.54191E+07
 
   -0.76905E+07        -0.13323E+05         0.00000E+00
   -0.13323E+05        -0.19419E+08         0.00000E+00
    0.00000E+00         0.00000E+00        -0.54220E+07
 
   -0.76960E+07        -0.16437E+05         0.00000E+00
   -0.16437E+05        -0.19425E+08         0.00000E+00
    0.00000E+00         0.00000E+00        -0.54243E+07
 
   -0.76955E+07        -0.16186E+05         0.00000E+00
   -0.16186E+05        -0.19434E+08         0.00000E+00
    0.00000E+00         0.00000E+00        -0.54259E+07
 
   -0.76894E+07        -0.12504E+05         0.00000E+00
   -0.12504E+05        -0.19445E+08         0.00000E+00
    0.00000E+00         0.00000E+00        -0.54269E+07
 
   -0.76781E+07        -0.53369E+04         0.00000E+00
   -0.53369E+04        -0.19458E+08         0.00000E+00
    0.00000E+00         0.00000E+00        -0.54273E+07
 
   -0.76618E+07         0.53601E+04         0.00000E+00
    0.53601E+04        -0.19474E+08         0.00000E+00
    0.00000E+00         0.00000E+00        -0.54271E+07
 
   -0.76407E+07         0.19623E+05         0.00000E+00
    0.19623E+05        -0.19491E+08         0.00000E+00
    0.00000E+00         0.00000E+00        -0.54264E+07
 
   -0.76152E+07         0.37478E+05         0.00000E+00
    0.37478E+05        -0.19511E+08         0.00000E+00
    0.00000E+00         0.00000E+00        -0.54252E+07
 
   -0.75856E+07         0.58944E+05         0.00000E+00
    0.58944E+05        -0.19532E+08         0.00000E+00
    0.00000E+00         0.00000E+00        -0.54235E+07
 
   -0.75521E+07         0.84035E+05         0.00000E+00
    0.84035E+05        -0.19554E+08         0.00000E+00
    0.00000E+00         0.00000E+00        -0.54213E+07
 
   -0.75149E+07         0.11275E+06         0.00000E+00
    0.11275E+06        -0.19579E+08         0.00000E+00
    0.00000E+00         0.00000E+00        -0.54187E+07
 
   -0.74743E+07         0.14510E+06         0.00000E+00
    0.14510E+06        -0.19604E+08         0.00000E+00
    0.00000E+00         0.00000E+00        -0.54157E+07
 
   -0.74306E+07         0.18107E+06         0.00000E+00
    0.18107E+06        -0.19631E+08         0.00000E+00
    0.00000E+00         0.00000E+00        -0.54123E+07
 
   -0.73839E+07         0.22064E+06         0.00000E+00
    0.22064E+06        -0.19659E+08         0.00000E+00
    0.00000E+00         0.00000E+00        -0.54085E+07
 
   -0.73345E+07         0.26381E+06         0.00000E+00
    0.26381E+06        -0.19687E+08         0.00000E+00
    0.00000E+00         0.00000E+00        -0.54044E+07
 
   -0.72827E+07         0.31056E+06         0.00000E+00
    0.31056E+06        -0.19717E+08         0.00000E+00
    0.00000E+00         0.00000E+00        -0.54000E+07
 
   -0.72285E+07         0.36085E+06         0.00000E+00
    0.36085E+06        -0.19748E+08         0.00000E+00
    0.00000E+00         0.00000E+00        -0.53952E+07
 
   -0.71723E+07         0.41467E+06         0.00000E+00
    0.41467E+06        -0.19779E+08         0.00000E+00
    0.00000E+00         0.00000E+00        -0.53903E+07
 
   -0.71142E+07         0.47199E+06         0.00000E+00
    0.47199E+06        -0.19811E+08         0.00000E+00
    0.00000E+00         0.00000E+00        -0.53850E+07
 
   -0.70543E+07         0.53277E+06         0.00000E+00
    0.53277E+06        -0.19843E+08         0.00000E+00
    0.00000E+00         0.00000E+00        -0.53795E+07
 
   -0.69929E+07         0.59698E+06         0.00000E+00
    0.59698E+06        -0.19876E+08         0.00000E+00
    0.00000E+00         0.00000E+00        -0.53739E+07
 
   -0.69302E+07         0.66460E+06         0.00000E+00
    0.66460E+06        -0.19910E+08         0.00000E+00
    0.00000E+00         0.00000E+00        -0.53680E+07
 
   -0.68663E+07         0.73559E+06         0.00000E+00
    0.73559E+06        -0.19944E+08         0.00000E+00
    0.00000E+00         0.00000E+00        -0.53620E+07
 
   -0.68013E+07         0.80991E+06         0.00000E+00
    0.80991E+06        -0.19978E+08         0.00000E+00
    0.00000E+00         0.00000E+00        -0.53558E+07
 
   -0.67354E+07         0.88753E+06         0.00000E+00
    0.88753E+06        -0.20012E+08         0.00000E+00
    0.00000E+00         0.00000E+00        -0.53495E+07
 
   -0.66688E+07         0.96842E+06         0.00000E+00
    0.96842E+06        -0.20046E+08         0.00000E+00
    0.00000E+00         0.00000E+00        -0.53430E+07
 
   -0.66016E+07         0.10525E+07         0.00000E+00
    0.10525E+07        -0.20081E+08         0.00000E+00
    0.00000E+00         0.00000E+00        -0.53365E+07
 
   -0.65340E+07         0.11398E+07         0.00000E+00
    0.11398E+07        -0.20115E+08         0.00000E+00
    0.00000E+00         0.00000E+00        -0.53299E+07
 
   -0.64660E+07         0.12303E+07         0.00000E+00
    0.12303E+07        -0.20150E+08         0.00000E+00
    0.00000E+00         0.00000E+00        -0.53232E+07
 
   -0.63978E+07         0.13239E+07         0.00000E+00
    0.13239E+07        -0.20185E+08         0.00000E+00
    0.00000E+00         0.00000E+00        -0.53165E+07
 
   -0.63296E+07         0.14206E+07         0.00000E+00
    0.14206E+07        -0.20219E+08         0.00000E+00
    0.00000E+00         0.00000E+00        -0.53097E+07
 
   -0.62614E+07         0.15203E+07         0.00000E+00
    0.15203E+07        -0.20253E+08         0.00000E+00
    0.00000E+00         0.00000E+00        -0.53029E+07
 
   -0.61934E+07         0.16230E+07         0.00000E+00
    0.16230E+07        -0.20287E+08         0.00000E+00
    0.00000E+00         0.00000E+00        -0.52961E+07
 
   -0.61257E+07         0.17287E+07         0.00000E+00
    0.17287E+07        -0.20321E+08         0.00000E+00
    0.00000E+00         0.00000E+00        -0.52893E+07
 
   -0.60584E+07         0.18373E+07         0.00000E+00
    0.18373E+07        -0.20354E+08         0.00000E+00
    0.00000E+00         0.00000E+00        -0.52825E+07
 
   -0.59916E+07         0.19489E+07         0.00000E+00
    0.19489E+07        -0.20387E+08         0.00000E+00
    0.00000E+00         0.00000E+00        -0.52757E+07
 
   -0.59255E+07         0.20632E+07         0.00000E+00
    0.20632E+07        -0.20419E+08         0.00000E+00
    0.00000E+00         0.00000E+00        -0.52690E+07
 
   -0.58601E+07         0.21804E+07         0.00000E+00
    0.21804E+07        -0.20451E+08         0.00000E+00
    0.00000E+00         0.00000E+00        -0.52623E+07
 
   -0.57956E+07         0.23003E+07         0.00000E+00
    0.23003E+07        -0.20483E+08         0.00000E+00
    0.00000E+00         0.00000E+00        -0.52557E+07
 
   -0.57320E+07         0.24229E+07         0.00000E+00
    0.24229E+07        -0.20514E+08         0.00000E+00
    0.00000E+00         0.00000E+00        -0.52491E+07
 
   -0.56694E+07         0.25482E+07         0.00000E+00
    0.25482E+07        -0.20544E+08         0.00000E+00
    0.00000E+00         0.00000E+00        -0.52426E+07
 
   -0.56080E+07         0.26761E+07         0.00000E+00
    0.26761E+07        -0.20573E+08         0.00000E+00
    0.00000E+00         0.00000E+00        -0.52362E+07
 
   -0.55478E+07         0.28065E+07         0.00000E+00
    0.28065E+07        -0.20602E+08         0.00000E+00
    0.00000E+00         0.00000E+00        -0.52300E+07
 
   -0.54889E+07         0.29394E+07         0.00000E+00
    0.29394E+07        -0.20630E+08         0.00000E+00
    0.00000E+00         0.00000E+00        -0.52238E+07
 
   -0.54315E+07         0.30747E+07         0.00000E+00
    0.30747E+07        -0.20657E+08         0.00000E+00
    0.00000E+00         0.00000E+00        -0.52177E+07
 
   -0.53754E+07         0.32123E+07         0.00000E+00
    0.32123E+07        -0.20683E+08         0.00000E+00
    0.00000E+00         0.00000E+00        -0.52117E+07
 
   -0.53210E+07         0.33522E+07         0.00000E+00
    0.33522E+07        -0.20708E+08         0.00000E+00
    0.00000E+00         0.00000E+00        -0.52058E+07
 
   -0.52681E+07         0.34943E+07         0.00000E+00
    0.34943E+07        -0.20732E+08         0.00000E+00
    0.00000E+00         0.00000E+00        -0.52001E+07
 
   -0.52169E+07         0.36385E+07         0.00000E+00
    0.36385E+07        -0.20755E+08         0.00000E+00
    0.00000E+00         0.00000E+00        -0.51944E+07
 
   -0.87977E+07        -0.15103E+05         0.00000E+00
   -0.15103E+05        -0.20459E+08         0.00000E+00
    0.00000E+00         0.00000E+00        -0.58512E+07
 
   -0.87909E+07        -0.35813E+05         0.00000E+00
   -0.35813E+05        -0.20462E+08         0.00000E+00
    0.00000E+00         0.00000E+00        -0.58506E+07
 
   -0.87776E+07        -0.52377E+05         0.00000E+00
   -0.52377E+05        -0.20468E+08         0.00000E+00
    0.00000E+00         0.00000E+00        -0.58492E+07
 
   -0.87580E+07        -0.64741E+05         0.00000E+00
   -0.64741E+05        -0.20478E+08         0.00000E+00
    0.00000E+00         0.00000E+00        -0.58471E+07
 
   -0.87326E+07        -0.72863E+05         0.00000E+00
   -0.72863E+05        -0.20489E+08         0.00000E+00
    0.00000E+00         0.00000E+00        -0.58444E+07
 
   -0.87017E+07        -0.76714E+05         0.00000E+00
   -0.76714E+05        -0.20504E+08         0.00000E+00
    0.00000E+00         0.00000E+00        -0.58411E+07
 
   -0.86656E+07        -0.76276E+05         0.00000E+00
   -0.76276E+05        -0.20520E+08         0.00000E+00
    0.00000E+00         0.00000E+00        -0.58372E+07
 
   -0.86248E+07        -0.71540E+05         0.00000E+00
   -0.71540E+05        -0.20539E+08         0.00000E+00
    0.00000E+00         0.00000E+00        -0.58327E+07
 
   -0.85794E+07        -0.62509E+05         0.00000E+00
   -0.62509E+05        -0.20559E+08         0.00000E+00
    0.00000E+00         0.00000E+00        -0.58277E+07
 
   -0.85299E+07        -0.49195E+05         0.00000E+00
   -0.49195E+05        -0.20581E+08         0.00000E+00
    0.00000E+00         0.00000E+00        -0.58223E+07
 
   -0.84765E+07        -0.31615E+05         0.00000E+00
   -0.31615E+05        -0.20605E+08         0.00000E+00
    0.00000E+00         0.00000E+00        -0.58163E+07
 
   -0.84194E+07        -0.97966E+04         0.00000E+00
   -0.97966E+04        -0.20631E+08         0.00000E+00
    0.00000E+00         0.00000E+00        -0.58100E+07
 
   -0.83591E+07         0.16229E+05         0.00000E+00
    0.16229E+05        -0.20657E+08         0.00000E+00
    0.00000E+00         0.00000E+00        -0.58033E+07
 
   -0.82957E+07         0.46423E+05         0.00000E+00
    0.46423E+05        -0.20685E+08         0.00000E+00
    0.00000E+00         0.00000E+00        -0.57962E+07
 
   -0.82295E+07         0.80744E+05         0.00000E+00
    0.80744E+05        -0.20714E+08         0.00000E+00
    0.00000E+00         0.00000E+00        -0.57888E+07
 
   -0.81608E+07         0.11915E+06         0.00000E+00
    0.11915E+06        -0.20745E+08         0.00000E+00
    0.00000E+00         0.00000E+00        -0.57811E+07
 
   -0.80897E+07         0.16158E+06         0.00000E+00
    0.16158E+06        -0.20776E+08         0.00000E+00
    0.00000E+00         0.00000E+00        -0.57731E+07
 
   -0.80165E+07         0.20800E+06         0.00000E+00
    0.20800E+06        -0.20807E+08         0.00000E+00
    0.00000E+00         0.00000E+00        -0.57648E+07
 
   -0.79415E+07         0.25834E+06         0.00000E+00
    0.25834E+06        -0.20840E+08         0.00000E+00
    0.00000E+00         0.00000E+00        -0.57563E+07
 
   -0.78647E+07         0.31257E+06         0.00000E+00
    0.31257E+06        -0.20873E+08         0.00000E+00
    0.00000E+00         0.00000E+00        -0.57476E+07
 
   -0.77864E+07         0.37062E+06         0.00000E+00
    0.37062E+06        -0.20907E+08         0.00000E+00
    0.00000E+00         0.00000E+00        -0.57387E+07
 
   -0.77068E+07         0.43243E+06         0.00000E+00
    0.43243E+06        -0.20942E+08         0.00000E+00
    0.00000E+00         0.00000E+00        -0.57297E+07
 
   -0.76261E+07         0.49797E+06         0.00000E+00
    0.49797E+06        -0.20977E+08         0.00000E+00
    0.00000E+00         0.00000E+00        -0.57205E+07
 
   -0.75443E+07         0.56718E+06         0.00000E+00
    0.56718E+06        -0.21012E+08         0.00000E+00
    0.00000E+00         0.00000E+00        -0.57112E+07
 
   -0.74618E+07         0.64002E+06         0.00000E+00
    0.64002E+06        -0.21048E+08         0.00000E+00
    0.00000E+00         0.00000E+00        -0.57019E+07
 
   -0.73785E+07         0.71642E+06         0.00000E+00
    0.71642E+06        -0.21084E+08         0.00000E+00
    0.00000E+00         0.00000E+00        -0.56924E+07
 
   -0.72947E+07         0.79635E+06         0.00000E+00
    0.79635E+06        -0.21120E+08         0.00000E+00
    0.00000E+00         0.00000E+00        -0.56829E+07
 
   -0.72105E+07         0.87977E+06         0.00000E+00
    0.87977E+06        -0.21156E+08         0.00000E+00
    0.00000E+00         0.00000E+00        -0.56733E+07
 
   -0.71261E+07         0.96664E+06         0.00000E+00
    0.96664E+06        -0.21193E+08         0.00000E+00
    0.00000E+00         0.00000E+00        -0.56638E+07
 
   -0.70415E+07         0.10569E+07         0.00000E+00
    0.10569E+07        -0.21229E+08         0.00000E+00
    0.00000E+00         0.00000E+00        -0.56542E+07
 
   -0.69569E+07         0.11505E+07         0.00000E+00
    0.11505E+07        -0.21266E+08         0.00000E+00
    0.00000E+00         0.00000E+00        -0.56446E+07
 
   -0.68725E+07         0.12475E+07         0.00000E+00
    0.12475E+07        -0.21303E+08         0.00000E+00
    0.00000E+00         0.00000E+00        -0.56351E+07
 
   -0.67883E+07         0.13477E+07         0.00000E+00
    0.13477E+07        -0.21340E+08         0.00000E+00
    0.00000E+00         0.00000E+00        -0.56256E+07
 
   -0.67045E+07         0.14513E+07         0.00000E+00
    0.14513E+07        -0.21376E+08         0.00000E+00
    0.00000E+00         0.00000E+00        -0.56162E+07
 
   -0.66212E+07         0.15580E+07         0.00000E+00
    0.15580E+07        -0.21413E+08         0.00000E+00
    0.00000E+00         0.00000E+00        -0.56068E+07
 
   -0.65385E+07         0.16679E+07         0.00000E+00
    0.16679E+07        -0.21449E+08         0.00000E+00
    0.00000E+00         0.00000E+00        -0.55976E+07
 
   -0.64565E+07         0.17809E+07         0.00000E+00
    0.17809E+07        -0.21485E+08         0.00000E+00
    0.00000E+00         0.00000E+00        -0.55884E+07
 
   -0.63754E+07         0.18971E+07         0.00000E+00
    0.18971E+07        -0.21521E+08         0.00000E+00
    0.00000E+00         0.00000E+00        -0.55793E+07
 
   -0.62953E+07         0.20163E+07         0.00000E+00
    0.20163E+07        -0.21557E+08         0.00000E+00
    0.00000E+00         0.00000E+00        -0.55704E+07
 
   -0.62162E+07         0.21386E+07         0.00000E+00
    0.21386E+07        -0.21592E+08         0.00000E+00
    0.00000E+00         0.00000E+00        -0.55617E+07
 
   -0.61384E+07         0.22638E+07         0.00000E+00
    0.22638E+07        -0.21627E+08         0.00000E+00
    0.00000E+00         0.00000E+00        -0.55530E+07
 
   -0.60619E+07         0.23920E+07         0.00000E+00
    0.23920E+07        -0.21661E+08         0.00000E+00
    0.00000E+00         0.00000E+00        -0.55446E+07
 
   -0.59869E+07         0.25230E+07         0.00000E+00
    0.25230E+07        -0.21694E+08         0.00000E+00
    0.00000E+00         0.00000E+00        -0.55363E+07
 
   -0.59134E+07         0.26568E+07         0.00000E+00
    0.26568E+07        -0.21727E+08         0.00000E+00
    0.00000E+00         0.00000E+00        -0.55281E+07
 
   -0.58415E+07         0.27933E+07         0.00000E+00
    0.27933E+07        -0.21760E+08         0.00000E+00
    0.00000E+00         0.00000E+00        -0.55202E+07
 
   -0.57715E+07         0.29326E+07         0.00000E+00
    0.29326E+07        -0.21791E+08         0.00000E+00
    0.00000E+00         0.00000E+00        -0.55125E+07
 
   -0.57033E+07         0.30744E+07         0.00000E+00
    0.30744E+07        -0.21822E+08         0.00000E+00
    0.00000E+00         0.00000E+00        -0.55050E+07
 
   -0.56370E+07         0.32187E+07         0.00000E+00
    0.32187E+07        -0.21851E+08         0.00000E+00
    0.00000E+00         0.00000E+00        -0.54977E+07
 
   -0.55729E+07         0.33655E+07         0.00000E+00
    0.33655E+07        -0.21880E+08         0.00000E+00
    0.00000E+00         0.00000E+00        -0.54906E+07
 
   -0.55108E+07         0.35145E+07         0.00000E+00
    0.35145E+07        -0.21908E+08         0.00000E+00
    0.00000E+00         0.00000E+00        -0.54837E+07
 
   -0.10020E+08        -0.24051E+05         0.00000E+00
   -0.24051E+05        -0.21528E+08         0.00000E+00
    0.00000E+00         0.00000E+00        -0.63097E+07
 
   -0.99905E+07        -0.60171E+05         0.00000E+00
   -0.60171E+05        -0.21532E+08         0.00000E+00
    0.00000E+00         0.00000E+00        -0.63044E+07
 
   -0.99538E+07        -0.91118E+05         0.00000E+00
   -0.91118E+05        -0.21538E+08         0.00000E+00
    0.00000E+00         0.00000E+00        -0.62984E+07
 
   -0.99106E+07        -0.11687E+06         0.00000E+00
   -0.11687E+06        -0.21548E+08         0.00000E+00
    0.00000E+00         0.00000E+00        -0.62917E+07
 
   -0.98615E+07        -0.13743E+06         0.00000E+00
   -0.13743E+06        -0.21560E+08         0.00000E+00
    0.00000E+00         0.00000E+00        -0.62844E+07
 
   -0.98068E+07        -0.15279E+06         0.00000E+00
   -0.15279E+06        -0.21575E+08         0.00000E+00
    0.00000E+00         0.00000E+00        -0.62764E+07
 
   -0.97470E+07        -0.16298E+06         0.00000E+00
   -0.16298E+06        -0.21592E+08         0.00000E+00
    0.00000E+00         0.00000E+00        -0.62679E+07
 
   -0.96825E+07        -0.16803E+06         0.00000E+00
   -0.16803E+06        -0.21612E+08         0.00000E+00
    0.00000E+00         0.00000E+00        -0.62588E+07
 
   -0.96135E+07        -0.16799E+06         0.00000E+00
   -0.16799E+06        -0.21633E+08         0.00000E+00
    0.00000E+00         0.00000E+00        -0.62492E+07
 
   -0.95406E+07        -0.16292E+06         0.00000E+00
   -0.16292E+06        -0.21655E+08         0.00000E+00
    0.00000E+00         0.00000E+00        -0.62392E+07
 
   -0.94640E+07        -0.15288E+06         0.00000E+00
   -0.15288E+06        -0.21680E+08         0.00000E+00
    0.00000E+00         0.00000E+00        -0.62287E+07
 
   -0.93840E+07        -0.13795E+06         0.00000E+00
   -0.13795E+06        -0.21706E+08         0.00000E+00
    0.00000E+00         0.00000E+00        -0.62179E+07
 
   -0.93010E+07        -0.11820E+06         0.00000E+00
   -0.11820E+06        -0.21733E+08         0.00000E+00
    0.00000E+00         0.00000E+00        -0.62067E+07
 
   -0.92152E+07        -0.93709E+05         0.00000E+00
   -0.93709E+05        -0.21761E+08         0.00000E+00
    0.00000E+00         0.00000E+00        -0.61952E+07
 
   -0.91269E+07        -0.64574E+05         0.00000E+00
   -0.64574E+05        -0.21790E+08         0.00000E+00
    0.00000E+00         0.00000E+00        -0.61834E+07
 
   -0.90364E+07        -0.30881E+05         0.00000E+00
   -0.30881E+05        -0.21820E+08         0.00000E+00
    0.00000E+00         0.00000E+00        -0.61714E+07
 
   -0.89439E+07         0.72805E+04         0.00000E+00
    0.72805E+04        -0.21852E+08         0.00000E+00
    0.00000E+00         0.00000E+00        -0.61591E+07
 
   -0.88497E+07         0.49821E+05         0.00000E+00
    0.49821E+05        -0.21884E+08         0.00000E+00
    0.00000E+00         0.00000E+00        -0.61467E+07
 
   -0.87539E+07         0.96651E+05         0.00000E+00
    0.96651E+05        -0.21916E+08         0.00000E+00
    0.00000E+00         0.00000E+00        -0.61340E+07
 
   -0.86567E+07         0.14769E+06         0.00000E+00
    0.14769E+06        -0.21950E+08         0.00000E+00
    0.00000E+00         0.00000E+00        -0.61213E+07
 
   -0.85584E+07         0.20284E+06         0.00000E+00
    0.20284E+06        -0.21984E+08         0.00000E+00
    0.00000E+00         0.00000E+00        -0.61084E+07
 
   -0.84590E+07         0.26204E+06         0.00000E+00
    0.26204E+06        -0.22018E+08         0.00000E+00
    0.00000E+00         0.00000E+00        -0.60954E+07
 
   -0.83588E+07         0.32520E+06         0.00000E+00
    0.32520E+06        -0.22053E+08         0.00000E+00
    0.00000E+00         0.00000E+00        -0.60824E+07
 
   -0.82579E+07         0.39226E+06         0.00000E+00
    0.39226E+06        -0.22089E+08         0.00000E+00
    0.00000E+00         0.00000E+00        -0.60693E+07
 
   -0.81565E+07         0.46316E+06         0.00000E+00
    0.46316E+06        -0.22125E+08         0.00000E+00
    0.00000E+00         0.00000E+00        -0.60562E+07
 
   -0.80546E+07         0.53782E+06         0.00000E+00
    0.53782E+06        -0.22161E+08         0.00000E+00
    0.00000E+00         0.00000E+00        -0.60431E+07
 
   -0.79525E+07         0.61620E+06         0.00000E+00
    0.61620E+06        -0.22198E+08         0.00000E+00
    0.00000E+00         0.00000E+00        -0.60301E+07
 
   -0.78502E+07         0.69826E+06         0.00000E+00
    0.69826E+06        -0.22235E+08         0.00000E+00
    0.00000E+00         0.00000E+00        -0.60170E+07
 
   -0.77478E+07         0.78394E+06         0.00000E+00
    0.78394E+06        -0.22273E+08         0.00000E+00
    0.00000E+00         0.00000E+00        -0.60041E+07
 
   -0.76455E+07         0.87321E+06         0.00000E+00
    0.87321E+06        -0.22310E+08         0.00000E+00
    0.00000E+00         0.00000E+00        -0.59912E+07
 
   -0.75434E+07         0.96603E+06         0.00000E+00
    0.96603E+06        -0.22348E+08         0.00000E+00
    0.00000E+00         0.00000E+00        -0.59784E+07
 
   -0.74416E+07         0.10624E+07         0.00000E+00
    0.10624E+07        -0.22387E+08         0.00000E+00
    0.00000E+00         0.00000E+00        -0.59657E+07
 
   -0.73402E+07         0.11622E+07         0.00000E+00
    0.11622E+07        -0.22425E+08         0.00000E+00
    0.00000E+00         0.00000E+00        -0.59531E+07
 
   -0.72393E+07         0.12655E+07         0.00000E+00
    0.12655E+07        -0.22464E+08         0.00000E+00
    0.00000E+00         0.00000E+00        -0.59407E+07
 
   -0.71391E+07         0.13723E+07         0.00000E+00
    0.13723E+07        -0.22503E+08         0.00000E+00
    0.00000E+00         0.00000E+00        -0.59284E+07
 
   -0.70397E+07         0.14825E+07         0.00000E+00
    0.14825E+07        -0.22542E+08         0.00000E+00
    0.00000E+00         0.00000E+00        -0.59163E+07
 
   -0.69412E+07         0.15961E+07         0.00000E+00
    0.15961E+07        -0.22581E+08         0.00000E+00
    0.00000E+00         0.00000E+00        -0.59044E+07
 
   -0.68437E+07         0.17131E+07         0.00000E+00
    0.17131E+07        -0.22620E+08         0.00000E+00
    0.00000E+00         0.00000E+00        -0.58927E+07
 
   -0.67474E+07         0.18334E+07         0.00000E+00
    0.18334E+07        -0.22659E+08         0.00000E+00
    0.00000E+00         0.00000E+00        -0.58812E+07
 
   -0.66524E+07         0.19571E+07         0.00000E+00
    0.19571E+07        -0.22698E+08         0.00000E+00
    0.00000E+00         0.00000E+00        -0.58700E+07
 
   -0.65589E+07         0.20841E+07         0.00000E+00
    0.20841E+07        -0.22736E+08         0.00000E+00
    0.00000E+00         0.00000E+00        -0.58590E+07
 
   -0.64669E+07         0.22143E+07         0.00000E+00
    0.22143E+07        -0.22774E+08         0.00000E+00
    0.00000E+00         0.00000E+00        -0.58483E+07
 
   -0.63766E+07         0.23477E+07         0.00000E+00
    0.23477E+07        -0.22812E+08         0.00000E+00
    0.00000E+00         0.00000E+00        -0.58378E+07
 
   -0.62883E+07         0.24843E+07         0.00000E+00
    0.24843E+07        -0.22850E+08         0.00000E+00
    0.00000E+00         0.00000E+00        -0.58276E+07
 
   -0.62019E+07         0.26240E+07         0.00000E+00
    0.26240E+07        -0.22887E+08         0.00000E+00
    0.00000E+00         0.00000E+00        -0.58177E+07
 
   -0.61177E+07         0.27667E+07         0.00000E+00
    0.27667E+07        -0.22923E+08         0.00000E+00
    0.00000E+00         0.00000E+00        -0.58081E+07
 
   -0.60358E+07         0.29124E+07         0.00000E+00
    0.29124E+07        -0.22959E+08         0.00000E+00
    0.00000E+00         0.00000E+00        -0.57989E+07
 
   -0.59564E+07         0.30610E+07         0.00000E+00
    0.30610E+07        -0.22993E+08         0.00000E+00
    0.00000E+00         0.00000E+00        -0.57899E+07
 
   -0.58796E+07         0.32123E+07         0.00000E+00
    0.32123E+07        -0.23027E+08         0.00000E+00
    0.00000E+00         0.00000E+00        -0.57813E+07
 
   -0.58054E+07         0.33662E+07         0.00000E+00
    0.33662E+07        -0.23060E+08         0.00000E+00
    0.00000E+00         0.00000E+00        -0.57731E+07
 
   -0.11349E+08        -0.33659E+05         0.00000E+00
   -0.33659E+05        -0.22621E+08         0.00000E+00
    0.00000E+00         0.00000E+00        -0.67941E+07
 
   -0.11290E+08        -0.85977E+05         0.00000E+00
   -0.85977E+05        -0.22625E+08         0.00000E+00
    0.00000E+00         0.00000E+00        -0.67831E+07
 
   -0.11225E+08        -0.13189E+06         0.00000E+00
   -0.13189E+06        -0.22632E+08         0.00000E+00
    0.00000E+00         0.00000E+00        -0.67714E+07
 
   -0.11153E+08        -0.17141E+06         0.00000E+00
   -0.17141E+06        -0.22642E+08         0.00000E+00
    0.00000E+00         0.00000E+00        -0.67590E+07
 
   -0.11075E+08        -0.20458E+06         0.00000E+00
   -0.20458E+06        -0.22655E+08         0.00000E+00
    0.00000E+00         0.00000E+00        -0.67459E+07
 
   -0.10991E+08        -0.23148E+06         0.00000E+00
   -0.23148E+06        -0.22670E+08         0.00000E+00
    0.00000E+00         0.00000E+00        -0.67322E+07
 
   -0.10903E+08        -0.25218E+06         0.00000E+00
   -0.25218E+06        -0.22687E+08         0.00000E+00
    0.00000E+00         0.00000E+00        -0.67180E+07
 
   -0.10810E+08        -0.26678E+06         0.00000E+00
   -0.26678E+06        -0.22706E+08         0.00000E+00
    0.00000E+00         0.00000E+00        -0.67032E+07
 
   -0.10714E+08        -0.27539E+06         0.00000E+00
   -0.27539E+06        -0.22727E+08         0.00000E+00
    0.00000E+00         0.00000E+00        -0.66881E+07
 
   -0.10614E+08        -0.27814E+06         0.00000E+00
   -0.27814E+06        -0.22749E+08         0.00000E+00
    0.00000E+00         0.00000E+00        -0.66725E+07
 
   -0.10510E+08        -0.27516E+06         0.00000E+00
   -0.27516E+06        -0.22773E+08         0.00000E+00
    0.00000E+00         0.00000E+00        -0.66566E+07
 
   -0.10404E+08        -0.26659E+06         0.00000E+00
   -0.26659E+06        -0.22798E+08         0.00000E+00
    0.00000E+00         0.00000E+00        -0.66403E+07
 
   -0.10295E+08        -0.25258E+06         0.00000E+00
   -0.25258E+06        -0.22824E+08         0.00000E+00
    0.00000E+00         0.00000E+00        -0.66238E+07
 
   -0.10184E+08        -0.23329E+06         0.00000E+00
   -0.23329E+06        -0.22851E+08         0.00000E+00
    0.00000E+00         0.00000E+00        -0.66070E+07
 
   -0.10072E+08        -0.20887E+06         0.00000E+00
   -0.20887E+06        -0.22879E+08         0.00000E+00
    0.00000E+00         0.00000E+00        -0.65901E+07
 
   -0.99572E+07        -0.17946E+06         0.00000E+00
   -0.17946E+06        -0.22908E+08         0.00000E+00
    0.00000E+00         0.00000E+00        -0.65730E+07
 
   -0.98414E+07        -0.14522E+06         0.00000E+00
   -0.14522E+06        -0.22937E+08         0.00000E+00
    0.00000E+00         0.00000E+00        -0.65557E+07
 
   -0.97244E+07        -0.10629E+06         0.00000E+00
   -0.10629E+06        -0.22967E+08         0.00000E+00
    0.00000E+00         0.00000E+00        -0.65383E+07
 
   -0.96064E+07        -0.62821E+05         0.00000E+00
   -0.62821E+05        -0.22998E+08         0.00000E+00
    0.00000E+00         0.00000E+00        -0.65209E+07
 
   -0.94875E+07        -0.14931E+05         0.00000E+00
   -0.14931E+05        -0.23030E+08         0.00000E+00
    0.00000E+00         0.00000E+00        -0.65034E+07
 
   -0.93679E+07         0.37253E+05         0.00000E+00
    0.37253E+05        -0.23062E+08         0.00000E+00
    0.00000E+00         0.00000E+00        -0.64859E+07
 
   -0.92478E+07         0.93619E+05         0.00000E+00
    0.93619E+05        -0.23094E+08         0.00000E+00
    0.00000E+00         0.00000E+00        -0.64685E+07
 
   -0.91273E+07         0.15406E+06         0.00000E+00
    0.15406E+06        -0.23128E+08         0.00000E+00
    0.00000E+00         0.00000E+00        -0.64510E+07
 
   -0.90065E+07         0.21849E+06         0.00000E+00
    0.21849E+06        -0.23162E+08         0.00000E+00
    0.00000E+00         0.00000E+00        -0.64336E+07
 
   -0.88854E+07         0.28682E+06         0.00000E+00
    0.28682E+06        -0.23196E+08         0.00000E+00
    0.00000E+00         0.00000E+00        -0.64163E+07
 
   -0.87643E+07         0.35899E+06         0.00000E+00
    0.35899E+06        -0.23231E+08         0.00000E+00
    0.00000E+00         0.00000E+00        -0.63991E+07
 
   -0.86431E+07         0.43494E+06         0.00000E+00
    0.43494E+06        -0.23267E+08         0.00000E+00
    0.00000E+00         0.00000E+00        -0.63819E+07
 
   -0.85220E+07         0.51461E+06         0.00000E+00
    0.51461E+06        -0.23303E+08         0.00000E+00
    0.00000E+00         0.00000E+00        -0.63650E+07
 
   -0.84010E+07         0.59797E+06         0.00000E+00
    0.59797E+06        -0.23340E+08         0.00000E+00
    0.00000E+00         0.00000E+00        -0.63481E+07
 
   -0.82803E+07         0.68500E+06         0.00000E+00
    0.68500E+06        -0.23377E+08         0.00000E+00
    0.00000E+00         0.00000E+00        -0.63315E+07
 
   -0.81599E+07         0.77567E+06         0.00000E+00
    0.77567E+06        -0.23415E+08         0.00000E+00
    0.00000E+00         0.00000E+00        -0.63150E+07
 
   -0.80398E+07         0.86997E+06         0.00000E+00
    0.86997E+06        -0.23454E+08         0.00000E+00
    0.00000E+00         0.00000E+00        -0.62987E+07
 
   -0.79203E+07         0.96791E+06         0.00000E+00
    0.96791E+06        -0.23493E+08         0.00000E+00
    0.00000E+00         0.00000E+00        -0.62827E+07
 
   -0.78014E+07         0.10695E+07         0.00000E+00
    0.10695E+07        -0.23533E+08         0.00000E+00
    0.00000E+00         0.00000E+00        -0.62669E+07
 
   -0.76832E+07         0.11747E+07         0.00000E+00
    0.11747E+07        -0.23573E+08         0.00000E+00
    0.00000E+00         0.00000E+00        -0.62513E+07
 
   -0.75658E+07         0.12835E+07         0.00000E+00
    0.12835E+07        -0.23614E+08         0.00000E+00
    0.00000E+00         0.00000E+00        -0.62360E+07
 
   -0.74494E+07         0.13961E+07         0.00000E+00
    0.13961E+07        -0.23656E+08         0.00000E+00
    0.00000E+00         0.00000E+00        -0.62210E+07
 
   -0.73340E+07         0.15123E+07         0.00000E+00
    0.15123E+07        -0.23697E+08         0.00000E+00
    0.00000E+00         0.00000E+00        -0.62063E+07
 
   -0.72199E+07         0.16321E+07         0.00000E+00
    0.16321E+07        -0.23739E+08         0.00000E+00
    0.00000E+00         0.00000E+00        -0.61919E+07
 
   -0.71072E+07         0.17557E+07         0.00000E+00
    0.17557E+07        -0.23782E+08         0.00000E+00
    0.00000E+00         0.00000E+00        -0.61778E+07
 
   -0.69960E+07         0.18830E+07         0.00000E+00
    0.18830E+07        -0.23824E+08         0.00000E+00
    0.00000E+00         0.00000E+00        -0.61641E+07
 
   -0.68866E+07         0.20139E+07         0.00000E+00
    0.20139E+07        -0.23867E+08         0.00000E+00
    0.00000E+00         0.00000E+00        -0.61507E+07
 
   -0.67791E+07         0.21486E+07         0.00000E+00
    0.21486E+07        -0.23910E+08         0.00000E+00
    0.00000E+00         0.00000E+00        -0.61378E+07
 
   -0.66737E+07         0.22869E+07         0.00000E+00
    0.22869E+07        -0.23952E+08         0.00000E+00
    0.00000E+00         0.00000E+00        -0.61252E+07
 
   -0.65706E+07         0.24288E+07         0.00000E+00
    0.24288E+07        -0.23994E+08         0.00000E+00
    0.00000E+00         0.00000E+00        -0.61130E+07
 
   -0.64701E+07         0.25742E+07         0.00000E+00
    0.25742E+07        -0.24036E+08         0.00000E+00
    0.00000E+00         0.00000E+00        -0.61013E+07
 
   -0.63723E+07         0.27232E+07         0.00000E+00
    0.27232E+07        -0.24078E+08         0.00000E+00
    0.00000E+00         0.00000E+00        -0.60900E+07
 
   -0.62774E+07         0.28755E+07         0.00000E+00
    0.28755E+07        -0.24118E+08         0.00000E+00
    0.00000E+00         0.00000E+00        -0.60791E+07
 
   -0.61857E+07         0.30312E+07         0.00000E+00
    0.30312E+07        -0.24158E+08         0.00000E+00
    0.00000E+00         0.00000E+00        -0.60688E+07
 
   -0.60974E+07         0.31901E+07         0.00000E+00
    0.31901E+07        -0.24197E+08         0.00000E+00
    0.00000E+00         0.00000E+00        -0.60589E+07
 
   -0.12784E+08        -0.43794E+05         0.00000E+00
   -0.43794E+05        -0.23735E+08         0.00000E+00
    0.00000E+00         0.00000E+00        -0.73038E+07
 
   -0.12689E+08        -0.11266E+06         0.00000E+00
   -0.11266E+06        -0.23739E+08         0.00000E+00
    0.00000E+00         0.00000E+00        -0.72857E+07
 
   -0.12588E+08        -0.17356E+06         0.00000E+00
   -0.17356E+06        -0.23746E+08         0.00000E+00
    0.00000E+00         0.00000E+00        -0.72668E+07
 
   -0.12480E+08        -0.22663E+06         0.00000E+00
   -0.22663E+06        -0.23756E+08         0.00000E+00
    0.00000E+00         0.00000E+00        -0.72472E+07
 
   -0.12367E+08        -0.27197E+06         0.00000E+00
   -0.27197E+06        -0.23768E+08         0.00000E+00
    0.00000E+00         0.00000E+00        -0.72271E+07
 
   -0.12249E+08        -0.30971E+06         0.00000E+00
   -0.30971E+06        -0.23782E+08         0.00000E+00
    0.00000E+00         0.00000E+00        -0.72064E+07
 
   -0.12127E+08        -0.34003E+06         0.00000E+00
   -0.34003E+06        -0.23799E+08         0.00000E+00
    0.00000E+00         0.00000E+00        -0.71852E+07
 
   -0.12002E+08        -0.36312E+06         0.00000E+00
   -0.36312E+06        -0.23817E+08         0.00000E+00
    0.00000E+00         0.00000E+00        -0.71636E+07
 
   -0.11873E+08        -0.37922E+06         0.00000E+00
   -0.37922E+06        -0.23836E+08         0.00000E+00
    0.00000E+00         0.00000E+00        -0.71417E+07
 
   -0.11741E+08        -0.38855E+06         0.00000E+00
   -0.38855E+06        -0.23856E+08         0.00000E+00
    0.00000E+00         0.00000E+00        -0.71195E+07
 
   -0.11607E+08        -0.39135E+06         0.00000E+00
   -0.39135E+06        -0.23878E+08         0.00000E+00
    0.00000E+00         0.00000E+00        -0.70970E+07
 
   -0.11472E+08        -0.38787E+06         0.00000E+00
   -0.38787E+06        -0.23900E+08         0.00000E+00
    0.00000E+00         0.00000E+00        -0.70743E+07
 
   -0.11334E+08        -0.37837E+06         0.00000E+00
   -0.37837E+06        -0.23923E+08         0.00000E+00
    0.00000E+00         0.00000E+00        -0.70515E+07
 
   -0.11196E+08        -0.36311E+06         0.00000E+00
   -0.36311E+06        -0.23947E+08         0.00000E+00
    0.00000E+00         0.00000E+00        -0.70285E+07
 
   -0.11057E+08        -0.34234E+06         0.00000E+00
   -0.34234E+06        -0.23971E+08         0.00000E+00
    0.00000E+00         0.00000E+00        -0.70055E+07
 
   -0.10917E+08        -0.31629E+06         0.00000E+00
   -0.31629E+06        -0.23996E+08         0.00000E+00
    0.00000E+00         0.00000E+00        -0.69825E+07
 
   -0.10776E+08        -0.28521E+06         0.00000E+00
   -0.28521E+06        -0.24021E+08         0.00000E+00
    0.00000E+00         0.00000E+00        -0.69595E+07
 
   -0.10635E+08        -0.24931E+06         0.00000E+00
   -0.24931E+06        -0.24047E+08         0.00000E+00
    0.00000E+00         0.00000E+00        -0.69365E+07
 
   -0.10494E+08        -0.20880E+06         0.00000E+00
   -0.20880E+06        -0.24073E+08         0.00000E+00
    0.00000E+00         0.00000E+00        -0.69136E+07
 
   -0.10353E+08        -0.16387E+06         0.00000E+00
   -0.16387E+06        -0.24100E+08         0.00000E+00
    0.00000E+00         0.00000E+00        -0.68907E+07
 
   -0.10212E+08        -0.11469E+06         0.00000E+00
   -0.11469E+06        -0.24128E+08         0.00000E+00
    0.00000E+00         0.00000E+00        -0.68680E+07
 
   -0.10071E+08        -0.61409E+05         0.00000E+00
   -0.61409E+05        -0.24156E+08         0.00000E+00
    0.00000E+00         0.00000E+00        -0.68455E+07
 
   -0.99306E+07        -0.41638E+04         0.00000E+00
   -0.41638E+04        -0.24185E+08         0.00000E+00
    0.00000E+00         0.00000E+00        -0.68230E+07
 
   -0.97899E+07         0.56934E+05         0.00000E+00
    0.56934E+05        -0.24214E+08         0.00000E+00
    0.00000E+00         0.00000E+00        -0.68008E+07
 
   -0.96494E+07         0.12179E+06         0.00000E+00
    0.12179E+06        -0.24245E+08         0.00000E+00
    0.00000E+00         0.00000E+00        -0.67788E+07
 
   -0.95092E+07         0.19033E+06         0.00000E+00
    0.19033E+06        -0.24276E+08         0.00000E+00
    0.00000E+00         0.00000E+00        -0.67570E+07
 
   -0.93692E+07         0.26250E+06         0.00000E+00
    0.26250E+06        -0.24308E+08         0.00000E+00
    0.00000E+00         0.00000E+00        -0.67354E+07
 
   -0.92294E+07         0.33826E+06         0.00000E+00
    0.33826E+06        -0.24341E+08         0.00000E+00
    0.00000E+00         0.00000E+00        -0.67141E+07
 
   -0.90899E+07         0.41758E+06         0.00000E+00
    0.41758E+06        -0.24375E+08         0.00000E+00
    0.00000E+00         0.00000E+00        -0.66930E+07
 
   -0.89507E+07         0.50048E+06         0.00000E+00
    0.50048E+06        -0.24410E+08         0.00000E+00
    0.00000E+00         0.00000E+00        -0.66721E+07
 
   -0.88119E+07         0.58694E+06         0.00000E+00
    0.58694E+06        -0.24446E+08         0.00000E+00
    0.00000E+00         0.00000E+00        -0.66516E+07
 
   -0.86733E+07         0.67701E+06         0.00000E+00
    0.67701E+06        -0.24484E+08         0.00000E+00
    0.00000E+00         0.00000E+00        -0.66314E+07
 
   -0.85352E+07         0.77073E+06         0.00000E+00
    0.77073E+06        -0.24522E+08         0.00000E+00
    0.00000E+00         0.00000E+00        -0.66115E+07
 
   -0.83975E+07         0.86813E+06         0.00000E+00
    0.86813E+06        -0.24562E+08         0.00000E+00
    0.00000E+00         0.00000E+00        -0.65919E+07
 
   -0.82604E+07         0.96929E+06         0.00000E+00
    0.96929E+06        -0.24603E+08         0.00000E+00
    0.00000E+00         0.00000E+00        -0.65726E+07
 
   -0.81240E+07         0.10743E+07         0.00000E+00
    0.10743E+07        -0.24645E+08         0.00000E+00
    0.00000E+00         0.00000E+00        -0.65537E+07
 
   -0.79882E+07         0.11832E+07         0.00000E+00
    0.11832E+07        -0.24688E+08         0.00000E+00
    0.00000E+00         0.00000E+00        -0.65352E+07
 
   -0.78534E+07         0.12960E+07         0.00000E+00
    0.12960E+07        -0.24732E+08         0.00000E+00
    0.00000E+00         0.00000E+00        -0.65170E+07
 
   -0.77196E+07         0.14129E+07         0.00000E+00
    0.14129E+07        -0.24777E+08         0.00000E+00
    0.00000E+00         0.00000E+00        -0.64993E+07
 
   -0.75870E+07         0.15340E+07         0.00000E+00
    0.15340E+07        -0.24823E+08         0.00000E+00
    0.00000E+00         0.00000E+00        -0.64820E+07
 
   -0.74559E+07         0.16592E+07         0.00000E+00
    0.16592E+07        -0.24870E+08         0.00000E+00
    0.00000E+00         0.00000E+00        -0.64651E+07
 
   -0.73264E+07         0.17887E+07         0.00000E+00
    0.17887E+07        -0.24917E+08         0.00000E+00
    0.00000E+00         0.00000E+00        -0.64487E+07
 
   -0.71988E+07         0.19225E+07         0.00000E+00
    0.19225E+07        -0.24965E+08         0.00000E+00
    0.00000E+00         0.00000E+00        -0.64328E+07
 
   -0.70734E+07         0.20606E+07         0.00000E+00
    0.20606E+07        -0.25014E+08         0.00000E+00
    0.00000E+00         0.00000E+00        -0.64174E+07
 
   -0.69504E+07         0.22032E+07         0.00000E+00
    0.22032E+07        -0.25062E+08         0.00000E+00
    0.00000E+00         0.00000E+00        -0.64025E+07
 
   -0.68301E+07         0.23500E+07         0.00000E+00
    0.23500E+07        -0.25111E+08         0.00000E+00
    0.00000E+00         0.00000E+00        -0.63882E+07
 
   -0.67129E+07         0.25012E+07         0.00000E+00
    0.25012E+07        -0.25159E+08         0.00000E+00
    0.00000E+00         0.00000E+00        -0.63744E+07
 
   -0.65991E+07         0.26567E+07         0.00000E+00
    0.26567E+07        -0.25207E+08         0.00000E+00
    0.00000E+00         0.00000E+00        -0.63613E+07
 
   -0.64890E+07         0.28163E+07         0.00000E+00
    0.28163E+07        -0.25255E+08         0.00000E+00
    0.00000E+00         0.00000E+00        -0.63487E+07
 
   -0.63830E+07         0.29800E+07         0.00000E+00
    0.29800E+07        -0.25301E+08         0.00000E+00
    0.00000E+00         0.00000E+00        -0.63369E+07
 
   -0.14321E+08        -0.54336E+05         0.00000E+00
   -0.54336E+05        -0.24865E+08         0.00000E+00
    0.00000E+00         0.00000E+00        -0.78372E+07
 
   -0.14182E+08        -0.13944E+06         0.00000E+00
   -0.13944E+06        -0.24869E+08         0.00000E+00
    0.00000E+00         0.00000E+00        -0.78101E+07
 
   -0.14036E+08        -0.21471E+06         0.00000E+00
   -0.21471E+06        -0.24876E+08         0.00000E+00
    0.00000E+00         0.00000E+00        -0.77823E+07
 
   -0.13885E+08        -0.28016E+06         0.00000E+00
   -0.28016E+06        -0.24885E+08         0.00000E+00
    0.00000E+00         0.00000E+00        -0.77539E+07
 
   -0.13729E+08        -0.33607E+06         0.00000E+00
   -0.33607E+06        -0.24896E+08         0.00000E+00
    0.00000E+00         0.00000E+00        -0.77250E+07
 
   -0.13570E+08        -0.38277E+06         0.00000E+00
   -0.38277E+06        -0.24909E+08         0.00000E+00
    0.00000E+00         0.00000E+00        -0.76957E+07
 
   -0.13408E+08        -0.42058E+06         0.00000E+00
   -0.42058E+06        -0.24923E+08         0.00000E+00
    0.00000E+00         0.00000E+00        -0.76661E+07
 
   -0.13243E+08        -0.44988E+06         0.00000E+00
   -0.44988E+06        -0.24938E+08         0.00000E+00
    0.00000E+00         0.00000E+00        -0.76362E+07
 
   -0.13077E+08        -0.47103E+06         0.00000E+00
   -0.47103E+06        -0.24954E+08         0.00000E+00
    0.00000E+00         0.00000E+00        -0.76061E+07
 
   -0.12910E+08        -0.48444E+06         0.00000E+00
   -0.48444E+06        -0.24970E+08         0.00000E+00
    0.00000E+00         0.00000E+00        -0.75759E+07
 
   -0.12742E+08        -0.49054E+06         0.00000E+00
   -0.49054E+06        -0.24986E+08         0.00000E+00
    0.00000E+00         0.00000E+00        -0.75456E+07
 
   -0.12574E+08        -0.48977E+06         0.00000E+00
   -0.48977E+06        -0.25003E+08         0.00000E+00
    0.00000E+00         0.00000E+00        -0.75154E+07
 
   -0.12406E+08        -0.48254E+06         0.00000E+00
   -0.48254E+06        -0.25020E+08         0.00000E+00
    0.00000E+00         0.00000E+00        -0.74852E+07
 
   -0.12238E+08        -0.46927E+06         0.00000E+00
   -0.46927E+06        -0.25037E+08         0.00000E+00
    0.00000E+00         0.00000E+00        -0.74551E+07
 
   -0.12071E+08        -0.45037E+06         0.00000E+00
   -0.45037E+06        -0.25054E+08         0.00000E+00
    0.00000E+00         0.00000E+00        -0.74251E+07
 
   -0.11905E+08        -0.42619E+06         0.00000E+00
   -0.42619E+06        -0.25071E+08         0.00000E+00
    0.00000E+00         0.00000E+00        -0.73953E+07
 
   -0.11740E+08        -0.39709E+06         0.00000E+00
   -0.39709E+06        -0.25089E+08         0.00000E+00
    0.00000E+00         0.00000E+00        -0.73658E+07
 
   -0.11576E+08        -0.36337E+06         0.00000E+00
   -0.36337E+06        -0.25107E+08         0.00000E+00
    0.00000E+00         0.00000E+00        -0.73365E+07
 
   -0.11413E+08        -0.32532E+06         0.00000E+00
   -0.32532E+06        -0.25125E+08         0.00000E+00
    0.00000E+00         0.00000E+00        -0.73075E+07
 
   -0.11250E+08        -0.28319E+06         0.00000E+00
   -0.28319E+06        -0.25143E+08         0.00000E+00
    0.00000E+00         0.00000E+00        -0.72788E+07
 
   -0.11089E+08        -0.23718E+06         0.00000E+00
   -0.23718E+06        -0.25163E+08         0.00000E+00
    0.00000E+00         0.00000E+00        -0.72503E+07
 
   -0.10928E+08        -0.18748E+06         0.00000E+00
   -0.18748E+06        -0.25183E+08         0.00000E+00
    0.00000E+00         0.00000E+00        -0.72222E+07
 
   -0.10769E+08        -0.13425E+06         0.00000E+00
   -0.13425E+06        -0.25204E+08         0.00000E+00
    0.00000E+00         0.00000E+00        -0.71945E+07
 
   -0.10610E+08        -0.77607E+05         0.00000E+00
   -0.77607E+05        -0.25226E+08         0.00000E+00
    0.00000E+00         0.00000E+00        -0.71670E+07
 
   -0.10451E+08        -0.17648E+05         0.00000E+00
   -0.17648E+05        -0.25249E+08         0.00000E+00
    0.00000E+00         0.00000E+00        -0.71400E+07
 
   -0.10293E+08         0.45558E+05         0.00000E+00
    0.45558E+05        -0.25273E+08         0.00000E+00
    0.00000E+00         0.00000E+00        -0.71132E+07
 
   -0.10136E+08         0.11197E+06         0.00000E+00
    0.11197E+06        -0.25298E+08         0.00000E+00
    0.00000E+00         0.00000E+00        -0.70869E+07
 
   -0.99788E+07         0.18157E+06         0.00000E+00
    0.18157E+06        -0.25325E+08         0.00000E+00
    0.00000E+00         0.00000E+00        -0.70609E+07
 
   -0.98220E+07         0.25437E+06         0.00000E+00
    0.25437E+06        -0.25354E+08         0.00000E+00
    0.00000E+00         0.00000E+00        -0.70352E+07
 
   -0.96653E+07         0.33040E+06         0.00000E+00
    0.33040E+06        -0.25384E+08         0.00000E+00
    0.00000E+00         0.00000E+00        -0.70100E+07
 
   -0.95088E+07         0.40972E+06         0.00000E+00
    0.40972E+06        -0.25417E+08         0.00000E+00
    0.00000E+00         0.00000E+00        -0.69851E+07
 
   -0.93523E+07         0.49240E+06         0.00000E+00
    0.49240E+06        -0.25451E+08         0.00000E+00
    0.00000E+00         0.00000E+00        -0.69606E+07
 
   -0.91958E+07         0.57854E+06         0.00000E+00
    0.57854E+06        -0.25486E+08         0.00000E+00
    0.00000E+00         0.00000E+00        -0.69365E+07
 
   -0.90394E+07         0.66826E+06         0.00000E+00
    0.66826E+06        -0.25524E+08         0.00000E+00
    0.00000E+00         0.00000E+00        -0.69127E+07
 
   -0.88830E+07         0.76171E+06         0.00000E+00
    0.76171E+06        -0.25564E+08         0.00000E+00
    0.00000E+00         0.00000E+00        -0.68894E+07
 
   -0.87267E+07         0.85904E+06         0.00000E+00
    0.85904E+06        -0.25606E+08         0.00000E+00
    0.00000E+00         0.00000E+00        -0.68665E+07
 
   -0.85705E+07         0.96042E+06         0.00000E+00
    0.96042E+06        -0.25650E+08         0.00000E+00
    0.00000E+00         0.00000E+00        -0.68441E+07
 
   -0.84145E+07         0.10660E+07         0.00000E+00
    0.10660E+07        -0.25696E+08         0.00000E+00
    0.00000E+00         0.00000E+00        -0.68221E+07
 
   -0.82590E+07         0.11761E+07         0.00000E+00
    0.11761E+07        -0.25744E+08         0.00000E+00
    0.00000E+00         0.00000E+00        -0.68006E+07
 
   -0.81040E+07         0.12907E+07         0.00000E+00
    0.12907E+07        -0.25794E+08         0.00000E+00
    0.00000E+00         0.00000E+00        -0.67795E+07
 
   -0.79499E+07         0.14102E+07         0.00000E+00
    0.14102E+07        -0.25845E+08         0.00000E+00
    0.00000E+00         0.00000E+00        -0.67590E+07
 
   -0.77968E+07         0.15347E+07         0.00000E+00
    0.15347E+07        -0.25898E+08         0.00000E+00
    0.00000E+00         0.00000E+00        -0.67390E+07
 
   -0.76452E+07         0.16644E+07         0.00000E+00
    0.16644E+07        -0.25953E+08         0.00000E+00
    0.00000E+00         0.00000E+00        -0.67196E+07
 
   -0.74953E+07         0.17994E+07         0.00000E+00
    0.17994E+07        -0.26009E+08         0.00000E+00
    0.00000E+00         0.00000E+00        -0.67008E+07
 
   -0.73477E+07         0.19399E+07         0.00000E+00
    0.19399E+07        -0.26065E+08         0.00000E+00
    0.00000E+00         0.00000E+00        -0.66826E+07
 
   -0.72026E+07         0.20858E+07         0.00000E+00
    0.20858E+07        -0.26123E+08         0.00000E+00
    0.00000E+00         0.00000E+00        -0.66651E+07
 
   -0.70607E+07         0.22374E+07         0.00000E+00
    0.22374E+07        -0.26181E+08         0.00000E+00
    0.00000E+00         0.00000E+00        -0.66482E+07
 
   -0.69223E+07         0.23947E+07         0.00000E+00
    0.23947E+07        -0.26238E+08         0.00000E+00
    0.00000E+00         0.00000E+00        -0.66321E+07
 
   -0.67882E+07         0.25576E+07         0.00000E+00
    0.25576E+07        -0.26296E+08         0.00000E+00
    0.00000E+00         0.00000E+00        -0.66168E+07
 
   -0.66587E+07         0.27259E+07         0.00000E+00
    0.27259E+07        -0.26353E+08         0.00000E+00
    0.00000E+00         0.00000E+00        -0.66023E+07
 
   -0.15954E+08        -0.65339E+05         0.00000E+00
   -0.65339E+05        -0.26005E+08         0.00000E+00
    0.00000E+00         0.00000E+00        -0.83919E+07
 
   -0.15758E+08        -0.16578E+06         0.00000E+00
   -0.16578E+06        -0.26010E+08         0.00000E+00
    0.00000E+00         0.00000E+00        -0.83535E+07
 
   -0.15556E+08        -0.25299E+06         0.00000E+00
   -0.25299E+06        -0.26016E+08         0.00000E+00
    0.00000E+00         0.00000E+00        -0.83144E+07
 
   -0.15351E+08        -0.32803E+06         0.00000E+00
   -0.32803E+06        -0.26023E+08         0.00000E+00
    0.00000E+00         0.00000E+00        -0.82749E+07
 
   -0.15143E+08        -0.39131E+06         0.00000E+00
   -0.39131E+06        -0.26033E+08         0.00000E+00
    0.00000E+00         0.00000E+00        -0.82351E+07
 
   -0.14933E+08        -0.44324E+06         0.00000E+00
   -0.44324E+06        -0.26042E+08         0.00000E+00
    0.00000E+00         0.00000E+00        -0.81951E+07
 
   -0.14723E+08        -0.48434E+06         0.00000E+00
   -0.48434E+06        -0.26052E+08         0.00000E+00
    0.00000E+00         0.00000E+00        -0.81550E+07
 
   -0.14513E+08        -0.51530E+06         0.00000E+00
   -0.51530E+06        -0.26062E+08         0.00000E+00
    0.00000E+00         0.00000E+00        -0.81150E+07
 
   -0.14305E+08        -0.53687E+06         0.00000E+00
   -0.53687E+06        -0.26070E+08         0.00000E+00
    0.00000E+00         0.00000E+00        -0.80750E+07
 
   -0.14098E+08        -0.54983E+06         0.00000E+00
   -0.54983E+06        -0.26078E+08         0.00000E+00
    0.00000E+00         0.00000E+00        -0.80352E+07
 
   -0.13893E+08        -0.55498E+06         0.00000E+00
   -0.55498E+06        -0.26086E+08         0.00000E+00
    0.00000E+00         0.00000E+00        -0.79957E+07
 
   -0.13691E+08        -0.55305E+06         0.00000E+00
   -0.55305E+06        -0.26092E+08         0.00000E+00
    0.00000E+00         0.00000E+00        -0.79566E+07
 
   -0.13492E+08        -0.54473E+06         0.00000E+00
   -0.54473E+06        -0.26098E+08         0.00000E+00
    0.00000E+00         0.00000E+00        -0.79179E+07
 
   -0.13296E+08        -0.53066E+06         0.00000E+00
   -0.53066E+06        -0.26103E+08         0.00000E+00
    0.00000E+00         0.00000E+00        -0.78797E+07
 
   -0.13102E+08        -0.51140E+06         0.00000E+00
   -0.51140E+06        -0.26108E+08         0.00000E+00
    0.00000E+00         0.00000E+00        -0.78420E+07
 
   -0.12912E+08        -0.48744E+06         0.00000E+00
   -0.48744E+06        -0.26112E+08         0.00000E+00
    0.00000E+00         0.00000E+00        -0.78049E+07
 
   -0.12724E+08        -0.45922E+06         0.00000E+00
   -0.45922E+06        -0.26117E+08         0.00000E+00
    0.00000E+00         0.00000E+00        -0.77682E+07
 
   -0.12539E+08        -0.42711E+06         0.00000E+00
   -0.42711E+06        -0.26122E+08         0.00000E+00
    0.00000E+00         0.00000E+00        -0.77322E+07
 
   -0.12356E+08        -0.39144E+06         0.00000E+00
   -0.39144E+06        -0.26127E+08         0.00000E+00
    0.00000E+00         0.00000E+00        -0.76967E+07
 
   -0.12175E+08        -0.35248E+06         0.00000E+00
   -0.35248E+06        -0.26133E+08         0.00000E+00
    0.00000E+00         0.00000E+00        -0.76617E+07
 
   -0.11997E+08        -0.31045E+06         0.00000E+00
   -0.31045E+06        -0.26140E+08         0.00000E+00
    0.00000E+00         0.00000E+00        -0.76274E+07
 
   -0.11820E+08        -0.26553E+06         0.00000E+00
   -0.26553E+06        -0.26148E+08         0.00000E+00
    0.00000E+00         0.00000E+00        -0.75936E+07
 
   -0.11644E+08        -0.21787E+06         0.00000E+00
   -0.21787E+06        -0.26157E+08         0.00000E+00
    0.00000E+00         0.00000E+00        -0.75603E+07
 
   -0.11470E+08        -0.16758E+06         0.00000E+00
   -0.16758E+06        -0.26168E+08         0.00000E+00
    0.00000E+00         0.00000E+00        -0.75276E+07
 
   -0.11297E+08        -0.11474E+06         0.00000E+00
   -0.11474E+06        -0.26180E+08         0.00000E+00
    0.00000E+00         0.00000E+00        -0.74954E+07
 
   -0.11124E+08        -0.59374E+05         0.00000E+00
   -0.59374E+05        -0.26194E+08         0.00000E+00
    0.00000E+00         0.00000E+00        -0.74637E+07
 
   -0.10952E+08        -0.15112E+04         0.00000E+00
   -0.15112E+04        -0.26210E+08         0.00000E+00
    0.00000E+00         0.00000E+00        -0.74325E+07
 
   -0.10780E+08         0.58867E+05         0.00000E+00
    0.58867E+05        -0.26229E+08         0.00000E+00
    0.00000E+00         0.00000E+00        -0.74018E+07
 
   -0.10609E+08         0.12180E+06         0.00000E+00
    0.12180E+06        -0.26249E+08         0.00000E+00
    0.00000E+00         0.00000E+00        -0.73715E+07
 
   -0.10437E+08         0.18737E+06         0.00000E+00
    0.18737E+06        -0.26272E+08         0.00000E+00
    0.00000E+00         0.00000E+00        -0.73418E+07
 
   -0.10265E+08         0.25567E+06         0.00000E+00
    0.25567E+06        -0.26298E+08         0.00000E+00
    0.00000E+00         0.00000E+00        -0.73125E+07
 
   -0.10092E+08         0.32683E+06         0.00000E+00
    0.32683E+06        -0.26326E+08         0.00000E+00
    0.00000E+00         0.00000E+00        -0.72836E+07
 
   -0.99186E+07         0.40100E+06         0.00000E+00
    0.40100E+06        -0.26357E+08         0.00000E+00
    0.00000E+00         0.00000E+00        -0.72552E+07
 
   -0.97444E+07         0.47839E+06         0.00000E+00
    0.47839E+06        -0.26391E+08         0.00000E+00
    0.00000E+00         0.00000E+00        -0.72272E+07
 
   -0.95693E+07         0.55920E+06         0.00000E+00
    0.55920E+06        -0.26429E+08         0.00000E+00
    0.00000E+00         0.00000E+00        -0.71996E+07
 
   -0.93932E+07         0.64369E+06         0.00000E+00
    0.64369E+06        -0.26469E+08         0.00000E+00
    0.00000E+00         0.00000E+00        -0.71724E+07
 
   -0.92161E+07         0.73215E+06         0.00000E+00
    0.73215E+06        -0.26513E+08         0.00000E+00
    0.00000E+00         0.00000E+00        -0.71457E+07
 
   -0.90378E+07         0.82491E+06         0.00000E+00
    0.82491E+06        -0.26559E+08         0.00000E+00
    0.00000E+00         0.00000E+00        -0.71195E+07
 
   -0.88586E+07         0.92231E+06         0.00000E+00
    0.92231E+06        -0.26610E+08         0.00000E+00
    0.00000E+00         0.00000E+00        -0.70936E+07
 
   -0.86786E+07         0.10248E+07         0.00000E+00
    0.10248E+07        -0.26663E+08         0.00000E+00
    0.00000E+00         0.00000E+00        -0.70683E+07
 
   -0.84978E+07         0.11326E+07         0.00000E+00
    0.11326E+07        -0.26720E+08         0.00000E+00
    0.00000E+00         0.00000E+00        -0.70435E+07
 
   -0.83167E+07         0.12464E+07         0.00000E+00
    0.12464E+07        -0.26780E+08         0.00000E+00
    0.00000E+00         0.00000E+00        -0.70193E+07
 
   -0.81356E+07         0.13665E+07         0.00000E+00
    0.13665E+07        -0.26842E+08         0.00000E+00
    0.00000E+00         0.00000E+00        -0.69956E+07
 
   -0.79551E+07         0.14933E+07         0.00000E+00
    0.14933E+07        -0.26908E+08         0.00000E+00
    0.00000E+00         0.00000E+00        -0.69725E+07
 
   -0.77758E+07         0.16272E+07         0.00000E+00
    0.16272E+07        -0.26975E+08         0.00000E+00
    0.00000E+00         0.00000E+00        -0.69502E+07
 
   -0.75983E+07         0.17684E+07         0.00000E+00
    0.17684E+07        -0.27045E+08         0.00000E+00
    0.00000E+00         0.00000E+00        -0.69286E+07
 
   -0.74233E+07         0.19172E+07         0.00000E+00
    0.19172E+07        -0.27115E+08         0.00000E+00
    0.00000E+00         0.00000E+00        -0.69077E+07
 
   -0.72516E+07         0.20736E+07         0.00000E+00
    0.20736E+07        -0.27187E+08         0.00000E+00
    0.00000E+00         0.00000E+00        -0.68876E+07
 
   -0.70837E+07         0.22379E+07         0.00000E+00
    0.22379E+07        -0.27258E+08         0.00000E+00
    0.00000E+00         0.00000E+00        -0.68684E+07
 
   -0.69213E+07         0.24106E+07         0.00000E+00
    0.24106E+07        -0.27331E+08         0.00000E+00
    0.00000E+00         0.00000E+00        -0.68504E+07
 
   -0.17671E+08        -0.77126E+05         0.00000E+00
   -0.77126E+05        -0.27152E+08         0.00000E+00
    0.00000E+00         0.00000E+00        -0.89647E+07
 
   -0.17400E+08        -0.18883E+06         0.00000E+00
   -0.18883E+06        -0.27154E+08         0.00000E+00
    0.00000E+00         0.00000E+00        -0.89108E+07
 
   -0.17126E+08        -0.28541E+06         0.00000E+00
   -0.28541E+06        -0.27160E+08         0.00000E+00
    0.00000E+00         0.00000E+00        -0.88573E+07
 
   -0.16851E+08        -0.36507E+06         0.00000E+00
   -0.36507E+06        -0.27167E+08         0.00000E+00
    0.00000E+00         0.00000E+00        -0.88035E+07
 
   -0.16576E+08        -0.42829E+06         0.00000E+00
   -0.42829E+06        -0.27172E+08         0.00000E+00
    0.00000E+00         0.00000E+00        -0.87496E+07
 
   -0.16304E+08        -0.47653E+06         0.00000E+00
   -0.47653E+06        -0.27175E+08         0.00000E+00
    0.00000E+00         0.00000E+00        -0.86957E+07
 
   -0.16036E+08        -0.51160E+06         0.00000E+00
   -0.51160E+06        -0.27175E+08         0.00000E+00
    0.00000E+00         0.00000E+00        -0.86422E+07
 
   -0.15775E+08        -0.53528E+06         0.00000E+00
   -0.53528E+06        -0.27172E+08         0.00000E+00
    0.00000E+00         0.00000E+00        -0.85894E+07
 
   -0.15521E+08        -0.54922E+06         0.00000E+00
   -0.54922E+06        -0.27166E+08         0.00000E+00
    0.00000E+00         0.00000E+00        -0.85374E+07
 
   -0.15274E+08        -0.55486E+06         0.00000E+00
   -0.55486E+06        -0.27158E+08         0.00000E+00
    0.00000E+00         0.00000E+00        -0.84863E+07
 
   -0.15034E+08        -0.55346E+06         0.00000E+00
   -0.55346E+06        -0.27147E+08         0.00000E+00
    0.00000E+00         0.00000E+00        -0.84362E+07
 
   -0.14800E+08        -0.54606E+06         0.00000E+00
   -0.54606E+06        -0.27135E+08         0.00000E+00
    0.00000E+00         0.00000E+00        -0.83871E+07
 
   -0.14573E+08        -0.53354E+06         0.00000E+00
   -0.53354E+06        -0.27122E+08         0.00000E+00
    0.00000E+00         0.00000E+00        -0.83391E+07
 
   -0.14353E+08        -0.51663E+06         0.00000E+00
   -0.51663E+06        -0.27108E+08         0.00000E+00
    0.00000E+00         0.00000E+00        -0.82923E+07
 
   -0.14138E+08        -0.49592E+06         0.00000E+00
   -0.49592E+06        -0.27094E+08         0.00000E+00
    0.00000E+00         0.00000E+00        -0.82464E+07
 
   -0.13928E+08        -0.47192E+06         0.00000E+00
   -0.47192E+06        -0.27080E+08         0.00000E+00
    0.00000E+00         0.00000E+00        -0.82016E+07
 
   -0.13723E+08        -0.44503E+06         0.00000E+00
   -0.44503E+06        -0.27067E+08         0.00000E+00
    0.00000E+00         0.00000E+00        -0.81579E+07
 
   -0.13522E+08        -0.41557E+06         0.00000E+00
   -0.41557E+06        -0.27054E+08         0.00000E+00
    0.00000E+00         0.00000E+00        -0.81151E+07
 
   -0.13325E+08        -0.38382E+06         0.00000E+00
   -0.38382E+06        -0.27042E+08         0.00000E+00
    0.00000E+00         0.00000E+00        -0.80733E+07
 
   -0.13131E+08        -0.34999E+06         0.00000E+00
   -0.34999E+06        -0.27031E+08         0.00000E+00
    0.00000E+00         0.00000E+00        -0.80324E+07
 
   -0.12940E+08        -0.31423E+06         0.00000E+00
   -0.31423E+06        -0.27022E+08         0.00000E+00
    0.00000E+00         0.00000E+00        -0.79923E+07
 
   -0.12751E+08        -0.27669E+06         0.00000E+00
   -0.27669E+06        -0.27014E+08         0.00000E+00
    0.00000E+00         0.00000E+00        -0.79531E+07
 
   -0.12565E+08        -0.23744E+06         0.00000E+00
   -0.23744E+06        -0.27009E+08         0.00000E+00
    0.00000E+00         0.00000E+00        -0.79147E+07
 
   -0.12380E+08        -0.19656E+06         0.00000E+00
   -0.19656E+06        -0.27006E+08         0.00000E+00
    0.00000E+00         0.00000E+00        -0.78771E+07
 
   -0.12196E+08        -0.15406E+06         0.00000E+00
   -0.15406E+06        -0.27005E+08         0.00000E+00
    0.00000E+00         0.00000E+00        -0.78401E+07
 
   -0.12013E+08        -0.10996E+06         0.00000E+00
   -0.10996E+06        -0.27007E+08         0.00000E+00
    0.00000E+00         0.00000E+00        -0.78039E+07
 
   -0.11830E+08        -0.64235E+05         0.00000E+00
   -0.64235E+05        -0.27011E+08         0.00000E+00
    0.00000E+00         0.00000E+00        -0.77682E+07
 
   -0.11648E+08        -0.16841E+05         0.00000E+00
   -0.16841E+05        -0.27019E+08         0.00000E+00
    0.00000E+00         0.00000E+00        -0.77332E+07
 
   -0.11465E+08         0.32289E+05         0.00000E+00
    0.32289E+05        -0.27029E+08         0.00000E+00
    0.00000E+00         0.00000E+00        -0.76988E+07
 
   -0.11281E+08         0.83251E+05         0.00000E+00
    0.83251E+05        -0.27043E+08         0.00000E+00
    0.00000E+00         0.00000E+00        -0.76648E+07
 
   -0.11097E+08         0.13616E+06         0.00000E+00
    0.13616E+06        -0.27060E+08         0.00000E+00
    0.00000E+00         0.00000E+00        -0.76314E+07
 
   -0.10911E+08         0.19118E+06         0.00000E+00
    0.19118E+06        -0.27081E+08         0.00000E+00
    0.00000E+00         0.00000E+00        -0.75984E+07
 
   -0.10724E+08         0.24847E+06         0.00000E+00
    0.24847E+06        -0.27106E+08         0.00000E+00
    0.00000E+00         0.00000E+00        -0.75659E+07
 
   -0.10535E+08         0.30827E+06         0.00000E+00
    0.30827E+06        -0.27134E+08         0.00000E+00
    0.00000E+00         0.00000E+00        -0.75338E+07
 
   -0.10343E+08         0.37082E+06         0.00000E+00
    0.37082E+06        -0.27167E+08         0.00000E+00
    0.00000E+00         0.00000E+00        -0.75020E+07
 
   -0.10149E+08         0.43642E+06         0.00000E+00
    0.43642E+06        -0.27204E+08         0.00000E+00
    0.00000E+00         0.00000E+00        -0.74706E+07
 
   -0.99524E+07         0.50544E+06         0.00000E+00
    0.50544E+06        -0.27245E+08         0.00000E+00
    0.00000E+00         0.00000E+00        -0.74396E+07
 
   -0.97526E+07         0.57828E+06         0.00000E+00
    0.57828E+06        -0.27292E+08         0.00000E+00
    0.00000E+00         0.00000E+00        -0.74088E+07
 
   -0.95495E+07         0.65544E+06         0.00000E+00
    0.65544E+06        -0.27343E+08         0.00000E+00
    0.00000E+00         0.00000E+00        -0.73784E+07
 
   -0.93430E+07         0.73746E+06         0.00000E+00
    0.73746E+06        -0.27399E+08         0.00000E+00
    0.00000E+00         0.00000E+00        -0.73483E+07
 
   -0.91330E+07         0.82502E+06         0.00000E+00
    0.82502E+06        -0.27460E+08         0.00000E+00
    0.00000E+00         0.00000E+00        -0.73185E+07
 
   -0.89196E+07         0.91886E+06         0.00000E+00
    0.91886E+06        -0.27526E+08         0.00000E+00
    0.00000E+00         0.00000E+00        -0.72891E+07
 
   -0.87030E+07         0.10198E+07         0.00000E+00
    0.10198E+07        -0.27598E+08         0.00000E+00
    0.00000E+00         0.00000E+00        -0.72601E+07
 
   -0.84836E+07         0.11289E+07         0.00000E+00
    0.11289E+07        -0.27674E+08         0.00000E+00
    0.00000E+00         0.00000E+00        -0.72316E+07
 
   -0.82620E+07         0.12472E+07         0.00000E+00
    0.12472E+07        -0.27756E+08         0.00000E+00
    0.00000E+00         0.00000E+00        -0.72036E+07
 
   -0.80395E+07         0.13758E+07         0.00000E+00
    0.13758E+07        -0.27842E+08         0.00000E+00
    0.00000E+00         0.00000E+00        -0.71764E+07
 
   -0.78175E+07         0.15155E+07         0.00000E+00
    0.15155E+07        -0.27932E+08         0.00000E+00
    0.00000E+00         0.00000E+00        -0.71500E+07
 
   -0.75978E+07         0.16672E+07         0.00000E+00
    0.16672E+07        -0.28025E+08         0.00000E+00
    0.00000E+00         0.00000E+00        -0.71246E+07
 
   -0.73821E+07         0.18306E+07         0.00000E+00
    0.18306E+07        -0.28119E+08         0.00000E+00
    0.00000E+00         0.00000E+00        -0.71002E+07
 
   -0.71695E+07         0.20037E+07         0.00000E+00
    0.20037E+07        -0.28210E+08         0.00000E+00
    0.00000E+00         0.00000E+00        -0.70759E+07
 
   -0.19458E+08        -0.91979E+05         0.00000E+00
   -0.91979E+05        -0.28296E+08         0.00000E+00
    0.00000E+00         0.00000E+00        -0.95508E+07
 
   -0.19076E+08        -0.21759E+06         0.00000E+00
   -0.21759E+06        -0.28313E+08         0.00000E+00
    0.00000E+00         0.00000E+00        -0.94777E+07
 
   -0.18689E+08        -0.30600E+06         0.00000E+00
   -0.30600E+06        -0.28317E+08         0.00000E+00
    0.00000E+00         0.00000E+00        -0.94013E+07
 
   -0.18313E+08        -0.36689E+06         0.00000E+00
   -0.36689E+06        -0.28311E+08         0.00000E+00
    0.00000E+00         0.00000E+00        -0.93249E+07
 
   -0.17954E+08        -0.40749E+06         0.00000E+00
   -0.40749E+06        -0.28296E+08         0.00000E+00
    0.00000E+00         0.00000E+00        -0.92499E+07
 
   -0.17612E+08        -0.43306E+06         0.00000E+00
   -0.43306E+06        -0.28273E+08         0.00000E+00
    0.00000E+00         0.00000E+00        -0.91770E+07
 
   -0.17287E+08        -0.44740E+06         0.00000E+00
   -0.44740E+06        -0.28245E+08         0.00000E+00
    0.00000E+00         0.00000E+00        -0.91065E+07
 
   -0.16980E+08        -0.45327E+06         0.00000E+00
   -0.45327E+06        -0.28213E+08         0.00000E+00
    0.00000E+00         0.00000E+00        -0.90384E+07
 
   -0.16687E+08        -0.45266E+06         0.00000E+00
   -0.45266E+06        -0.28177E+08         0.00000E+00
    0.00000E+00         0.00000E+00        -0.89728E+07
 
   -0.16409E+08        -0.44706E+06         0.00000E+00
   -0.44706E+06        -0.28139E+08         0.00000E+00
    0.00000E+00         0.00000E+00        -0.89096E+07
 
   -0.16143E+08        -0.43755E+06         0.00000E+00
   -0.43755E+06        -0.28100E+08         0.00000E+00
    0.00000E+00         0.00000E+00        -0.88486E+07
 
   -0.15888E+08        -0.42494E+06         0.00000E+00
   -0.42494E+06        -0.28061E+08         0.00000E+00
    0.00000E+00         0.00000E+00        -0.87898E+07
 
   -0.15643E+08        -0.40983E+06         0.00000E+00
   -0.40983E+06        -0.28021E+08         0.00000E+00
    0.00000E+00         0.00000E+00        -0.87329E+07
 
   -0.15407E+08        -0.39269E+06         0.00000E+00
   -0.39269E+06        -0.27983E+08         0.00000E+00
    0.00000E+00         0.00000E+00        -0.86780E+07
 
   -0.15180E+08        -0.37388E+06         0.00000E+00
   -0.37388E+06        -0.27945E+08         0.00000E+00
    0.00000E+00         0.00000E+00        -0.86249E+07
 
   -0.14959E+08        -0.35364E+06         0.00000E+00
   -0.35364E+06        -0.27908E+08         0.00000E+00
    0.00000E+00         0.00000E+00        -0.85734E+07
 
   -0.14744E+08        -0.33220E+06         0.00000E+00
   -0.33220E+06        -0.27873E+08         0.00000E+00
    0.00000E+00         0.00000E+00        -0.85235E+07
 
   -0.14534E+08        -0.30970E+06         0.00000E+00
   -0.30970E+06        -0.27841E+08         0.00000E+00
    0.00000E+00         0.00000E+00        -0.84750E+07
 
   -0.14329E+08        -0.28626E+06         0.00000E+00
   -0.28626E+06        -0.27810E+08         0.00000E+00
    0.00000E+00         0.00000E+00        -0.84279E+07
 
   -0.14129E+08        -0.26196E+06         0.00000E+00
   -0.26196E+06        -0.27782E+08         0.00000E+00
    0.00000E+00         0.00000E+00        -0.83821E+07
 
   -0.13931E+08        -0.23686E+06         0.00000E+00
   -0.23686E+06        -0.27756E+08         0.00000E+00
    0.00000E+00         0.00000E+00        -0.83375E+07
 
   -0.13736E+08        -0.21100E+06         0.00000E+00
   -0.21100E+06        -0.27733E+08         0.00000E+00
    0.00000E+00         0.00000E+00        -0.82939E+07
 
   -0.13544E+08        -0.18440E+06         0.00000E+00
   -0.18440E+06        -0.27714E+08         0.00000E+00
    0.00000E+00         0.00000E+00        -0.82514E+07
 
   -0.13353E+08        -0.15707E+06         0.00000E+00
   -0.15707E+06        -0.27697E+08         0.00000E+00
    0.00000E+00         0.00000E+00        -0.82099E+07
 
   -0.13163E+08        -0.12899E+06         0.00000E+00
   -0.12899E+06        -0.27683E+08         0.00000E+00
    0.00000E+00         0.00000E+00        -0.81693E+07
 
   -0.12974E+08        -0.10014E+06         0.00000E+00
   -0.10014E+06        -0.27673E+08         0.00000E+00
    0.00000E+00         0.00000E+00        -0.81294E+07
 
   -0.12785E+08        -0.70487E+05         0.00000E+00
   -0.70487E+05        -0.27666E+08         0.00000E+00
    0.00000E+00         0.00000E+00        -0.80904E+07
 
   -0.12596E+08        -0.39975E+05         0.00000E+00
   -0.39975E+05        -0.27664E+08         0.00000E+00
    0.00000E+00         0.00000E+00        -0.80520E+07
 
   -0.12407E+08        -0.85393E+04         0.00000E+00
   -0.85393E+04        -0.27664E+08         0.00000E+00
    0.00000E+00         0.00000E+00        -0.80142E+07
 
   -0.12216E+08         0.23900E+05         0.00000E+00
    0.23900E+05        -0.27669E+08         0.00000E+00
    0.00000E+00         0.00000E+00        -0.79771E+07
 
   -0.12024E+08         0.57441E+05         0.00000E+00
    0.57441E+05        -0.27678E+08         0.00000E+00
    0.00000E+00         0.00000E+00        -0.79404E+07
 
   -0.11829E+08         0.92202E+05         0.00000E+00
    0.92202E+05        -0.27691E+08         0.00000E+00
    0.00000E+00         0.00000E+00        -0.79042E+07
 
   -0.11632E+08         0.12832E+06         0.00000E+00
    0.12832E+06        -0.27709E+08         0.00000E+00
    0.00000E+00         0.00000E+00        -0.78683E+07
 
   -0.11432E+08         0.16598E+06         0.00000E+00
    0.16598E+06        -0.27732E+08         0.00000E+00
    0.00000E+00         0.00000E+00        -0.78328E+07
 
   -0.11229E+08         0.20536E+06         0.00000E+00
    0.20536E+06        -0.27759E+08         0.00000E+00
    0.00000E+00         0.00000E+00        -0.77976E+07
 
   -0.11022E+08         0.24672E+06         0.00000E+00
    0.24672E+06        -0.27791E+08         0.00000E+00
    0.00000E+00         0.00000E+00        -0.77625E+07
 
   -0.10809E+08         0.29034E+06         0.00000E+00
    0.29034E+06        -0.27829E+08         0.00000E+00
    0.00000E+00         0.00000E+00        -0.77277E+07
 
   -0.10592E+08         0.33659E+06         0.00000E+00
    0.33659E+06        -0.27872E+08         0.00000E+00
    0.00000E+00         0.00000E+00        -0.76929E+07
 
   -0.10369E+08         0.38588E+06         0.00000E+00
    0.38588E+06        -0.27922E+08         0.00000E+00
    0.00000E+00         0.00000E+00        -0.76581E+07
 
   -0.10139E+08         0.43874E+06         0.00000E+00
    0.43874E+06        -0.27978E+08         0.00000E+00
    0.00000E+00         0.00000E+00        -0.76233E+07
 
   -0.99023E+07         0.49584E+06         0.00000E+00
    0.49584E+06        -0.28040E+08         0.00000E+00
    0.00000E+00         0.00000E+00        -0.75885E+07
 
   -0.96575E+07         0.55800E+06         0.00000E+00
    0.55800E+06        -0.28110E+08         0.00000E+00
    0.00000E+00         0.00000E+00        -0.75534E+07
 
   -0.94041E+07         0.62625E+06         0.00000E+00
    0.62625E+06        -0.28187E+08         0.00000E+00
    0.00000E+00         0.00000E+00        -0.75182E+07
 
   -0.91414E+07         0.70192E+06         0.00000E+00
    0.70192E+06        -0.28272E+08         0.00000E+00
    0.00000E+00         0.00000E+00        -0.74828E+07
 
   -0.88690E+07         0.78673E+06         0.00000E+00
    0.78673E+06        -0.28367E+08         0.00000E+00
    0.00000E+00         0.00000E+00        -0.74471E+07
 
   -0.85865E+07         0.88292E+06         0.00000E+00
    0.88292E+06        -0.28470E+08         0.00000E+00
    0.00000E+00         0.00000E+00        -0.74113E+07
 
   -0.82948E+07         0.99344E+06         0.00000E+00
    0.99344E+06        -0.28583E+08         0.00000E+00
    0.00000E+00         0.00000E+00        -0.73756E+07
 
   -0.79958E+07         0.11222E+07         0.00000E+00
    0.11222E+07        -0.28706E+08         0.00000E+00
    0.00000E+00         0.00000E+00        -0.73405E+07
 
   -0.76950E+07         0.12742E+07         0.00000E+00
    0.12742E+07        -0.28840E+08         0.00000E+00
    0.00000E+00         0.00000E+00        -0.73070E+07
 
   -0.74046E+07         0.14560E+07         0.00000E+00
    0.14560E+07        -0.28983E+08         0.00000E+00
    0.00000E+00         0.00000E+00        -0.72774E+07
 
   -0.21222E+08        -0.13186E+06         0.00000E+00
   -0.13186E+06        -0.29459E+08         0.00000E+00
    0.00000E+00         0.00000E+00        -0.10136E+08
 
   -0.20611E+08        -0.17139E+06         0.00000E+00
   -0.17139E+06        -0.29413E+08         0.00000E+00
    0.00000E+00         0.00000E+00        -0.10005E+08
 
   -0.20081E+08        -0.19087E+06         0.00000E+00
   -0.19087E+06        -0.29356E+08         0.00000E+00
    0.00000E+00         0.00000E+00        -0.98874E+07
 
   -0.19611E+08        -0.19951E+06         0.00000E+00
   -0.19951E+06        -0.29291E+08         0.00000E+00
    0.00000E+00         0.00000E+00        -0.97804E+07
 
   -0.19188E+08        -0.20202E+06         0.00000E+00
   -0.20202E+06        -0.29222E+08         0.00000E+00
    0.00000E+00         0.00000E+00        -0.96819E+07
 
   -0.18802E+08        -0.20090E+06         0.00000E+00
   -0.20090E+06        -0.29150E+08         0.00000E+00
    0.00000E+00         0.00000E+00        -0.95904E+07
 
   -0.18446E+08        -0.19753E+06         0.00000E+00
   -0.19753E+06        -0.29078E+08         0.00000E+00
    0.00000E+00         0.00000E+00        -0.95048E+07
 
   -0.18115E+08        -0.19269E+06         0.00000E+00
   -0.19269E+06        -0.29007E+08         0.00000E+00
    0.00000E+00         0.00000E+00        -0.94243E+07
 
   -0.17806E+08        -0.18686E+06         0.00000E+00
   -0.18686E+06        -0.28936E+08         0.00000E+00
    0.00000E+00         0.00000E+00        -0.93483E+07
 
   -0.17514E+08        -0.18033E+06         0.00000E+00
   -0.18033E+06        -0.28867E+08         0.00000E+00
    0.00000E+00         0.00000E+00        -0.92762E+07
 
   -0.17238E+08        -0.17329E+06         0.00000E+00
   -0.17329E+06        -0.28800E+08         0.00000E+00
    0.00000E+00         0.00000E+00        -0.92076E+07
 
   -0.16976E+08        -0.16584E+06         0.00000E+00
   -0.16584E+06        -0.28735E+08         0.00000E+00
    0.00000E+00         0.00000E+00        -0.91422E+07
 
   -0.16725E+08        -0.15809E+06         0.00000E+00
   -0.15809E+06        -0.28673E+08         0.00000E+00
    0.00000E+00         0.00000E+00        -0.90796E+07
 
   -0.16484E+08        -0.15007E+06         0.00000E+00
   -0.15007E+06        -0.28613E+08         0.00000E+00
    0.00000E+00         0.00000E+00        -0.90196E+07
 
   -0.16252E+08        -0.14184E+06         0.00000E+00
   -0.14184E+06        -0.28557E+08         0.00000E+00
    0.00000E+00         0.00000E+00        -0.89619E+07
 
   -0.16028E+08        -0.13342E+06         0.00000E+00
   -0.13342E+06        -0.28504E+08         0.00000E+00
    0.00000E+00         0.00000E+00        -0.89064E+07
 
   -0.15811E+08        -0.12482E+06         0.00000E+00
   -0.12482E+06        -0.28453E+08         0.00000E+00
    0.00000E+00         0.00000E+00        -0.88528E+07
 
   -0.15599E+08        -0.11606E+06         0.00000E+00
   -0.11606E+06        -0.28407E+08         0.00000E+00
    0.00000E+00         0.00000E+00        -0.88011E+07
 
   -0.15392E+08        -0.10715E+06         0.00000E+00
   -0.10715E+06        -0.28363E+08         0.00000E+00
    0.00000E+00         0.00000E+00        -0.87510E+07
 
   -0.15189E+08        -0.98083E+05         0.00000E+00
   -0.98083E+05        -0.28323E+08         0.00000E+00
    0.00000E+00         0.00000E+00        -0.87024E+07
 
   -0.14989E+08        -0.88867E+05         0.00000E+00
   -0.88867E+05        -0.28287E+08         0.00000E+00
    0.00000E+00         0.00000E+00        -0.86552E+07
 
   -0.14793E+08        -0.79493E+05         0.00000E+00
   -0.79493E+05        -0.28254E+08         0.00000E+00
    0.00000E+00         0.00000E+00        -0.86093E+07
 
   -0.14598E+08        -0.69956E+05         0.00000E+00
   -0.69956E+05        -0.28225E+08         0.00000E+00
    0.00000E+00         0.00000E+00        -0.85646E+07
 
   -0.14406E+08        -0.60244E+05         0.00000E+00
   -0.60244E+05        -0.28199E+08         0.00000E+00
    0.00000E+00         0.00000E+00        -0.85210E+07
 
   -0.14214E+08        -0.50346E+05         0.00000E+00
   -0.50346E+05        -0.28178E+08         0.00000E+00
    0.00000E+00         0.00000E+00        -0.84783E+07
 
   -0.14023E+08        -0.40244E+05         0.00000E+00
   -0.40244E+05        -0.28160E+08         0.00000E+00
    0.00000E+00         0.00000E+00        -0.84366E+07
 
   -0.13832E+08        -0.29920E+05         0.00000E+00
   -0.29920E+05        -0.28147E+08         0.00000E+00
    0.00000E+00         0.00000E+00        -0.83957E+07
 
   -0.13640E+08        -0.19350E+05         0.00000E+00
   -0.19350E+05        -0.28137E+08         0.00000E+00
    0.00000E+00         0.00000E+00        -0.83555E+07
 
   -0.13448E+08        -0.85070E+04         0.00000E+00
   -0.85070E+04        -0.28132E+08         0.00000E+00
    0.00000E+00         0.00000E+00        -0.83160E+07
 
   -0.13254E+08         0.26407E+04         0.00000E+00
    0.26407E+04        -0.28131E+08         0.00000E+00
    0.00000E+00         0.00000E+00        -0.82771E+07
 
   -0.13058E+08         0.14131E+05         0.00000E+00
    0.14131E+05        -0.28135E+08         0.00000E+00
    0.00000E+00         0.00000E+00        -0.82386E+07
 
   -0.12860E+08         0.26008E+05         0.00000E+00
    0.26008E+05        -0.28143E+08         0.00000E+00
    0.00000E+00         0.00000E+00        -0.82006E+07
 
   -0.12659E+08         0.38324E+05         0.00000E+00
    0.38324E+05        -0.28156E+08         0.00000E+00
    0.00000E+00         0.00000E+00        -0.81630E+07
 
   -0.12453E+08         0.51141E+05         0.00000E+00
    0.51141E+05        -0.28174E+08         0.00000E+00
    0.00000E+00         0.00000E+00        -0.81256E+07
 
   -0.12244E+08         0.64535E+05         0.00000E+00
    0.64535E+05        -0.28198E+08         0.00000E+00
    0.00000E+00         0.00000E+00        -0.80883E+07
 
   -0.12030E+08         0.78595E+05         0.00000E+00
    0.78595E+05        -0.28226E+08         0.00000E+00
    0.00000E+00         0.00000E+00        -0.80512E+07
 
   -0.11809E+08         0.93431E+05         0.00000E+00
    0.93431E+05        -0.28261E+08         0.00000E+00
    0.00000E+00         0.00000E+00        -0.80140E+07
 
   -0.11583E+08         0.10918E+06         0.00000E+00
    0.10918E+06        -0.28301E+08         0.00000E+00
    0.00000E+00         0.00000E+00        -0.79768E+07
 
   -0.11348E+08         0.12601E+06         0.00000E+00
    0.12601E+06        -0.28348E+08         0.00000E+00
    0.00000E+00         0.00000E+00        -0.79393E+07
 
   -0.11105E+08         0.14413E+06         0.00000E+00
    0.14413E+06        -0.28402E+08         0.00000E+00
    0.00000E+00         0.00000E+00        -0.79014E+07
 
   -0.10852E+08         0.16383E+06         0.00000E+00
    0.16383E+06        -0.28464E+08         0.00000E+00
    0.00000E+00         0.00000E+00        -0.78631E+07
 
   -0.10587E+08         0.18546E+06         0.00000E+00
    0.18546E+06        -0.28533E+08         0.00000E+00
    0.00000E+00         0.00000E+00        -0.78240E+07
 
   -0.10309E+08         0.20950E+06         0.00000E+00
    0.20950E+06        -0.28611E+08         0.00000E+00
    0.00000E+00         0.00000E+00        -0.77840E+07
 
   -0.10015E+08         0.23662E+06         0.00000E+00
    0.23662E+06        -0.28700E+08         0.00000E+00
    0.00000E+00         0.00000E+00        -0.77429E+07
 
   -0.97028E+07         0.26776E+06         0.00000E+00
    0.26776E+06        -0.28799E+08         0.00000E+00
    0.00000E+00         0.00000E+00        -0.77004E+07
 
   -0.93683E+07         0.30428E+06         0.00000E+00
    0.30428E+06        -0.28911E+08         0.00000E+00
    0.00000E+00         0.00000E+00        -0.76559E+07
 
   -0.90069E+07         0.34822E+06         0.00000E+00
    0.34822E+06        -0.29038E+08         0.00000E+00
    0.00000E+00         0.00000E+00        -0.76090E+07
 
   -0.86118E+07         0.40283E+06         0.00000E+00
    0.40283E+06        -0.29183E+08         0.00000E+00
    0.00000E+00         0.00000E+00        -0.75589E+07
 
   -0.81731E+07         0.47351E+06         0.00000E+00
    0.47351E+06        -0.29348E+08         0.00000E+00
    0.00000E+00         0.00000E+00        -0.75043E+07
 
   -0.76761E+07         0.56974E+06         0.00000E+00
    0.56974E+06        -0.29540E+08         0.00000E+00
    0.00000E+00         0.00000E+00        -0.74432E+07
 
TENSORS stresstot double 
   -0.55820E+08        -0.10194E+06         0.00000E+00
   -0.10194E+06        -0.50019E+08         0.00000E+00
    0.00000E+00         0.00000E+00        -0.60068E+08
 
   -0.55860E+08        -0.92472E+05         0.00000E+00
   -0.92472E+05        -0.50033E+08         0.00000E+00
    0.00000E+00         0.00000E+00        -0.60702E+08
 
   -0.55986E+08        -0.98468E+05         0.00000E+00
   -0.98468E+05        -0.50050E+08         0.00000E+00
    0.00000E+00         0.00000E+00        -0.61268E+08
 
   -0.56154E+08        -0.11034E+06         0.00000E+00
   -0.11034E+06        -0.50074E+08         0.00000E+00
    0.00000E+00         0.00000E+00        -0.61774E+08
 
   -0.56342E+08        -0.12697E+06         0.00000E+00
   -0.12697E+06        -0.50109E+08         0.00000E+00
    0.00000E+00         0.00000E+00        -0.62214E+08
 
   -0.56552E+08        -0.15133E+06         0.00000E+00
   -0.15133E+06        -0.50170E+08         0.00000E+00
    0.00000E+00         0.00000E+00        -0.62501E+08
 
   -0.56785E+08        -0.16830E+06         0.00000E+00
   -0.16830E+06        -0.50230E+08         0.00000E+00
    0.00000E+00         0.00000E+00        -0.62630E+08
 
   -0.57032E+08        -0.17446E+06         0.00000E+00
   -0.17446E+06        -0.50290E+08         0.00000E+00
    0.00000E+00         0.00000E+00        -0.62758E+08
 
   -0.57283E+08        -0.17111E+06         0.00000E+00
   -0.17111E+06        -0.50351E+08         0.00000E+00
    0.00000E+00         0.00000E+00        -0.62886E+08
 
   -0.57516E+08        -0.16397E+06         0.00000E+00
   -0.16397E+06        -0.50411E+08         0.00000E+00
    0.00000E+00         0.00000E+00        -0.63007E+08
 
   -0.57733E+08        -0.15515E+06         0.00000E+00
   -0.15515E+06        -0.50469E+08         0.00000E+00
    0.00000E+00         0.00000E+00        -0.63121E+08
 
   -0.57935E+08        -0.14581E+06         0.00000E+00
   -0.14581E+06        -0.50525E+08         0.00000E+00
    0.00000E+00         0.00000E+00        -0.63228E+08
 
   -0.58125E+08        -0.13597E+06         0.00000E+00
   -0.13597E+06        -0.50579E+08         0.00000E+00
    0.00000E+00         0.00000E+00        -0.63328E+08
 
   -0.58305E+08        -0.12546E+06         0.00000E+00
   -0.12546E+06        -0.50629E+08         0.00000E+00
    0.00000E+00         0.00000E+00        -0.63421E+08
 
   -0.58475E+08        -0.11628E+06         0.00000E+00
   -0.11628E+06        -0.50674E+08         0.00000E+00
    0.00000E+00         0.00000E+00        -0.63502E+08
 
   -0.58638E+08        -0.10933E+06         0.00000E+00
   -0.10933E+06        -0.50716E+08         0.00000E+00
    0.00000E+00         0.00000E+00        -0.63577E+08
 
   -0.58795E+08        -0.10427E+06         0.00000E+00
   -0.10427E+06        -0.50756E+08         0.00000E+00
    0.00000E+00         0.00000E+00        -0.63647E+08
 
   -0.58948E+08        -0.10088E+06         0.00000E+00
   -0.10088E+06        -0.50797E+08         0.00000E+00
    0.00000E+00         0.00000E+00        -0.63709E+08
 
   -0.59096E+08        -0.98609E+05         0.00000E+00
   -0.98609E+05        -0.50839E+08         0.00000E+00
    0.00000E+00         0.00000E+00        -0.63754E+08
 
   -0.59240E+08        -0.96379E+05         0.00000E+00
   -0.96379E+05        -0.50879E+08         0.00000E+00
    0.00000E+00         0.00000E+00        -0.63791E+08
 
   -0.59382E+08        -0.93629E+05         0.00000E+00
   -0.93629E+05        -0.50918E+08         0.00000E+00
    0.00000E+00         0.00000E+00        -0.63827E+08
 
   -0.59522E+08        -0.90345E+05         0.00000E+00
   -0.90345E+05        -0.50955E+08         0.00000E+00
    0.00000E+00         0.00000E+00        -0.63862E+08
 
   -0.59661E+08        -0.86566E+05         0.00000E+00
   -0.86566E+05        -0.50990E+08         0.00000E+00
    0.00000E+00         0.00000E+00        -0.63897E+08
 
   -0.59799E+08        -0.82339E+05         0.00000E+00
   -0.82339E+05        -0.51024E+08         0.00000E+00
    0.00000E+00         0.00000E+00        -0.63931E+08
 
   -0.59936E+08        -0.77698E+05         0.00000E+00
   -0.77698E+05        -0.51055E+08         0.00000E+00
    0.00000E+00         0.00000E+00        -0.63964E+08
 
   -0.60074E+08        -0.72658E+05         0.00000E+00
   -0.72658E+05        -0.51085E+08         0.00000E+00
    0.00000E+00         0.00000E+00        -0.63998E+08
 
   -0.60213E+08        -0.67208E+05         0.00000E+00
   -0.67208E+05        -0.51112E+08         0.00000E+00
    0.00000E+00         0.00000E+00        -0.64031E+08
 
   -0.60352E+08        -0.61312E+05         0.00000E+00
   -0.61312E+05        -0.51137E+08         0.00000E+00
    0.00000E+00         0.00000E+00        -0.64063E+08
 
   -0.60494E+08        -0.54896E+05         0.00000E+00
   -0.54896E+05        -0.51159E+08         0.00000E+00
    0.00000E+00         0.00000E+00        -0.64096E+08
 
   -0.60639E+08        -0.47836E+05         0.00000E+00
   -0.47836E+05        -0.51179E+08         0.00000E+00
    0.00000E+00         0.00000E+00        -0.64129E+08
 
   -0.60787E+08        -0.39932E+05         0.00000E+00
   -0.39932E+05        -0.51196E+08         0.00000E+00
    0.00000E+00         0.00000E+00        -0.64161E+08
 
   -0.60941E+08        -0.30853E+05         0.00000E+00
   -0.30853E+05        -0.51210E+08         0.00000E+00
    0.00000E+00         0.00000E+00        -0.64194E+08
 
   -0.61101E+08        -0.20038E+05         0.00000E+00
   -0.20038E+05        -0.51220E+08         0.00000E+00
    0.00000E+00         0.00000E+00        -0.64228E+08
 
   -0.61252E+08        -0.49399E+04         0.00000E+00
   -0.49399E+04        -0.51226E+08         0.00000E+00
    0.00000E+00         0.00000E+00        -0.64228E+08
 
   -0.61388E+08         0.11954E+05         0.00000E+00
    0.11954E+05        -0.51226E+08         0.00000E+00
    0.00000E+00         0.00000E+00        -0.64189E+08
 
   -0.61511E+08         0.25149E+05         0.00000E+00
    0.25149E+05        -0.51218E+08         0.00000E+00
    0.00000E+00         0.00000E+00        -0.64132E+08
 
   -0.61623E+08         0.33761E+05         0.00000E+00
    0.33761E+05        -0.51205E+08         0.00000E+00
    0.00000E+00         0.00000E+00        -0.64064E+08
 
   -0.61721E+08         0.40402E+05         0.00000E+00
    0.40402E+05        -0.51189E+08         0.00000E+00
    0.00000E+00         0.00000E+00        -0.63989E+08
 
   -0.61808E+08         0.47706E+05         0.00000E+00
    0.47706E+05        -0.51170E+08         0.00000E+00
    0.00000E+00         0.00000E+00        -0.63908E+08
 
   -0.61885E+08         0.55182E+05         0.00000E+00
    0.55182E+05        -0.51149E+08         0.00000E+00
    0.00000E+00         0.00000E+00        -0.63821E+08
 
   -0.61957E+08         0.62207E+05         0.00000E+00
    0.62207E+05        -0.51124E+08         0.00000E+00
    0.00000E+00         0.00000E+00        -0.63726E+08
 
   -0.62022E+08         0.70139E+05         0.00000E+00
    0.70139E+05        -0.51097E+08         0.00000E+00
    0.00000E+00         0.00000E+00        -0.63624E+08
 
   -0.62079E+08         0.79355E+05         0.00000E+00
    0.79355E+05        -0.51066E+08         0.00000E+00
    0.00000E+00         0.00000E+00        -0.63513E+08
 
   -0.62128E+08         0.89596E+05         0.00000E+00
    0.89596E+05        -0.51031E+08         0.00000E+00
    0.00000E+00         0.00000E+00        -0.63392E+08
 
   -0.62169E+08         0.10100E+06         0.00000E+00
    0.10100E+06        -0.50993E+08         0.00000E+00
    0.00000E+00         0.00000E+00        -0.63261E+08
 
   -0.62208E+08         0.11481E+06         0.00000E+00
    0.11481E+06        -0.50950E+08         0.00000E+00
    0.00000E+00         0.00000E+00        -0.63114E+08
 
   -0.62242E+08         0.13225E+06         0.00000E+00
    0.13225E+06        -0.50901E+08         0.00000E+00
    0.00000E+00         0.00000E+00        -0.62950E+08
 
   -0.62266E+08         0.15462E+06         0.00000E+00
    0.15462E+06        -0.50847E+08         0.00000E+00
    0.00000E+00         0.00000E+00        -0.62768E+08
 
   -0.62276E+08         0.18374E+06         0.00000E+00
    0.18374E+06        -0.50786E+08         0.00000E+00
    0.00000E+00         0.00000E+00        -0.62570E+08
 
   -0.62267E+08         0.22230E+06         0.00000E+00
    0.22230E+06        -0.50719E+08         0.00000E+00
    0.00000E+00         0.00000E+00        -0.62359E+08
 
   -0.55977E+08        -0.48785E+04         0.00000E+00
   -0.48785E+04        -0.49944E+08         0.00000E+00
    0.00000E+00         0.00000E+00        -0.62409E+08
 
   -0.56056E+08        -0.82594E+05         0.00000E+00
   -0.82594E+05        -0.49936E+08         0.00000E+00
    0.00000E+00         0.00000E+00        -0.62416E+08
 
   -0.56187E+08        -0.15100E+06         0.00000E+00
   -0.15100E+06        -0.49942E+08         0.00000E+00
    0.00000E+00         0.00000E+00        -0.62450E+08
 
   -0.56350E+08        -0.21165E+06         0.00000E+00
   -0.21165E+06        -0.49959E+08         0.00000E+00
    0.00000E+00         0.00000E+00        -0.62500E+08
 
   -0.56531E+08        -0.26474E+06         0.00000E+00
   -0.26474E+06        -0.49977E+08         0.00000E+00
    0.00000E+00         0.00000E+00        -0.62552E+08
 
   -0.56717E+08        -0.30512E+06         0.00000E+00
   -0.30512E+06        -0.49971E+08         0.00000E+00
    0.00000E+00         0.00000E+00        -0.62575E+08
 
   -0.56910E+08        -0.33530E+06         0.00000E+00
   -0.33530E+06        -0.49978E+08         0.00000E+00
    0.00000E+00         0.00000E+00        -0.62611E+08
 
   -0.57109E+08        -0.35835E+06         0.00000E+00
   -0.35835E+06        -0.49994E+08         0.00000E+00
    0.00000E+00         0.00000E+00        -0.62658E+08
 
   -0.57311E+08        -0.37231E+06         0.00000E+00
   -0.37231E+06        -0.50016E+08         0.00000E+00
    0.00000E+00         0.00000E+00        -0.62708E+08
 
   -0.57513E+08        -0.37733E+06         0.00000E+00
   -0.37733E+06        -0.50043E+08         0.00000E+00
    0.00000E+00         0.00000E+00        -0.62763E+08
 
   -0.57709E+08        -0.37611E+06         0.00000E+00
   -0.37611E+06        -0.50075E+08         0.00000E+00
    0.00000E+00         0.00000E+00        -0.62820E+08
 
   -0.57900E+08        -0.37080E+06         0.00000E+00
   -0.37080E+06        -0.50110E+08         0.00000E+00
    0.00000E+00         0.00000E+00        -0.62877E+08
 
   -0.58084E+08        -0.36352E+06         0.00000E+00
   -0.36352E+06        -0.50148E+08         0.00000E+00
    0.00000E+00         0.00000E+00        -0.62936E+08
 
   -0.58261E+08        -0.35556E+06         0.00000E+00
   -0.35556E+06        -0.50188E+08         0.00000E+00
    0.00000E+00         0.00000E+00        -0.62992E+08
 
   -0.58431E+08        -0.34636E+06         0.00000E+00
   -0.34636E+06        -0.50233E+08         0.00000E+00
    0.00000E+00         0.00000E+00        -0.63035E+08
 
   -0.58595E+08        -0.33589E+06         0.00000E+00
   -0.33589E+06        -0.50278E+08         0.00000E+00
    0.00000E+00         0.00000E+00        -0.63076E+08
 
   -0.58754E+08        -0.32462E+06         0.00000E+00
   -0.32462E+06        -0.50322E+08         0.00000E+00
    0.00000E+00         0.00000E+00        -0.63117E+08
 
   -0.58908E+08        -0.31258E+06         0.00000E+00
   -0.31258E+06        -0.50362E+08         0.00000E+00
    0.00000E+00         0.00000E+00        -0.63155E+08
 
   -0.59056E+08        -0.29967E+06         0.00000E+00
   -0.29967E+06        -0.50397E+08         0.00000E+00
    0.00000E+00         0.00000E+00        -0.63191E+08
 
   -0.59199E+08        -0.28635E+06         0.00000E+00
   -0.28635E+06        -0.50431E+08         0.00000E+00
    0.00000E+00         0.00000E+00        -0.63226E+08
 
   -0.59340E+08        -0.27291E+06         0.00000E+00
   -0.27291E+06        -0.50463E+08         0.00000E+00
    0.00000E+00         0.00000E+00        -0.63260E+08
 
   -0.59478E+08        -0.25916E+06         0.00000E+00
   -0.25916E+06        -0.50493E+08         0.00000E+00
    0.00000E+00         0.00000E+00        -0.63294E+08
 
   -0.59615E+08        -0.24496E+06         0.00000E+00
   -0.24496E+06        -0.50521E+08         0.00000E+00
    0.00000E+00         0.00000E+00        -0.63326E+08
 
   -0.59750E+08        -0.23021E+06         0.00000E+00
   -0.23021E+06        -0.50547E+08         0.00000E+00
    0.00000E+00         0.00000E+00        -0.63358E+08
 
   -0.59885E+08        -0.21480E+06         0.00000E+00
   -0.21480E+06        -0.50571E+08         0.00000E+00
    0.00000E+00         0.00000E+00        -0.63389E+08
 
   -0.60019E+08        -0.19862E+06         0.00000E+00
   -0.19862E+06        -0.50593E+08         0.00000E+00
    0.00000E+00         0.00000E+00        -0.63420E+08
 
   -0.60154E+08        -0.18153E+06         0.00000E+00
   -0.18153E+06        -0.50612E+08         0.00000E+00
    0.00000E+00         0.00000E+00        -0.63450E+08
 
   -0.60289E+08        -0.16336E+06         0.00000E+00
   -0.16336E+06        -0.50630E+08         0.00000E+00
    0.00000E+00         0.00000E+00        -0.63480E+08
 
   -0.60426E+08        -0.14389E+06         0.00000E+00
   -0.14389E+06        -0.50645E+08         0.00000E+00
    0.00000E+00         0.00000E+00        -0.63510E+08
 
   -0.60564E+08        -0.12284E+06         0.00000E+00
   -0.12284E+06        -0.50657E+08         0.00000E+00
    0.00000E+00         0.00000E+00        -0.63539E+08
 
   -0.60703E+08        -0.99820E+05         0.00000E+00
   -0.99820E+05        -0.50667E+08         0.00000E+00
    0.00000E+00         0.00000E+00        -0.63568E+08
 
   -0.60845E+08        -0.74348E+05         0.00000E+00
   -0.74348E+05        -0.50673E+08         0.00000E+00
    0.00000E+00         0.00000E+00        -0.63597E+08
 
   -0.60988E+08        -0.45774E+05         0.00000E+00
   -0.45774E+05        -0.50678E+08         0.00000E+00
    0.00000E+00         0.00000E+00        -0.63625E+08
 
   -0.61134E+08        -0.15472E+05         0.00000E+00
   -0.15472E+05        -0.50678E+08         0.00000E+00
    0.00000E+00         0.00000E+00        -0.63654E+08
 
   -0.61273E+08         0.16983E+05         0.00000E+00
    0.16983E+05        -0.50673E+08         0.00000E+00
    0.00000E+00         0.00000E+00        -0.63658E+08
 
   -0.61407E+08         0.52932E+05         0.00000E+00
    0.52932E+05        -0.50676E+08         0.00000E+00
    0.00000E+00         0.00000E+00        -0.63640E+08
 
   -0.61530E+08         0.89374E+05         0.00000E+00
    0.89374E+05        -0.50677E+08         0.00000E+00
    0.00000E+00         0.00000E+00        -0.63589E+08
 
   -0.61639E+08         0.12112E+06         0.00000E+00
    0.12112E+06        -0.50666E+08         0.00000E+00
    0.00000E+00         0.00000E+00        -0.63512E+08
 
   -0.61731E+08         0.14533E+06         0.00000E+00
    0.14533E+06        -0.50648E+08         0.00000E+00
    0.00000E+00         0.00000E+00        -0.63419E+08
 
   -0.61811E+08         0.16595E+06         0.00000E+00
    0.16595E+06        -0.50627E+08         0.00000E+00
    0.00000E+00         0.00000E+00        -0.63323E+08
 
   -0.61877E+08         0.18832E+06         0.00000E+00
    0.18832E+06        -0.50603E+08         0.00000E+00
    0.00000E+00         0.00000E+00        -0.63220E+08
 
   -0.61933E+08         0.21262E+06         0.00000E+00
    0.21262E+06        -0.50575E+08         0.00000E+00
    0.00000E+00         0.00000E+00        -0.63109E+08
 
   -0.61980E+08         0.23919E+06         0.00000E+00
    0.23919E+06        -0.50544E+08         0.00000E+00
    0.00000E+00         0.00000E+00        -0.62992E+08
 
   -0.62016E+08         0.26901E+06         0.00000E+00
    0.26901E+06        -0.50511E+08         0.00000E+00
    0.00000E+00         0.00000E+00        -0.62869E+08
 
   -0.62040E+08         0.30353E+06         0.00000E+00
    0.30353E+06        -0.50474E+08         0.00000E+00
    0.00000E+00         0.00000E+00        -0.62739E+08
 
   -0.62052E+08         0.34349E+06         0.00000E+00
    0.34349E+06        -0.50432E+08         0.00000E+00
    0.00000E+00         0.00000E+00        -0.62599E+08
 
   -0.62051E+08         0.38994E+06         0.00000E+00
    0.38994E+06        -0.50385E+08         0.00000E+00
    0.00000E+00         0.00000E+00        -0.62448E+08
 
   -0.62033E+08         0.44468E+06         0.00000E+00
    0.44468E+06        -0.50333E+08         0.00000E+00
    0.00000E+00         0.00000E+00        -0.62289E+08
 
   -0.61990E+08         0.50923E+06         0.00000E+00
    0.50923E+06        -0.50275E+08         0.00000E+00
    0.00000E+00         0.00000E+00        -0.62125E+08
 
   -0.61914E+08         0.58359E+06         0.00000E+00
    0.58359E+06        -0.50208E+08         0.00000E+00
    0.00000E+00         0.00000E+00        -0.61953E+08
 
   -0.56235E+08        -0.16009E+05         0.00000E+00
   -0.16009E+05        -0.50025E+08         0.00000E+00
    0.00000E+00         0.00000E+00        -0.62092E+08
 
   -0.56366E+08        -0.75421E+05         0.00000E+00
   -0.75421E+05        -0.50034E+08         0.00000E+00
    0.00000E+00         0.00000E+00        -0.62120E+08
 
   -0.56497E+08        -0.14100E+06         0.00000E+00
   -0.14100E+06        -0.50033E+08         0.00000E+00
    0.00000E+00         0.00000E+00        -0.62146E+08
 
   -0.56635E+08        -0.20418E+06         0.00000E+00
   -0.20418E+06        -0.50027E+08         0.00000E+00
    0.00000E+00         0.00000E+00        -0.62172E+08
 
   -0.56779E+08        -0.26079E+06         0.00000E+00
   -0.26079E+06        -0.50021E+08         0.00000E+00
    0.00000E+00         0.00000E+00        -0.62199E+08
 
   -0.56930E+08        -0.31212E+06         0.00000E+00
   -0.31212E+06        -0.50025E+08         0.00000E+00
    0.00000E+00         0.00000E+00        -0.62230E+08
 
   -0.57085E+08        -0.35835E+06         0.00000E+00
   -0.35835E+06        -0.50026E+08         0.00000E+00
    0.00000E+00         0.00000E+00        -0.62261E+08
 
   -0.57245E+08        -0.39745E+06         0.00000E+00
   -0.39745E+06        -0.50026E+08         0.00000E+00
    0.00000E+00         0.00000E+00        -0.62293E+08
 
   -0.57408E+08        -0.42933E+06         0.00000E+00
   -0.42933E+06        -0.50027E+08         0.00000E+00
    0.00000E+00         0.00000E+00        -0.62325E+08
 
   -0.57574E+08        -0.45402E+06         0.00000E+00
   -0.45402E+06        -0.50029E+08         0.00000E+00
    0.00000E+00         0.00000E+00        -0.62359E+08
 
   -0.57740E+08        -0.47145E+06         0.00000E+00
   -0.47145E+06        -0.50033E+08         0.00000E+00
    0.00000E+00         0.00000E+00        -0.62392E+08
 
   -0.57906E+08        -0.48206E+06         0.00000E+00
   -0.48206E+06        -0.50039E+08         0.00000E+00
    0.00000E+00         0.00000E+00        -0.62426E+08
 
   -0.58070E+08        -0.48636E+06         0.00000E+00
   -0.48636E+06        -0.50047E+08         0.00000E+00
    0.00000E+00         0.00000E+00        -0.62460E+08
 
   -0.58231E+08        -0.48491E+06         0.00000E+00
   -0.48491E+06        -0.50057E+08         0.00000E+00
    0.00000E+00         0.00000E+00        -0.62494E+08
 
   -0.58388E+08        -0.47890E+06         0.00000E+00
   -0.47890E+06        -0.50069E+08         0.00000E+00
    0.00000E+00         0.00000E+00        -0.62527E+08
 
   -0.58541E+08        -0.46940E+06         0.00000E+00
   -0.46940E+06        -0.50081E+08         0.00000E+00
    0.00000E+00         0.00000E+00        -0.62560E+08
 
   -0.58691E+08        -0.45674E+06         0.00000E+00
   -0.45674E+06        -0.50094E+08         0.00000E+00
    0.00000E+00         0.00000E+00        -0.62592E+08
 
   -0.58836E+08        -0.44149E+06         0.00000E+00
   -0.44149E+06        -0.50107E+08         0.00000E+00
    0.00000E+00         0.00000E+00        -0.62623E+08
 
   -0.58979E+08        -0.42440E+06         0.00000E+00
   -0.42440E+06        -0.50122E+08         0.00000E+00
    0.00000E+00         0.00000E+00        -0.62654E+08
 
   -0.59118E+08        -0.40584E+06         0.00000E+00
   -0.40584E+06        -0.50136E+08         0.00000E+00
    0.00000E+00         0.00000E+00        -0.62684E+08
 
   -0.59254E+08        -0.38592E+06         0.00000E+00
   -0.38592E+06        -0.50150E+08         0.00000E+00
    0.00000E+00         0.00000E+00        -0.62714E+08
 
   -0.59389E+08        -0.36483E+06         0.00000E+00
   -0.36483E+06        -0.50163E+08         0.00000E+00
    0.00000E+00         0.00000E+00        -0.62743E+08
 
   -0.59521E+08        -0.34263E+06         0.00000E+00
   -0.34263E+06        -0.50175E+08         0.00000E+00
    0.00000E+00         0.00000E+00        -0.62771E+08
 
   -0.59652E+08        -0.31934E+06         0.00000E+00
   -0.31934E+06        -0.50185E+08         0.00000E+00
    0.00000E+00         0.00000E+00        -0.62799E+08
 
   -0.59782E+08        -0.29490E+06         0.00000E+00
   -0.29490E+06        -0.50195E+08         0.00000E+00
    0.00000E+00         0.00000E+00        -0.62826E+08
 
   -0.59911E+08        -0.26924E+06         0.00000E+00
   -0.26924E+06        -0.50202E+08         0.00000E+00
    0.00000E+00         0.00000E+00        -0.62852E+08
 
   -0.60040E+08        -0.24225E+06         0.00000E+00
   -0.24225E+06        -0.50208E+08         0.00000E+00
    0.00000E+00         0.00000E+00        -0.62879E+08
 
   -0.60168E+08        -0.21377E+06         0.00000E+00
   -0.21377E+06        -0.50213E+08         0.00000E+00
    0.00000E+00         0.00000E+00        -0.62904E+08
 
   -0.60297E+08        -0.18365E+06         0.00000E+00
   -0.18365E+06        -0.50215E+08         0.00000E+00
    0.00000E+00         0.00000E+00        -0.62930E+08
 
   -0.60425E+08        -0.15168E+06         0.00000E+00
   -0.15168E+06        -0.50216E+08         0.00000E+00
    0.00000E+00         0.00000E+00        -0.62955E+08
 
   -0.60554E+08        -0.11766E+06         0.00000E+00
   -0.11766E+06        -0.50215E+08         0.00000E+00
    0.00000E+00         0.00000E+00        -0.62979E+08
 
   -0.60683E+08        -0.81389E+05         0.00000E+00
   -0.81389E+05        -0.50212E+08         0.00000E+00
    0.00000E+00         0.00000E+00        -0.63003E+08
 
   -0.60812E+08        -0.42736E+05         0.00000E+00
   -0.42736E+05        -0.50208E+08         0.00000E+00
    0.00000E+00         0.00000E+00        -0.63027E+08
 
   -0.60942E+08        -0.10542E+04         0.00000E+00
   -0.10542E+04        -0.50202E+08         0.00000E+00
    0.00000E+00         0.00000E+00        -0.63051E+08
 
   -0.61073E+08         0.42269E+05         0.00000E+00
    0.42269E+05        -0.50200E+08         0.00000E+00
    0.00000E+00         0.00000E+00        -0.63075E+08
 
   -0.61206E+08         0.85459E+05         0.00000E+00
    0.85459E+05        -0.50186E+08         0.00000E+00
    0.00000E+00         0.00000E+00        -0.63097E+08
 
   -0.61334E+08         0.13063E+06         0.00000E+00
    0.13063E+06        -0.50164E+08         0.00000E+00
    0.00000E+00         0.00000E+00        -0.63100E+08
 
   -0.61455E+08         0.18070E+06         0.00000E+00
    0.18070E+06        -0.50150E+08         0.00000E+00
    0.00000E+00         0.00000E+00        -0.63074E+08
 
   -0.61564E+08         0.23445E+06         0.00000E+00
    0.23445E+06        -0.50151E+08         0.00000E+00
    0.00000E+00         0.00000E+00        -0.63012E+08
 
   -0.61647E+08         0.28572E+06         0.00000E+00
    0.28572E+06        -0.50133E+08         0.00000E+00
    0.00000E+00         0.00000E+00        -0.62907E+08
 
   -0.61711E+08         0.32957E+06         0.00000E+00
    0.32957E+06        -0.50104E+08         0.00000E+00
    0.00000E+00         0.00000E+00        -0.62784E+08
 
   -0.61760E+08         0.36979E+06         0.00000E+00
    0.36979E+06        -0.50073E+08         0.00000E+00
    0.00000E+00         0.00000E+00        -0.62656E+08
 
   -0.61791E+08         0.41149E+06         0.00000E+00
    0.41149E+06        -0.50037E+08         0.00000E+00
    0.00000E+00         0.00000E+00        -0.62524E+08
 
   -0.61804E+08         0.45791E+06         0.00000E+00
    0.45791E+06        -0.49998E+08         0.00000E+00
    0.00000E+00         0.00000E+00        -0.62388E+08
 
   -0.61802E+08         0.50924E+06         0.00000E+00
    0.50924E+06        -0.49956E+08         0.00000E+00
    0.00000E+00         0.00000E+00        -0.62250E+08
 
   -0.61786E+08         0.56583E+06         0.00000E+00
    0.56583E+06        -0.49913E+08         0.00000E+00
    0.00000E+00         0.00000E+00        -0.62114E+08
 
   -0.61755E+08         0.62862E+06         0.00000E+00
    0.62862E+06        -0.49868E+08         0.00000E+00
    0.00000E+00         0.00000E+00        -0.61978E+08
 
   -0.61706E+08         0.69566E+06         0.00000E+00
    0.69566E+06        -0.49821E+08         0.00000E+00
    0.00000E+00         0.00000E+00        -0.61844E+08
 
   -0.61642E+08         0.76484E+06         0.00000E+00
    0.76484E+06        -0.49772E+08         0.00000E+00
    0.00000E+00         0.00000E+00        -0.61714E+08
 
   -0.61573E+08         0.83238E+06         0.00000E+00
    0.83238E+06        -0.49726E+08         0.00000E+00
    0.00000E+00         0.00000E+00        -0.61595E+08
 
   -0.56536E+08        -0.44171E+05         0.00000E+00
   -0.44171E+05        -0.49994E+08         0.00000E+00
    0.00000E+00         0.00000E+00        -0.61682E+08
 
   -0.56664E+08        -0.10590E+06         0.00000E+00
   -0.10590E+06        -0.49998E+08         0.00000E+00
    0.00000E+00         0.00000E+00        -0.61708E+08
 
   -0.56789E+08        -0.16257E+06         0.00000E+00
   -0.16257E+06        -0.50003E+08         0.00000E+00
    0.00000E+00         0.00000E+00        -0.61734E+08
 
   -0.56911E+08        -0.21619E+06         0.00000E+00
   -0.21619E+06        -0.50008E+08         0.00000E+00
    0.00000E+00         0.00000E+00        -0.61759E+08
 
   -0.57034E+08        -0.26697E+06         0.00000E+00
   -0.26697E+06        -0.50010E+08         0.00000E+00
    0.00000E+00         0.00000E+00        -0.61784E+08
 
   -0.57159E+08        -0.31336E+06         0.00000E+00
   -0.31336E+06        -0.50009E+08         0.00000E+00
    0.00000E+00         0.00000E+00        -0.61809E+08
 
   -0.57287E+08        -0.35441E+06         0.00000E+00
   -0.35441E+06        -0.50007E+08         0.00000E+00
    0.00000E+00         0.00000E+00        -0.61834E+08
 
   -0.57417E+08        -0.39033E+06         0.00000E+00
   -0.39033E+06        -0.50004E+08         0.00000E+00
    0.00000E+00         0.00000E+00        -0.61859E+08
 
   -0.57549E+08        -0.42085E+06         0.00000E+00
   -0.42085E+06        -0.50000E+08         0.00000E+00
    0.00000E+00         0.00000E+00        -0.61884E+08
 
   -0.57683E+08        -0.44581E+06         0.00000E+00
   -0.44581E+06        -0.49995E+08         0.00000E+00
    0.00000E+00         0.00000E+00        -0.61909E+08
 
   -0.57818E+08        -0.46520E+06         0.00000E+00
   -0.46520E+06        -0.49989E+08         0.00000E+00
    0.00000E+00         0.00000E+00        -0.61935E+08
 
   -0.57954E+08        -0.47903E+06         0.00000E+00
   -0.47903E+06        -0.49983E+08         0.00000E+00
    0.00000E+00         0.00000E+00        -0.61960E+08
 
   -0.58090E+08        -0.48748E+06         0.00000E+00
   -0.48748E+06        -0.49976E+08         0.00000E+00
    0.00000E+00         0.00000E+00        -0.61986E+08
 
   -0.58226E+08        -0.49089E+06         0.00000E+00
   -0.49089E+06        -0.49970E+08         0.00000E+00
    0.00000E+00         0.00000E+00        -0.62011E+08
 
   -0.58362E+08        -0.48955E+06         0.00000E+00
   -0.48955E+06        -0.49965E+08         0.00000E+00
    0.00000E+00         0.00000E+00        -0.62037E+08
 
   -0.58496E+08        -0.48381E+06         0.00000E+00
   -0.48381E+06        -0.49959E+08         0.00000E+00
    0.00000E+00         0.00000E+00        -0.62062E+08
 
   -0.58629E+08        -0.47422E+06         0.00000E+00
   -0.47422E+06        -0.49955E+08         0.00000E+00
    0.00000E+00         0.00000E+00        -0.62087E+08
 
   -0.58761E+08        -0.46119E+06         0.00000E+00
   -0.46119E+06        -0.49950E+08         0.00000E+00
    0.00000E+00         0.00000E+00        -0.62112E+08
 
   -0.58891E+08        -0.44497E+06         0.00000E+00
   -0.44497E+06        -0.49945E+08         0.00000E+00
    0.00000E+00         0.00000E+00        -0.62137E+08
 
   -0.59020E+08        -0.42589E+06         0.00000E+00
   -0.42589E+06        -0.49941E+08         0.00000E+00
    0.00000E+00         0.00000E+00        -0.62161E+08
 
   -0.59147E+08        -0.40427E+06         0.00000E+00
   -0.40427E+06        -0.49936E+08         0.00000E+00
    0.00000E+00         0.00000E+00        -0.62185E+08
 
   -0.59272E+08        -0.38033E+06         0.00000E+00
   -0.38033E+06        -0.49931E+08         0.00000E+00
    0.00000E+00         0.00000E+00        -0.62208E+08
 
   -0.59397E+08        -0.35425E+06         0.00000E+00
   -0.35425E+06        -0.49926E+08         0.00000E+00
    0.00000E+00         0.00000E+00        -0.62232E+08
 
   -0.59520E+08        -0.32618E+06         0.00000E+00
   -0.32618E+06        -0.49919E+08         0.00000E+00
    0.00000E+00         0.00000E+00        -0.62254E+08
 
   -0.59642E+08        -0.29619E+06         0.00000E+00
   -0.29619E+06        -0.49912E+08         0.00000E+00
    0.00000E+00         0.00000E+00        -0.62276E+08
 
   -0.59763E+08        -0.26433E+06         0.00000E+00
   -0.26433E+06        -0.49904E+08         0.00000E+00
    0.00000E+00         0.00000E+00        -0.62298E+08
 
   -0.59883E+08        -0.23062E+06         0.00000E+00
   -0.23062E+06        -0.49895E+08         0.00000E+00
    0.00000E+00         0.00000E+00        -0.62320E+08
 
   -0.60003E+08        -0.19503E+06         0.00000E+00
   -0.19503E+06        -0.49884E+08         0.00000E+00
    0.00000E+00         0.00000E+00        -0.62341E+08
 
   -0.60122E+08        -0.15754E+06         0.00000E+00
   -0.15754E+06        -0.49873E+08         0.00000E+00
    0.00000E+00         0.00000E+00        -0.62361E+08
 
   -0.60241E+08        -0.11807E+06         0.00000E+00
   -0.11807E+06        -0.49860E+08         0.00000E+00
    0.00000E+00         0.00000E+00        -0.62381E+08
 
   -0.60359E+08        -0.76542E+05         0.00000E+00
   -0.76542E+05        -0.49845E+08         0.00000E+00
    0.00000E+00         0.00000E+00        -0.62401E+08
 
   -0.60476E+08        -0.32866E+05         0.00000E+00
   -0.32866E+05        -0.49830E+08         0.00000E+00
    0.00000E+00         0.00000E+00        -0.62420E+08
 
   -0.60594E+08         0.13107E+05         0.00000E+00
    0.13107E+05        -0.49813E+08         0.00000E+00
    0.00000E+00         0.00000E+00        -0.62439E+08
 
   -0.60710E+08         0.61392E+05         0.00000E+00
    0.61392E+05        -0.49794E+08         0.00000E+00
    0.00000E+00         0.00000E+00        -0.62458E+08
 
   -0.60827E+08         0.11278E+06         0.00000E+00
    0.11278E+06        -0.49773E+08         0.00000E+00
    0.00000E+00         0.00000E+00        -0.62476E+08
 
   -0.60942E+08         0.16804E+06         0.00000E+00
    0.16804E+06        -0.49753E+08         0.00000E+00
    0.00000E+00         0.00000E+00        -0.62493E+08
 
   -0.61057E+08         0.22551E+06         0.00000E+00
    0.22551E+06        -0.49735E+08         0.00000E+00
    0.00000E+00         0.00000E+00        -0.62511E+08
 
   -0.61173E+08         0.28269E+06         0.00000E+00
    0.28269E+06        -0.49713E+08         0.00000E+00
    0.00000E+00         0.00000E+00        -0.62529E+08
 
   -0.61288E+08         0.34047E+06         0.00000E+00
    0.34047E+06        -0.49668E+08         0.00000E+00
    0.00000E+00         0.00000E+00        -0.62536E+08
 
   -0.61383E+08         0.40363E+06         0.00000E+00
    0.40363E+06        -0.49629E+08         0.00000E+00
    0.00000E+00         0.00000E+00        -0.62499E+08
 
   -0.61457E+08         0.47286E+06         0.00000E+00
    0.47286E+06        -0.49621E+08         0.00000E+00
    0.00000E+00         0.00000E+00        -0.62419E+08
 
   -0.61503E+08         0.54394E+06         0.00000E+00
    0.54394E+06        -0.49597E+08         0.00000E+00
    0.00000E+00         0.00000E+00        -0.62299E+08
 
   -0.61528E+08         0.61048E+06         0.00000E+00
    0.61048E+06        -0.49562E+08         0.00000E+00
    0.00000E+00         0.00000E+00        -0.62157E+08
 
   -0.61530E+08         0.67009E+06         0.00000E+00
    0.67009E+06        -0.49518E+08         0.00000E+00
    0.00000E+00         0.00000E+00        -0.62004E+08
 
   -0.61515E+08         0.72639E+06         0.00000E+00
    0.72639E+06        -0.49474E+08         0.00000E+00
    0.00000E+00         0.00000E+00        -0.61858E+08
 
   -0.61478E+08         0.78481E+06         0.00000E+00
    0.78481E+06        -0.49426E+08         0.00000E+00
    0.00000E+00         0.00000E+00        -0.61715E+08
 
   -0.61428E+08         0.84561E+06         0.00000E+00
    0.84561E+06        -0.49379E+08         0.00000E+00
    0.00000E+00         0.00000E+00        -0.61581E+08
 
   -0.61370E+08         0.91056E+06         0.00000E+00
    0.91056E+06        -0.49335E+08         0.00000E+00
    0.00000E+00         0.00000E+00        -0.61458E+08
 
   -0.61306E+08         0.97712E+06         0.00000E+00
    0.97712E+06        -0.49294E+08         0.00000E+00
    0.00000E+00         0.00000E+00        -0.61346E+08
 
   -0.61230E+08         0.10438E+07         0.00000E+00
    0.10438E+07        -0.49253E+08         0.00000E+00
    0.00000E+00         0.00000E+00        -0.61239E+08
 
   -0.56879E+08        -0.39642E+05         0.00000E+00
   -0.39642E+05        -0.50002E+08         0.00000E+00
    0.00000E+00         0.00000E+00        -0.61290E+08
 
   -0.56970E+08        -0.10404E+06         0.00000E+00
   -0.10404E+06        -0.49999E+08         0.00000E+00
    0.00000E+00         0.00000E+00        -0.61308E+08
 
   -0.57064E+08        -0.16122E+06         0.00000E+00
   -0.16122E+06        -0.49996E+08         0.00000E+00
    0.00000E+00         0.00000E+00        -0.61326E+08
 
   -0.57161E+08        -0.21180E+06         0.00000E+00
   -0.21180E+06        -0.49993E+08         0.00000E+00
    0.00000E+00         0.00000E+00        -0.61345E+08
 
   -0.57260E+08        -0.25641E+06         0.00000E+00
   -0.25641E+06        -0.49988E+08         0.00000E+00
    0.00000E+00         0.00000E+00        -0.61363E+08
 
   -0.57361E+08        -0.29581E+06         0.00000E+00
   -0.29581E+06        -0.49983E+08         0.00000E+00
    0.00000E+00         0.00000E+00        -0.61382E+08
 
   -0.57463E+08        -0.33037E+06         0.00000E+00
   -0.33037E+06        -0.49976E+08         0.00000E+00
    0.00000E+00         0.00000E+00        -0.61401E+08
 
   -0.57568E+08        -0.36003E+06         0.00000E+00
   -0.36003E+06        -0.49968E+08         0.00000E+00
    0.00000E+00         0.00000E+00        -0.61420E+08
 
   -0.57674E+08        -0.38485E+06         0.00000E+00
   -0.38485E+06        -0.49959E+08         0.00000E+00
    0.00000E+00         0.00000E+00        -0.61439E+08
 
   -0.57783E+08        -0.40490E+06         0.00000E+00
   -0.40490E+06        -0.49948E+08         0.00000E+00
    0.00000E+00         0.00000E+00        -0.61459E+08
 
   -0.57892E+08        -0.42025E+06         0.00000E+00
   -0.42025E+06        -0.49937E+08         0.00000E+00
    0.00000E+00         0.00000E+00        -0.61478E+08
 
   -0.58004E+08        -0.43100E+06         0.00000E+00
   -0.43100E+06        -0.49924E+08         0.00000E+00
    0.00000E+00         0.00000E+00        -0.61498E+08
 
   -0.58116E+08        -0.43726E+06         0.00000E+00
   -0.43726E+06        -0.49911E+08         0.00000E+00
    0.00000E+00         0.00000E+00        -0.61517E+08
 
   -0.58229E+08        -0.43914E+06         0.00000E+00
   -0.43914E+06        -0.49897E+08         0.00000E+00
    0.00000E+00         0.00000E+00        -0.61536E+08
 
   -0.58343E+08        -0.43680E+06         0.00000E+00
   -0.43680E+06        -0.49882E+08         0.00000E+00
    0.00000E+00         0.00000E+00        -0.61556E+08
 
   -0.58457E+08        -0.43044E+06         0.00000E+00
   -0.43044E+06        -0.49867E+08         0.00000E+00
    0.00000E+00         0.00000E+00        -0.61575E+08
 
   -0.58572E+08        -0.42020E+06         0.00000E+00
   -0.42020E+06        -0.49852E+08         0.00000E+00
    0.00000E+00         0.00000E+00        -0.61595E+08
 
   -0.58686E+08        -0.40629E+06         0.00000E+00
   -0.40629E+06        -0.49835E+08         0.00000E+00
    0.00000E+00         0.00000E+00        -0.61614E+08
 
   -0.58800E+08        -0.38895E+06         0.00000E+00
   -0.38895E+06        -0.49819E+08         0.00000E+00
    0.00000E+00         0.00000E+00        -0.61633E+08
 
   -0.58914E+08        -0.36836E+06         0.00000E+00
   -0.36836E+06        -0.49802E+08         0.00000E+00
    0.00000E+00         0.00000E+00        -0.61652E+08
 
   -0.59028E+08        -0.34471E+06         0.00000E+00
   -0.34471E+06        -0.49784E+08         0.00000E+00
    0.00000E+00         0.00000E+00        -0.61670E+08
 
   -0.59140E+08        -0.31817E+06         0.00000E+00
   -0.31817E+06        -0.49766E+08         0.00000E+00
    0.00000E+00         0.00000E+00        -0.61688E+08
 
   -0.59253E+08        -0.28889E+06         0.00000E+00
   -0.28889E+06        -0.49747E+08         0.00000E+00
    0.00000E+00         0.00000E+00        -0.61707E+08
 
   -0.59365E+08        -0.25700E+06         0.00000E+00
   -0.25700E+06        -0.49727E+08         0.00000E+00
    0.00000E+00         0.00000E+00        -0.61724E+08
 
   -0.59476E+08        -0.22262E+06         0.00000E+00
   -0.22262E+06        -0.49707E+08         0.00000E+00
    0.00000E+00         0.00000E+00        -0.61742E+08
 
   -0.59586E+08        -0.18583E+06         0.00000E+00
   -0.18583E+06        -0.49685E+08         0.00000E+00
    0.00000E+00         0.00000E+00        -0.61759E+08
 
   -0.59696E+08        -0.14671E+06         0.00000E+00
   -0.14671E+06        -0.49663E+08         0.00000E+00
    0.00000E+00         0.00000E+00        -0.61775E+08
 
   -0.59805E+08        -0.10528E+06         0.00000E+00
   -0.10528E+06        -0.49639E+08         0.00000E+00
    0.00000E+00         0.00000E+00        -0.61792E+08
 
   -0.59914E+08        -0.61581E+05         0.00000E+00
   -0.61581E+05        -0.49614E+08         0.00000E+00
    0.00000E+00         0.00000E+00        -0.61808E+08
 
   -0.60021E+08        -0.15614E+05         0.00000E+00
   -0.15614E+05        -0.49588E+08         0.00000E+00
    0.00000E+00         0.00000E+00        -0.61823E+08
 
   -0.60128E+08         0.32639E+05         0.00000E+00
    0.32639E+05        -0.49561E+08         0.00000E+00
    0.00000E+00         0.00000E+00        -0.61838E+08
 
   -0.60234E+08         0.83220E+05         0.00000E+00
    0.83220E+05        -0.49532E+08         0.00000E+00
    0.00000E+00         0.00000E+00        -0.61852E+08
 
   -0.60339E+08         0.13619E+06         0.00000E+00
    0.13619E+06        -0.49502E+08         0.00000E+00
    0.00000E+00         0.00000E+00        -0.61866E+08
 
   -0.60443E+08         0.19170E+06         0.00000E+00
    0.19170E+06        -0.49470E+08         0.00000E+00
    0.00000E+00         0.00000E+00        -0.61880E+08
 
   -0.60546E+08         0.24967E+06         0.00000E+00
    0.24967E+06        -0.49437E+08         0.00000E+00
    0.00000E+00         0.00000E+00        -0.61893E+08
 
   -0.60647E+08         0.31010E+06         0.00000E+00
    0.31010E+06        -0.49402E+08         0.00000E+00
    0.00000E+00         0.00000E+00        -0.61905E+08
 
   -0.60746E+08         0.37380E+06         0.00000E+00
    0.37380E+06        -0.49365E+08         0.00000E+00
    0.00000E+00         0.00000E+00        -0.61916E+08
 
   -0.60841E+08         0.44187E+06         0.00000E+00
    0.44187E+06        -0.49327E+08         0.00000E+00
    0.00000E+00         0.00000E+00        -0.61926E+08
 
   -0.60933E+08         0.51370E+06         0.00000E+00
    0.51370E+06        -0.49293E+08         0.00000E+00
    0.00000E+00         0.00000E+00        -0.61936E+08
 
   -0.61023E+08         0.58439E+06         0.00000E+00
    0.58439E+06        -0.49265E+08         0.00000E+00
    0.00000E+00         0.00000E+00        -0.61947E+08
 
   -0.61107E+08         0.65325E+06         0.00000E+00
    0.65325E+06        -0.49201E+08         0.00000E+00
    0.00000E+00         0.00000E+00        -0.61950E+08
 
   -0.61167E+08         0.72367E+06         0.00000E+00
    0.72367E+06        -0.49140E+08         0.00000E+00
    0.00000E+00         0.00000E+00        -0.61911E+08
 
   -0.61206E+08         0.79924E+06         0.00000E+00
    0.79924E+06        -0.49098E+08         0.00000E+00
    0.00000E+00         0.00000E+00        -0.61839E+08
 
   -0.61225E+08         0.87733E+06         0.00000E+00
    0.87733E+06        -0.49082E+08         0.00000E+00
    0.00000E+00         0.00000E+00        -0.61736E+08
 
   -0.61208E+08         0.95502E+06         0.00000E+00
    0.95502E+06        -0.49044E+08         0.00000E+00
    0.00000E+00         0.00000E+00        -0.61593E+08
 
   -0.61180E+08         0.10231E+07         0.00000E+00
    0.10231E+07        -0.49002E+08         0.00000E+00
    0.00000E+00         0.00000E+00        -0.61445E+08
 
   -0.61130E+08         0.10813E+07         0.00000E+00
    0.10813E+07        -0.48951E+08         0.00000E+00
    0.00000E+00         0.00000E+00        -0.61293E+08
 
   -0.61065E+08         0.11311E+07         0.00000E+00
    0.11311E+07        -0.48898E+08         0.00000E+00
    0.00000E+00         0.00000E+00        -0.61151E+08
 
   -0.60989E+08         0.11806E+07         0.00000E+00
    0.11806E+07        -0.48849E+08         0.00000E+00
    0.00000E+00         0.00000E+00        -0.61026E+08
 
   -0.60907E+08         0.12375E+07         0.00000E+00
    0.12375E+07        -0.48805E+08         0.00000E+00
    0.00000E+00         0.00000E+00        -0.60916E+08
 
   -0.57193E+08        -0.34921E+05         0.00000E+00
   -0.34921E+05        -0.50001E+08         0.00000E+00
    0.00000E+00         0.00000E+00        -0.60896E+08
 
   -0.57253E+08        -0.89654E+05         0.00000E+00
   -0.89654E+05        -0.49998E+08         0.00000E+00
    0.00000E+00         0.00000E+00        -0.60908E+08
 
   -0.57316E+08        -0.13875E+06         0.00000E+00
   -0.13875E+06        -0.49994E+08         0.00000E+00
    0.00000E+00         0.00000E+00        -0.60919E+08
 
   -0.57384E+08        -0.18231E+06         0.00000E+00
   -0.18231E+06        -0.49987E+08         0.00000E+00
    0.00000E+00         0.00000E+00        -0.60932E+08
 
   -0.57455E+08        -0.22051E+06         0.00000E+00
   -0.22051E+06        -0.49979E+08         0.00000E+00
    0.00000E+00         0.00000E+00        -0.60944E+08
 
   -0.57530E+08        -0.25349E+06         0.00000E+00
   -0.25349E+06        -0.49969E+08         0.00000E+00
    0.00000E+00         0.00000E+00        -0.60957E+08
 
   -0.57608E+08        -0.28146E+06         0.00000E+00
   -0.28146E+06        -0.49958E+08         0.00000E+00
    0.00000E+00         0.00000E+00        -0.60970E+08
 
   -0.57689E+08        -0.30468E+06         0.00000E+00
   -0.30468E+06        -0.49946E+08         0.00000E+00
    0.00000E+00         0.00000E+00        -0.60984E+08
 
   -0.57772E+08        -0.32332E+06         0.00000E+00
   -0.32332E+06        -0.49932E+08         0.00000E+00
    0.00000E+00         0.00000E+00        -0.60997E+08
 
   -0.57857E+08        -0.33751E+06         0.00000E+00
   -0.33751E+06        -0.49917E+08         0.00000E+00
    0.00000E+00         0.00000E+00        -0.61011E+08
 
   -0.57945E+08        -0.34738E+06         0.00000E+00
   -0.34738E+06        -0.49901E+08         0.00000E+00
    0.00000E+00         0.00000E+00        -0.61025E+08
 
   -0.58034E+08        -0.35304E+06         0.00000E+00
   -0.35304E+06        -0.49883E+08         0.00000E+00
    0.00000E+00         0.00000E+00        -0.61040E+08
 
   -0.58126E+08        -0.35459E+06         0.00000E+00
   -0.35459E+06        -0.49864E+08         0.00000E+00
    0.00000E+00         0.00000E+00        -0.61054E+08
 
   -0.58218E+08        -0.35216E+06         0.00000E+00
   -0.35216E+06        -0.49845E+08         0.00000E+00
    0.00000E+00         0.00000E+00        -0.61068E+08
 
   -0.58312E+08        -0.34583E+06         0.00000E+00
   -0.34583E+06        -0.49824E+08         0.00000E+00
    0.00000E+00         0.00000E+00        -0.61082E+08
 
   -0.58407E+08        -0.33573E+06         0.00000E+00
   -0.33573E+06        -0.49803E+08         0.00000E+00
    0.00000E+00         0.00000E+00        -0.61097E+08
 
   -0.58503E+08        -0.32197E+06         0.00000E+00
   -0.32197E+06        -0.49780E+08         0.00000E+00
    0.00000E+00         0.00000E+00        -0.61111E+08
 
   -0.58600E+08        -0.30466E+06         0.00000E+00
   -0.30466E+06        -0.49757E+08         0.00000E+00
    0.00000E+00         0.00000E+00        -0.61126E+08
 
   -0.58697E+08        -0.28392E+06         0.00000E+00
   -0.28392E+06        -0.49733E+08         0.00000E+00
    0.00000E+00         0.00000E+00        -0.61140E+08
 
   -0.58795E+08        -0.25985E+06         0.00000E+00
   -0.25985E+06        -0.49708E+08         0.00000E+00
    0.00000E+00         0.00000E+00        -0.61154E+08
 
   -0.58893E+08        -0.23257E+06         0.00000E+00
   -0.23257E+06        -0.49683E+08         0.00000E+00
    0.00000E+00         0.00000E+00        -0.61168E+08
 
   -0.58991E+08        -0.20218E+06         0.00000E+00
   -0.20218E+06        -0.49656E+08         0.00000E+00
    0.00000E+00         0.00000E+00        -0.61182E+08
 
   -0.59090E+08        -0.16879E+06         0.00000E+00
   -0.16879E+06        -0.49629E+08         0.00000E+00
    0.00000E+00         0.00000E+00        -0.61195E+08
 
   -0.59188E+08        -0.13247E+06         0.00000E+00
   -0.13247E+06        -0.49601E+08         0.00000E+00
    0.00000E+00         0.00000E+00        -0.61209E+08
 
   -0.59286E+08        -0.93317E+05         0.00000E+00
   -0.93317E+05        -0.49571E+08         0.00000E+00
    0.00000E+00         0.00000E+00        -0.61222E+08
 
   -0.59383E+08        -0.51390E+05         0.00000E+00
   -0.51390E+05        -0.49541E+08         0.00000E+00
    0.00000E+00         0.00000E+00        -0.61235E+08
 
   -0.59481E+08        -0.67490E+04         0.00000E+00
   -0.67490E+04        -0.49510E+08         0.00000E+00
    0.00000E+00         0.00000E+00        -0.61247E+08
 
   -0.59577E+08         0.40561E+05         0.00000E+00
    0.40561E+05        -0.49477E+08         0.00000E+00
    0.00000E+00         0.00000E+00        -0.61260E+08
 
   -0.59674E+08         0.90506E+05         0.00000E+00
    0.90506E+05        -0.49444E+08         0.00000E+00
    0.00000E+00         0.00000E+00        -0.61271E+08
 
   -0.59769E+08         0.14306E+06         0.00000E+00
    0.14306E+06        -0.49409E+08         0.00000E+00
    0.00000E+00         0.00000E+00        -0.61283E+08
 
   -0.59864E+08         0.19822E+06         0.00000E+00
    0.19822E+06        -0.49372E+08         0.00000E+00
    0.00000E+00         0.00000E+00        -0.61294E+08
 
   -0.59957E+08         0.25597E+06         0.00000E+00
    0.25597E+06        -0.49335E+08         0.00000E+00
    0.00000E+00         0.00000E+00        -0.61304E+08
 
   -0.60050E+08         0.31633E+06         0.00000E+00
    0.31633E+06        -0.49296E+08         0.00000E+00
    0.00000E+00         0.00000E+00        -0.61314E+08
 
   -0.60140E+08         0.37927E+06         0.00000E+00
    0.37927E+06        -0.49255E+08         0.00000E+00
    0.00000E+00         0.00000E+00        -0.61323E+08
 
   -0.60230E+08         0.44486E+06         0.00000E+00
    0.44486E+06        -0.49213E+08         0.00000E+00
    0.00000E+00         0.00000E+00        -0.61332E+08
 
   -0.60317E+08         0.51317E+06         0.00000E+00
    0.51317E+06        -0.49170E+08         0.00000E+00
    0.00000E+00         0.00000E+00        -0.61339E+08
 
   -0.60401E+08         0.58402E+06         0.00000E+00
    0.58402E+06        -0.49125E+08         0.00000E+00
    0.00000E+00         0.00000E+00        -0.61346E+08
 
   -0.60483E+08         0.65711E+06         0.00000E+00
    0.65711E+06        -0.49079E+08         0.00000E+00
    0.00000E+00         0.00000E+00        -0.61353E+08
 
   -0.60561E+08         0.73263E+06         0.00000E+00
    0.73263E+06        -0.49030E+08         0.00000E+00
    0.00000E+00         0.00000E+00        -0.61357E+08
 
   -0.60634E+08         0.81216E+06         0.00000E+00
    0.81216E+06        -0.48978E+08         0.00000E+00
    0.00000E+00         0.00000E+00        -0.61361E+08
 
   -0.60701E+08         0.89510E+06         0.00000E+00
    0.89510E+06        -0.48933E+08         0.00000E+00
    0.00000E+00         0.00000E+00        -0.61364E+08
 
   -0.60761E+08         0.97589E+06         0.00000E+00
    0.97589E+06        -0.48893E+08         0.00000E+00
    0.00000E+00         0.00000E+00        -0.61367E+08
 
   -0.60814E+08         0.10508E+07         0.00000E+00
    0.10508E+07        -0.48837E+08         0.00000E+00
    0.00000E+00         0.00000E+00        -0.61365E+08
 
   -0.60867E+08         0.11210E+07         0.00000E+00
    0.11210E+07        -0.48753E+08         0.00000E+00
    0.00000E+00         0.00000E+00        -0.61358E+08
 
   -0.60882E+08         0.11890E+07         0.00000E+00
    0.11890E+07        -0.48678E+08         0.00000E+00
    0.00000E+00         0.00000E+00        -0.61298E+08
 
   -0.60892E+08         0.12598E+07         0.00000E+00
    0.12598E+07        -0.48612E+08         0.00000E+00
    0.00000E+00         0.00000E+00        -0.61226E+08
 
   -0.60868E+08         0.13266E+07         0.00000E+00
    0.13266E+07        -0.48587E+08         0.00000E+00
    0.00000E+00         0.00000E+00        -0.61114E+08
 
   -0.60830E+08         0.13893E+07         0.00000E+00
    0.13893E+07        -0.48554E+08         0.00000E+00
    0.00000E+00         0.00000E+00        -0.60988E+08
 
   -0.60754E+08         0.14412E+07         0.00000E+00
    0.14412E+07        -0.48498E+08         0.00000E+00
    0.00000E+00         0.00000E+00        -0.60833E+08
 
   -0.60668E+08         0.14731E+07         0.00000E+00
    0.14731E+07        -0.48437E+08         0.00000E+00
    0.00000E+00         0.00000E+00        -0.60688E+08
 
   -0.57453E+08        -0.27309E+05         0.00000E+00
   -0.27309E+05        -0.50001E+08         0.00000E+00
    0.00000E+00         0.00000E+00        -0.60499E+08
 
   -0.57485E+08        -0.70437E+05         0.00000E+00
   -0.70437E+05        -0.49998E+08         0.00000E+00
    0.00000E+00         0.00000E+00        -0.60504E+08
 
   -0.57522E+08        -0.10867E+06         0.00000E+00
   -0.10867E+06        -0.49993E+08         0.00000E+00
    0.00000E+00         0.00000E+00        -0.60511E+08
 
   -0.57565E+08        -0.14220E+06         0.00000E+00
   -0.14220E+06        -0.49985E+08         0.00000E+00
    0.00000E+00         0.00000E+00        -0.60518E+08
 
   -0.57612E+08        -0.17114E+06         0.00000E+00
   -0.17114E+06        -0.49975E+08         0.00000E+00
    0.00000E+00         0.00000E+00        -0.60525E+08
 
   -0.57663E+08        -0.19560E+06         0.00000E+00
   -0.19560E+06        -0.49964E+08         0.00000E+00
    0.00000E+00         0.00000E+00        -0.60533E+08
 
   -0.57718E+08        -0.21570E+06         0.00000E+00
   -0.21570E+06        -0.49950E+08         0.00000E+00
    0.00000E+00         0.00000E+00        -0.60541E+08
 
   -0.57776E+08        -0.23153E+06         0.00000E+00
   -0.23153E+06        -0.49935E+08         0.00000E+00
    0.00000E+00         0.00000E+00        -0.60550E+08
 
   -0.57837E+08        -0.24319E+06         0.00000E+00
   -0.24319E+06        -0.49919E+08         0.00000E+00
    0.00000E+00         0.00000E+00        -0.60559E+08
 
   -0.57902E+08        -0.25078E+06         0.00000E+00
   -0.25078E+06        -0.49901E+08         0.00000E+00
    0.00000E+00         0.00000E+00        -0.60568E+08
 
   -0.57969E+08        -0.25440E+06         0.00000E+00
   -0.25440E+06        -0.49882E+08         0.00000E+00
    0.00000E+00         0.00000E+00        -0.60577E+08
 
   -0.58038E+08        -0.25414E+06         0.00000E+00
   -0.25414E+06        -0.49861E+08         0.00000E+00
    0.00000E+00         0.00000E+00        -0.60587E+08
 
   -0.58110E+08        -0.25009E+06         0.00000E+00
   -0.25009E+06        -0.49839E+08         0.00000E+00
    0.00000E+00         0.00000E+00        -0.60597E+08
 
   -0.58184E+08        -0.24233E+06         0.00000E+00
   -0.24233E+06        -0.49816E+08         0.00000E+00
    0.00000E+00         0.00000E+00        -0.60607E+08
 
   -0.58259E+08        -0.23093E+06         0.00000E+00
   -0.23093E+06        -0.49792E+08         0.00000E+00
    0.00000E+00         0.00000E+00        -0.60617E+08
 
   -0.58336E+08        -0.21598E+06         0.00000E+00
   -0.21598E+06        -0.49767E+08         0.00000E+00
    0.00000E+00         0.00000E+00        -0.60627E+08
 
   -0.58415E+08        -0.19755E+06         0.00000E+00
   -0.19755E+06        -0.49741E+08         0.00000E+00
    0.00000E+00         0.00000E+00        -0.60637E+08
 
   -0.58494E+08        -0.17571E+06         0.00000E+00
   -0.17571E+06        -0.49714E+08         0.00000E+00
    0.00000E+00         0.00000E+00        -0.60648E+08
 
   -0.58575E+08        -0.15053E+06         0.00000E+00
   -0.15053E+06        -0.49687E+08         0.00000E+00
    0.00000E+00         0.00000E+00        -0.60658E+08
 
   -0.58656E+08        -0.12207E+06         0.00000E+00
   -0.12207E+06        -0.49658E+08         0.00000E+00
    0.00000E+00         0.00000E+00        -0.60668E+08
 
   -0.58738E+08        -0.90402E+05         0.00000E+00
   -0.90402E+05        -0.49628E+08         0.00000E+00
    0.00000E+00         0.00000E+00        -0.60678E+08
 
   -0.58821E+08        -0.55588E+05         0.00000E+00
   -0.55588E+05        -0.49598E+08         0.00000E+00
    0.00000E+00         0.00000E+00        -0.60688E+08
 
   -0.58904E+08        -0.17684E+05         0.00000E+00
   -0.17684E+05        -0.49566E+08         0.00000E+00
    0.00000E+00         0.00000E+00        -0.60698E+08
 
   -0.58987E+08         0.23258E+05         0.00000E+00
    0.23258E+05        -0.49534E+08         0.00000E+00
    0.00000E+00         0.00000E+00        -0.60708E+08
 
   -0.59071E+08         0.67190E+05         0.00000E+00
    0.67190E+05        -0.49501E+08         0.00000E+00
    0.00000E+00         0.00000E+00        -0.60718E+08
 
   -0.59154E+08         0.11407E+06         0.00000E+00
    0.11407E+06        -0.49467E+08         0.00000E+00
    0.00000E+00         0.00000E+00        -0.60727E+08
 
   -0.59238E+08         0.16386E+06         0.00000E+00
    0.16386E+06        -0.49432E+08         0.00000E+00
    0.00000E+00         0.00000E+00        -0.60737E+08
 
   -0.59321E+08         0.21652E+06         0.00000E+00
    0.21652E+06        -0.49396E+08         0.00000E+00
    0.00000E+00         0.00000E+00        -0.60745E+08
 
   -0.59403E+08         0.27204E+06         0.00000E+00
    0.27204E+06        -0.49359E+08         0.00000E+00
    0.00000E+00         0.00000E+00        -0.60754E+08
 
   -0.59485E+08         0.33039E+06         0.00000E+00
    0.33039E+06        -0.49322E+08         0.00000E+00
    0.00000E+00         0.00000E+00        -0.60762E+08
 
   -0.59566E+08         0.39155E+06         0.00000E+00
    0.39155E+06        -0.49283E+08         0.00000E+00
    0.00000E+00         0.00000E+00        -0.60770E+08
 
   -0.59646E+08         0.45550E+06         0.00000E+00
    0.45550E+06        -0.49243E+08         0.00000E+00
    0.00000E+00         0.00000E+00        -0.60778E+08
 
   -0.59725E+08         0.52222E+06         0.00000E+00
    0.52222E+06        -0.49202E+08         0.00000E+00
    0.00000E+00         0.00000E+00        -0.60785E+08
 
   -0.59803E+08         0.59170E+06         0.00000E+00
    0.59170E+06        -0.49161E+08         0.00000E+00
    0.00000E+00         0.00000E+00        -0.60791E+08
 
   -0.59879E+08         0.66388E+06         0.00000E+00
    0.66388E+06        -0.49118E+08         0.00000E+00
    0.00000E+00         0.00000E+00        -0.60797E+08
 
   -0.59953E+08         0.73870E+06         0.00000E+00
    0.73870E+06        -0.49074E+08         0.00000E+00
    0.00000E+00         0.00000E+00        -0.60803E+08
 
   -0.60025E+08         0.81612E+06         0.00000E+00
    0.81612E+06        -0.49029E+08         0.00000E+00
    0.00000E+00         0.00000E+00        -0.60807E+08
 
   -0.60094E+08         0.89612E+06         0.00000E+00
    0.89612E+06        -0.48984E+08         0.00000E+00
    0.00000E+00         0.00000E+00        -0.60811E+08
 
   -0.60160E+08         0.97850E+06         0.00000E+00
    0.97850E+06        -0.48937E+08         0.00000E+00
    0.00000E+00         0.00000E+00        -0.60815E+08
 
   -0.60224E+08         0.10625E+07         0.00000E+00
    0.10625E+07        -0.48890E+08         0.00000E+00
    0.00000E+00         0.00000E+00        -0.60817E+08
 
   -0.60284E+08         0.11479E+07         0.00000E+00
    0.11479E+07        -0.48841E+08         0.00000E+00
    0.00000E+00         0.00000E+00        -0.60819E+08
 
   -0.60340E+08         0.12359E+07         0.00000E+00
    0.12359E+07        -0.48789E+08         0.00000E+00
    0.00000E+00         0.00000E+00        -0.60819E+08
 
   -0.60392E+08         0.13265E+07         0.00000E+00
    0.13265E+07        -0.48739E+08         0.00000E+00
    0.00000E+00         0.00000E+00        -0.60818E+08
 
   -0.60436E+08         0.14183E+07         0.00000E+00
    0.14183E+07        -0.48693E+08         0.00000E+00
    0.00000E+00         0.00000E+00        -0.60817E+08
 
   -0.60474E+08         0.15042E+07         0.00000E+00
    0.15042E+07        -0.48652E+08         0.00000E+00
    0.00000E+00         0.00000E+00        -0.60816E+08
 
   -0.60510E+08         0.15798E+07         0.00000E+00
    0.15798E+07        -0.48603E+08         0.00000E+00
    0.00000E+00         0.00000E+00        -0.60813E+08
 
   -0.60545E+08         0.16506E+07         0.00000E+00
    0.16506E+07        -0.48506E+08         0.00000E+00
    0.00000E+00         0.00000E+00        -0.60800E+08
 
   -0.60575E+08         0.17132E+07         0.00000E+00
    0.17132E+07        -0.48411E+08         0.00000E+00
    0.00000E+00         0.00000E+00        -0.60768E+08
 
   -0.60573E+08         0.17714E+07         0.00000E+00
    0.17714E+07        -0.48325E+08         0.00000E+00
    0.00000E+00         0.00000E+00        -0.60691E+08
 
   -0.60579E+08         0.18274E+07         0.00000E+00
    0.18274E+07        -0.48239E+08         0.00000E+00
    0.00000E+00         0.00000E+00        -0.60619E+08
 
   -0.57647E+08        -0.19395E+05         0.00000E+00
   -0.19395E+05        -0.50001E+08         0.00000E+00
    0.00000E+00         0.00000E+00        -0.60096E+08
 
   -0.57657E+08        -0.49330E+05         0.00000E+00
   -0.49330E+05        -0.49998E+08         0.00000E+00
    0.00000E+00         0.00000E+00        -0.60098E+08
 
   -0.57673E+08        -0.75505E+05         0.00000E+00
   -0.75505E+05        -0.49992E+08         0.00000E+00
    0.00000E+00         0.00000E+00        -0.60100E+08
 
   -0.57694E+08        -0.97909E+05         0.00000E+00
   -0.97909E+05        -0.49985E+08         0.00000E+00
    0.00000E+00         0.00000E+00        -0.60102E+08
 
   -0.57721E+08        -0.11656E+06         0.00000E+00
   -0.11656E+06        -0.49974E+08         0.00000E+00
    0.00000E+00         0.00000E+00        -0.60106E+08
 
   -0.57751E+08        -0.13149E+06         0.00000E+00
   -0.13149E+06        -0.49962E+08         0.00000E+00
    0.00000E+00         0.00000E+00        -0.60109E+08
 
   -0.57786E+08        -0.14273E+06         0.00000E+00
   -0.14273E+06        -0.49948E+08         0.00000E+00
    0.00000E+00         0.00000E+00        -0.60114E+08
 
   -0.57825E+08        -0.15032E+06         0.00000E+00
   -0.15032E+06        -0.49933E+08         0.00000E+00
    0.00000E+00         0.00000E+00        -0.60118E+08
 
   -0.57867E+08        -0.15431E+06         0.00000E+00
   -0.15431E+06        -0.49915E+08         0.00000E+00
    0.00000E+00         0.00000E+00        -0.60123E+08
 
   -0.57913E+08        -0.15474E+06         0.00000E+00
   -0.15474E+06        -0.49897E+08         0.00000E+00
    0.00000E+00         0.00000E+00        -0.60129E+08
 
   -0.57961E+08        -0.15164E+06         0.00000E+00
   -0.15164E+06        -0.49876E+08         0.00000E+00
    0.00000E+00         0.00000E+00        -0.60134E+08
 
   -0.58013E+08        -0.14507E+06         0.00000E+00
   -0.14507E+06        -0.49855E+08         0.00000E+00
    0.00000E+00         0.00000E+00        -0.60140E+08
 
   -0.58066E+08        -0.13508E+06         0.00000E+00
   -0.13508E+06        -0.49832E+08         0.00000E+00
    0.00000E+00         0.00000E+00        -0.60146E+08
 
   -0.58122E+08        -0.12170E+06         0.00000E+00
   -0.12170E+06        -0.49808E+08         0.00000E+00
    0.00000E+00         0.00000E+00        -0.60153E+08
 
   -0.58181E+08        -0.10499E+06         0.00000E+00
   -0.10499E+06        -0.49783E+08         0.00000E+00
    0.00000E+00         0.00000E+00        -0.60159E+08
 
   -0.58241E+08        -0.84999E+05         0.00000E+00
   -0.84999E+05        -0.49757E+08         0.00000E+00
    0.00000E+00         0.00000E+00        -0.60166E+08
 
   -0.58302E+08        -0.61760E+05         0.00000E+00
   -0.61760E+05        -0.49730E+08         0.00000E+00
    0.00000E+00         0.00000E+00        -0.60173E+08
 
   -0.58365E+08        -0.35322E+05         0.00000E+00
   -0.35322E+05        -0.49702E+08         0.00000E+00
    0.00000E+00         0.00000E+00        -0.60180E+08
 
   -0.58430E+08        -0.57250E+04         0.00000E+00
   -0.57250E+04        -0.49673E+08         0.00000E+00
    0.00000E+00         0.00000E+00        -0.60187E+08
 
   -0.58496E+08         0.26988E+05         0.00000E+00
    0.26988E+05        -0.49644E+08         0.00000E+00
    0.00000E+00         0.00000E+00        -0.60194E+08
 
   -0.58562E+08         0.62778E+05         0.00000E+00
    0.62778E+05        -0.49613E+08         0.00000E+00
    0.00000E+00         0.00000E+00        -0.60201E+08
 
   -0.58629E+08         0.10161E+06         0.00000E+00
    0.10161E+06        -0.49582E+08         0.00000E+00
    0.00000E+00         0.00000E+00        -0.60208E+08
 
   -0.58697E+08         0.14344E+06         0.00000E+00
    0.14344E+06        -0.49551E+08         0.00000E+00
    0.00000E+00         0.00000E+00        -0.60215E+08
 
   -0.58766E+08         0.18824E+06         0.00000E+00
    0.18824E+06        -0.49518E+08         0.00000E+00
    0.00000E+00         0.00000E+00        -0.60222E+08
 
   -0.58835E+08         0.23597E+06         0.00000E+00
    0.23597E+06        -0.49485E+08         0.00000E+00
    0.00000E+00         0.00000E+00        -0.60229E+08
 
   -0.58903E+08         0.28660E+06         0.00000E+00
    0.28660E+06        -0.49451E+08         0.00000E+00
    0.00000E+00         0.00000E+00        -0.60236E+08
 
   -0.58972E+08         0.34010E+06         0.00000E+00
    0.34010E+06        -0.49417E+08         0.00000E+00
    0.00000E+00         0.00000E+00        -0.60242E+08
 
   -0.59041E+08         0.39645E+06         0.00000E+00
    0.39645E+06        -0.49382E+08         0.00000E+00
    0.00000E+00         0.00000E+00        -0.60249E+08
 
   -0.59109E+08         0.45560E+06         0.00000E+00
    0.45560E+06        -0.49347E+08         0.00000E+00
    0.00000E+00         0.00000E+00        -0.60255E+08
 
   -0.59177E+08         0.51753E+06         0.00000E+00
    0.51753E+06        -0.49311E+08         0.00000E+00
    0.00000E+00         0.00000E+00        -0.60261E+08
 
   -0.59245E+08         0.58221E+06         0.00000E+00
    0.58221E+06        -0.49275E+08         0.00000E+00
    0.00000E+00         0.00000E+00        -0.60267E+08
 
   -0.59311E+08         0.64959E+06         0.00000E+00
    0.64959E+06        -0.49239E+08         0.00000E+00
    0.00000E+00         0.00000E+00        -0.60273E+08
 
   -0.59376E+08         0.71963E+06         0.00000E+00
    0.71963E+06        -0.49202E+08         0.00000E+00
    0.00000E+00         0.00000E+00        -0.60278E+08
 
   -0.59441E+08         0.79228E+06         0.00000E+00
    0.79228E+06        -0.49164E+08         0.00000E+00
    0.00000E+00         0.00000E+00        -0.60283E+08
 
   -0.59504E+08         0.86747E+06         0.00000E+00
    0.86747E+06        -0.49127E+08         0.00000E+00
    0.00000E+00         0.00000E+00        -0.60288E+08
 
   -0.59565E+08         0.94514E+06         0.00000E+00
    0.94514E+06        -0.49089E+08         0.00000E+00
    0.00000E+00         0.00000E+00        -0.60292E+08
 
   -0.59625E+08         0.10252E+07         0.00000E+00
    0.10252E+07        -0.49052E+08         0.00000E+00
    0.00000E+00         0.00000E+00        -0.60296E+08
 
   -0.59683E+08         0.11074E+07         0.00000E+00
    0.11074E+07        -0.49014E+08         0.00000E+00
    0.00000E+00         0.00000E+00        -0.60300E+08
 
   -0.59739E+08         0.11917E+07         0.00000E+00
    0.11917E+07        -0.48976E+08         0.00000E+00
    0.00000E+00         0.00000E+00        -0.60303E+08
 
   -0.59794E+08         0.12781E+07         0.00000E+00
    0.12781E+07        -0.48939E+08         0.00000E+00
    0.00000E+00         0.00000E+00        -0.60306E+08
 
   -0.59845E+08         0.13663E+07         0.00000E+00
    0.13663E+07        -0.48902E+08         0.00000E+00
    0.00000E+00         0.00000E+00        -0.60309E+08
 
   -0.59895E+08         0.14556E+07         0.00000E+00
    0.14556E+07        -0.48865E+08         0.00000E+00
    0.00000E+00         0.00000E+00        -0.60311E+08
 
   -0.59943E+08         0.15457E+07         0.00000E+00
    0.15457E+07        -0.48828E+08         0.00000E+00
    0.00000E+00         0.00000E+00        -0.60313E+08
 
   -0.59990E+08         0.16363E+07         0.00000E+00
    0.16363E+07        -0.48792E+08         0.00000E+00
    0.00000E+00         0.00000E+00        -0.60314E+08
 
   -0.60036E+08         0.17285E+07         0.00000E+00
    0.17285E+07        -0.48754E+08         0.00000E+00
    0.00000E+00         0.00000E+00        -0.60316E+08
 
   -0.60080E+08         0.18229E+07         0.00000E+00
    0.18229E+07        -0.48716E+08         0.00000E+00
    0.00000E+00         0.00000E+00        -0.60317E+08
 
   -0.60124E+08         0.19165E+07         0.00000E+00
    0.19165E+07        -0.48689E+08         0.00000E+00
    0.00000E+00         0.00000E+00        -0.60320E+08
 
   -0.60167E+08         0.20069E+07         0.00000E+00
    0.20069E+07        -0.48661E+08         0.00000E+00
    0.00000E+00         0.00000E+00        -0.60322E+08
 
   -0.60218E+08         0.20862E+07         0.00000E+00
    0.20862E+07        -0.48639E+08         0.00000E+00
    0.00000E+00         0.00000E+00        -0.60328E+08
 
   -0.60297E+08         0.21512E+07         0.00000E+00
    0.21512E+07        -0.48614E+08         0.00000E+00
    0.00000E+00         0.00000E+00        -0.60339E+08
 
   -0.57772E+08        -0.11709E+05         0.00000E+00
   -0.11709E+05        -0.50001E+08         0.00000E+00
    0.00000E+00         0.00000E+00        -0.59690E+08
 
   -0.57766E+08        -0.28655E+05         0.00000E+00
   -0.28655E+05        -0.49998E+08         0.00000E+00
    0.00000E+00         0.00000E+00        -0.59688E+08
 
   -0.57765E+08        -0.42737E+05         0.00000E+00
   -0.42737E+05        -0.49993E+08         0.00000E+00
    0.00000E+00         0.00000E+00        -0.59687E+08
 
   -0.57770E+08        -0.53909E+05         0.00000E+00
   -0.53909E+05        -0.49985E+08         0.00000E+00
    0.00000E+00         0.00000E+00        -0.59687E+08
 
   -0.57779E+08        -0.62128E+05         0.00000E+00
   -0.62128E+05        -0.49976E+08         0.00000E+00
    0.00000E+00         0.00000E+00        -0.59687E+08
 
   -0.57793E+08        -0.67363E+05         0.00000E+00
   -0.67363E+05        -0.49964E+08         0.00000E+00
    0.00000E+00         0.00000E+00        -0.59687E+08
 
   -0.57812E+08        -0.69593E+05         0.00000E+00
   -0.69593E+05        -0.49951E+08         0.00000E+00
    0.00000E+00         0.00000E+00        -0.59688E+08
 
   -0.57834E+08        -0.68805E+05         0.00000E+00
   -0.68805E+05        -0.49935E+08         0.00000E+00
    0.00000E+00         0.00000E+00        -0.59690E+08
 
   -0.57859E+08        -0.64994E+05         0.00000E+00
   -0.64994E+05        -0.49919E+08         0.00000E+00
    0.00000E+00         0.00000E+00        -0.59691E+08
 
   -0.57889E+08        -0.58159E+05         0.00000E+00
   -0.58159E+05        -0.49900E+08         0.00000E+00
    0.00000E+00         0.00000E+00        -0.59694E+08
 
   -0.57921E+08        -0.48305E+05         0.00000E+00
   -0.48305E+05        -0.49881E+08         0.00000E+00
    0.00000E+00         0.00000E+00        -0.59696E+08
 
   -0.57956E+08        -0.35441E+05         0.00000E+00
   -0.35441E+05        -0.49860E+08         0.00000E+00
    0.00000E+00         0.00000E+00        -0.59699E+08
 
   -0.57994E+08        -0.19580E+05         0.00000E+00
   -0.19580E+05        -0.49838E+08         0.00000E+00
    0.00000E+00         0.00000E+00        -0.59703E+08
 
   -0.58034E+08        -0.73791E+03         0.00000E+00
   -0.73791E+03        -0.49815E+08         0.00000E+00
    0.00000E+00         0.00000E+00        -0.59706E+08
 
   -0.58077E+08         0.21068E+05         0.00000E+00
    0.21068E+05        -0.49790E+08         0.00000E+00
    0.00000E+00         0.00000E+00        -0.59710E+08
 
   -0.58121E+08         0.45818E+05         0.00000E+00
    0.45818E+05        -0.49765E+08         0.00000E+00
    0.00000E+00         0.00000E+00        -0.59714E+08
 
   -0.58167E+08         0.73490E+05         0.00000E+00
    0.73490E+05        -0.49739E+08         0.00000E+00
    0.00000E+00         0.00000E+00        -0.59718E+08
 
   -0.58215E+08         0.10406E+06         0.00000E+00
    0.10406E+06        -0.49712E+08         0.00000E+00
    0.00000E+00         0.00000E+00        -0.59722E+08
 
   -0.58265E+08         0.13750E+06         0.00000E+00
    0.13750E+06        -0.49685E+08         0.00000E+00
    0.00000E+00         0.00000E+00        -0.59727E+08
 
   -0.58316E+08         0.17380E+06         0.00000E+00
    0.17380E+06        -0.49657E+08         0.00000E+00
    0.00000E+00         0.00000E+00        -0.59731E+08
 
   -0.58368E+08         0.21291E+06         0.00000E+00
    0.21291E+06        -0.49628E+08         0.00000E+00
    0.00000E+00         0.00000E+00        -0.59736E+08
 
   -0.58420E+08         0.25482E+06         0.00000E+00
    0.25482E+06        -0.49598E+08         0.00000E+00
    0.00000E+00         0.00000E+00        -0.59740E+08
 
   -0.58474E+08         0.29949E+06         0.00000E+00
    0.29949E+06        -0.49569E+08         0.00000E+00
    0.00000E+00         0.00000E+00        -0.59745E+08
 
   -0.58528E+08         0.34690E+06         0.00000E+00
    0.34690E+06        -0.49538E+08         0.00000E+00
    0.00000E+00         0.00000E+00        -0.59750E+08
 
   -0.58583E+08         0.39701E+06         0.00000E+00
    0.39701E+06        -0.49508E+08         0.00000E+00
    0.00000E+00         0.00000E+00        -0.59755E+08
 
   -0.58638E+08         0.44978E+06         0.00000E+00
    0.44978E+06        -0.49477E+08         0.00000E+00
    0.00000E+00         0.00000E+00        -0.59760E+08
 
   -0.58693E+08         0.50519E+06         0.00000E+00
    0.50519E+06        -0.49445E+08         0.00000E+00
    0.00000E+00         0.00000E+00        -0.59764E+08
 
   -0.58748E+08         0.56318E+06         0.00000E+00
    0.56318E+06        -0.49414E+08         0.00000E+00
    0.00000E+00         0.00000E+00        -0.59769E+08
 
   -0.58804E+08         0.62373E+06         0.00000E+00
    0.62373E+06        -0.49383E+08         0.00000E+00
    0.00000E+00         0.00000E+00        -0.59774E+08
 
   -0.58858E+08         0.68677E+06         0.00000E+00
    0.68677E+06        -0.49351E+08         0.00000E+00
    0.00000E+00         0.00000E+00        -0.59778E+08
 
   -0.58913E+08         0.75225E+06         0.00000E+00
    0.75225E+06        -0.49319E+08         0.00000E+00
    0.00000E+00         0.00000E+00        -0.59783E+08
 
   -0.58967E+08         0.82011E+06         0.00000E+00
    0.82011E+06        -0.49288E+08         0.00000E+00
    0.00000E+00         0.00000E+00        -0.59787E+08
 
   -0.59020E+08         0.89028E+06         0.00000E+00
    0.89028E+06        -0.49256E+08         0.00000E+00
    0.00000E+00         0.00000E+00        -0.59791E+08
 
   -0.59073E+08         0.96268E+06         0.00000E+00
    0.96268E+06        -0.49225E+08         0.00000E+00
    0.00000E+00         0.00000E+00        -0.59795E+08
 
   -0.59124E+08         0.10372E+07         0.00000E+00
    0.10372E+07        -0.49194E+08         0.00000E+00
    0.00000E+00         0.00000E+00        -0.59799E+08
 
   -0.59175E+08         0.11138E+07         0.00000E+00
    0.11138E+07        -0.49164E+08         0.00000E+00
    0.00000E+00         0.00000E+00        -0.59803E+08
 
   -0.59224E+08         0.11922E+07         0.00000E+00
    0.11922E+07        -0.49134E+08         0.00000E+00
    0.00000E+00         0.00000E+00        -0.59807E+08
 
   -0.59273E+08         0.12724E+07         0.00000E+00
    0.12724E+07        -0.49105E+08         0.00000E+00
    0.00000E+00         0.00000E+00        -0.59810E+08
 
   -0.59320E+08         0.13543E+07         0.00000E+00
    0.13543E+07        -0.49076E+08         0.00000E+00
    0.00000E+00         0.00000E+00        -0.59814E+08
 
   -0.59367E+08         0.14375E+07         0.00000E+00
    0.14375E+07        -0.49048E+08         0.00000E+00
    0.00000E+00         0.00000E+00        -0.59817E+08
 
   -0.59412E+08         0.15219E+07         0.00000E+00
    0.15219E+07        -0.49021E+08         0.00000E+00
    0.00000E+00         0.00000E+00        -0.59821E+08
 
   -0.59457E+08         0.16074E+07         0.00000E+00
    0.16074E+07        -0.48994E+08         0.00000E+00
    0.00000E+00         0.00000E+00        -0.59824E+08
 
   -0.59501E+08         0.16937E+07         0.00000E+00
    0.16937E+07        -0.48969E+08         0.00000E+00
    0.00000E+00         0.00000E+00        -0.59828E+08
 
   -0.59544E+08         0.17807E+07         0.00000E+00
    0.17807E+07        -0.48945E+08         0.00000E+00
    0.00000E+00         0.00000E+00        -0.59832E+08
 
   -0.59588E+08         0.18679E+07         0.00000E+00
    0.18679E+07        -0.48921E+08         0.00000E+00
    0.00000E+00         0.00000E+00        -0.59836E+08
 
   -0.59633E+08         0.19545E+07         0.00000E+00
    0.19545E+07        -0.48899E+08         0.00000E+00
    0.00000E+00         0.00000E+00        -0.59840E+08
 
   -0.59680E+08         0.20412E+07         0.00000E+00
    0.20412E+07        -0.48876E+08         0.00000E+00
    0.00000E+00         0.00000E+00        -0.59845E+08
 
   -0.59731E+08         0.21285E+07         0.00000E+00
    0.21285E+07        -0.48853E+08         0.00000E+00
    0.00000E+00         0.00000E+00        -0.59850E+08
 
   -0.59785E+08         0.22187E+07         0.00000E+00
    0.22187E+07        -0.48829E+08         0.00000E+00
    0.00000E+00         0.00000E+00        -0.59856E+08
 
   -0.59838E+08         0.23158E+07         0.00000E+00
    0.23158E+07        -0.48801E+08         0.00000E+00
    0.00000E+00         0.00000E+00        -0.59861E+08
 
   -0.57832E+08        -0.47328E+04         0.00000E+00
   -0.47328E+04        -0.50001E+08         0.00000E+00
    0.00000E+00         0.00000E+00        -0.59282E+08
 
   -0.57814E+08        -0.96112E+04         0.00000E+00
   -0.96112E+04        -0.49998E+08         0.00000E+00
    0.00000E+00         0.00000E+00        -0.59278E+08
 
   -0.57801E+08        -0.12393E+05         0.00000E+00
   -0.12393E+05        -0.49994E+08         0.00000E+00
    0.00000E+00         0.00000E+00        -0.59274E+08
 
   -0.57793E+08        -0.12989E+05         0.00000E+00
   -0.12989E+05        -0.49987E+08         0.00000E+00
    0.00000E+00         0.00000E+00        -0.59271E+08
 
   -0.57789E+08        -0.11322E+05         0.00000E+00
   -0.11322E+05        -0.49978E+08         0.00000E+00
    0.00000E+00         0.00000E+00        -0.59269E+08
 
   -0.57790E+08        -0.73281E+04         0.00000E+00
   -0.73281E+04        -0.49968E+08         0.00000E+00
    0.00000E+00         0.00000E+00        -0.59267E+08
 
   -0.57794E+08        -0.95331E+03         0.00000E+00
   -0.95331E+03        -0.49955E+08         0.00000E+00
    0.00000E+00         0.00000E+00        -0.59266E+08
 
   -0.57803E+08         0.78479E+04         0.00000E+00
    0.78479E+04        -0.49941E+08         0.00000E+00
    0.00000E+00         0.00000E+00        -0.59265E+08
 
   -0.57815E+08         0.19113E+05         0.00000E+00
    0.19113E+05        -0.49926E+08         0.00000E+00
    0.00000E+00         0.00000E+00        -0.59264E+08
 
   -0.57830E+08         0.32871E+05         0.00000E+00
    0.32871E+05        -0.49909E+08         0.00000E+00
    0.00000E+00         0.00000E+00        -0.59264E+08
 
   -0.57849E+08         0.49145E+05         0.00000E+00
    0.49145E+05        -0.49891E+08         0.00000E+00
    0.00000E+00         0.00000E+00        -0.59264E+08
 
   -0.57870E+08         0.67952E+05         0.00000E+00
    0.67952E+05        -0.49872E+08         0.00000E+00
    0.00000E+00         0.00000E+00        -0.59265E+08
 
   -0.57894E+08         0.89303E+05         0.00000E+00
    0.89303E+05        -0.49852E+08         0.00000E+00
    0.00000E+00         0.00000E+00        -0.59266E+08
 
   -0.57920E+08         0.11320E+06         0.00000E+00
    0.11320E+06        -0.49830E+08         0.00000E+00
    0.00000E+00         0.00000E+00        -0.59267E+08
 
   -0.57949E+08         0.13966E+06         0.00000E+00
    0.13966E+06        -0.49808E+08         0.00000E+00
    0.00000E+00         0.00000E+00        -0.59269E+08
 
   -0.57980E+08         0.16867E+06         0.00000E+00
    0.16867E+06        -0.49785E+08         0.00000E+00
    0.00000E+00         0.00000E+00        -0.59270E+08
 
   -0.58013E+08         0.20022E+06         0.00000E+00
    0.20022E+06        -0.49761E+08         0.00000E+00
    0.00000E+00         0.00000E+00        -0.59272E+08
 
   -0.58047E+08         0.23430E+06         0.00000E+00
    0.23430E+06        -0.49737E+08         0.00000E+00
    0.00000E+00         0.00000E+00        -0.59275E+08
 
   -0.58083E+08         0.27092E+06         0.00000E+00
    0.27092E+06        -0.49711E+08         0.00000E+00
    0.00000E+00         0.00000E+00        -0.59277E+08
 
   -0.58121E+08         0.31004E+06         0.00000E+00
    0.31004E+06        -0.49686E+08         0.00000E+00
    0.00000E+00         0.00000E+00        -0.59280E+08
 
   -0.58159E+08         0.35165E+06         0.00000E+00
    0.35165E+06        -0.49660E+08         0.00000E+00
    0.00000E+00         0.00000E+00        -0.59282E+08
 
   -0.58199E+08         0.39572E+06         0.00000E+00
    0.39572E+06        -0.49633E+08         0.00000E+00
    0.00000E+00         0.00000E+00        -0.59285E+08
 
   -0.58240E+08         0.44224E+06         0.00000E+00
    0.44224E+06        -0.49606E+08         0.00000E+00
    0.00000E+00         0.00000E+00        -0.59288E+08
 
   -0.58281E+08         0.49117E+06         0.00000E+00
    0.49117E+06        -0.49579E+08         0.00000E+00
    0.00000E+00         0.00000E+00        -0.59291E+08
 
   -0.58323E+08         0.54249E+06         0.00000E+00
    0.54249E+06        -0.49552E+08         0.00000E+00
    0.00000E+00         0.00000E+00        -0.59294E+08
 
   -0.58366E+08         0.59615E+06         0.00000E+00
    0.59615E+06        -0.49524E+08         0.00000E+00
    0.00000E+00         0.00000E+00        -0.59297E+08
 
   -0.58409E+08         0.65212E+06         0.00000E+00
    0.65212E+06        -0.49497E+08         0.00000E+00
    0.00000E+00         0.00000E+00        -0.59300E+08
 
   -0.58452E+08         0.71034E+06         0.00000E+00
    0.71034E+06        -0.49469E+08         0.00000E+00
    0.00000E+00         0.00000E+00        -0.59304E+08
 
   -0.58495E+08         0.77078E+06         0.00000E+00
    0.77078E+06        -0.49442E+08         0.00000E+00
    0.00000E+00         0.00000E+00        -0.59307E+08
 
   -0.58539E+08         0.83337E+06         0.00000E+00
    0.83337E+06        -0.49415E+08         0.00000E+00
    0.00000E+00         0.00000E+00        -0.59310E+08
 
   -0.58582E+08         0.89806E+06         0.00000E+00
    0.89806E+06        -0.49388E+08         0.00000E+00
    0.00000E+00         0.00000E+00        -0.59314E+08
 
   -0.58625E+08         0.96478E+06         0.00000E+00
    0.96478E+06        -0.49361E+08         0.00000E+00
    0.00000E+00         0.00000E+00        -0.59317E+08
 
   -0.58668E+08         0.10334E+07         0.00000E+00
    0.10334E+07        -0.49334E+08         0.00000E+00
    0.00000E+00         0.00000E+00        -0.59320E+08
 
   -0.58711E+08         0.11040E+07         0.00000E+00
    0.11040E+07        -0.49308E+08         0.00000E+00
    0.00000E+00         0.00000E+00        -0.59324E+08
 
   -0.58753E+08         0.11763E+07         0.00000E+00
    0.11763E+07        -0.49283E+08         0.00000E+00
    0.00000E+00         0.00000E+00        -0.59327E+08
 
   -0.58794E+08         0.12503E+07         0.00000E+00
    0.12503E+07        -0.49257E+08         0.00000E+00
    0.00000E+00         0.00000E+00        -0.59330E+08
 
   -0.58836E+08         0.13259E+07         0.00000E+00
    0.13259E+07        -0.49233E+08         0.00000E+00
    0.00000E+00         0.00000E+00        -0.59334E+08
 
   -0.58876E+08         0.14030E+07         0.00000E+00
    0.14030E+07        -0.49209E+08         0.00000E+00
    0.00000E+00         0.00000E+00        -0.59337E+08
 
   -0.58917E+08         0.14815E+07         0.00000E+00
    0.14815E+07        -0.49185E+08         0.00000E+00
    0.00000E+00         0.00000E+00        -0.59340E+08
 
   -0.58957E+08         0.15612E+07         0.00000E+00
    0.15612E+07        -0.49163E+08         0.00000E+00
    0.00000E+00         0.00000E+00        -0.59344E+08
 
   -0.58996E+08         0.16421E+07         0.00000E+00
    0.16421E+07        -0.49140E+08         0.00000E+00
    0.00000E+00         0.00000E+00        -0.59347E+08
 
   -0.59036E+08         0.17241E+07         0.00000E+00
    0.17241E+07        -0.49119E+08         0.00000E+00
    0.00000E+00         0.00000E+00        -0.59351E+08
 
   -0.59076E+08         0.18072E+07         0.00000E+00
    0.18072E+07        -0.49098E+08         0.00000E+00
    0.00000E+00         0.00000E+00        -0.59355E+08
 
   -0.59116E+08         0.18912E+07         0.00000E+00
    0.18912E+07        -0.49077E+08         0.00000E+00
    0.00000E+00         0.00000E+00        -0.59358E+08
 
   -0.59156E+08         0.19762E+07         0.00000E+00
    0.19762E+07        -0.49056E+08         0.00000E+00
    0.00000E+00         0.00000E+00        -0.59362E+08
 
   -0.59197E+08         0.20626E+07         0.00000E+00
    0.20626E+07        -0.49036E+08         0.00000E+00
    0.00000E+00         0.00000E+00        -0.59367E+08
 
   -0.59239E+08         0.21505E+07         0.00000E+00
    0.21505E+07        -0.49016E+08         0.00000E+00
    0.00000E+00         0.00000E+00        -0.59371E+08
 
   -0.59280E+08         0.22401E+07         0.00000E+00
    0.22401E+07        -0.48995E+08         0.00000E+00
    0.00000E+00         0.00000E+00        -0.59375E+08
 
   -0.59322E+08         0.23314E+07         0.00000E+00
    0.23314E+07        -0.48975E+08         0.00000E+00
    0.00000E+00         0.00000E+00        -0.59379E+08
 
   -0.59365E+08         0.24235E+07         0.00000E+00
    0.24235E+07        -0.48956E+08         0.00000E+00
    0.00000E+00         0.00000E+00        -0.59384E+08
 
   -0.57833E+08         0.13370E+04         0.00000E+00
    0.13370E+04        -0.50001E+08         0.00000E+00
    0.00000E+00         0.00000E+00        -0.58874E+08
 
   -0.57807E+08         0.71559E+04         0.00000E+00
    0.71559E+04        -0.49999E+08         0.00000E+00
    0.00000E+00         0.00000E+00        -0.58868E+08
 
   -0.57784E+08         0.14472E+05         0.00000E+00
    0.14472E+05        -0.49995E+08         0.00000E+00
    0.00000E+00         0.00000E+00        -0.58863E+08
 
   -0.57767E+08         0.23386E+05         0.00000E+00
    0.23386E+05        -0.49989E+08         0.00000E+00
    0.00000E+00         0.00000E+00        -0.58858E+08
 
   -0.57753E+08         0.33991E+05         0.00000E+00
    0.33991E+05        -0.49981E+08         0.00000E+00
    0.00000E+00         0.00000E+00        -0.58854E+08
 
   -0.57743E+08         0.46368E+05         0.00000E+00
    0.46368E+05        -0.49972E+08         0.00000E+00
    0.00000E+00         0.00000E+00        -0.58851E+08
 
   -0.57737E+08         0.60587E+05         0.00000E+00
    0.60587E+05        -0.49961E+08         0.00000E+00
    0.00000E+00         0.00000E+00        -0.58848E+08
 
   -0.57735E+08         0.76711E+05         0.00000E+00
    0.76711E+05        -0.49949E+08         0.00000E+00
    0.00000E+00         0.00000E+00        -0.58845E+08
 
   -0.57736E+08         0.94795E+05         0.00000E+00
    0.94795E+05        -0.49935E+08         0.00000E+00
    0.00000E+00         0.00000E+00        -0.58843E+08
 
   -0.57740E+08         0.11488E+06         0.00000E+00
    0.11488E+06        -0.49920E+08         0.00000E+00
    0.00000E+00         0.00000E+00        -0.58841E+08
 
   -0.57747E+08         0.13702E+06         0.00000E+00
    0.13702E+06        -0.49904E+08         0.00000E+00
    0.00000E+00         0.00000E+00        -0.58839E+08
 
   -0.57756E+08         0.16123E+06         0.00000E+00
    0.16123E+06        -0.49887E+08         0.00000E+00
    0.00000E+00         0.00000E+00        -0.58838E+08
 
   -0.57769E+08         0.18755E+06         0.00000E+00
    0.18755E+06        -0.49869E+08         0.00000E+00
    0.00000E+00         0.00000E+00        -0.58837E+08
 
   -0.57784E+08         0.21599E+06         0.00000E+00
    0.21599E+06        -0.49850E+08         0.00000E+00
    0.00000E+00         0.00000E+00        -0.58837E+08
 
   -0.57801E+08         0.24657E+06         0.00000E+00
    0.24657E+06        -0.49831E+08         0.00000E+00
    0.00000E+00         0.00000E+00        -0.58836E+08
 
   -0.57820E+08         0.27931E+06         0.00000E+00
    0.27931E+06        -0.49810E+08         0.00000E+00
    0.00000E+00         0.00000E+00        -0.58836E+08
 
   -0.57841E+08         0.31421E+06         0.00000E+00
    0.31421E+06        -0.49789E+08         0.00000E+00
    0.00000E+00         0.00000E+00        -0.58837E+08
 
   -0.57863E+08         0.35126E+06         0.00000E+00
    0.35126E+06        -0.49767E+08         0.00000E+00
    0.00000E+00         0.00000E+00        -0.58837E+08
 
   -0.57888E+08         0.39047E+06         0.00000E+00
    0.39047E+06        -0.49745E+08         0.00000E+00
    0.00000E+00         0.00000E+00        -0.58838E+08
 
   -0.57914E+08         0.43183E+06         0.00000E+00
    0.43183E+06        -0.49722E+08         0.00000E+00
    0.00000E+00         0.00000E+00        -0.58839E+08
 
   -0.57941E+08         0.47533E+06         0.00000E+00
    0.47533E+06        -0.49699E+08         0.00000E+00
    0.00000E+00         0.00000E+00        -0.58840E+08
 
   -0.57969E+08         0.52096E+06         0.00000E+00
    0.52096E+06        -0.49676E+08         0.00000E+00
    0.00000E+00         0.00000E+00        -0.58841E+08
 
   -0.57999E+08         0.56868E+06         0.00000E+00
    0.56868E+06        -0.49652E+08         0.00000E+00
    0.00000E+00         0.00000E+00        -0.58843E+08
 
   -0.58029E+08         0.61849E+06         0.00000E+00
    0.61849E+06        -0.49629E+08         0.00000E+00
    0.00000E+00         0.00000E+00        -0.58845E+08
 
   -0.58060E+08         0.67036E+06         0.00000E+00
    0.67036E+06        -0.49605E+08         0.00000E+00
    0.00000E+00         0.00000E+00        -0.58846E+08
 
   -0.58092E+08         0.72425E+06         0.00000E+00
    0.72425E+06        -0.49581E+08         0.00000E+00
    0.00000E+00         0.00000E+00        -0.58848E+08
 
   -0.58124E+08         0.78013E+06         0.00000E+00
    0.78013E+06        -0.49557E+08         0.00000E+00
    0.00000E+00         0.00000E+00        -0.58850E+08
 
   -0.58157E+08         0.83796E+06         0.00000E+00
    0.83796E+06        -0.49533E+08         0.00000E+00
    0.00000E+00         0.00000E+00        -0.58852E+08
 
   -0.58190E+08         0.89770E+06         0.00000E+00
    0.89770E+06        -0.49510E+08         0.00000E+00
    0.00000E+00         0.00000E+00        -0.58854E+08
 
   -0.58224E+08         0.95931E+06         0.00000E+00
    0.95931E+06        -0.49486E+08         0.00000E+00
    0.00000E+00         0.00000E+00        -0.58857E+08
 
   -0.58257E+08         0.10227E+07         0.00000E+00
    0.10227E+07        -0.49463E+08         0.00000E+00
    0.00000E+00         0.00000E+00        -0.58859E+08
 
   -0.58291E+08         0.10879E+07         0.00000E+00
    0.10879E+07        -0.49440E+08         0.00000E+00
    0.00000E+00         0.00000E+00        -0.58861E+08
 
   -0.58325E+08         0.11548E+07         0.00000E+00
    0.11548E+07        -0.49417E+08         0.00000E+00
    0.00000E+00         0.00000E+00        -0.58864E+08
 
   -0.58359E+08         0.12233E+07         0.00000E+00
    0.12233E+07        -0.49395E+08         0.00000E+00
    0.00000E+00         0.00000E+00        -0.58866E+08
 
   -0.58393E+08         0.12934E+07         0.00000E+00
    0.12934E+07        -0.49373E+08         0.00000E+00
    0.00000E+00         0.00000E+00        -0.58869E+08
 
   -0.58427E+08         0.13651E+07         0.00000E+00
    0.13651E+07        -0.49352E+08         0.00000E+00
    0.00000E+00         0.00000E+00        -0.58872E+08
 
   -0.58460E+08         0.14382E+07         0.00000E+00
    0.14382E+07        -0.49331E+08         0.00000E+00
    0.00000E+00         0.00000E+00        -0.58874E+08
 
   -0.58494E+08         0.15127E+07         0.00000E+00
    0.15127E+07        -0.49310E+08         0.00000E+00
    0.00000E+00         0.00000E+00        -0.58877E+08
 
   -0.58528E+08         0.15886E+07         0.00000E+00
    0.15886E+07        -0.49290E+08         0.00000E+00
    0.00000E+00         0.00000E+00        -0.58880E+08
 
   -0.58561E+08         0.16658E+07         0.00000E+00
    0.16658E+07        -0.49271E+08         0.00000E+00
    0.00000E+00         0.00000E+00        -0.58883E+08
 
   -0.58595E+08         0.17443E+07         0.00000E+00
    0.17443E+07        -0.49251E+08         0.00000E+00
    0.00000E+00         0.00000E+00        -0.58886E+08
 
   -0.58629E+08         0.18241E+07         0.00000E+00
    0.18241E+07        -0.49233E+08         0.00000E+00
    0.00000E+00         0.00000E+00        -0.58889E+08
 
   -0.58663E+08         0.19052E+07         0.00000E+00
    0.19052E+07        -0.49214E+08         0.00000E+00
    0.00000E+00         0.00000E+00        -0.58892E+08
 
   -0.58696E+08         0.19875E+07         0.00000E+00
    0.19875E+07        -0.49196E+08         0.00000E+00
    0.00000E+00         0.00000E+00        -0.58896E+08
 
   -0.58730E+08         0.20713E+07         0.00000E+00
    0.20713E+07        -0.49178E+08         0.00000E+00
    0.00000E+00         0.00000E+00        -0.58899E+08
 
   -0.58764E+08         0.21563E+07         0.00000E+00
    0.21563E+07        -0.49161E+08         0.00000E+00
    0.00000E+00         0.00000E+00        -0.58902E+08
 
   -0.58799E+08         0.22428E+07         0.00000E+00
    0.22428E+07        -0.49144E+08         0.00000E+00
    0.00000E+00         0.00000E+00        -0.58906E+08
 
   -0.58833E+08         0.23307E+07         0.00000E+00
    0.23307E+07        -0.49128E+08         0.00000E+00
    0.00000E+00         0.00000E+00        -0.58909E+08
 
   -0.58867E+08         0.24199E+07         0.00000E+00
    0.24199E+07        -0.49111E+08         0.00000E+00
    0.00000E+00         0.00000E+00        -0.58913E+08
 
   -0.58902E+08         0.25109E+07         0.00000E+00
    0.25109E+07        -0.49095E+08         0.00000E+00
    0.00000E+00         0.00000E+00        -0.58917E+08
 
   -0.57784E+08         0.64623E+04         0.00000E+00
    0.64623E+04        -0.50001E+08         0.00000E+00
    0.00000E+00         0.00000E+00        -0.58469E+08
 
   -0.57751E+08         0.21470E+05         0.00000E+00
    0.21470E+05        -0.49999E+08         0.00000E+00
    0.00000E+00         0.00000E+00        -0.58462E+08
 
   -0.57722E+08         0.37517E+05         0.00000E+00
    0.37517E+05        -0.49996E+08         0.00000E+00
    0.00000E+00         0.00000E+00        -0.58456E+08
 
   -0.57697E+08         0.54705E+05         0.00000E+00
    0.54705E+05        -0.49991E+08         0.00000E+00
    0.00000E+00         0.00000E+00        -0.58450E+08
 
   -0.57676E+08         0.73129E+05         0.00000E+00
    0.73129E+05        -0.49984E+08         0.00000E+00
    0.00000E+00         0.00000E+00        -0.58445E+08
 
   -0.57659E+08         0.92871E+05         0.00000E+00
    0.92871E+05        -0.49976E+08         0.00000E+00
    0.00000E+00         0.00000E+00        -0.58440E+08
 
   -0.57644E+08         0.11401E+06         0.00000E+00
    0.11401E+06        -0.49967E+08         0.00000E+00
    0.00000E+00         0.00000E+00        -0.58435E+08
 
   -0.57633E+08         0.13661E+06         0.00000E+00
    0.13661E+06        -0.49956E+08         0.00000E+00
    0.00000E+00         0.00000E+00        -0.58431E+08
 
   -0.57625E+08         0.16075E+06         0.00000E+00
    0.16075E+06        -0.49945E+08         0.00000E+00
    0.00000E+00         0.00000E+00        -0.58428E+08
 
   -0.57620E+08         0.18646E+06         0.00000E+00
    0.18646E+06        -0.49932E+08         0.00000E+00
    0.00000E+00         0.00000E+00        -0.58424E+08
 
   -0.57618E+08         0.21380E+06         0.00000E+00
    0.21380E+06        -0.49918E+08         0.00000E+00
    0.00000E+00         0.00000E+00        -0.58421E+08
 
   -0.57618E+08         0.24281E+06         0.00000E+00
    0.24281E+06        -0.49903E+08         0.00000E+00
    0.00000E+00         0.00000E+00        -0.58419E+08
 
   -0.57621E+08         0.27352E+06         0.00000E+00
    0.27352E+06        -0.49888E+08         0.00000E+00
    0.00000E+00         0.00000E+00        -0.58417E+08
 
   -0.57626E+08         0.30598E+06         0.00000E+00
    0.30598E+06        -0.49871E+08         0.00000E+00
    0.00000E+00         0.00000E+00        -0.58415E+08
 
   -0.57634E+08         0.34019E+06         0.00000E+00
    0.34019E+06        -0.49854E+08         0.00000E+00
    0.00000E+00         0.00000E+00        -0.58413E+08
 
   -0.57643E+08         0.37618E+06         0.00000E+00
    0.37618E+06        -0.49837E+08         0.00000E+00
    0.00000E+00         0.00000E+00        -0.58412E+08
 
   -0.57654E+08         0.41397E+06         0.00000E+00
    0.41397E+06        -0.49818E+08         0.00000E+00
    0.00000E+00         0.00000E+00        -0.58411E+08
 
   -0.57667E+08         0.45356E+06         0.00000E+00
    0.45356E+06        -0.49800E+08         0.00000E+00
    0.00000E+00         0.00000E+00        -0.58410E+08
 
   -0.57681E+08         0.49496E+06         0.00000E+00
    0.49496E+06        -0.49780E+08         0.00000E+00
    0.00000E+00         0.00000E+00        -0.58410E+08
 
   -0.57697E+08         0.53817E+06         0.00000E+00
    0.53817E+06        -0.49761E+08         0.00000E+00
    0.00000E+00         0.00000E+00        -0.58410E+08
 
   -0.57715E+08         0.58319E+06         0.00000E+00
    0.58319E+06        -0.49741E+08         0.00000E+00
    0.00000E+00         0.00000E+00        -0.58409E+08
 
   -0.57733E+08         0.63002E+06         0.00000E+00
    0.63002E+06        -0.49721E+08         0.00000E+00
    0.00000E+00         0.00000E+00        -0.58410E+08
 
   -0.57753E+08         0.67863E+06         0.00000E+00
    0.67863E+06        -0.49700E+08         0.00000E+00
    0.00000E+00         0.00000E+00        -0.58410E+08
 
   -0.57774E+08         0.72903E+06         0.00000E+00
    0.72903E+06        -0.49680E+08         0.00000E+00
    0.00000E+00         0.00000E+00        -0.58410E+08
 
   -0.57795E+08         0.78119E+06         0.00000E+00
    0.78119E+06        -0.49659E+08         0.00000E+00
    0.00000E+00         0.00000E+00        -0.58411E+08
 
   -0.57818E+08         0.83509E+06         0.00000E+00
    0.83509E+06        -0.49639E+08         0.00000E+00
    0.00000E+00         0.00000E+00        -0.58412E+08
 
   -0.57841E+08         0.89070E+06         0.00000E+00
    0.89070E+06        -0.49618E+08         0.00000E+00
    0.00000E+00         0.00000E+00        -0.58413E+08
 
   -0.57865E+08         0.94801E+06         0.00000E+00
    0.94801E+06        -0.49598E+08         0.00000E+00
    0.00000E+00         0.00000E+00        -0.58414E+08
 
   -0.57889E+08         0.10070E+07         0.00000E+00
    0.10070E+07        -0.49577E+08         0.00000E+00
    0.00000E+00         0.00000E+00        -0.58415E+08
 
   -0.57914E+08         0.10676E+07         0.00000E+00
    0.10676E+07        -0.49557E+08         0.00000E+00
    0.00000E+00         0.00000E+00        -0.58416E+08
 
   -0.57939E+08         0.11298E+07         0.00000E+00
    0.11298E+07        -0.49537E+08         0.00000E+00
    0.00000E+00         0.00000E+00        -0.58418E+08
 
   -0.57965E+08         0.11936E+07         0.00000E+00
    0.11936E+07        -0.49517E+08         0.00000E+00
    0.00000E+00         0.00000E+00        -0.58419E+08
 
   -0.57991E+08         0.12589E+07         0.00000E+00
    0.12589E+07        -0.49498E+08         0.00000E+00
    0.00000E+00         0.00000E+00        -0.58421E+08
 
   -0.58017E+08         0.13256E+07         0.00000E+00
    0.13256E+07        -0.49479E+08         0.00000E+00
    0.00000E+00         0.00000E+00        -0.58423E+08
 
   -0.58043E+08         0.13939E+07         0.00000E+00
    0.13939E+07        -0.49460E+08         0.00000E+00
    0.00000E+00         0.00000E+00        -0.58424E+08
 
   -0.58070E+08         0.14636E+07         0.00000E+00
    0.14636E+07        -0.49442E+08         0.00000E+00
    0.00000E+00         0.00000E+00        -0.58426E+08
 
   -0.58097E+08         0.15347E+07         0.00000E+00
    0.15347E+07        -0.49424E+08         0.00000E+00
    0.00000E+00         0.00000E+00        -0.58428E+08
 
   -0.58123E+08         0.16071E+07         0.00000E+00
    0.16071E+07        -0.49406E+08         0.00000E+00
    0.00000E+00         0.00000E+00        -0.58431E+08
 
   -0.58150E+08         0.16810E+07         0.00000E+00
    0.16810E+07        -0.49389E+08         0.00000E+00
    0.00000E+00         0.00000E+00        -0.58433E+08
 
   -0.58177E+08         0.17561E+07         0.00000E+00
    0.17561E+07        -0.49372E+08         0.00000E+00
    0.00000E+00         0.00000E+00        -0.58435E+08
 
   -0.58204E+08         0.18326E+07         0.00000E+00
    0.18326E+07        -0.49355E+08         0.00000E+00
    0.00000E+00         0.00000E+00        -0.58437E+08
 
   -0.58232E+08         0.19104E+07         0.00000E+00
    0.19104E+07        -0.49339E+08         0.00000E+00
    0.00000E+00         0.00000E+00        -0.58440E+08
 
   -0.58259E+08         0.19894E+07         0.00000E+00
    0.19894E+07        -0.49323E+08         0.00000E+00
    0.00000E+00         0.00000E+00        -0.58442E+08
 
   -0.58286E+08         0.20699E+07         0.00000E+00
    0.20699E+07        -0.49308E+08         0.00000E+00
    0.00000E+00         0.00000E+00        -0.58445E+08
 
   -0.58313E+08         0.21516E+07         0.00000E+00
    0.21516E+07        -0.49293E+08         0.00000E+00
    0.00000E+00         0.00000E+00        -0.58447E+08
 
   -0.58341E+08         0.22346E+07         0.00000E+00
    0.22346E+07        -0.49279E+08         0.00000E+00
    0.00000E+00         0.00000E+00        -0.58450E+08
 
   -0.58368E+08         0.23189E+07         0.00000E+00
    0.23189E+07        -0.49265E+08         0.00000E+00
    0.00000E+00         0.00000E+00        -0.58453E+08
 
   -0.58395E+08         0.24047E+07         0.00000E+00
    0.24047E+07        -0.49251E+08         0.00000E+00
    0.00000E+00         0.00000E+00        -0.58456E+08
 
   -0.58422E+08         0.24917E+07         0.00000E+00
    0.24917E+07        -0.49238E+08         0.00000E+00
    0.00000E+00         0.00000E+00        -0.58459E+08
 
   -0.58450E+08         0.25802E+07         0.00000E+00
    0.25802E+07        -0.49226E+08         0.00000E+00
    0.00000E+00         0.00000E+00        -0.58462E+08
 
   -0.57691E+08         0.10705E+05         0.00000E+00
    0.10705E+05        -0.50001E+08         0.00000E+00
    0.00000E+00         0.00000E+00        -0.58069E+08
 
   -0.57654E+08         0.33433E+05         0.00000E+00
    0.33433E+05        -0.49999E+08         0.00000E+00
    0.00000E+00         0.00000E+00        -0.58061E+08
 
   -0.57621E+08         0.56859E+05         0.00000E+00
    0.56859E+05        -0.49996E+08         0.00000E+00
    0.00000E+00         0.00000E+00        -0.58054E+08
 
   -0.57591E+08         0.81078E+05         0.00000E+00
    0.81078E+05        -0.49992E+08         0.00000E+00
    0.00000E+00         0.00000E+00        -0.58047E+08
 
   -0.57564E+08         0.10618E+06         0.00000E+00
    0.10618E+06        -0.49987E+08         0.00000E+00
    0.00000E+00         0.00000E+00        -0.58041E+08
 
   -0.57541E+08         0.13224E+06         0.00000E+00
    0.13224E+06        -0.49980E+08         0.00000E+00
    0.00000E+00         0.00000E+00        -0.58035E+08
 
   -0.57520E+08         0.15934E+06         0.00000E+00
    0.15934E+06        -0.49972E+08         0.00000E+00
    0.00000E+00         0.00000E+00        -0.58030E+08
 
   -0.57503E+08         0.18755E+06         0.00000E+00
    0.18755E+06        -0.49963E+08         0.00000E+00
    0.00000E+00         0.00000E+00        -0.58025E+08
 
   -0.57488E+08         0.21692E+06         0.00000E+00
    0.21692E+06        -0.49954E+08         0.00000E+00
    0.00000E+00         0.00000E+00        -0.58020E+08
 
   -0.57476E+08         0.24752E+06         0.00000E+00
    0.24752E+06        -0.49943E+08         0.00000E+00
    0.00000E+00         0.00000E+00        -0.58016E+08
 
   -0.57466E+08         0.27939E+06         0.00000E+00
    0.27939E+06        -0.49931E+08         0.00000E+00
    0.00000E+00         0.00000E+00        -0.58012E+08
 
   -0.57459E+08         0.31259E+06         0.00000E+00
    0.31259E+06        -0.49919E+08         0.00000E+00
    0.00000E+00         0.00000E+00        -0.58009E+08
 
   -0.57454E+08         0.34715E+06         0.00000E+00
    0.34715E+06        -0.49906E+08         0.00000E+00
    0.00000E+00         0.00000E+00        -0.58006E+08
 
   -0.57451E+08         0.38310E+06         0.00000E+00
    0.38310E+06        -0.49892E+08         0.00000E+00
    0.00000E+00         0.00000E+00        -0.58003E+08
 
   -0.57450E+08         0.42047E+06         0.00000E+00
    0.42047E+06        -0.49877E+08         0.00000E+00
    0.00000E+00         0.00000E+00        -0.58000E+08
 
   -0.57452E+08         0.45930E+06         0.00000E+00
    0.45930E+06        -0.49862E+08         0.00000E+00
    0.00000E+00         0.00000E+00        -0.57998E+08
 
   -0.57455E+08         0.49960E+06         0.00000E+00
    0.49960E+06        -0.49846E+08         0.00000E+00
    0.00000E+00         0.00000E+00        -0.57996E+08
 
   -0.57459E+08         0.54139E+06         0.00000E+00
    0.54139E+06        -0.49830E+08         0.00000E+00
    0.00000E+00         0.00000E+00        -0.57994E+08
 
   -0.57465E+08         0.58469E+06         0.00000E+00
    0.58469E+06        -0.49814E+08         0.00000E+00
    0.00000E+00         0.00000E+00        -0.57993E+08
 
   -0.57473E+08         0.62949E+06         0.00000E+00
    0.62949E+06        -0.49797E+08         0.00000E+00
    0.00000E+00         0.00000E+00        -0.57991E+08
 
   -0.57482E+08         0.67581E+06         0.00000E+00
    0.67581E+06        -0.49780E+08         0.00000E+00
    0.00000E+00         0.00000E+00        -0.57990E+08
 
   -0.57492E+08         0.72365E+06         0.00000E+00
    0.72365E+06        -0.49763E+08         0.00000E+00
    0.00000E+00         0.00000E+00        -0.57989E+08
 
   -0.57504E+08         0.77301E+06         0.00000E+00
    0.77301E+06        -0.49746E+08         0.00000E+00
    0.00000E+00         0.00000E+00        -0.57989E+08
 
   -0.57516E+08         0.82388E+06         0.00000E+00
    0.82388E+06        -0.49728E+08         0.00000E+00
    0.00000E+00         0.00000E+00        -0.57988E+08
 
   -0.57530E+08         0.87626E+06         0.00000E+00
    0.87626E+06        -0.49711E+08         0.00000E+00
    0.00000E+00         0.00000E+00        -0.57988E+08
 
   -0.57544E+08         0.93014E+06         0.00000E+00
    0.93014E+06        -0.49693E+08         0.00000E+00
    0.00000E+00         0.00000E+00        -0.57988E+08
 
   -0.57560E+08         0.98550E+06         0.00000E+00
    0.98550E+06        -0.49676E+08         0.00000E+00
    0.00000E+00         0.00000E+00        -0.57988E+08
 
   -0.57576E+08         0.10423E+07         0.00000E+00
    0.10423E+07        -0.49658E+08         0.00000E+00
    0.00000E+00         0.00000E+00        -0.57988E+08
 
   -0.57592E+08         0.11006E+07         0.00000E+00
    0.11006E+07        -0.49641E+08         0.00000E+00
    0.00000E+00         0.00000E+00        -0.57989E+08
 
   -0.57609E+08         0.11604E+07         0.00000E+00
    0.11604E+07        -0.49624E+08         0.00000E+00
    0.00000E+00         0.00000E+00        -0.57989E+08
 
   -0.57627E+08         0.12215E+07         0.00000E+00
    0.12215E+07        -0.49607E+08         0.00000E+00
    0.00000E+00         0.00000E+00        -0.57990E+08
 
   -0.57646E+08         0.12841E+07         0.00000E+00
    0.12841E+07        -0.49590E+08         0.00000E+00
    0.00000E+00         0.00000E+00        -0.57990E+08
 
   -0.57664E+08         0.13480E+07         0.00000E+00
    0.13480E+07        -0.49573E+08         0.00000E+00
    0.00000E+00         0.00000E+00        -0.57991E+08
 
   -0.57683E+08         0.14133E+07         0.00000E+00
    0.14133E+07        -0.49557E+08         0.00000E+00
    0.00000E+00         0.00000E+00        -0.57992E+08
 
   -0.57703E+08         0.14800E+07         0.00000E+00
    0.14800E+07        -0.49541E+08         0.00000E+00
    0.00000E+00         0.00000E+00        -0.57993E+08
 
   -0.57722E+08         0.15480E+07         0.00000E+00
    0.15480E+07        -0.49525E+08         0.00000E+00
    0.00000E+00         0.00000E+00        -0.57995E+08
 
   -0.57742E+08         0.16173E+07         0.00000E+00
    0.16173E+07        -0.49510E+08         0.00000E+00
    0.00000E+00         0.00000E+00        -0.57996E+08
 
   -0.57763E+08         0.16879E+07         0.00000E+00
    0.16879E+07        -0.49495E+08         0.00000E+00
    0.00000E+00         0.00000E+00        -0.57997E+08
 
   -0.57783E+08         0.17598E+07         0.00000E+00
    0.17598E+07        -0.49480E+08         0.00000E+00
    0.00000E+00         0.00000E+00        -0.57999E+08
 
   -0.57803E+08         0.18330E+07         0.00000E+00
    0.18330E+07        -0.49466E+08         0.00000E+00
    0.00000E+00         0.00000E+00        -0.58000E+08
 
   -0.57824E+08         0.19074E+07         0.00000E+00
    0.19074E+07        -0.49452E+08         0.00000E+00
    0.00000E+00         0.00000E+00        -0.58002E+08
 
   -0.57845E+08         0.19831E+07         0.00000E+00
    0.19831E+07        -0.49439E+08         0.00000E+00
    0.00000E+00         0.00000E+00        -0.58004E+08
 
   -0.57865E+08         0.20601E+07         0.00000E+00
    0.20601E+07        -0.49426E+08         0.00000E+00
    0.00000E+00         0.00000E+00        -0.58005E+08
 
   -0.57886E+08         0.21383E+07         0.00000E+00
    0.21383E+07        -0.49413E+08         0.00000E+00
    0.00000E+00         0.00000E+00        -0.58007E+08
 
   -0.57907E+08         0.22178E+07         0.00000E+00
    0.22178E+07        -0.49401E+08         0.00000E+00
    0.00000E+00         0.00000E+00        -0.58009E+08
 
   -0.57928E+08         0.22985E+07         0.00000E+00
    0.22985E+07        -0.49389E+08         0.00000E+00
    0.00000E+00         0.00000E+00        -0.58011E+08
 
   -0.57949E+08         0.23806E+07         0.00000E+00
    0.23806E+07        -0.49378E+08         0.00000E+00
    0.00000E+00         0.00000E+00        -0.58013E+08
 
   -0.57970E+08         0.24638E+07         0.00000E+00
    0.24638E+07        -0.49367E+08         0.00000E+00
    0.00000E+00         0.00000E+00        -0.58015E+08
 
   -0.57990E+08         0.25483E+07         0.00000E+00
    0.25483E+07        -0.49357E+08         0.00000E+00
    0.00000E+00         0.00000E+00        -0.58018E+08
 
   -0.58011E+08         0.26341E+07         0.00000E+00
    0.26341E+07        -0.49348E+08         0.00000E+00
    0.00000E+00         0.00000E+00        -0.58020E+08
 
   -0.57562E+08         0.14174E+05         0.00000E+00
    0.14174E+05        -0.50001E+08         0.00000E+00
    0.00000E+00         0.00000E+00        -0.57675E+08
 
   -0.57523E+08         0.43288E+05         0.00000E+00
    0.43288E+05        -0.49999E+08         0.00000E+00
    0.00000E+00         0.00000E+00        -0.57667E+08
 
   -0.57486E+08         0.72850E+05         0.00000E+00
    0.72850E+05        -0.49997E+08         0.00000E+00
    0.00000E+00         0.00000E+00        -0.57660E+08
 
   -0.57453E+08         0.10294E+06         0.00000E+00
    0.10294E+06        -0.49994E+08         0.00000E+00
    0.00000E+00         0.00000E+00        -0.57652E+08
 
   -0.57422E+08         0.13365E+06         0.00000E+00
    0.13365E+06        -0.49989E+08         0.00000E+00
    0.00000E+00         0.00000E+00        -0.57646E+08
 
   -0.57395E+08         0.16503E+06         0.00000E+00
    0.16503E+06        -0.49984E+08         0.00000E+00
    0.00000E+00         0.00000E+00        -0.57639E+08
 
   -0.57369E+08         0.19718E+06         0.00000E+00
    0.19718E+06        -0.49977E+08         0.00000E+00
    0.00000E+00         0.00000E+00        -0.57633E+08
 
   -0.57347E+08         0.23014E+06         0.00000E+00
    0.23014E+06        -0.49970E+08         0.00000E+00
    0.00000E+00         0.00000E+00        -0.57628E+08
 
   -0.57327E+08         0.26398E+06         0.00000E+00
    0.26398E+06        -0.49962E+08         0.00000E+00
    0.00000E+00         0.00000E+00        -0.57622E+08
 
   -0.57309E+08         0.29876E+06         0.00000E+00
    0.29876E+06        -0.49953E+08         0.00000E+00
    0.00000E+00         0.00000E+00        -0.57617E+08
 
   -0.57294E+08         0.33452E+06         0.00000E+00
    0.33452E+06        -0.49943E+08         0.00000E+00
    0.00000E+00         0.00000E+00        -0.57613E+08
 
   -0.57281E+08         0.37131E+06         0.00000E+00
    0.37131E+06        -0.49933E+08         0.00000E+00
    0.00000E+00         0.00000E+00        -0.57609E+08
 
   -0.57270E+08         0.40917E+06         0.00000E+00
    0.40917E+06        -0.49922E+08         0.00000E+00
    0.00000E+00         0.00000E+00        -0.57605E+08
 
   -0.57261E+08         0.44814E+06         0.00000E+00
    0.44814E+06        -0.49910E+08         0.00000E+00
    0.00000E+00         0.00000E+00        -0.57601E+08
 
   -0.57253E+08         0.48825E+06         0.00000E+00
    0.48825E+06        -0.49898E+08         0.00000E+00
    0.00000E+00         0.00000E+00        -0.57598E+08
 
   -0.57248E+08         0.52954E+06         0.00000E+00
    0.52954E+06        -0.49885E+08         0.00000E+00
    0.00000E+00         0.00000E+00        -0.57595E+08
 
   -0.57244E+08         0.57202E+06         0.00000E+00
    0.57202E+06        -0.49872E+08         0.00000E+00
    0.00000E+00         0.00000E+00        -0.57592E+08
 
   -0.57242E+08         0.61572E+06         0.00000E+00
    0.61572E+06        -0.49859E+08         0.00000E+00
    0.00000E+00         0.00000E+00        -0.57589E+08
 
   -0.57241E+08         0.66065E+06         0.00000E+00
    0.66065E+06        -0.49845E+08         0.00000E+00
    0.00000E+00         0.00000E+00        -0.57587E+08
 
   -0.57242E+08         0.70684E+06         0.00000E+00
    0.70684E+06        -0.49831E+08         0.00000E+00
    0.00000E+00         0.00000E+00        -0.57585E+08
 
   -0.57244E+08         0.75429E+06         0.00000E+00
    0.75429E+06        -0.49817E+08         0.00000E+00
    0.00000E+00         0.00000E+00        -0.57583E+08
 
   -0.57247E+08         0.80302E+06         0.00000E+00
    0.80302E+06        -0.49802E+08         0.00000E+00
    0.00000E+00         0.00000E+00        -0.57581E+08
 
   -0.57252E+08         0.85302E+06         0.00000E+00
    0.85302E+06        -0.49787E+08         0.00000E+00
    0.00000E+00         0.00000E+00        -0.57580E+08
 
   -0.57258E+08         0.90431E+06         0.00000E+00
    0.90431E+06        -0.49773E+08         0.00000E+00
    0.00000E+00         0.00000E+00        -0.57579E+08
 
   -0.57264E+08         0.95689E+06         0.00000E+00
    0.95689E+06        -0.49758E+08         0.00000E+00
    0.00000E+00         0.00000E+00        -0.57578E+08
 
   -0.57272E+08         0.10108E+07         0.00000E+00
    0.10108E+07        -0.49743E+08         0.00000E+00
    0.00000E+00         0.00000E+00        -0.57577E+08
 
   -0.57280E+08         0.10659E+07         0.00000E+00
    0.10659E+07        -0.49728E+08         0.00000E+00
    0.00000E+00         0.00000E+00        -0.57576E+08
 
   -0.57289E+08         0.11223E+07         0.00000E+00
    0.11223E+07        -0.49714E+08         0.00000E+00
    0.00000E+00         0.00000E+00        -0.57576E+08
 
   -0.57299E+08         0.11800E+07         0.00000E+00
    0.11800E+07        -0.49699E+08         0.00000E+00
    0.00000E+00         0.00000E+00        -0.57575E+08
 
   -0.57309E+08         0.12390E+07         0.00000E+00
    0.12390E+07        -0.49685E+08         0.00000E+00
    0.00000E+00         0.00000E+00        -0.57575E+08
 
   -0.57321E+08         0.12992E+07         0.00000E+00
    0.12992E+07        -0.49670E+08         0.00000E+00
    0.00000E+00         0.00000E+00        -0.57575E+08
 
   -0.57332E+08         0.13607E+07         0.00000E+00
    0.13607E+07        -0.49656E+08         0.00000E+00
    0.00000E+00         0.00000E+00        -0.57575E+08
 
   -0.57344E+08         0.14234E+07         0.00000E+00
    0.14234E+07        -0.49642E+08         0.00000E+00
    0.00000E+00         0.00000E+00        -0.57575E+08
 
   -0.57357E+08         0.14874E+07         0.00000E+00
    0.14874E+07        -0.49629E+08         0.00000E+00
    0.00000E+00         0.00000E+00        -0.57575E+08
 
   -0.57370E+08         0.15526E+07         0.00000E+00
    0.15526E+07        -0.49615E+08         0.00000E+00
    0.00000E+00         0.00000E+00        -0.57576E+08
 
   -0.57383E+08         0.16190E+07         0.00000E+00
    0.16190E+07        -0.49602E+08         0.00000E+00
    0.00000E+00         0.00000E+00        -0.57576E+08
 
   -0.57397E+08         0.16867E+07         0.00000E+00
    0.16867E+07        -0.49589E+08         0.00000E+00
    0.00000E+00         0.00000E+00        -0.57577E+08
 
   -0.57411E+08         0.17555E+07         0.00000E+00
    0.17555E+07        -0.49577E+08         0.00000E+00
    0.00000E+00         0.00000E+00        -0.57577E+08
 
   -0.57425E+08         0.18255E+07         0.00000E+00
    0.18255E+07        -0.49565E+08         0.00000E+00
    0.00000E+00         0.00000E+00        -0.57578E+08
 
   -0.57439E+08         0.18968E+07         0.00000E+00
    0.18968E+07        -0.49553E+08         0.00000E+00
    0.00000E+00         0.00000E+00        -0.57579E+08
 
   -0.57454E+08         0.19692E+07         0.00000E+00
    0.19692E+07        -0.49542E+08         0.00000E+00
    0.00000E+00         0.00000E+00        -0.57580E+08
 
   -0.57468E+08         0.20428E+07         0.00000E+00
    0.20428E+07        -0.49531E+08         0.00000E+00
    0.00000E+00         0.00000E+00        -0.57581E+08
 
   -0.57483E+08         0.21176E+07         0.00000E+00
    0.21176E+07        -0.49521E+08         0.00000E+00
    0.00000E+00         0.00000E+00        -0.57582E+08
 
   -0.57498E+08         0.21935E+07         0.00000E+00
    0.21935E+07        -0.49511E+08         0.00000E+00
    0.00000E+00         0.00000E+00        -0.57584E+08
 
   -0.57513E+08         0.22707E+07         0.00000E+00
    0.22707E+07        -0.49501E+08         0.00000E+00
    0.00000E+00         0.00000E+00        -0.57585E+08
 
   -0.57527E+08         0.23490E+07         0.00000E+00
    0.23490E+07        -0.49492E+08         0.00000E+00
    0.00000E+00         0.00000E+00        -0.57586E+08
 
   -0.57542E+08         0.24285E+07         0.00000E+00
    0.24285E+07        -0.49483E+08         0.00000E+00
    0.00000E+00         0.00000E+00        -0.57588E+08
 
   -0.57557E+08         0.25092E+07         0.00000E+00
    0.25092E+07        -0.49475E+08         0.00000E+00
    0.00000E+00         0.00000E+00        -0.57589E+08
 
   -0.57571E+08         0.25910E+07         0.00000E+00
    0.25910E+07        -0.49468E+08         0.00000E+00
    0.00000E+00         0.00000E+00        -0.57591E+08
 
   -0.57586E+08         0.26740E+07         0.00000E+00
    0.26740E+07        -0.49461E+08         0.00000E+00
    0.00000E+00         0.00000E+00        -0.57592E+08
 
   -0.57404E+08         0.16985E+05         0.00000E+00
    0.16985E+05        -0.50001E+08         0.00000E+00
    0.00000E+00         0.00000E+00        -0.57290E+08
 
   -0.57363E+08         0.51326E+05         0.00000E+00
    0.51326E+05        -0.50000E+08         0.00000E+00
    0.00000E+00         0.00000E+00        -0.57282E+08
 
   -0.57324E+08         0.85927E+05         0.00000E+00
    0.85927E+05        -0.49998E+08         0.00000E+00
    0.00000E+00         0.00000E+00        -0.57274E+08
 
   -0.57289E+08         0.12086E+06         0.00000E+00
    0.12086E+06        -0.49995E+08         0.00000E+00
    0.00000E+00         0.00000E+00        -0.57266E+08
 
   -0.57255E+08         0.15620E+06         0.00000E+00
    0.15620E+06        -0.49991E+08         0.00000E+00
    0.00000E+00         0.00000E+00        -0.57259E+08
 
   -0.57225E+08         0.19202E+06         0.00000E+00
    0.19202E+06        -0.49987E+08         0.00000E+00
    0.00000E+00         0.00000E+00        -0.57252E+08
 
   -0.57196E+08         0.22836E+06         0.00000E+00
    0.22836E+06        -0.49982E+08         0.00000E+00
    0.00000E+00         0.00000E+00        -0.57246E+08
 
   -0.57170E+08         0.26530E+06         0.00000E+00
    0.26530E+06        -0.49975E+08         0.00000E+00
    0.00000E+00         0.00000E+00        -0.57240E+08
 
   -0.57146E+08         0.30289E+06         0.00000E+00
    0.30289E+06        -0.49969E+08         0.00000E+00
    0.00000E+00         0.00000E+00        -0.57234E+08
 
   -0.57124E+08         0.34118E+06         0.00000E+00
    0.34118E+06        -0.49961E+08         0.00000E+00
    0.00000E+00         0.00000E+00        -0.57229E+08
 
   -0.57105E+08         0.38022E+06         0.00000E+00
    0.38022E+06        -0.49953E+08         0.00000E+00
    0.00000E+00         0.00000E+00        -0.57224E+08
 
   -0.57087E+08         0.42005E+06         0.00000E+00
    0.42005E+06        -0.49945E+08         0.00000E+00
    0.00000E+00         0.00000E+00        -0.57219E+08
 
   -0.57071E+08         0.46072E+06         0.00000E+00
    0.46072E+06        -0.49936E+08         0.00000E+00
    0.00000E+00         0.00000E+00        -0.57214E+08
 
   -0.57057E+08         0.50226E+06         0.00000E+00
    0.50226E+06        -0.49926E+08         0.00000E+00
    0.00000E+00         0.00000E+00        -0.57210E+08
 
   -0.57044E+08         0.54470E+06         0.00000E+00
    0.54470E+06        -0.49916E+08         0.00000E+00
    0.00000E+00         0.00000E+00        -0.57206E+08
 
   -0.57033E+08         0.58808E+06         0.00000E+00
    0.58808E+06        -0.49906E+08         0.00000E+00
    0.00000E+00         0.00000E+00        -0.57203E+08
 
   -0.57024E+08         0.63242E+06         0.00000E+00
    0.63242E+06        -0.49895E+08         0.00000E+00
    0.00000E+00         0.00000E+00        -0.57199E+08
 
   -0.57017E+08         0.67775E+06         0.00000E+00
    0.67775E+06        -0.49884E+08         0.00000E+00
    0.00000E+00         0.00000E+00        -0.57196E+08
 
   -0.57010E+08         0.72409E+06         0.00000E+00
    0.72409E+06        -0.49872E+08         0.00000E+00
    0.00000E+00         0.00000E+00        -0.57193E+08
 
   -0.57005E+08         0.77147E+06         0.00000E+00
    0.77147E+06        -0.49861E+08         0.00000E+00
    0.00000E+00         0.00000E+00        -0.57190E+08
 
   -0.57002E+08         0.81989E+06         0.00000E+00
    0.81989E+06        -0.49849E+08         0.00000E+00
    0.00000E+00         0.00000E+00        -0.57188E+08
 
   -0.56999E+08         0.86937E+06         0.00000E+00
    0.86937E+06        -0.49837E+08         0.00000E+00
    0.00000E+00         0.00000E+00        -0.57186E+08
 
   -0.56998E+08         0.91993E+06         0.00000E+00
    0.91993E+06        -0.49825E+08         0.00000E+00
    0.00000E+00         0.00000E+00        -0.57184E+08
 
   -0.56997E+08         0.97157E+06         0.00000E+00
    0.97157E+06        -0.49812E+08         0.00000E+00
    0.00000E+00         0.00000E+00        -0.57182E+08
 
   -0.56998E+08         0.10243E+07         0.00000E+00
    0.10243E+07        -0.49800E+08         0.00000E+00
    0.00000E+00         0.00000E+00        -0.57180E+08
 
   -0.56999E+08         0.10781E+07         0.00000E+00
    0.10781E+07        -0.49788E+08         0.00000E+00
    0.00000E+00         0.00000E+00        -0.57179E+08
 
   -0.57002E+08         0.11331E+07         0.00000E+00
    0.11331E+07        -0.49776E+08         0.00000E+00
    0.00000E+00         0.00000E+00        -0.57177E+08
 
   -0.57005E+08         0.11891E+07         0.00000E+00
    0.11891E+07        -0.49763E+08         0.00000E+00
    0.00000E+00         0.00000E+00        -0.57176E+08
 
   -0.57009E+08         0.12463E+07         0.00000E+00
    0.12463E+07        -0.49751E+08         0.00000E+00
    0.00000E+00         0.00000E+00        -0.57175E+08
 
   -0.57013E+08         0.13045E+07         0.00000E+00
    0.13045E+07        -0.49739E+08         0.00000E+00
    0.00000E+00         0.00000E+00        -0.57174E+08
 
   -0.57019E+08         0.13639E+07         0.00000E+00
    0.13639E+07        -0.49728E+08         0.00000E+00
    0.00000E+00         0.00000E+00        -0.57173E+08
 
   -0.57024E+08         0.14244E+07         0.00000E+00
    0.14244E+07        -0.49716E+08         0.00000E+00
    0.00000E+00         0.00000E+00        -0.57173E+08
 
   -0.57031E+08         0.14860E+07         0.00000E+00
    0.14860E+07        -0.49705E+08         0.00000E+00
    0.00000E+00         0.00000E+00        -0.57172E+08
 
   -0.57037E+08         0.15487E+07         0.00000E+00
    0.15487E+07        -0.49693E+08         0.00000E+00
    0.00000E+00         0.00000E+00        -0.57172E+08
 
   -0.57045E+08         0.16125E+07         0.00000E+00
    0.16125E+07        -0.49682E+08         0.00000E+00
    0.00000E+00         0.00000E+00        -0.57172E+08
 
   -0.57052E+08         0.16774E+07         0.00000E+00
    0.16774E+07        -0.49672E+08         0.00000E+00
    0.00000E+00         0.00000E+00        -0.57172E+08
 
   -0.57060E+08         0.17434E+07         0.00000E+00
    0.17434E+07        -0.49662E+08         0.00000E+00
    0.00000E+00         0.00000E+00        -0.57172E+08
 
   -0.57068E+08         0.18105E+07         0.00000E+00
    0.18105E+07        -0.49652E+08         0.00000E+00
    0.00000E+00         0.00000E+00        -0.57172E+08
 
   -0.57077E+08         0.18787E+07         0.00000E+00
    0.18787E+07        -0.49642E+08         0.00000E+00
    0.00000E+00         0.00000E+00        -0.57172E+08
 
   -0.57085E+08         0.19480E+07         0.00000E+00
    0.19480E+07        -0.49633E+08         0.00000E+00
    0.00000E+00         0.00000E+00        -0.57172E+08
 
   -0.57094E+08         0.20184E+07         0.00000E+00
    0.20184E+07        -0.49624E+08         0.00000E+00
    0.00000E+00         0.00000E+00        -0.57172E+08
 
   -0.57103E+08         0.20899E+07         0.00000E+00
    0.20899E+07        -0.49615E+08         0.00000E+00
    0.00000E+00         0.00000E+00        -0.57173E+08
 
   -0.57112E+08         0.21625E+07         0.00000E+00
    0.21625E+07        -0.49607E+08         0.00000E+00
    0.00000E+00         0.00000E+00        -0.57173E+08
 
   -0.57121E+08         0.22361E+07         0.00000E+00
    0.22361E+07        -0.49600E+08         0.00000E+00
    0.00000E+00         0.00000E+00        -0.57174E+08
 
   -0.57130E+08         0.23109E+07         0.00000E+00
    0.23109E+07        -0.49593E+08         0.00000E+00
    0.00000E+00         0.00000E+00        -0.57175E+08
 
   -0.57139E+08         0.23867E+07         0.00000E+00
    0.23867E+07        -0.49586E+08         0.00000E+00
    0.00000E+00         0.00000E+00        -0.57175E+08
 
   -0.57148E+08         0.24636E+07         0.00000E+00
    0.24636E+07        -0.49580E+08         0.00000E+00
    0.00000E+00         0.00000E+00        -0.57176E+08
 
   -0.57157E+08         0.25416E+07         0.00000E+00
    0.25416E+07        -0.49575E+08         0.00000E+00
    0.00000E+00         0.00000E+00        -0.57177E+08
 
   -0.57166E+08         0.26207E+07         0.00000E+00
    0.26207E+07        -0.49570E+08         0.00000E+00
    0.00000E+00         0.00000E+00        -0.57178E+08
 
   -0.57175E+08         0.27009E+07         0.00000E+00
    0.27009E+07        -0.49565E+08         0.00000E+00
    0.00000E+00         0.00000E+00        -0.57179E+08
 
   -0.57221E+08         0.19248E+05         0.00000E+00
    0.19248E+05        -0.50001E+08         0.00000E+00
    0.00000E+00         0.00000E+00        -0.56915E+08
 
   -0.57180E+08         0.57826E+05         0.00000E+00
    0.57826E+05        -0.50000E+08         0.00000E+00
    0.00000E+00         0.00000E+00        -0.56906E+08
 
   -0.57140E+08         0.96525E+05         0.00000E+00
    0.96525E+05        -0.49998E+08         0.00000E+00
    0.00000E+00         0.00000E+00        -0.56898E+08
 
   -0.57103E+08         0.13541E+06         0.00000E+00
    0.13541E+06        -0.49996E+08         0.00000E+00
    0.00000E+00         0.00000E+00        -0.56890E+08
 
   -0.57068E+08         0.17455E+06         0.00000E+00
    0.17455E+06        -0.49993E+08         0.00000E+00
    0.00000E+00         0.00000E+00        -0.56883E+08
 
   -0.57035E+08         0.21399E+06         0.00000E+00
    0.21399E+06        -0.49989E+08         0.00000E+00
    0.00000E+00         0.00000E+00        -0.56876E+08
 
   -0.57004E+08         0.25379E+06         0.00000E+00
    0.25379E+06        -0.49985E+08         0.00000E+00
    0.00000E+00         0.00000E+00        -0.56869E+08
 
   -0.56976E+08         0.29401E+06         0.00000E+00
    0.29401E+06        -0.49980E+08         0.00000E+00
    0.00000E+00         0.00000E+00        -0.56863E+08
 
   -0.56949E+08         0.33470E+06         0.00000E+00
    0.33470E+06        -0.49975E+08         0.00000E+00
    0.00000E+00         0.00000E+00        -0.56857E+08
 
   -0.56924E+08         0.37590E+06         0.00000E+00
    0.37590E+06        -0.49969E+08         0.00000E+00
    0.00000E+00         0.00000E+00        -0.56851E+08
 
   -0.56901E+08         0.41765E+06         0.00000E+00
    0.41765E+06        -0.49962E+08         0.00000E+00
    0.00000E+00         0.00000E+00        -0.56846E+08
 
   -0.56879E+08         0.46001E+06         0.00000E+00
    0.46001E+06        -0.49955E+08         0.00000E+00
    0.00000E+00         0.00000E+00        -0.56841E+08
 
   -0.56860E+08         0.50301E+06         0.00000E+00
    0.50301E+06        -0.49948E+08         0.00000E+00
    0.00000E+00         0.00000E+00        -0.56836E+08
 
   -0.56841E+08         0.54669E+06         0.00000E+00
    0.54669E+06        -0.49940E+08         0.00000E+00
    0.00000E+00         0.00000E+00        -0.56831E+08
 
   -0.56825E+08         0.59107E+06         0.00000E+00
    0.59107E+06        -0.49932E+08         0.00000E+00
    0.00000E+00         0.00000E+00        -0.56827E+08
 
   -0.56810E+08         0.63620E+06         0.00000E+00
    0.63620E+06        -0.49923E+08         0.00000E+00
    0.00000E+00         0.00000E+00        -0.56823E+08
 
   -0.56796E+08         0.68209E+06         0.00000E+00
    0.68209E+06        -0.49914E+08         0.00000E+00
    0.00000E+00         0.00000E+00        -0.56819E+08
 
   -0.56784E+08         0.72879E+06         0.00000E+00
    0.72879E+06        -0.49905E+08         0.00000E+00
    0.00000E+00         0.00000E+00        -0.56815E+08
 
   -0.56773E+08         0.77630E+06         0.00000E+00
    0.77630E+06        -0.49896E+08         0.00000E+00
    0.00000E+00         0.00000E+00        -0.56812E+08
 
   -0.56763E+08         0.82465E+06         0.00000E+00
    0.82465E+06        -0.49887E+08         0.00000E+00
    0.00000E+00         0.00000E+00        -0.56808E+08
 
   -0.56755E+08         0.87387E+06         0.00000E+00
    0.87387E+06        -0.49877E+08         0.00000E+00
    0.00000E+00         0.00000E+00        -0.56805E+08
 
   -0.56748E+08         0.92397E+06         0.00000E+00
    0.92397E+06        -0.49867E+08         0.00000E+00
    0.00000E+00         0.00000E+00        -0.56803E+08
 
   -0.56741E+08         0.97496E+06         0.00000E+00
    0.97496E+06        -0.49857E+08         0.00000E+00
    0.00000E+00         0.00000E+00        -0.56800E+08
 
   -0.56736E+08         0.10269E+07         0.00000E+00
    0.10269E+07        -0.49847E+08         0.00000E+00
    0.00000E+00         0.00000E+00        -0.56798E+08
 
   -0.56731E+08         0.10797E+07         0.00000E+00
    0.10797E+07        -0.49837E+08         0.00000E+00
    0.00000E+00         0.00000E+00        -0.56795E+08
 
   -0.56728E+08         0.11334E+07         0.00000E+00
    0.11334E+07        -0.49827E+08         0.00000E+00
    0.00000E+00         0.00000E+00        -0.56793E+08
 
   -0.56725E+08         0.11881E+07         0.00000E+00
    0.11881E+07        -0.49817E+08         0.00000E+00
    0.00000E+00         0.00000E+00        -0.56791E+08
 
   -0.56723E+08         0.12438E+07         0.00000E+00
    0.12438E+07        -0.49808E+08         0.00000E+00
    0.00000E+00         0.00000E+00        -0.56790E+08
 
   -0.56722E+08         0.13004E+07         0.00000E+00
    0.13004E+07        -0.49798E+08         0.00000E+00
    0.00000E+00         0.00000E+00        -0.56788E+08
 
   -0.56721E+08         0.13580E+07         0.00000E+00
    0.13580E+07        -0.49788E+08         0.00000E+00
    0.00000E+00         0.00000E+00        -0.56787E+08
 
   -0.56721E+08         0.14165E+07         0.00000E+00
    0.14165E+07        -0.49779E+08         0.00000E+00
    0.00000E+00         0.00000E+00        -0.56785E+08
 
   -0.56722E+08         0.14760E+07         0.00000E+00
    0.14760E+07        -0.49769E+08         0.00000E+00
    0.00000E+00         0.00000E+00        -0.56784E+08
 
   -0.56723E+08         0.15365E+07         0.00000E+00
    0.15365E+07        -0.49760E+08         0.00000E+00
    0.00000E+00         0.00000E+00        -0.56783E+08
 
   -0.56724E+08         0.15980E+07         0.00000E+00
    0.15980E+07        -0.49751E+08         0.00000E+00
    0.00000E+00         0.00000E+00        -0.56782E+08
 
   -0.56726E+08         0.16604E+07         0.00000E+00
    0.16604E+07        -0.49743E+08         0.00000E+00
    0.00000E+00         0.00000E+00        -0.56782E+08
 
   -0.56729E+08         0.17239E+07         0.00000E+00
    0.17239E+07        -0.49735E+08         0.00000E+00
    0.00000E+00         0.00000E+00        -0.56781E+08
 
   -0.56731E+08         0.17883E+07         0.00000E+00
    0.17883E+07        -0.49727E+08         0.00000E+00
    0.00000E+00         0.00000E+00        -0.56780E+08
 
   -0.56734E+08         0.18537E+07         0.00000E+00
    0.18537E+07        -0.49719E+08         0.00000E+00
    0.00000E+00         0.00000E+00        -0.56780E+08
 
   -0.56737E+08         0.19201E+07         0.00000E+00
    0.19201E+07        -0.49712E+08         0.00000E+00
    0.00000E+00         0.00000E+00        -0.56779E+08
 
   -0.56741E+08         0.19874E+07         0.00000E+00
    0.19874E+07        -0.49705E+08         0.00000E+00
    0.00000E+00         0.00000E+00        -0.56779E+08
 
   -0.56744E+08         0.20558E+07         0.00000E+00
    0.20558E+07        -0.49698E+08         0.00000E+00
    0.00000E+00         0.00000E+00        -0.56779E+08
 
   -0.56748E+08         0.21252E+07         0.00000E+00
    0.21252E+07        -0.49692E+08         0.00000E+00
    0.00000E+00         0.00000E+00        -0.56779E+08
 
   -0.56752E+08         0.21955E+07         0.00000E+00
    0.21955E+07        -0.49686E+08         0.00000E+00
    0.00000E+00         0.00000E+00        -0.56779E+08
 
   -0.56756E+08         0.22668E+07         0.00000E+00
    0.22668E+07        -0.49681E+08         0.00000E+00
    0.00000E+00         0.00000E+00        -0.56779E+08
 
   -0.56760E+08         0.23392E+07         0.00000E+00
    0.23392E+07        -0.49676E+08         0.00000E+00
    0.00000E+00         0.00000E+00        -0.56779E+08
 
   -0.56764E+08         0.24125E+07         0.00000E+00
    0.24125E+07        -0.49672E+08         0.00000E+00
    0.00000E+00         0.00000E+00        -0.56779E+08
 
   -0.56768E+08         0.24868E+07         0.00000E+00
    0.24868E+07        -0.49668E+08         0.00000E+00
    0.00000E+00         0.00000E+00        -0.56779E+08
 
   -0.56771E+08         0.25621E+07         0.00000E+00
    0.25621E+07        -0.49665E+08         0.00000E+00
    0.00000E+00         0.00000E+00        -0.56779E+08
 
   -0.56775E+08         0.26384E+07         0.00000E+00
    0.26384E+07        -0.49662E+08         0.00000E+00
    0.00000E+00         0.00000E+00        -0.56780E+08
 
   -0.56779E+08         0.27157E+07         0.00000E+00
    0.27157E+07        -0.49660E+08         0.00000E+00
    0.00000E+00         0.00000E+00        -0.56780E+08
 
   -0.57020E+08         0.21058E+05         0.00000E+00
    0.21058E+05        -0.50001E+08         0.00000E+00
    0.00000E+00         0.00000E+00        -0.56550E+08
 
   -0.56978E+08         0.63038E+05         0.00000E+00
    0.63038E+05        -0.50000E+08         0.00000E+00
    0.00000E+00         0.00000E+00        -0.56541E+08
 
   -0.56938E+08         0.10504E+06         0.00000E+00
    0.10504E+06        -0.49999E+08         0.00000E+00
    0.00000E+00         0.00000E+00        -0.56533E+08
 
   -0.56900E+08         0.14711E+06         0.00000E+00
    0.14711E+06        -0.49997E+08         0.00000E+00
    0.00000E+00         0.00000E+00        -0.56525E+08
 
   -0.56864E+08         0.18930E+06         0.00000E+00
    0.18930E+06        -0.49995E+08         0.00000E+00
    0.00000E+00         0.00000E+00        -0.56518E+08
 
   -0.56830E+08         0.23168E+06         0.00000E+00
    0.23168E+06        -0.49992E+08         0.00000E+00
    0.00000E+00         0.00000E+00        -0.56511E+08
 
   -0.56797E+08         0.27429E+06         0.00000E+00
    0.27429E+06        -0.49988E+08         0.00000E+00
    0.00000E+00         0.00000E+00        -0.56504E+08
 
   -0.56767E+08         0.31717E+06         0.00000E+00
    0.31717E+06        -0.49984E+08         0.00000E+00
    0.00000E+00         0.00000E+00        -0.56497E+08
 
   -0.56738E+08         0.36037E+06         0.00000E+00
    0.36037E+06        -0.49980E+08         0.00000E+00
    0.00000E+00         0.00000E+00        -0.56491E+08
 
   -0.56711E+08         0.40394E+06         0.00000E+00
    0.40394E+06        -0.49975E+08         0.00000E+00
    0.00000E+00         0.00000E+00        -0.56485E+08
 
   -0.56685E+08         0.44791E+06         0.00000E+00
    0.44791E+06        -0.49970E+08         0.00000E+00
    0.00000E+00         0.00000E+00        -0.56479E+08
 
   -0.56661E+08         0.49233E+06         0.00000E+00
    0.49233E+06        -0.49964E+08         0.00000E+00
    0.00000E+00         0.00000E+00        -0.56474E+08
 
   -0.56638E+08         0.53723E+06         0.00000E+00
    0.53723E+06        -0.49958E+08         0.00000E+00
    0.00000E+00         0.00000E+00        -0.56469E+08
 
   -0.56617E+08         0.58264E+06         0.00000E+00
    0.58264E+06        -0.49952E+08         0.00000E+00
    0.00000E+00         0.00000E+00        -0.56464E+08
 
   -0.56597E+08         0.62860E+06         0.00000E+00
    0.62860E+06        -0.49945E+08         0.00000E+00
    0.00000E+00         0.00000E+00        -0.56459E+08
 
   -0.56579E+08         0.67515E+06         0.00000E+00
    0.67515E+06        -0.49939E+08         0.00000E+00
    0.00000E+00         0.00000E+00        -0.56455E+08
 
   -0.56562E+08         0.72230E+06         0.00000E+00
    0.72230E+06        -0.49932E+08         0.00000E+00
    0.00000E+00         0.00000E+00        -0.56450E+08
 
   -0.56546E+08         0.77008E+06         0.00000E+00
    0.77008E+06        -0.49924E+08         0.00000E+00
    0.00000E+00         0.00000E+00        -0.56446E+08
 
   -0.56531E+08         0.81853E+06         0.00000E+00
    0.81853E+06        -0.49917E+08         0.00000E+00
    0.00000E+00         0.00000E+00        -0.56443E+08
 
   -0.56518E+08         0.86765E+06         0.00000E+00
    0.86765E+06        -0.49909E+08         0.00000E+00
    0.00000E+00         0.00000E+00        -0.56439E+08
 
   -0.56505E+08         0.91748E+06         0.00000E+00
    0.91748E+06        -0.49901E+08         0.00000E+00
    0.00000E+00         0.00000E+00        -0.56436E+08
 
   -0.56494E+08         0.96803E+06         0.00000E+00
    0.96803E+06        -0.49894E+08         0.00000E+00
    0.00000E+00         0.00000E+00        -0.56433E+08
 
   -0.56483E+08         0.10193E+07         0.00000E+00
    0.10193E+07        -0.49886E+08         0.00000E+00
    0.00000E+00         0.00000E+00        -0.56430E+08
 
   -0.56474E+08         0.10714E+07         0.00000E+00
    0.10714E+07        -0.49878E+08         0.00000E+00
    0.00000E+00         0.00000E+00        -0.56427E+08
 
   -0.56465E+08         0.11242E+07         0.00000E+00
    0.11242E+07        -0.49870E+08         0.00000E+00
    0.00000E+00         0.00000E+00        -0.56424E+08
 
   -0.56457E+08         0.11778E+07         0.00000E+00
    0.11778E+07        -0.49862E+08         0.00000E+00
    0.00000E+00         0.00000E+00        -0.56422E+08
 
   -0.56450E+08         0.12322E+07         0.00000E+00
    0.12322E+07        -0.49854E+08         0.00000E+00
    0.00000E+00         0.00000E+00        -0.56419E+08
 
   -0.56444E+08         0.12874E+07         0.00000E+00
    0.12874E+07        -0.49846E+08         0.00000E+00
    0.00000E+00         0.00000E+00        -0.56417E+08
 
   -0.56438E+08         0.13434E+07         0.00000E+00
    0.13434E+07        -0.49839E+08         0.00000E+00
    0.00000E+00         0.00000E+00        -0.56415E+08
 
   -0.56433E+08         0.14003E+07         0.00000E+00
    0.14003E+07        -0.49831E+08         0.00000E+00
    0.00000E+00         0.00000E+00        -0.56413E+08
 
   -0.56428E+08         0.14580E+07         0.00000E+00
    0.14580E+07        -0.49824E+08         0.00000E+00
    0.00000E+00         0.00000E+00        -0.56411E+08
 
   -0.56424E+08         0.15165E+07         0.00000E+00
    0.15165E+07        -0.49817E+08         0.00000E+00
    0.00000E+00         0.00000E+00        -0.56410E+08
 
   -0.56421E+08         0.15759E+07         0.00000E+00
    0.15759E+07        -0.49810E+08         0.00000E+00
    0.00000E+00         0.00000E+00        -0.56408E+08
 
   -0.56418E+08         0.16361E+07         0.00000E+00
    0.16361E+07        -0.49803E+08         0.00000E+00
    0.00000E+00         0.00000E+00        -0.56407E+08
 
   -0.56415E+08         0.16972E+07         0.00000E+00
    0.16972E+07        -0.49797E+08         0.00000E+00
    0.00000E+00         0.00000E+00        -0.56405E+08
 
   -0.56413E+08         0.17592E+07         0.00000E+00
    0.17592E+07        -0.49790E+08         0.00000E+00
    0.00000E+00         0.00000E+00        -0.56404E+08
 
   -0.56411E+08         0.18220E+07         0.00000E+00
    0.18220E+07        -0.49785E+08         0.00000E+00
    0.00000E+00         0.00000E+00        -0.56403E+08
 
   -0.56409E+08         0.18857E+07         0.00000E+00
    0.18857E+07        -0.49779E+08         0.00000E+00
    0.00000E+00         0.00000E+00        -0.56402E+08
 
   -0.56408E+08         0.19503E+07         0.00000E+00
    0.19503E+07        -0.49774E+08         0.00000E+00
    0.00000E+00         0.00000E+00        -0.56401E+08
 
   -0.56406E+08         0.20158E+07         0.00000E+00
    0.20158E+07        -0.49769E+08         0.00000E+00
    0.00000E+00         0.00000E+00        -0.56401E+08
 
   -0.56405E+08         0.20821E+07         0.00000E+00
    0.20821E+07        -0.49765E+08         0.00000E+00
    0.00000E+00         0.00000E+00        -0.56400E+08
 
   -0.56404E+08         0.21494E+07         0.00000E+00
    0.21494E+07        -0.49761E+08         0.00000E+00
    0.00000E+00         0.00000E+00        -0.56399E+08
 
   -0.56403E+08         0.22175E+07         0.00000E+00
    0.22175E+07        -0.49757E+08         0.00000E+00
    0.00000E+00         0.00000E+00        -0.56399E+08
 
   -0.56403E+08         0.22865E+07         0.00000E+00
    0.22865E+07        -0.49754E+08         0.00000E+00
    0.00000E+00         0.00000E+00        -0.56398E+08
 
   -0.56402E+08         0.23564E+07         0.00000E+00
    0.23564E+07        -0.49751E+08         0.00000E+00
    0.00000E+00         0.00000E+00        -0.56398E+08
 
   -0.56401E+08         0.24272E+07         0.00000E+00
    0.24272E+07        -0.49749E+08         0.00000E+00
    0.00000E+00         0.00000E+00        -0.56397E+08
 
   -0.56400E+08         0.24989E+07         0.00000E+00
    0.24989E+07        -0.49747E+08         0.00000E+00
    0.00000E+00         0.00000E+00        -0.56397E+08
 
   -0.56399E+08         0.25715E+07         0.00000E+00
    0.25715E+07        -0.49746E+08         0.00000E+00
    0.00000E+00         0.00000E+00        -0.56397E+08
 
   -0.56398E+08         0.26450E+07         0.00000E+00
    0.26450E+07        -0.49746E+08         0.00000E+00
    0.00000E+00         0.00000E+00        -0.56397E+08
 
   -0.56397E+08         0.27194E+07         0.00000E+00
    0.27194E+07        -0.49746E+08         0.00000E+00
    0.00000E+00         0.00000E+00        -0.56396E+08
 
   -0.56803E+08         0.22491E+05         0.00000E+00
    0.22491E+05        -0.50001E+08         0.00000E+00
    0.00000E+00         0.00000E+00        -0.56196E+08
 
   -0.56761E+08         0.67172E+05         0.00000E+00
    0.67172E+05        -0.50000E+08         0.00000E+00
    0.00000E+00         0.00000E+00        -0.56188E+08
 
   -0.56721E+08         0.11179E+06         0.00000E+00
    0.11179E+06        -0.49999E+08         0.00000E+00
    0.00000E+00         0.00000E+00        -0.56179E+08
 
   -0.56683E+08         0.15639E+06         0.00000E+00
    0.15639E+06        -0.49998E+08         0.00000E+00
    0.00000E+00         0.00000E+00        -0.56172E+08
 
   -0.56646E+08         0.20103E+06         0.00000E+00
    0.20103E+06        -0.49996E+08         0.00000E+00
    0.00000E+00         0.00000E+00        -0.56164E+08
 
   -0.56611E+08         0.24575E+06         0.00000E+00
    0.24575E+06        -0.49993E+08         0.00000E+00
    0.00000E+00         0.00000E+00        -0.56157E+08
 
   -0.56578E+08         0.29058E+06         0.00000E+00
    0.29058E+06        -0.49991E+08         0.00000E+00
    0.00000E+00         0.00000E+00        -0.56150E+08
 
   -0.56546E+08         0.33559E+06         0.00000E+00
    0.33559E+06        -0.49988E+08         0.00000E+00
    0.00000E+00         0.00000E+00        -0.56144E+08
 
   -0.56516E+08         0.38079E+06         0.00000E+00
    0.38079E+06        -0.49984E+08         0.00000E+00
    0.00000E+00         0.00000E+00        -0.56137E+08
 
   -0.56487E+08         0.42625E+06         0.00000E+00
    0.42625E+06        -0.49980E+08         0.00000E+00
    0.00000E+00         0.00000E+00        -0.56131E+08
 
   -0.56459E+08         0.47198E+06         0.00000E+00
    0.47198E+06        -0.49976E+08         0.00000E+00
    0.00000E+00         0.00000E+00        -0.56125E+08
 
   -0.56433E+08         0.51803E+06         0.00000E+00
    0.51803E+06        -0.49972E+08         0.00000E+00
    0.00000E+00         0.00000E+00        -0.56120E+08
 
   -0.56409E+08         0.56444E+06         0.00000E+00
    0.56444E+06        -0.49967E+08         0.00000E+00
    0.00000E+00         0.00000E+00        -0.56114E+08
 
   -0.56385E+08         0.61123E+06         0.00000E+00
    0.61123E+06        -0.49962E+08         0.00000E+00
    0.00000E+00         0.00000E+00        -0.56109E+08
 
   -0.56363E+08         0.65843E+06         0.00000E+00
    0.65843E+06        -0.49957E+08         0.00000E+00
    0.00000E+00         0.00000E+00        -0.56104E+08
 
   -0.56342E+08         0.70608E+06         0.00000E+00
    0.70608E+06        -0.49952E+08         0.00000E+00
    0.00000E+00         0.00000E+00        -0.56099E+08
 
   -0.56322E+08         0.75420E+06         0.00000E+00
    0.75420E+06        -0.49946E+08         0.00000E+00
    0.00000E+00         0.00000E+00        -0.56095E+08
 
   -0.56303E+08         0.80281E+06         0.00000E+00
    0.80281E+06        -0.49940E+08         0.00000E+00
    0.00000E+00         0.00000E+00        -0.56091E+08
 
   -0.56286E+08         0.85195E+06         0.00000E+00
    0.85195E+06        -0.49935E+08         0.00000E+00
    0.00000E+00         0.00000E+00        -0.56087E+08
 
   -0.56269E+08         0.90164E+06         0.00000E+00
    0.90164E+06        -0.49929E+08         0.00000E+00
    0.00000E+00         0.00000E+00        -0.56083E+08
 
   -0.56253E+08         0.95189E+06         0.00000E+00
    0.95189E+06        -0.49923E+08         0.00000E+00
    0.00000E+00         0.00000E+00        -0.56079E+08
 
   -0.56239E+08         0.10027E+07         0.00000E+00
    0.10027E+07        -0.49917E+08         0.00000E+00
    0.00000E+00         0.00000E+00        -0.56076E+08
 
   -0.56225E+08         0.10542E+07         0.00000E+00
    0.10542E+07        -0.49910E+08         0.00000E+00
    0.00000E+00         0.00000E+00        -0.56072E+08
 
   -0.56212E+08         0.11062E+07         0.00000E+00
    0.11062E+07        -0.49904E+08         0.00000E+00
    0.00000E+00         0.00000E+00        -0.56069E+08
 
   -0.56199E+08         0.11589E+07         0.00000E+00
    0.11589E+07        -0.49898E+08         0.00000E+00
    0.00000E+00         0.00000E+00        -0.56066E+08
 
   -0.56188E+08         0.12123E+07         0.00000E+00
    0.12123E+07        -0.49892E+08         0.00000E+00
    0.00000E+00         0.00000E+00        -0.56063E+08
 
   -0.56177E+08         0.12663E+07         0.00000E+00
    0.12663E+07        -0.49886E+08         0.00000E+00
    0.00000E+00         0.00000E+00        -0.56060E+08
 
   -0.56167E+08         0.13210E+07         0.00000E+00
    0.13210E+07        -0.49880E+08         0.00000E+00
    0.00000E+00         0.00000E+00        -0.56058E+08
 
   -0.56157E+08         0.13764E+07         0.00000E+00
    0.13764E+07        -0.49875E+08         0.00000E+00
    0.00000E+00         0.00000E+00        -0.56055E+08
 
   -0.56148E+08         0.14325E+07         0.00000E+00
    0.14325E+07        -0.49869E+08         0.00000E+00
    0.00000E+00         0.00000E+00        -0.56053E+08
 
   -0.56140E+08         0.14893E+07         0.00000E+00
    0.14893E+07        -0.49864E+08         0.00000E+00
    0.00000E+00         0.00000E+00        -0.56051E+08
 
   -0.56132E+08         0.15468E+07         0.00000E+00
    0.15468E+07        -0.49858E+08         0.00000E+00
    0.00000E+00         0.00000E+00        -0.56049E+08
 
   -0.56125E+08         0.16051E+07         0.00000E+00
    0.16051E+07        -0.49853E+08         0.00000E+00
    0.00000E+00         0.00000E+00        -0.56047E+08
 
   -0.56118E+08         0.16641E+07         0.00000E+00
    0.16641E+07        -0.49849E+08         0.00000E+00
    0.00000E+00         0.00000E+00        -0.56045E+08
 
   -0.56111E+08         0.17238E+07         0.00000E+00
    0.17238E+07        -0.49844E+08         0.00000E+00
    0.00000E+00         0.00000E+00        -0.56043E+08
 
   -0.56105E+08         0.17843E+07         0.00000E+00
    0.17843E+07        -0.49840E+08         0.00000E+00
    0.00000E+00         0.00000E+00        -0.56042E+08
 
   -0.56099E+08         0.18456E+07         0.00000E+00
    0.18456E+07        -0.49836E+08         0.00000E+00
    0.00000E+00         0.00000E+00        -0.56040E+08
 
   -0.56093E+08         0.19076E+07         0.00000E+00
    0.19076E+07        -0.49832E+08         0.00000E+00
    0.00000E+00         0.00000E+00        -0.56039E+08
 
   -0.56087E+08         0.19704E+07         0.00000E+00
    0.19704E+07        -0.49829E+08         0.00000E+00
    0.00000E+00         0.00000E+00        -0.56038E+08
 
   -0.56082E+08         0.20340E+07         0.00000E+00
    0.20340E+07        -0.49826E+08         0.00000E+00
    0.00000E+00         0.00000E+00        -0.56036E+08
 
   -0.56077E+08         0.20983E+07         0.00000E+00
    0.20983E+07        -0.49824E+08         0.00000E+00
    0.00000E+00         0.00000E+00        -0.56035E+08
 
   -0.56071E+08         0.21634E+07         0.00000E+00
    0.21634E+07        -0.49822E+08         0.00000E+00
    0.00000E+00         0.00000E+00        -0.56034E+08
 
   -0.56066E+08         0.22293E+07         0.00000E+00
    0.22293E+07        -0.49820E+08         0.00000E+00
    0.00000E+00         0.00000E+00        -0.56033E+08
 
   -0.56061E+08         0.22960E+07         0.00000E+00
    0.22960E+07        -0.49819E+08         0.00000E+00
    0.00000E+00         0.00000E+00        -0.56032E+08
 
   -0.56056E+08         0.23635E+07         0.00000E+00
    0.23635E+07        -0.49818E+08         0.00000E+00
    0.00000E+00         0.00000E+00        -0.56031E+08
 
   -0.56051E+08         0.24318E+07         0.00000E+00
    0.24318E+07        -0.49818E+08         0.00000E+00
    0.00000E+00         0.00000E+00        -0.56030E+08
 
   -0.56046E+08         0.25009E+07         0.00000E+00
    0.25009E+07        -0.49818E+08         0.00000E+00
    0.00000E+00         0.00000E+00        -0.56030E+08
 
   -0.56041E+08         0.25708E+07         0.00000E+00
    0.25708E+07        -0.49819E+08         0.00000E+00
    0.00000E+00         0.00000E+00        -0.56029E+08
 
   -0.56035E+08         0.26415E+07         0.00000E+00
    0.26415E+07        -0.49820E+08         0.00000E+00
    0.00000E+00         0.00000E+00        -0.56028E+08
 
   -0.56030E+08         0.27130E+07         0.00000E+00
    0.27130E+07        -0.49822E+08         0.00000E+00
    0.00000E+00         0.00000E+00        -0.56027E+08
 
   -0.56573E+08         0.23610E+05         0.00000E+00
    0.23610E+05        -0.50000E+08         0.00000E+00
    0.00000E+00         0.00000E+00        -0.55854E+08
 
   -0.56532E+08         0.70403E+05         0.00000E+00
    0.70403E+05        -0.50000E+08         0.00000E+00
    0.00000E+00         0.00000E+00        -0.55846E+08
 
   -0.56493E+08         0.11707E+06         0.00000E+00
    0.11707E+06        -0.49999E+08         0.00000E+00
    0.00000E+00         0.00000E+00        -0.55838E+08
 
   -0.56455E+08         0.16365E+06         0.00000E+00
    0.16365E+06        -0.49998E+08         0.00000E+00
    0.00000E+00         0.00000E+00        -0.55830E+08
 
   -0.56418E+08         0.21020E+06         0.00000E+00
    0.21020E+06        -0.49997E+08         0.00000E+00
    0.00000E+00         0.00000E+00        -0.55823E+08
 
   -0.56383E+08         0.25674E+06         0.00000E+00
    0.25674E+06        -0.49995E+08         0.00000E+00
    0.00000E+00         0.00000E+00        -0.55815E+08
 
   -0.56349E+08         0.30332E+06         0.00000E+00
    0.30332E+06        -0.49993E+08         0.00000E+00
    0.00000E+00         0.00000E+00        -0.55809E+08
 
   -0.56316E+08         0.34997E+06         0.00000E+00
    0.34997E+06        -0.49991E+08         0.00000E+00
    0.00000E+00         0.00000E+00        -0.55802E+08
 
   -0.56285E+08         0.39674E+06         0.00000E+00
    0.39674E+06        -0.49988E+08         0.00000E+00
    0.00000E+00         0.00000E+00        -0.55796E+08
 
   -0.56255E+08         0.44365E+06         0.00000E+00
    0.44365E+06        -0.49985E+08         0.00000E+00
    0.00000E+00         0.00000E+00        -0.55789E+08
 
   -0.56227E+08         0.49075E+06         0.00000E+00
    0.49075E+06        -0.49982E+08         0.00000E+00
    0.00000E+00         0.00000E+00        -0.55783E+08
 
   -0.56199E+08         0.53806E+06         0.00000E+00
    0.53806E+06        -0.49978E+08         0.00000E+00
    0.00000E+00         0.00000E+00        -0.55778E+08
 
   -0.56173E+08         0.58561E+06         0.00000E+00
    0.58561E+06        -0.49975E+08         0.00000E+00
    0.00000E+00         0.00000E+00        -0.55772E+08
 
   -0.56148E+08         0.63344E+06         0.00000E+00
    0.63344E+06        -0.49971E+08         0.00000E+00
    0.00000E+00         0.00000E+00        -0.55767E+08
 
   -0.56124E+08         0.68157E+06         0.00000E+00
    0.68157E+06        -0.49967E+08         0.00000E+00
    0.00000E+00         0.00000E+00        -0.55762E+08
 
   -0.56101E+08         0.73004E+06         0.00000E+00
    0.73004E+06        -0.49963E+08         0.00000E+00
    0.00000E+00         0.00000E+00        -0.55757E+08
 
   -0.56079E+08         0.77886E+06         0.00000E+00
    0.77886E+06        -0.49959E+08         0.00000E+00
    0.00000E+00         0.00000E+00        -0.55752E+08
 
   -0.56058E+08         0.82806E+06         0.00000E+00
    0.82806E+06        -0.49954E+08         0.00000E+00
    0.00000E+00         0.00000E+00        -0.55748E+08
 
   -0.56038E+08         0.87767E+06         0.00000E+00
    0.87767E+06        -0.49950E+08         0.00000E+00
    0.00000E+00         0.00000E+00        -0.55744E+08
 
   -0.56018E+08         0.92770E+06         0.00000E+00
    0.92770E+06        -0.49945E+08         0.00000E+00
    0.00000E+00         0.00000E+00        -0.55739E+08
 
   -0.56000E+08         0.97819E+06         0.00000E+00
    0.97819E+06        -0.49941E+08         0.00000E+00
    0.00000E+00         0.00000E+00        -0.55735E+08
 
   -0.55983E+08         0.10291E+07         0.00000E+00
    0.10291E+07        -0.49936E+08         0.00000E+00
    0.00000E+00         0.00000E+00        -0.55732E+08
 
   -0.55966E+08         0.10806E+07         0.00000E+00
    0.10806E+07        -0.49932E+08         0.00000E+00
    0.00000E+00         0.00000E+00        -0.55728E+08
 
   -0.55950E+08         0.11325E+07         0.00000E+00
    0.11325E+07        -0.49927E+08         0.00000E+00
    0.00000E+00         0.00000E+00        -0.55725E+08
 
   -0.55935E+08         0.11850E+07         0.00000E+00
    0.11850E+07        -0.49923E+08         0.00000E+00
    0.00000E+00         0.00000E+00        -0.55721E+08
 
   -0.55920E+08         0.12380E+07         0.00000E+00
    0.12380E+07        -0.49919E+08         0.00000E+00
    0.00000E+00         0.00000E+00        -0.55718E+08
 
   -0.55907E+08         0.12915E+07         0.00000E+00
    0.12915E+07        -0.49914E+08         0.00000E+00
    0.00000E+00         0.00000E+00        -0.55715E+08
 
   -0.55893E+08         0.13456E+07         0.00000E+00
    0.13456E+07        -0.49910E+08         0.00000E+00
    0.00000E+00         0.00000E+00        -0.55712E+08
 
   -0.55881E+08         0.14003E+07         0.00000E+00
    0.14003E+07        -0.49906E+08         0.00000E+00
    0.00000E+00         0.00000E+00        -0.55710E+08
 
   -0.55868E+08         0.14556E+07         0.00000E+00
    0.14556E+07        -0.49902E+08         0.00000E+00
    0.00000E+00         0.00000E+00        -0.55707E+08
 
   -0.55857E+08         0.15115E+07         0.00000E+00
    0.15115E+07        -0.49898E+08         0.00000E+00
    0.00000E+00         0.00000E+00        -0.55704E+08
 
   -0.55845E+08         0.15680E+07         0.00000E+00
    0.15680E+07        -0.49895E+08         0.00000E+00
    0.00000E+00         0.00000E+00        -0.55702E+08
 
   -0.55835E+08         0.16251E+07         0.00000E+00
    0.16251E+07        -0.49892E+08         0.00000E+00
    0.00000E+00         0.00000E+00        -0.55700E+08
 
   -0.55824E+08         0.16829E+07         0.00000E+00
    0.16829E+07        -0.49889E+08         0.00000E+00
    0.00000E+00         0.00000E+00        -0.55698E+08
 
   -0.55814E+08         0.17412E+07         0.00000E+00
    0.17412E+07        -0.49886E+08         0.00000E+00
    0.00000E+00         0.00000E+00        -0.55696E+08
 
   -0.55804E+08         0.18003E+07         0.00000E+00
    0.18003E+07        -0.49883E+08         0.00000E+00
    0.00000E+00         0.00000E+00        -0.55694E+08
 
   -0.55794E+08         0.18599E+07         0.00000E+00
    0.18599E+07        -0.49881E+08         0.00000E+00
    0.00000E+00         0.00000E+00        -0.55692E+08
 
   -0.55785E+08         0.19203E+07         0.00000E+00
    0.19203E+07        -0.49879E+08         0.00000E+00
    0.00000E+00         0.00000E+00        -0.55690E+08
 
   -0.55776E+08         0.19813E+07         0.00000E+00
    0.19813E+07        -0.49878E+08         0.00000E+00
    0.00000E+00         0.00000E+00        -0.55688E+08
 
   -0.55767E+08         0.20429E+07         0.00000E+00
    0.20429E+07        -0.49877E+08         0.00000E+00
    0.00000E+00         0.00000E+00        -0.55687E+08
 
   -0.55758E+08         0.21053E+07         0.00000E+00
    0.21053E+07        -0.49876E+08         0.00000E+00
    0.00000E+00         0.00000E+00        -0.55685E+08
 
   -0.55749E+08         0.21683E+07         0.00000E+00
    0.21683E+07        -0.49876E+08         0.00000E+00
    0.00000E+00         0.00000E+00        -0.55684E+08
 
   -0.55740E+08         0.22320E+07         0.00000E+00
    0.22320E+07        -0.49876E+08         0.00000E+00
    0.00000E+00         0.00000E+00        -0.55682E+08
 
   -0.55732E+08         0.22964E+07         0.00000E+00
    0.22964E+07        -0.49876E+08         0.00000E+00
    0.00000E+00         0.00000E+00        -0.55681E+08
 
   -0.55723E+08         0.23615E+07         0.00000E+00
    0.23615E+07        -0.49877E+08         0.00000E+00
    0.00000E+00         0.00000E+00        -0.55679E+08
 
   -0.55714E+08         0.24273E+07         0.00000E+00
    0.24273E+07        -0.49879E+08         0.00000E+00
    0.00000E+00         0.00000E+00        -0.55678E+08
 
   -0.55705E+08         0.24938E+07         0.00000E+00
    0.24938E+07        -0.49881E+08         0.00000E+00
    0.00000E+00         0.00000E+00        -0.55677E+08
 
   -0.55696E+08         0.25610E+07         0.00000E+00
    0.25610E+07        -0.49883E+08         0.00000E+00
    0.00000E+00         0.00000E+00        -0.55676E+08
 
   -0.55687E+08         0.26289E+07         0.00000E+00
    0.26289E+07        -0.49886E+08         0.00000E+00
    0.00000E+00         0.00000E+00        -0.55675E+08
 
   -0.55678E+08         0.26975E+07         0.00000E+00
    0.26975E+07        -0.49890E+08         0.00000E+00
    0.00000E+00         0.00000E+00        -0.55674E+08
 
   -0.56335E+08         0.24467E+05         0.00000E+00
    0.24467E+05        -0.50000E+08         0.00000E+00
    0.00000E+00         0.00000E+00        -0.55524E+08
 
   -0.56295E+08         0.72873E+05         0.00000E+00
    0.72873E+05        -0.50000E+08         0.00000E+00
    0.00000E+00         0.00000E+00        -0.55516E+08
 
   -0.56256E+08         0.12110E+06         0.00000E+00
    0.12110E+06        -0.50000E+08         0.00000E+00
    0.00000E+00         0.00000E+00        -0.55508E+08
 
   -0.56218E+08         0.16920E+06         0.00000E+00
    0.16920E+06        -0.49999E+08         0.00000E+00
    0.00000E+00         0.00000E+00        -0.55500E+08
 
   -0.56182E+08         0.21719E+06         0.00000E+00
    0.21719E+06        -0.49998E+08         0.00000E+00
    0.00000E+00         0.00000E+00        -0.55493E+08
 
   -0.56147E+08         0.26512E+06         0.00000E+00
    0.26512E+06        -0.49996E+08         0.00000E+00
    0.00000E+00         0.00000E+00        -0.55486E+08
 
   -0.56113E+08         0.31302E+06         0.00000E+00
    0.31302E+06        -0.49995E+08         0.00000E+00
    0.00000E+00         0.00000E+00        -0.55479E+08
 
   -0.56080E+08         0.36092E+06         0.00000E+00
    0.36092E+06        -0.49993E+08         0.00000E+00
    0.00000E+00         0.00000E+00        -0.55473E+08
 
   -0.56048E+08         0.40886E+06         0.00000E+00
    0.40886E+06        -0.49991E+08         0.00000E+00
    0.00000E+00         0.00000E+00        -0.55466E+08
 
   -0.56018E+08         0.45686E+06         0.00000E+00
    0.45686E+06        -0.49989E+08         0.00000E+00
    0.00000E+00         0.00000E+00        -0.55460E+08
 
   -0.55988E+08         0.50497E+06         0.00000E+00
    0.50497E+06        -0.49986E+08         0.00000E+00
    0.00000E+00         0.00000E+00        -0.55454E+08
 
   -0.55960E+08         0.55320E+06         0.00000E+00
    0.55320E+06        -0.49984E+08         0.00000E+00
    0.00000E+00         0.00000E+00        -0.55448E+08
 
   -0.55932E+08         0.60159E+06         0.00000E+00
    0.60159E+06        -0.49981E+08         0.00000E+00
    0.00000E+00         0.00000E+00        -0.55443E+08
 
   -0.55906E+08         0.65016E+06         0.00000E+00
    0.65016E+06        -0.49978E+08         0.00000E+00
    0.00000E+00         0.00000E+00        -0.55437E+08
 
   -0.55880E+08         0.69894E+06         0.00000E+00
    0.69894E+06        -0.49976E+08         0.00000E+00
    0.00000E+00         0.00000E+00        -0.55432E+08
 
   -0.55856E+08         0.74796E+06         0.00000E+00
    0.74796E+06        -0.49973E+08         0.00000E+00
    0.00000E+00         0.00000E+00        -0.55427E+08
 
   -0.55832E+08         0.79724E+06         0.00000E+00
    0.79724E+06        -0.49969E+08         0.00000E+00
    0.00000E+00         0.00000E+00        -0.55423E+08
 
   -0.55810E+08         0.84680E+06         0.00000E+00
    0.84680E+06        -0.49966E+08         0.00000E+00
    0.00000E+00         0.00000E+00        -0.55418E+08
 
   -0.55788E+08         0.89666E+06         0.00000E+00
    0.89666E+06        -0.49963E+08         0.00000E+00
    0.00000E+00         0.00000E+00        -0.55413E+08
 
   -0.55767E+08         0.94686E+06         0.00000E+00
    0.94686E+06        -0.49960E+08         0.00000E+00
    0.00000E+00         0.00000E+00        -0.55409E+08
 
   -0.55746E+08         0.99740E+06         0.00000E+00
    0.99740E+06        -0.49957E+08         0.00000E+00
    0.00000E+00         0.00000E+00        -0.55405E+08
 
   -0.55727E+08         0.10483E+07         0.00000E+00
    0.10483E+07        -0.49954E+08         0.00000E+00
    0.00000E+00         0.00000E+00        -0.55401E+08
 
   -0.55708E+08         0.10996E+07         0.00000E+00
    0.10996E+07        -0.49950E+08         0.00000E+00
    0.00000E+00         0.00000E+00        -0.55397E+08
 
   -0.55690E+08         0.11513E+07         0.00000E+00
    0.11513E+07        -0.49947E+08         0.00000E+00
    0.00000E+00         0.00000E+00        -0.55394E+08
 
   -0.55672E+08         0.12034E+07         0.00000E+00
    0.12034E+07        -0.49944E+08         0.00000E+00
    0.00000E+00         0.00000E+00        -0.55390E+08
 
   -0.55655E+08         0.12559E+07         0.00000E+00
    0.12559E+07        -0.49941E+08         0.00000E+00
    0.00000E+00         0.00000E+00        -0.55387E+08
 
   -0.55639E+08         0.13089E+07         0.00000E+00
    0.13089E+07        -0.49938E+08         0.00000E+00
    0.00000E+00         0.00000E+00        -0.55383E+08
 
   -0.55623E+08         0.13624E+07         0.00000E+00
    0.13624E+07        -0.49936E+08         0.00000E+00
    0.00000E+00         0.00000E+00        -0.55380E+08
 
   -0.55608E+08         0.14163E+07         0.00000E+00
    0.14163E+07        -0.49933E+08         0.00000E+00
    0.00000E+00         0.00000E+00        -0.55377E+08
 
   -0.55593E+08         0.14707E+07         0.00000E+00
    0.14707E+07        -0.49931E+08         0.00000E+00
    0.00000E+00         0.00000E+00        -0.55374E+08
 
   -0.55578E+08         0.15256E+07         0.00000E+00
    0.15256E+07        -0.49929E+08         0.00000E+00
    0.00000E+00         0.00000E+00        -0.55372E+08
 
   -0.55564E+08         0.15810E+07         0.00000E+00
    0.15810E+07        -0.49927E+08         0.00000E+00
    0.00000E+00         0.00000E+00        -0.55369E+08
 
   -0.55550E+08         0.16369E+07         0.00000E+00
    0.16369E+07        -0.49925E+08         0.00000E+00
    0.00000E+00         0.00000E+00        -0.55366E+08
 
   -0.55537E+08         0.16934E+07         0.00000E+00
    0.16934E+07        -0.49923E+08         0.00000E+00
    0.00000E+00         0.00000E+00        -0.55364E+08
 
   -0.55524E+08         0.17504E+07         0.00000E+00
    0.17504E+07        -0.49922E+08         0.00000E+00
    0.00000E+00         0.00000E+00        -0.55362E+08
 
   -0.55511E+08         0.18079E+07         0.00000E+00
    0.18079E+07        -0.49921E+08         0.00000E+00
    0.00000E+00         0.00000E+00        -0.55359E+08
 
   -0.55498E+08         0.18660E+07         0.00000E+00
    0.18660E+07        -0.49921E+08         0.00000E+00
    0.00000E+00         0.00000E+00        -0.55357E+08
 
   -0.55486E+08         0.19247E+07         0.00000E+00
    0.19247E+07        -0.49920E+08         0.00000E+00
    0.00000E+00         0.00000E+00        -0.55355E+08
 
   -0.55474E+08         0.19839E+07         0.00000E+00
    0.19839E+07        -0.49920E+08         0.00000E+00
    0.00000E+00         0.00000E+00        -0.55353E+08
 
   -0.55462E+08         0.20437E+07         0.00000E+00
    0.20437E+07        -0.49921E+08         0.00000E+00
    0.00000E+00         0.00000E+00        -0.55351E+08
 
   -0.55450E+08         0.21040E+07         0.00000E+00
    0.21040E+07        -0.49922E+08         0.00000E+00
    0.00000E+00         0.00000E+00        -0.55349E+08
 
   -0.55438E+08         0.21650E+07         0.00000E+00
    0.21650E+07        -0.49923E+08         0.00000E+00
    0.00000E+00         0.00000E+00        -0.55347E+08
 
   -0.55426E+08         0.22265E+07         0.00000E+00
    0.22265E+07        -0.49924E+08         0.00000E+00
    0.00000E+00         0.00000E+00        -0.55345E+08
 
   -0.55414E+08         0.22886E+07         0.00000E+00
    0.22886E+07        -0.49927E+08         0.00000E+00
    0.00000E+00         0.00000E+00        -0.55344E+08
 
   -0.55402E+08         0.23514E+07         0.00000E+00
    0.23514E+07        -0.49929E+08         0.00000E+00
    0.00000E+00         0.00000E+00        -0.55342E+08
 
   -0.55390E+08         0.24147E+07         0.00000E+00
    0.24147E+07        -0.49932E+08         0.00000E+00
    0.00000E+00         0.00000E+00        -0.55340E+08
 
   -0.55377E+08         0.24786E+07         0.00000E+00
    0.24786E+07        -0.49936E+08         0.00000E+00
    0.00000E+00         0.00000E+00        -0.55339E+08
 
   -0.55365E+08         0.25432E+07         0.00000E+00
    0.25432E+07        -0.49940E+08         0.00000E+00
    0.00000E+00         0.00000E+00        -0.55337E+08
 
   -0.55353E+08         0.26083E+07         0.00000E+00
    0.26083E+07        -0.49944E+08         0.00000E+00
    0.00000E+00         0.00000E+00        -0.55336E+08
 
   -0.55340E+08         0.26741E+07         0.00000E+00
    0.26741E+07        -0.49949E+08         0.00000E+00
    0.00000E+00         0.00000E+00        -0.55334E+08
 
   -0.56089E+08         0.25102E+05         0.00000E+00
    0.25102E+05        -0.50000E+08         0.00000E+00
    0.00000E+00         0.00000E+00        -0.55206E+08
 
   -0.56050E+08         0.74702E+05         0.00000E+00
    0.74702E+05        -0.50000E+08         0.00000E+00
    0.00000E+00         0.00000E+00        -0.55198E+08
 
   -0.56012E+08         0.12409E+06         0.00000E+00
    0.12409E+06        -0.50000E+08         0.00000E+00
    0.00000E+00         0.00000E+00        -0.55190E+08
 
   -0.55975E+08         0.17329E+06         0.00000E+00
    0.17329E+06        -0.49999E+08         0.00000E+00
    0.00000E+00         0.00000E+00        -0.55183E+08
 
   -0.55939E+08         0.22235E+06         0.00000E+00
    0.22235E+06        -0.49998E+08         0.00000E+00
    0.00000E+00         0.00000E+00        -0.55176E+08
 
   -0.55904E+08         0.27129E+06         0.00000E+00
    0.27129E+06        -0.49997E+08         0.00000E+00
    0.00000E+00         0.00000E+00        -0.55169E+08
 
   -0.55871E+08         0.32014E+06         0.00000E+00
    0.32014E+06        -0.49996E+08         0.00000E+00
    0.00000E+00         0.00000E+00        -0.55162E+08
 
   -0.55838E+08         0.36894E+06         0.00000E+00
    0.36894E+06        -0.49995E+08         0.00000E+00
    0.00000E+00         0.00000E+00        -0.55156E+08
 
   -0.55806E+08         0.41771E+06         0.00000E+00
    0.41771E+06        -0.49994E+08         0.00000E+00
    0.00000E+00         0.00000E+00        -0.55149E+08
 
   -0.55775E+08         0.46649E+06         0.00000E+00
    0.46649E+06        -0.49992E+08         0.00000E+00
    0.00000E+00         0.00000E+00        -0.55143E+08
 
   -0.55745E+08         0.51529E+06         0.00000E+00
    0.51529E+06        -0.49990E+08         0.00000E+00
    0.00000E+00         0.00000E+00        -0.55137E+08
 
   -0.55717E+08         0.56416E+06         0.00000E+00
    0.56416E+06        -0.49989E+08         0.00000E+00
    0.00000E+00         0.00000E+00        -0.55132E+08
 
   -0.55688E+08         0.61310E+06         0.00000E+00
    0.61310E+06        -0.49987E+08         0.00000E+00
    0.00000E+00         0.00000E+00        -0.55126E+08
 
   -0.55661E+08         0.66215E+06         0.00000E+00
    0.66215E+06        -0.49985E+08         0.00000E+00
    0.00000E+00         0.00000E+00        -0.55121E+08
 
   -0.55635E+08         0.71133E+06         0.00000E+00
    0.71133E+06        -0.49983E+08         0.00000E+00
    0.00000E+00         0.00000E+00        -0.55115E+08
 
   -0.55609E+08         0.76067E+06         0.00000E+00
    0.76067E+06        -0.49981E+08         0.00000E+00
    0.00000E+00         0.00000E+00        -0.55110E+08
 
   -0.55585E+08         0.81019E+06         0.00000E+00
    0.81019E+06        -0.49979E+08         0.00000E+00
    0.00000E+00         0.00000E+00        -0.55106E+08
 
   -0.55561E+08         0.85990E+06         0.00000E+00
    0.85990E+06        -0.49977E+08         0.00000E+00
    0.00000E+00         0.00000E+00        -0.55101E+08
 
   -0.55538E+08         0.90983E+06         0.00000E+00
    0.90983E+06        -0.49974E+08         0.00000E+00
    0.00000E+00         0.00000E+00        -0.55096E+08
 
   -0.55515E+08         0.96001E+06         0.00000E+00
    0.96001E+06        -0.49972E+08         0.00000E+00
    0.00000E+00         0.00000E+00        -0.55092E+08
 
   -0.55493E+08         0.10104E+07         0.00000E+00
    0.10104E+07        -0.49970E+08         0.00000E+00
    0.00000E+00         0.00000E+00        -0.55088E+08
 
   -0.55472E+08         0.10611E+07         0.00000E+00
    0.10611E+07        -0.49968E+08         0.00000E+00
    0.00000E+00         0.00000E+00        -0.55084E+08
 
   -0.55451E+08         0.11121E+07         0.00000E+00
    0.11121E+07        -0.49966E+08         0.00000E+00
    0.00000E+00         0.00000E+00        -0.55080E+08
 
   -0.55431E+08         0.11635E+07         0.00000E+00
    0.11635E+07        -0.49964E+08         0.00000E+00
    0.00000E+00         0.00000E+00        -0.55076E+08
 
   -0.55412E+08         0.12151E+07         0.00000E+00
    0.12151E+07        -0.49963E+08         0.00000E+00
    0.00000E+00         0.00000E+00        -0.55072E+08
 
   -0.55393E+08         0.12671E+07         0.00000E+00
    0.12671E+07        -0.49961E+08         0.00000E+00
    0.00000E+00         0.00000E+00        -0.55068E+08
 
   -0.55375E+08         0.13194E+07         0.00000E+00
    0.13194E+07        -0.49959E+08         0.00000E+00
    0.00000E+00         0.00000E+00        -0.55065E+08
 
   -0.55357E+08         0.13721E+07         0.00000E+00
    0.13721E+07        -0.49958E+08         0.00000E+00
    0.00000E+00         0.00000E+00        -0.55062E+08
 
   -0.55339E+08         0.14252E+07         0.00000E+00
    0.14252E+07        -0.49957E+08         0.00000E+00
    0.00000E+00         0.00000E+00        -0.55058E+08
 
   -0.55322E+08         0.14786E+07         0.00000E+00
    0.14786E+07        -0.49956E+08         0.00000E+00
    0.00000E+00         0.00000E+00        -0.55055E+08
 
   -0.55305E+08         0.15325E+07         0.00000E+00
    0.15325E+07        -0.49955E+08         0.00000E+00
    0.00000E+00         0.00000E+00        -0.55052E+08
 
   -0.55289E+08         0.15868E+07         0.00000E+00
    0.15868E+07        -0.49954E+08         0.00000E+00
    0.00000E+00         0.00000E+00        -0.55049E+08
 
   -0.55273E+08         0.16415E+07         0.00000E+00
    0.16415E+07        -0.49954E+08         0.00000E+00
    0.00000E+00         0.00000E+00        -0.55047E+08
 
   -0.55257E+08         0.16967E+07         0.00000E+00
    0.16967E+07        -0.49954E+08         0.00000E+00
    0.00000E+00         0.00000E+00        -0.55044E+08
 
   -0.55241E+08         0.17523E+07         0.00000E+00
    0.17523E+07        -0.49954E+08         0.00000E+00
    0.00000E+00         0.00000E+00        -0.55041E+08
 
   -0.55226E+08         0.18083E+07         0.00000E+00
    0.18083E+07        -0.49954E+08         0.00000E+00
    0.00000E+00         0.00000E+00        -0.55039E+08
 
   -0.55211E+08         0.18648E+07         0.00000E+00
    0.18648E+07        -0.49955E+08         0.00000E+00
    0.00000E+00         0.00000E+00        -0.55036E+08
 
   -0.55196E+08         0.19218E+07         0.00000E+00
    0.19218E+07        -0.49956E+08         0.00000E+00
    0.00000E+00         0.00000E+00        -0.55034E+08
 
   -0.55181E+08         0.19792E+07         0.00000E+00
    0.19792E+07        -0.49957E+08         0.00000E+00
    0.00000E+00         0.00000E+00        -0.55032E+08
 
   -0.55166E+08         0.20371E+07         0.00000E+00
    0.20371E+07        -0.49959E+08         0.00000E+00
    0.00000E+00         0.00000E+00        -0.55029E+08
 
   -0.55151E+08         0.20955E+07         0.00000E+00
    0.20955E+07        -0.49961E+08         0.00000E+00
    0.00000E+00         0.00000E+00        -0.55027E+08
 
   -0.55137E+08         0.21544E+07         0.00000E+00
    0.21544E+07        -0.49964E+08         0.00000E+00
    0.00000E+00         0.00000E+00        -0.55025E+08
 
   -0.55122E+08         0.22138E+07         0.00000E+00
    0.22138E+07        -0.49967E+08         0.00000E+00
    0.00000E+00         0.00000E+00        -0.55023E+08
 
   -0.55107E+08         0.22737E+07         0.00000E+00
    0.22737E+07        -0.49970E+08         0.00000E+00
    0.00000E+00         0.00000E+00        -0.55021E+08
 
   -0.55092E+08         0.23341E+07         0.00000E+00
    0.23341E+07        -0.49974E+08         0.00000E+00
    0.00000E+00         0.00000E+00        -0.55019E+08
 
   -0.55078E+08         0.23950E+07         0.00000E+00
    0.23950E+07        -0.49978E+08         0.00000E+00
    0.00000E+00         0.00000E+00        -0.55017E+08
 
   -0.55063E+08         0.24564E+07         0.00000E+00
    0.24564E+07        -0.49983E+08         0.00000E+00
    0.00000E+00         0.00000E+00        -0.55015E+08
 
   -0.55048E+08         0.25184E+07         0.00000E+00
    0.25184E+07        -0.49989E+08         0.00000E+00
    0.00000E+00         0.00000E+00        -0.55013E+08
 
   -0.55032E+08         0.25808E+07         0.00000E+00
    0.25808E+07        -0.49994E+08         0.00000E+00
    0.00000E+00         0.00000E+00        -0.55012E+08
 
   -0.55017E+08         0.26438E+07         0.00000E+00
    0.26438E+07        -0.50001E+08         0.00000E+00
    0.00000E+00         0.00000E+00        -0.55010E+08
 
   -0.55838E+08         0.25552E+05         0.00000E+00
    0.25552E+05        -0.50000E+08         0.00000E+00
    0.00000E+00         0.00000E+00        -0.54900E+08
 
   -0.55800E+08         0.75989E+05         0.00000E+00
    0.75989E+05        -0.50000E+08         0.00000E+00
    0.00000E+00         0.00000E+00        -0.54892E+08
 
   -0.55763E+08         0.12618E+06         0.00000E+00
    0.12618E+06        -0.50000E+08         0.00000E+00
    0.00000E+00         0.00000E+00        -0.54885E+08
 
   -0.55727E+08         0.17616E+06         0.00000E+00
    0.17616E+06        -0.50000E+08         0.00000E+00
    0.00000E+00         0.00000E+00        -0.54878E+08
 
   -0.55692E+08         0.22595E+06         0.00000E+00
    0.22595E+06        -0.49999E+08         0.00000E+00
    0.00000E+00         0.00000E+00        -0.54871E+08
 
   -0.55658E+08         0.27558E+06         0.00000E+00
    0.27558E+06        -0.49998E+08         0.00000E+00
    0.00000E+00         0.00000E+00        -0.54864E+08
 
   -0.55625E+08         0.32508E+06         0.00000E+00
    0.32508E+06        -0.49998E+08         0.00000E+00
    0.00000E+00         0.00000E+00        -0.54857E+08
 
   -0.55592E+08         0.37448E+06         0.00000E+00
    0.37448E+06        -0.49997E+08         0.00000E+00
    0.00000E+00         0.00000E+00        -0.54851E+08
 
   -0.55561E+08         0.42380E+06         0.00000E+00
    0.42380E+06        -0.49996E+08         0.00000E+00
    0.00000E+00         0.00000E+00        -0.54845E+08
 
   -0.55530E+08         0.47306E+06         0.00000E+00
    0.47306E+06        -0.49995E+08         0.00000E+00
    0.00000E+00         0.00000E+00        -0.54839E+08
 
   -0.55500E+08         0.52230E+06         0.00000E+00
    0.52230E+06        -0.49994E+08         0.00000E+00
    0.00000E+00         0.00000E+00        -0.54833E+08
 
   -0.55471E+08         0.57154E+06         0.00000E+00
    0.57154E+06        -0.49993E+08         0.00000E+00
    0.00000E+00         0.00000E+00        -0.54827E+08
 
   -0.55443E+08         0.62080E+06         0.00000E+00
    0.62080E+06        -0.49991E+08         0.00000E+00
    0.00000E+00         0.00000E+00        -0.54822E+08
 
   -0.55415E+08         0.67010E+06         0.00000E+00
    0.67010E+06        -0.49990E+08         0.00000E+00
    0.00000E+00         0.00000E+00        -0.54816E+08
 
   -0.55388E+08         0.71946E+06         0.00000E+00
    0.71946E+06        -0.49989E+08         0.00000E+00
    0.00000E+00         0.00000E+00        -0.54811E+08
 
   -0.55362E+08         0.76891E+06         0.00000E+00
    0.76891E+06        -0.49988E+08         0.00000E+00
    0.00000E+00         0.00000E+00        -0.54806E+08
 
   -0.55337E+08         0.81847E+06         0.00000E+00
    0.81847E+06        -0.49986E+08         0.00000E+00
    0.00000E+00         0.00000E+00        -0.54801E+08
 
   -0.55312E+08         0.86815E+06         0.00000E+00
    0.86815E+06        -0.49985E+08         0.00000E+00
    0.00000E+00         0.00000E+00        -0.54796E+08
 
   -0.55288E+08         0.91798E+06         0.00000E+00
    0.91798E+06        -0.49984E+08         0.00000E+00
    0.00000E+00         0.00000E+00        -0.54792E+08
 
   -0.55264E+08         0.96797E+06         0.00000E+00
    0.96797E+06        -0.49983E+08         0.00000E+00
    0.00000E+00         0.00000E+00        -0.54787E+08
 
   -0.55241E+08         0.10181E+07         0.00000E+00
    0.10181E+07        -0.49982E+08         0.00000E+00
    0.00000E+00         0.00000E+00        -0.54783E+08
 
   -0.55219E+08         0.10685E+07         0.00000E+00
    0.10685E+07        -0.49981E+08         0.00000E+00
    0.00000E+00         0.00000E+00        -0.54779E+08
 
   -0.55197E+08         0.11191E+07         0.00000E+00
    0.11191E+07        -0.49980E+08         0.00000E+00
    0.00000E+00         0.00000E+00        -0.54775E+08
 
   -0.55175E+08         0.11699E+07         0.00000E+00
    0.11699E+07        -0.49979E+08         0.00000E+00
    0.00000E+00         0.00000E+00        -0.54771E+08
 
   -0.55154E+08         0.12210E+07         0.00000E+00
    0.12210E+07        -0.49978E+08         0.00000E+00
    0.00000E+00         0.00000E+00        -0.54767E+08
 
   -0.55134E+08         0.12723E+07         0.00000E+00
    0.12723E+07        -0.49978E+08         0.00000E+00
    0.00000E+00         0.00000E+00        -0.54763E+08
 
   -0.55114E+08         0.13239E+07         0.00000E+00
    0.13239E+07        -0.49977E+08         0.00000E+00
    0.00000E+00         0.00000E+00        -0.54760E+08
 
   -0.55094E+08         0.13758E+07         0.00000E+00
    0.13758E+07        -0.49977E+08         0.00000E+00
    0.00000E+00         0.00000E+00        -0.54756E+08
 
   -0.55075E+08         0.14279E+07         0.00000E+00
    0.14279E+07        -0.49977E+08         0.00000E+00
    0.00000E+00         0.00000E+00        -0.54753E+08
 
   -0.55056E+08         0.14804E+07         0.00000E+00
    0.14804E+07        -0.49977E+08         0.00000E+00
    0.00000E+00         0.00000E+00        -0.54750E+08
 
   -0.55037E+08         0.15332E+07         0.00000E+00
    0.15332E+07        -0.49977E+08         0.00000E+00
    0.00000E+00         0.00000E+00        -0.54746E+08
 
   -0.55019E+08         0.15863E+07         0.00000E+00
    0.15863E+07        -0.49978E+08         0.00000E+00
    0.00000E+00         0.00000E+00        -0.54743E+08
 
   -0.55001E+08         0.16398E+07         0.00000E+00
    0.16398E+07        -0.49979E+08         0.00000E+00
    0.00000E+00         0.00000E+00        -0.54740E+08
 
   -0.54983E+08         0.16936E+07         0.00000E+00
    0.16936E+07        -0.49980E+08         0.00000E+00
    0.00000E+00         0.00000E+00        -0.54737E+08
 
   -0.54966E+08         0.17478E+07         0.00000E+00
    0.17478E+07        -0.49981E+08         0.00000E+00
    0.00000E+00         0.00000E+00        -0.54735E+08
 
   -0.54948E+08         0.18023E+07         0.00000E+00
    0.18023E+07        -0.49982E+08         0.00000E+00
    0.00000E+00         0.00000E+00        -0.54732E+08
 
   -0.54931E+08         0.18572E+07         0.00000E+00
    0.18572E+07        -0.49984E+08         0.00000E+00
    0.00000E+00         0.00000E+00        -0.54729E+08
 
   -0.54914E+08         0.19125E+07         0.00000E+00
    0.19125E+07        -0.49987E+08         0.00000E+00
    0.00000E+00         0.00000E+00        -0.54727E+08
 
   -0.54897E+08         0.19682E+07         0.00000E+00
    0.19682E+07        -0.49989E+08         0.00000E+00
    0.00000E+00         0.00000E+00        -0.54724E+08
 
   -0.54880E+08         0.20243E+07         0.00000E+00
    0.20243E+07        -0.49992E+08         0.00000E+00
    0.00000E+00         0.00000E+00        -0.54722E+08
 
   -0.54863E+08         0.20807E+07         0.00000E+00
    0.20807E+07        -0.49995E+08         0.00000E+00
    0.00000E+00         0.00000E+00        -0.54719E+08
 
   -0.54846E+08         0.21376E+07         0.00000E+00
    0.21376E+07        -0.49999E+08         0.00000E+00
    0.00000E+00         0.00000E+00        -0.54717E+08
 
   -0.54829E+08         0.21949E+07         0.00000E+00
    0.21949E+07        -0.50003E+08         0.00000E+00
    0.00000E+00         0.00000E+00        -0.54715E+08
 
   -0.54812E+08         0.22526E+07         0.00000E+00
    0.22526E+07        -0.50008E+08         0.00000E+00
    0.00000E+00         0.00000E+00        -0.54712E+08
 
   -0.54795E+08         0.23107E+07         0.00000E+00
    0.23107E+07        -0.50013E+08         0.00000E+00
    0.00000E+00         0.00000E+00        -0.54710E+08
 
   -0.54778E+08         0.23692E+07         0.00000E+00
    0.23692E+07        -0.50018E+08         0.00000E+00
    0.00000E+00         0.00000E+00        -0.54708E+08
 
   -0.54761E+08         0.24282E+07         0.00000E+00
    0.24282E+07        -0.50024E+08         0.00000E+00
    0.00000E+00         0.00000E+00        -0.54706E+08
 
   -0.54743E+08         0.24875E+07         0.00000E+00
    0.24875E+07        -0.50031E+08         0.00000E+00
    0.00000E+00         0.00000E+00        -0.54704E+08
 
   -0.54725E+08         0.25473E+07         0.00000E+00
    0.25473E+07        -0.50038E+08         0.00000E+00
    0.00000E+00         0.00000E+00        -0.54702E+08
 
   -0.54708E+08         0.26076E+07         0.00000E+00
    0.26076E+07        -0.50045E+08         0.00000E+00
    0.00000E+00         0.00000E+00        -0.54700E+08
 
   -0.55584E+08         0.25844E+05         0.00000E+00
    0.25844E+05        -0.50000E+08         0.00000E+00
    0.00000E+00         0.00000E+00        -0.54606E+08
 
   -0.55547E+08         0.76817E+05         0.00000E+00
    0.76817E+05        -0.50000E+08         0.00000E+00
    0.00000E+00         0.00000E+00        -0.54598E+08
 
   -0.55512E+08         0.12752E+06         0.00000E+00
    0.12752E+06        -0.50000E+08         0.00000E+00
    0.00000E+00         0.00000E+00        -0.54591E+08
 
   -0.55477E+08         0.17798E+06         0.00000E+00
    0.17798E+06        -0.50000E+08         0.00000E+00
    0.00000E+00         0.00000E+00        -0.54584E+08
 
   -0.55443E+08         0.22823E+06         0.00000E+00
    0.22823E+06        -0.50000E+08         0.00000E+00
    0.00000E+00         0.00000E+00        -0.54578E+08
 
   -0.55409E+08         0.27828E+06         0.00000E+00
    0.27828E+06        -0.49999E+08         0.00000E+00
    0.00000E+00         0.00000E+00        -0.54571E+08
 
   -0.55377E+08         0.32816E+06         0.00000E+00
    0.32816E+06        -0.49999E+08         0.00000E+00
    0.00000E+00         0.00000E+00        -0.54565E+08
 
   -0.55345E+08         0.37790E+06         0.00000E+00
    0.37790E+06        -0.49998E+08         0.00000E+00
    0.00000E+00         0.00000E+00        -0.54558E+08
 
   -0.55314E+08         0.42752E+06         0.00000E+00
    0.42752E+06        -0.49998E+08         0.00000E+00
    0.00000E+00         0.00000E+00        -0.54552E+08
 
   -0.55283E+08         0.47704E+06         0.00000E+00
    0.47704E+06        -0.49997E+08         0.00000E+00
    0.00000E+00         0.00000E+00        -0.54546E+08
 
   -0.55253E+08         0.52648E+06         0.00000E+00
    0.52648E+06        -0.49997E+08         0.00000E+00
    0.00000E+00         0.00000E+00        -0.54541E+08
 
   -0.55224E+08         0.57588E+06         0.00000E+00
    0.57588E+06        -0.49996E+08         0.00000E+00
    0.00000E+00         0.00000E+00        -0.54535E+08
 
   -0.55196E+08         0.62524E+06         0.00000E+00
    0.62524E+06        -0.49995E+08         0.00000E+00
    0.00000E+00         0.00000E+00        -0.54530E+08
 
   -0.55168E+08         0.67459E+06         0.00000E+00
    0.67459E+06        -0.49995E+08         0.00000E+00
    0.00000E+00         0.00000E+00        -0.54524E+08
 
   -0.55141E+08         0.72394E+06         0.00000E+00
    0.72394E+06        -0.49994E+08         0.00000E+00
    0.00000E+00         0.00000E+00        -0.54519E+08
 
   -0.55115E+08         0.77333E+06         0.00000E+00
    0.77333E+06        -0.49994E+08         0.00000E+00
    0.00000E+00         0.00000E+00        -0.54514E+08
 
   -0.55089E+08         0.82276E+06         0.00000E+00
    0.82276E+06        -0.49993E+08         0.00000E+00
    0.00000E+00         0.00000E+00        -0.54509E+08
 
   -0.55063E+08         0.87225E+06         0.00000E+00
    0.87225E+06        -0.49993E+08         0.00000E+00
    0.00000E+00         0.00000E+00        -0.54505E+08
 
   -0.55039E+08         0.92183E+06         0.00000E+00
    0.92183E+06        -0.49992E+08         0.00000E+00
    0.00000E+00         0.00000E+00        -0.54500E+08
 
   -0.55014E+08         0.97150E+06         0.00000E+00
    0.97150E+06        -0.49992E+08         0.00000E+00
    0.00000E+00         0.00000E+00        -0.54496E+08
 
   -0.54991E+08         0.10213E+07         0.00000E+00
    0.10213E+07        -0.49992E+08         0.00000E+00
    0.00000E+00         0.00000E+00        -0.54491E+08
 
   -0.54967E+08         0.10712E+07         0.00000E+00
    0.10712E+07        -0.49991E+08         0.00000E+00
    0.00000E+00         0.00000E+00        -0.54487E+08
 
   -0.54944E+08         0.11213E+07         0.00000E+00
    0.11213E+07        -0.49991E+08         0.00000E+00
    0.00000E+00         0.00000E+00        -0.54483E+08
 
   -0.54922E+08         0.11715E+07         0.00000E+00
    0.11715E+07        -0.49991E+08         0.00000E+00
    0.00000E+00         0.00000E+00        -0.54479E+08
 
   -0.54900E+08         0.12219E+07         0.00000E+00
    0.12219E+07        -0.49992E+08         0.00000E+00
    0.00000E+00         0.00000E+00        -0.54475E+08
 
   -0.54878E+08         0.12725E+07         0.00000E+00
    0.12725E+07        -0.49992E+08         0.00000E+00
    0.00000E+00         0.00000E+00        -0.54471E+08
 
   -0.54857E+08         0.13232E+07         0.00000E+00
    0.13232E+07        -0.49992E+08         0.00000E+00
    0.00000E+00         0.00000E+00        -0.54467E+08
 
   -0.54836E+08         0.13742E+07         0.00000E+00
    0.13742E+07        -0.49993E+08         0.00000E+00
    0.00000E+00         0.00000E+00        -0.54464E+08
 
   -0.54816E+08         0.14254E+07         0.00000E+00
    0.14254E+07        -0.49994E+08         0.00000E+00
    0.00000E+00         0.00000E+00        -0.54460E+08
 
   -0.54796E+08         0.14769E+07         0.00000E+00
    0.14769E+07        -0.49995E+08         0.00000E+00
    0.00000E+00         0.00000E+00        -0.54457E+08
 
   -0.54775E+08         0.15286E+07         0.00000E+00
    0.15286E+07        -0.49996E+08         0.00000E+00
    0.00000E+00         0.00000E+00        -0.54454E+08
 
   -0.54756E+08         0.15805E+07         0.00000E+00
    0.15805E+07        -0.49998E+08         0.00000E+00
    0.00000E+00         0.00000E+00        -0.54450E+08
 
   -0.54736E+08         0.16327E+07         0.00000E+00
    0.16327E+07        -0.50000E+08         0.00000E+00
    0.00000E+00         0.00000E+00        -0.54447E+08
 
   -0.54717E+08         0.16852E+07         0.00000E+00
    0.16852E+07        -0.50002E+08         0.00000E+00
    0.00000E+00         0.00000E+00        -0.54444E+08
 
   -0.54698E+08         0.17379E+07         0.00000E+00
    0.17379E+07        -0.50004E+08         0.00000E+00
    0.00000E+00         0.00000E+00        -0.54441E+08
 
   -0.54679E+08         0.17909E+07         0.00000E+00
    0.17909E+07        -0.50007E+08         0.00000E+00
    0.00000E+00         0.00000E+00        -0.54438E+08
 
   -0.54660E+08         0.18442E+07         0.00000E+00
    0.18442E+07        -0.50010E+08         0.00000E+00
    0.00000E+00         0.00000E+00        -0.54435E+08
 
   -0.54641E+08         0.18979E+07         0.00000E+00
    0.18979E+07        -0.50013E+08         0.00000E+00
    0.00000E+00         0.00000E+00        -0.54433E+08
 
   -0.54622E+08         0.19518E+07         0.00000E+00
    0.19518E+07        -0.50016E+08         0.00000E+00
    0.00000E+00         0.00000E+00        -0.54430E+08
 
   -0.54603E+08         0.20060E+07         0.00000E+00
    0.20060E+07        -0.50020E+08         0.00000E+00
    0.00000E+00         0.00000E+00        -0.54427E+08
 
   -0.54585E+08         0.20606E+07         0.00000E+00
    0.20606E+07        -0.50025E+08         0.00000E+00
    0.00000E+00         0.00000E+00        -0.54425E+08
 
   -0.54566E+08         0.21155E+07         0.00000E+00
    0.21155E+07        -0.50029E+08         0.00000E+00
    0.00000E+00         0.00000E+00        -0.54422E+08
 
   -0.54547E+08         0.21707E+07         0.00000E+00
    0.21707E+07        -0.50034E+08         0.00000E+00
    0.00000E+00         0.00000E+00        -0.54420E+08
 
   -0.54528E+08         0.22262E+07         0.00000E+00
    0.22262E+07        -0.50040E+08         0.00000E+00
    0.00000E+00         0.00000E+00        -0.54417E+08
 
   -0.54509E+08         0.22821E+07         0.00000E+00
    0.22821E+07        -0.50046E+08         0.00000E+00
    0.00000E+00         0.00000E+00        -0.54415E+08
 
   -0.54490E+08         0.23383E+07         0.00000E+00
    0.23383E+07        -0.50052E+08         0.00000E+00
    0.00000E+00         0.00000E+00        -0.54412E+08
 
   -0.54471E+08         0.23948E+07         0.00000E+00
    0.23948E+07        -0.50059E+08         0.00000E+00
    0.00000E+00         0.00000E+00        -0.54410E+08
 
   -0.54451E+08         0.24517E+07         0.00000E+00
    0.24517E+07        -0.50067E+08         0.00000E+00
    0.00000E+00         0.00000E+00        -0.54408E+08
 
   -0.54432E+08         0.25089E+07         0.00000E+00
    0.25089E+07        -0.50074E+08         0.00000E+00
    0.00000E+00         0.00000E+00        -0.54405E+08
 
   -0.54412E+08         0.25665E+07         0.00000E+00
    0.25665E+07        -0.50083E+08         0.00000E+00
    0.00000E+00         0.00000E+00        -0.54403E+08
 
   -0.55327E+08         0.26002E+05         0.00000E+00
    0.26002E+05        -0.50000E+08         0.00000E+00
    0.00000E+00         0.00000E+00        -0.54323E+08
 
   -0.55292E+08         0.77258E+05         0.00000E+00
    0.77258E+05        -0.50000E+08         0.00000E+00
    0.00000E+00         0.00000E+00        -0.54316E+08
 
   -0.55258E+08         0.12823E+06         0.00000E+00
    0.12823E+06        -0.50000E+08         0.00000E+00
    0.00000E+00         0.00000E+00        -0.54310E+08
 
   -0.55224E+08         0.17893E+06         0.00000E+00
    0.17893E+06        -0.50000E+08         0.00000E+00
    0.00000E+00         0.00000E+00        -0.54303E+08
 
   -0.55191E+08         0.22939E+06         0.00000E+00
    0.22939E+06        -0.50000E+08         0.00000E+00
    0.00000E+00         0.00000E+00        -0.54296E+08
 
   -0.55159E+08         0.27962E+06         0.00000E+00
    0.27962E+06        -0.50000E+08         0.00000E+00
    0.00000E+00         0.00000E+00        -0.54290E+08
 
   -0.55127E+08         0.32967E+06         0.00000E+00
    0.32967E+06        -0.50000E+08         0.00000E+00
    0.00000E+00         0.00000E+00        -0.54284E+08
 
   -0.55096E+08         0.37953E+06         0.00000E+00
    0.37953E+06        -0.50000E+08         0.00000E+00
    0.00000E+00         0.00000E+00        -0.54278E+08
 
   -0.55066E+08         0.42924E+06         0.00000E+00
    0.42924E+06        -0.49999E+08         0.00000E+00
    0.00000E+00         0.00000E+00        -0.54272E+08
 
   -0.55036E+08         0.47881E+06         0.00000E+00
    0.47881E+06        -0.49999E+08         0.00000E+00
    0.00000E+00         0.00000E+00        -0.54266E+08
 
   -0.55006E+08         0.52827E+06         0.00000E+00
    0.52827E+06        -0.49999E+08         0.00000E+00
    0.00000E+00         0.00000E+00        -0.54260E+08
 
   -0.54978E+08         0.57763E+06         0.00000E+00
    0.57763E+06        -0.49999E+08         0.00000E+00
    0.00000E+00         0.00000E+00        -0.54255E+08
 
   -0.54949E+08         0.62692E+06         0.00000E+00
    0.62692E+06        -0.49999E+08         0.00000E+00
    0.00000E+00         0.00000E+00        -0.54250E+08
 
   -0.54922E+08         0.67614E+06         0.00000E+00
    0.67614E+06        -0.49999E+08         0.00000E+00
    0.00000E+00         0.00000E+00        -0.54244E+08
 
   -0.54895E+08         0.72533E+06         0.00000E+00
    0.72533E+06        -0.49999E+08         0.00000E+00
    0.00000E+00         0.00000E+00        -0.54239E+08
 
   -0.54868E+08         0.77449E+06         0.00000E+00
    0.77449E+06        -0.49999E+08         0.00000E+00
    0.00000E+00         0.00000E+00        -0.54234E+08
 
   -0.54842E+08         0.82365E+06         0.00000E+00
    0.82365E+06        -0.49999E+08         0.00000E+00
    0.00000E+00         0.00000E+00        -0.54230E+08
 
   -0.54817E+08         0.87282E+06         0.00000E+00
    0.87282E+06        -0.49999E+08         0.00000E+00
    0.00000E+00         0.00000E+00        -0.54225E+08
 
   -0.54792E+08         0.92201E+06         0.00000E+00
    0.92201E+06        -0.49999E+08         0.00000E+00
    0.00000E+00         0.00000E+00        -0.54220E+08
 
   -0.54767E+08         0.97124E+06         0.00000E+00
    0.97124E+06        -0.49999E+08         0.00000E+00
    0.00000E+00         0.00000E+00        -0.54216E+08
 
   -0.54743E+08         0.10205E+07         0.00000E+00
    0.10205E+07        -0.50000E+08         0.00000E+00
    0.00000E+00         0.00000E+00        -0.54211E+08
 
   -0.54719E+08         0.10699E+07         0.00000E+00
    0.10699E+07        -0.50000E+08         0.00000E+00
    0.00000E+00         0.00000E+00        -0.54207E+08
 
   -0.54695E+08         0.11193E+07         0.00000E+00
    0.11193E+07        -0.50001E+08         0.00000E+00
    0.00000E+00         0.00000E+00        -0.54203E+08
 
   -0.54672E+08         0.11689E+07         0.00000E+00
    0.11689E+07        -0.50002E+08         0.00000E+00
    0.00000E+00         0.00000E+00        -0.54199E+08
 
   -0.54650E+08         0.12185E+07         0.00000E+00
    0.12185E+07        -0.50003E+08         0.00000E+00
    0.00000E+00         0.00000E+00        -0.54195E+08
 
   -0.54627E+08         0.12683E+07         0.00000E+00
    0.12683E+07        -0.50004E+08         0.00000E+00
    0.00000E+00         0.00000E+00        -0.54191E+08
 
   -0.54605E+08         0.13182E+07         0.00000E+00
    0.13182E+07        -0.50005E+08         0.00000E+00
    0.00000E+00         0.00000E+00        -0.54188E+08
 
   -0.54583E+08         0.13682E+07         0.00000E+00
    0.13682E+07        -0.50007E+08         0.00000E+00
    0.00000E+00         0.00000E+00        -0.54184E+08
 
   -0.54562E+08         0.14184E+07         0.00000E+00
    0.14184E+07        -0.50009E+08         0.00000E+00
    0.00000E+00         0.00000E+00        -0.54180E+08
 
   -0.54540E+08         0.14688E+07         0.00000E+00
    0.14688E+07        -0.50010E+08         0.00000E+00
    0.00000E+00         0.00000E+00        -0.54177E+08
 
   -0.54519E+08         0.15193E+07         0.00000E+00
    0.15193E+07        -0.50013E+08         0.00000E+00
    0.00000E+00         0.00000E+00        -0.54173E+08
 
   -0.54498E+08         0.15701E+07         0.00000E+00
    0.15701E+07        -0.50015E+08         0.00000E+00
    0.00000E+00         0.00000E+00        -0.54170E+08
 
   -0.54478E+08         0.16210E+07         0.00000E+00
    0.16210E+07        -0.50018E+08         0.00000E+00
    0.00000E+00         0.00000E+00        -0.54167E+08
 
   -0.54457E+08         0.16721E+07         0.00000E+00
    0.16721E+07        -0.50020E+08         0.00000E+00
    0.00000E+00         0.00000E+00        -0.54164E+08
 
   -0.54437E+08         0.17234E+07         0.00000E+00
    0.17234E+07        -0.50024E+08         0.00000E+00
    0.00000E+00         0.00000E+00        -0.54161E+08
 
   -0.54417E+08         0.17749E+07         0.00000E+00
    0.17749E+07        -0.50027E+08         0.00000E+00
    0.00000E+00         0.00000E+00        -0.54158E+08
 
   -0.54396E+08         0.18267E+07         0.00000E+00
    0.18267E+07        -0.50031E+08         0.00000E+00
    0.00000E+00         0.00000E+00        -0.54155E+08
 
   -0.54376E+08         0.18786E+07         0.00000E+00
    0.18786E+07        -0.50035E+08         0.00000E+00
    0.00000E+00         0.00000E+00        -0.54152E+08
 
   -0.54356E+08         0.19308E+07         0.00000E+00
    0.19308E+07        -0.50039E+08         0.00000E+00
    0.00000E+00         0.00000E+00        -0.54149E+08
 
   -0.54336E+08         0.19833E+07         0.00000E+00
    0.19833E+07        -0.50044E+08         0.00000E+00
    0.00000E+00         0.00000E+00        -0.54146E+08
 
   -0.54316E+08         0.20359E+07         0.00000E+00
    0.20359E+07        -0.50049E+08         0.00000E+00
    0.00000E+00         0.00000E+00        -0.54143E+08
 
   -0.54296E+08         0.20889E+07         0.00000E+00
    0.20889E+07        -0.50055E+08         0.00000E+00
    0.00000E+00         0.00000E+00        -0.54141E+08
 
   -0.54275E+08         0.21420E+07         0.00000E+00
    0.21420E+07        -0.50061E+08         0.00000E+00
    0.00000E+00         0.00000E+00        -0.54138E+08
 
   -0.54255E+08         0.21955E+07         0.00000E+00
    0.21955E+07        -0.50067E+08         0.00000E+00
    0.00000E+00         0.00000E+00        -0.54135E+08
 
   -0.54235E+08         0.22492E+07         0.00000E+00
    0.22492E+07        -0.50074E+08         0.00000E+00
    0.00000E+00         0.00000E+00        -0.54133E+08
 
   -0.54214E+08         0.23031E+07         0.00000E+00
    0.23031E+07        -0.50081E+08         0.00000E+00
    0.00000E+00         0.00000E+00        -0.54130E+08
 
   -0.54193E+08         0.23573E+07         0.00000E+00
    0.23573E+07        -0.50088E+08         0.00000E+00
    0.00000E+00         0.00000E+00        -0.54128E+08
 
   -0.54172E+08         0.24118E+07         0.00000E+00
    0.24118E+07        -0.50096E+08         0.00000E+00
    0.00000E+00         0.00000E+00        -0.54125E+08
 
   -0.54151E+08         0.24665E+07         0.00000E+00
    0.24665E+07        -0.50105E+08         0.00000E+00
    0.00000E+00         0.00000E+00        -0.54123E+08
 
   -0.54130E+08         0.25215E+07         0.00000E+00
    0.25215E+07        -0.50114E+08         0.00000E+00
    0.00000E+00         0.00000E+00        -0.54120E+08
 
   -0.55070E+08         0.26049E+05         0.00000E+00
    0.26049E+05        -0.50000E+08         0.00000E+00
    0.00000E+00         0.00000E+00        -0.54052E+08
 
   -0.55037E+08         0.77373E+05         0.00000E+00
    0.77373E+05        -0.50000E+08         0.00000E+00
    0.00000E+00         0.00000E+00        -0.54046E+08
 
   -0.55004E+08         0.12839E+06         0.00000E+00
    0.12839E+06        -0.50000E+08         0.00000E+00
    0.00000E+00         0.00000E+00        -0.54039E+08
 
   -0.54971E+08         0.17913E+06         0.00000E+00
    0.17913E+06        -0.50000E+08         0.00000E+00
    0.00000E+00         0.00000E+00        -0.54033E+08
 
   -0.54939E+08         0.22960E+06         0.00000E+00
    0.22960E+06        -0.50000E+08         0.00000E+00
    0.00000E+00         0.00000E+00        -0.54026E+08
 
   -0.54908E+08         0.27984E+06         0.00000E+00
    0.27984E+06        -0.50000E+08         0.00000E+00
    0.00000E+00         0.00000E+00        -0.54020E+08
 
   -0.54877E+08         0.32985E+06         0.00000E+00
    0.32985E+06        -0.50000E+08         0.00000E+00
    0.00000E+00         0.00000E+00        -0.54014E+08
 
   -0.54847E+08         0.37965E+06         0.00000E+00
    0.37965E+06        -0.50001E+08         0.00000E+00
    0.00000E+00         0.00000E+00        -0.54009E+08
 
   -0.54817E+08         0.42927E+06         0.00000E+00
    0.42927E+06        -0.50001E+08         0.00000E+00
    0.00000E+00         0.00000E+00        -0.54003E+08
 
   -0.54788E+08         0.47873E+06         0.00000E+00
    0.47873E+06        -0.50001E+08         0.00000E+00
    0.00000E+00         0.00000E+00        -0.53997E+08
 
   -0.54760E+08         0.52803E+06         0.00000E+00
    0.52803E+06        -0.50001E+08         0.00000E+00
    0.00000E+00         0.00000E+00        -0.53992E+08
 
   -0.54731E+08         0.57721E+06         0.00000E+00
    0.57721E+06        -0.50001E+08         0.00000E+00
    0.00000E+00         0.00000E+00        -0.53986E+08
 
   -0.54704E+08         0.62627E+06         0.00000E+00
    0.62627E+06        -0.50002E+08         0.00000E+00
    0.00000E+00         0.00000E+00        -0.53981E+08
 
   -0.54676E+08         0.67523E+06         0.00000E+00
    0.67523E+06        -0.50002E+08         0.00000E+00
    0.00000E+00         0.00000E+00        -0.53976E+08
 
   -0.54650E+08         0.72411E+06         0.00000E+00
    0.72411E+06        -0.50002E+08         0.00000E+00
    0.00000E+00         0.00000E+00        -0.53971E+08
 
   -0.54623E+08         0.77292E+06         0.00000E+00
    0.77292E+06        -0.50003E+08         0.00000E+00
    0.00000E+00         0.00000E+00        -0.53966E+08
 
   -0.54597E+08         0.82168E+06         0.00000E+00
    0.82168E+06        -0.50003E+08         0.00000E+00
    0.00000E+00         0.00000E+00        -0.53962E+08
 
   -0.54572E+08         0.87041E+06         0.00000E+00
    0.87041E+06        -0.50004E+08         0.00000E+00
    0.00000E+00         0.00000E+00        -0.53957E+08
 
   -0.54547E+08         0.91911E+06         0.00000E+00
    0.91911E+06        -0.50005E+08         0.00000E+00
    0.00000E+00         0.00000E+00        -0.53952E+08
 
   -0.54522E+08         0.96780E+06         0.00000E+00
    0.96780E+06        -0.50006E+08         0.00000E+00
    0.00000E+00         0.00000E+00        -0.53948E+08
 
   -0.54497E+08         0.10165E+07         0.00000E+00
    0.10165E+07        -0.50007E+08         0.00000E+00
    0.00000E+00         0.00000E+00        -0.53944E+08
 
   -0.54473E+08         0.10652E+07         0.00000E+00
    0.10652E+07        -0.50008E+08         0.00000E+00
    0.00000E+00         0.00000E+00        -0.53939E+08
 
   -0.54450E+08         0.11140E+07         0.00000E+00
    0.11140E+07        -0.50009E+08         0.00000E+00
    0.00000E+00         0.00000E+00        -0.53935E+08
 
   -0.54426E+08         0.11627E+07         0.00000E+00
    0.11627E+07        -0.50011E+08         0.00000E+00
    0.00000E+00         0.00000E+00        -0.53931E+08
 
   -0.54403E+08         0.12116E+07         0.00000E+00
    0.12116E+07        -0.50012E+08         0.00000E+00
    0.00000E+00         0.00000E+00        -0.53927E+08
 
   -0.54380E+08         0.12605E+07         0.00000E+00
    0.12605E+07        -0.50014E+08         0.00000E+00
    0.00000E+00         0.00000E+00        -0.53923E+08
 
   -0.54358E+08         0.13095E+07         0.00000E+00
    0.13095E+07        -0.50016E+08         0.00000E+00
    0.00000E+00         0.00000E+00        -0.53920E+08
 
   -0.54335E+08         0.13585E+07         0.00000E+00
    0.13585E+07        -0.50018E+08         0.00000E+00
    0.00000E+00         0.00000E+00        -0.53916E+08
 
   -0.54313E+08         0.14077E+07         0.00000E+00
    0.14077E+07        -0.50021E+08         0.00000E+00
    0.00000E+00         0.00000E+00        -0.53912E+08
 
   -0.54291E+08         0.14569E+07         0.00000E+00
    0.14569E+07        -0.50023E+08         0.00000E+00
    0.00000E+00         0.00000E+00        -0.53909E+08
 
   -0.54269E+08         0.15063E+07         0.00000E+00
    0.15063E+07        -0.50026E+08         0.00000E+00
    0.00000E+00         0.00000E+00        -0.53905E+08
 
   -0.54248E+08         0.15558E+07         0.00000E+00
    0.15558E+07        -0.50029E+08         0.00000E+00
    0.00000E+00         0.00000E+00        -0.53902E+08
 
   -0.54226E+08         0.16054E+07         0.00000E+00
    0.16054E+07        -0.50032E+08         0.00000E+00
    0.00000E+00         0.00000E+00        -0.53899E+08
 
   -0.54205E+08         0.16551E+07         0.00000E+00
    0.16551E+07        -0.50036E+08         0.00000E+00
    0.00000E+00         0.00000E+00        -0.53896E+08
 
   -0.54183E+08         0.17050E+07         0.00000E+00
    0.17050E+07        -0.50040E+08         0.00000E+00
    0.00000E+00         0.00000E+00        -0.53892E+08
 
   -0.54162E+08         0.17551E+07         0.00000E+00
    0.17551E+07        -0.50044E+08         0.00000E+00
    0.00000E+00         0.00000E+00        -0.53889E+08
 
   -0.54141E+08         0.18053E+07         0.00000E+00
    0.18053E+07        -0.50049E+08         0.00000E+00
    0.00000E+00         0.00000E+00        -0.53886E+08
 
   -0.54120E+08         0.18556E+07         0.00000E+00
    0.18556E+07        -0.50053E+08         0.00000E+00
    0.00000E+00         0.00000E+00        -0.53883E+08
 
   -0.54099E+08         0.19061E+07         0.00000E+00
    0.19061E+07        -0.50058E+08         0.00000E+00
    0.00000E+00         0.00000E+00        -0.53880E+08
 
   -0.54078E+08         0.19568E+07         0.00000E+00
    0.19568E+07        -0.50064E+08         0.00000E+00
    0.00000E+00         0.00000E+00        -0.53877E+08
 
   -0.54056E+08         0.20076E+07         0.00000E+00
    0.20076E+07        -0.50070E+08         0.00000E+00
    0.00000E+00         0.00000E+00        -0.53874E+08
 
   -0.54035E+08         0.20587E+07         0.00000E+00
    0.20587E+07        -0.50076E+08         0.00000E+00
    0.00000E+00         0.00000E+00        -0.53872E+08
 
   -0.54014E+08         0.21099E+07         0.00000E+00
    0.21099E+07        -0.50082E+08         0.00000E+00
    0.00000E+00         0.00000E+00        -0.53869E+08
 
   -0.53992E+08         0.21612E+07         0.00000E+00
    0.21612E+07        -0.50089E+08         0.00000E+00
    0.00000E+00         0.00000E+00        -0.53866E+08
 
   -0.53971E+08         0.22128E+07         0.00000E+00
    0.22128E+07        -0.50097E+08         0.00000E+00
    0.00000E+00         0.00000E+00        -0.53864E+08
 
   -0.53949E+08         0.22646E+07         0.00000E+00
    0.22646E+07        -0.50104E+08         0.00000E+00
    0.00000E+00         0.00000E+00        -0.53861E+08
 
   -0.53927E+08         0.23165E+07         0.00000E+00
    0.23165E+07        -0.50113E+08         0.00000E+00
    0.00000E+00         0.00000E+00        -0.53858E+08
 
   -0.53905E+08         0.23686E+07         0.00000E+00
    0.23686E+07        -0.50121E+08         0.00000E+00
    0.00000E+00         0.00000E+00        -0.53856E+08
 
   -0.53883E+08         0.24210E+07         0.00000E+00
    0.24210E+07        -0.50130E+08         0.00000E+00
    0.00000E+00         0.00000E+00        -0.53853E+08
 
   -0.53861E+08         0.24735E+07         0.00000E+00
    0.24735E+07        -0.50140E+08         0.00000E+00
    0.00000E+00         0.00000E+00        -0.53850E+08
 
   -0.54813E+08         0.26002E+05         0.00000E+00
    0.26002E+05        -0.50000E+08         0.00000E+00
    0.00000E+00         0.00000E+00        -0.53792E+08
 
   -0.54781E+08         0.77214E+05         0.00000E+00
    0.77214E+05        -0.50000E+08         0.00000E+00
    0.00000E+00         0.00000E+00        -0.53786E+08
 
   -0.54750E+08         0.12811E+06         0.00000E+00
    0.12811E+06        -0.50000E+08         0.00000E+00
    0.00000E+00         0.00000E+00        -0.53780E+08
 
   -0.54719E+08         0.17871E+06         0.00000E+00
    0.17871E+06        -0.50000E+08         0.00000E+00
    0.00000E+00         0.00000E+00        -0.53774E+08
 
   -0.54688E+08         0.22904E+06         0.00000E+00
    0.22904E+06        -0.50001E+08         0.00000E+00
    0.00000E+00         0.00000E+00        -0.53768E+08
 
   -0.54658E+08         0.27910E+06         0.00000E+00
    0.27910E+06        -0.50001E+08         0.00000E+00
    0.00000E+00         0.00000E+00        -0.53762E+08
 
   -0.54628E+08         0.32892E+06         0.00000E+00
    0.32892E+06        -0.50001E+08         0.00000E+00
    0.00000E+00         0.00000E+00        -0.53756E+08
 
   -0.54599E+08         0.37852E+06         0.00000E+00
    0.37852E+06        -0.50001E+08         0.00000E+00
    0.00000E+00         0.00000E+00        -0.53750E+08
 
   -0.54570E+08         0.42790E+06         0.00000E+00
    0.42790E+06        -0.50002E+08         0.00000E+00
    0.00000E+00         0.00000E+00        -0.53745E+08
 
   -0.54542E+08         0.47710E+06         0.00000E+00
    0.47710E+06        -0.50002E+08         0.00000E+00
    0.00000E+00         0.00000E+00        -0.53740E+08
 
   -0.54514E+08         0.52611E+06         0.00000E+00
    0.52611E+06        -0.50003E+08         0.00000E+00
    0.00000E+00         0.00000E+00        -0.53734E+08
 
   -0.54487E+08         0.57497E+06         0.00000E+00
    0.57497E+06        -0.50003E+08         0.00000E+00
    0.00000E+00         0.00000E+00        -0.53729E+08
 
   -0.54460E+08         0.62368E+06         0.00000E+00
    0.62368E+06        -0.50004E+08         0.00000E+00
    0.00000E+00         0.00000E+00        -0.53724E+08
 
   -0.54433E+08         0.67225E+06         0.00000E+00
    0.67225E+06        -0.50005E+08         0.00000E+00
    0.00000E+00         0.00000E+00        -0.53719E+08
 
   -0.54406E+08         0.72071E+06         0.00000E+00
    0.72071E+06        -0.50005E+08         0.00000E+00
    0.00000E+00         0.00000E+00        -0.53714E+08
 
   -0.54381E+08         0.76907E+06         0.00000E+00
    0.76907E+06        -0.50006E+08         0.00000E+00
    0.00000E+00         0.00000E+00        -0.53710E+08
 
   -0.54355E+08         0.81733E+06         0.00000E+00
    0.81733E+06        -0.50007E+08         0.00000E+00
    0.00000E+00         0.00000E+00        -0.53705E+08
 
   -0.54330E+08         0.86552E+06         0.00000E+00
    0.86552E+06        -0.50009E+08         0.00000E+00
    0.00000E+00         0.00000E+00        -0.53700E+08
 
   -0.54305E+08         0.91364E+06         0.00000E+00
    0.91364E+06        -0.50010E+08         0.00000E+00
    0.00000E+00         0.00000E+00        -0.53696E+08
 
   -0.54280E+08         0.96171E+06         0.00000E+00
    0.96171E+06        -0.50011E+08         0.00000E+00
    0.00000E+00         0.00000E+00        -0.53692E+08
 
   -0.54256E+08         0.10097E+07         0.00000E+00
    0.10097E+07        -0.50013E+08         0.00000E+00
    0.00000E+00         0.00000E+00        -0.53687E+08
 
   -0.54232E+08         0.10577E+07         0.00000E+00
    0.10577E+07        -0.50014E+08         0.00000E+00
    0.00000E+00         0.00000E+00        -0.53683E+08
 
   -0.54208E+08         0.11057E+07         0.00000E+00
    0.11057E+07        -0.50016E+08         0.00000E+00
    0.00000E+00         0.00000E+00        -0.53679E+08
 
   -0.54184E+08         0.11537E+07         0.00000E+00
    0.11537E+07        -0.50018E+08         0.00000E+00
    0.00000E+00         0.00000E+00        -0.53675E+08
 
   -0.54161E+08         0.12017E+07         0.00000E+00
    0.12017E+07        -0.50020E+08         0.00000E+00
    0.00000E+00         0.00000E+00        -0.53671E+08
 
   -0.54138E+08         0.12497E+07         0.00000E+00
    0.12497E+07        -0.50023E+08         0.00000E+00
    0.00000E+00         0.00000E+00        -0.53667E+08
 
   -0.54115E+08         0.12977E+07         0.00000E+00
    0.12977E+07        -0.50025E+08         0.00000E+00
    0.00000E+00         0.00000E+00        -0.53664E+08
 
   -0.54092E+08         0.13457E+07         0.00000E+00
    0.13457E+07        -0.50028E+08         0.00000E+00
    0.00000E+00         0.00000E+00        -0.53660E+08
 
   -0.54070E+08         0.13938E+07         0.00000E+00
    0.13938E+07        -0.50031E+08         0.00000E+00
    0.00000E+00         0.00000E+00        -0.53656E+08
 
   -0.54047E+08         0.14420E+07         0.00000E+00
    0.14420E+07        -0.50034E+08         0.00000E+00
    0.00000E+00         0.00000E+00        -0.53653E+08
 
   -0.54025E+08         0.14901E+07         0.00000E+00
    0.14901E+07        -0.50037E+08         0.00000E+00
    0.00000E+00         0.00000E+00        -0.53649E+08
 
   -0.54003E+08         0.15384E+07         0.00000E+00
    0.15384E+07        -0.50041E+08         0.00000E+00
    0.00000E+00         0.00000E+00        -0.53646E+08
 
   -0.53981E+08         0.15867E+07         0.00000E+00
    0.15867E+07        -0.50045E+08         0.00000E+00
    0.00000E+00         0.00000E+00        -0.53643E+08
 
   -0.53959E+08         0.16351E+07         0.00000E+00
    0.16351E+07        -0.50049E+08         0.00000E+00
    0.00000E+00         0.00000E+00        -0.53639E+08
 
   -0.53937E+08         0.16836E+07         0.00000E+00
    0.16836E+07        -0.50053E+08         0.00000E+00
    0.00000E+00         0.00000E+00        -0.53636E+08
 
   -0.53915E+08         0.17321E+07         0.00000E+00
    0.17321E+07        -0.50058E+08         0.00000E+00
    0.00000E+00         0.00000E+00        -0.53633E+08
 
   -0.53894E+08         0.17808E+07         0.00000E+00
    0.17808E+07        -0.50063E+08         0.00000E+00
    0.00000E+00         0.00000E+00        -0.53630E+08
 
   -0.53872E+08         0.18295E+07         0.00000E+00
    0.18295E+07        -0.50068E+08         0.00000E+00
    0.00000E+00         0.00000E+00        -0.53627E+08
 
   -0.53850E+08         0.18784E+07         0.00000E+00
    0.18784E+07        -0.50074E+08         0.00000E+00
    0.00000E+00         0.00000E+00        -0.53624E+08
 
   -0.53828E+08         0.19273E+07         0.00000E+00
    0.19273E+07        -0.50080E+08         0.00000E+00
    0.00000E+00         0.00000E+00        -0.53621E+08
 
   -0.53806E+08         0.19764E+07         0.00000E+00
    0.19764E+07        -0.50086E+08         0.00000E+00
    0.00000E+00         0.00000E+00        -0.53618E+08
 
   -0.53784E+08         0.20256E+07         0.00000E+00
    0.20256E+07        -0.50093E+08         0.00000E+00
    0.00000E+00         0.00000E+00        -0.53615E+08
 
   -0.53762E+08         0.20749E+07         0.00000E+00
    0.20749E+07        -0.50100E+08         0.00000E+00
    0.00000E+00         0.00000E+00        -0.53612E+08
 
   -0.53740E+08         0.21243E+07         0.00000E+00
    0.21243E+07        -0.50107E+08         0.00000E+00
    0.00000E+00         0.00000E+00        -0.53609E+08
 
   -0.53718E+08         0.21738E+07         0.00000E+00
    0.21738E+07        -0.50115E+08         0.00000E+00
    0.00000E+00         0.00000E+00        -0.53607E+08
 
   -0.53695E+08         0.22235E+07         0.00000E+00
    0.22235E+07        -0.50123E+08         0.00000E+00
    0.00000E+00         0.00000E+00        -0.53604E+08
 
   -0.53673E+08         0.22732E+07         0.00000E+00
    0.22732E+07        -0.50132E+08         0.00000E+00
    0.00000E+00         0.00000E+00        -0.53601E+08
 
   -0.53650E+08         0.23231E+07         0.00000E+00
    0.23231E+07        -0.50141E+08         0.00000E+00
    0.00000E+00         0.00000E+00        -0.53598E+08
 
   -0.53627E+08         0.23731E+07         0.00000E+00
    0.23731E+07        -0.50150E+08         0.00000E+00
    0.00000E+00         0.00000E+00        -0.53596E+08
 
   -0.53604E+08         0.24233E+07         0.00000E+00
    0.24233E+07        -0.50160E+08         0.00000E+00
    0.00000E+00         0.00000E+00        -0.53593E+08
 
   -0.54557E+08         0.25878E+05         0.00000E+00
    0.25878E+05        -0.50000E+08         0.00000E+00
    0.00000E+00         0.00000E+00        -0.53543E+08
 
   -0.54526E+08         0.76830E+05         0.00000E+00
    0.76830E+05        -0.50000E+08         0.00000E+00
    0.00000E+00         0.00000E+00        -0.53537E+08
 
   -0.54496E+08         0.12746E+06         0.00000E+00
    0.12746E+06        -0.50000E+08         0.00000E+00
    0.00000E+00         0.00000E+00        -0.53531E+08
 
   -0.54467E+08         0.17779E+06         0.00000E+00
    0.17779E+06        -0.50001E+08         0.00000E+00
    0.00000E+00         0.00000E+00        -0.53525E+08
 
   -0.54438E+08         0.22782E+06         0.00000E+00
    0.22782E+06        -0.50001E+08         0.00000E+00
    0.00000E+00         0.00000E+00        -0.53520E+08
 
   -0.54409E+08         0.27758E+06         0.00000E+00
    0.27758E+06        -0.50001E+08         0.00000E+00
    0.00000E+00         0.00000E+00        -0.53514E+08
 
   -0.54381E+08         0.32709E+06         0.00000E+00
    0.32709E+06        -0.50002E+08         0.00000E+00
    0.00000E+00         0.00000E+00        -0.53508E+08
 
   -0.54352E+08         0.37634E+06         0.00000E+00
    0.37634E+06        -0.50002E+08         0.00000E+00
    0.00000E+00         0.00000E+00        -0.53503E+08
 
   -0.54325E+08         0.42537E+06         0.00000E+00
    0.42537E+06        -0.50003E+08         0.00000E+00
    0.00000E+00         0.00000E+00        -0.53498E+08
 
   -0.54297E+08         0.47419E+06         0.00000E+00
    0.47419E+06        -0.50003E+08         0.00000E+00
    0.00000E+00         0.00000E+00        -0.53493E+08
 
   -0.54270E+08         0.52281E+06         0.00000E+00
    0.52281E+06        -0.50004E+08         0.00000E+00
    0.00000E+00         0.00000E+00        -0.53488E+08
 
   -0.54244E+08         0.57123E+06         0.00000E+00
    0.57123E+06        -0.50005E+08         0.00000E+00
    0.00000E+00         0.00000E+00        -0.53483E+08
 
   -0.54217E+08         0.61949E+06         0.00000E+00
    0.61949E+06        -0.50006E+08         0.00000E+00
    0.00000E+00         0.00000E+00        -0.53478E+08
 
   -0.54191E+08         0.66758E+06         0.00000E+00
    0.66758E+06        -0.50007E+08         0.00000E+00
    0.00000E+00         0.00000E+00        -0.53473E+08
 
   -0.54166E+08         0.71553E+06         0.00000E+00
    0.71553E+06        -0.50008E+08         0.00000E+00
    0.00000E+00         0.00000E+00        -0.53468E+08
 
   -0.54140E+08         0.76334E+06         0.00000E+00
    0.76334E+06        -0.50009E+08         0.00000E+00
    0.00000E+00         0.00000E+00        -0.53464E+08
 
   -0.54115E+08         0.81102E+06         0.00000E+00
    0.81102E+06        -0.50011E+08         0.00000E+00
    0.00000E+00         0.00000E+00        -0.53459E+08
 
   -0.54090E+08         0.85860E+06         0.00000E+00
    0.85860E+06        -0.50012E+08         0.00000E+00
    0.00000E+00         0.00000E+00        -0.53455E+08
 
   -0.54066E+08         0.90607E+06         0.00000E+00
    0.90607E+06        -0.50014E+08         0.00000E+00
    0.00000E+00         0.00000E+00        -0.53450E+08
 
   -0.54041E+08         0.95346E+06         0.00000E+00
    0.95346E+06        -0.50015E+08         0.00000E+00
    0.00000E+00         0.00000E+00        -0.53446E+08
 
   -0.54017E+08         0.10008E+07         0.00000E+00
    0.10008E+07        -0.50017E+08         0.00000E+00
    0.00000E+00         0.00000E+00        -0.53442E+08
 
   -0.53994E+08         0.10480E+07         0.00000E+00
    0.10480E+07        -0.50019E+08         0.00000E+00
    0.00000E+00         0.00000E+00        -0.53438E+08
 
   -0.53970E+08         0.10952E+07         0.00000E+00
    0.10952E+07        -0.50022E+08         0.00000E+00
    0.00000E+00         0.00000E+00        -0.53434E+08
 
   -0.53946E+08         0.11423E+07         0.00000E+00
    0.11423E+07        -0.50024E+08         0.00000E+00
    0.00000E+00         0.00000E+00        -0.53430E+08
 
   -0.53923E+08         0.11894E+07         0.00000E+00
    0.11894E+07        -0.50027E+08         0.00000E+00
    0.00000E+00         0.00000E+00        -0.53426E+08
 
   -0.53900E+08         0.12364E+07         0.00000E+00
    0.12364E+07        -0.50029E+08         0.00000E+00
    0.00000E+00         0.00000E+00        -0.53422E+08
 
   -0.53877E+08         0.12835E+07         0.00000E+00
    0.12835E+07        -0.50032E+08         0.00000E+00
    0.00000E+00         0.00000E+00        -0.53419E+08
 
   -0.53855E+08         0.13305E+07         0.00000E+00
    0.13305E+07        -0.50035E+08         0.00000E+00
    0.00000E+00         0.00000E+00        -0.53415E+08
 
   -0.53832E+08         0.13775E+07         0.00000E+00
    0.13775E+07        -0.50039E+08         0.00000E+00
    0.00000E+00         0.00000E+00        -0.53411E+08
 
   -0.53809E+08         0.14245E+07         0.00000E+00
    0.14245E+07        -0.50042E+08         0.00000E+00
    0.00000E+00         0.00000E+00        -0.53408E+08
 
   -0.53787E+08         0.14715E+07         0.00000E+00
    0.14715E+07        -0.50046E+08         0.00000E+00
    0.00000E+00         0.00000E+00        -0.53404E+08
 
   -0.53765E+08         0.15185E+07         0.00000E+00
    0.15185E+07        -0.50050E+08         0.00000E+00
    0.00000E+00         0.00000E+00        -0.53401E+08
 
   -0.53742E+08         0.15655E+07         0.00000E+00
    0.15655E+07        -0.50055E+08         0.00000E+00
    0.00000E+00         0.00000E+00        -0.53398E+08
 
   -0.53720E+08         0.16126E+07         0.00000E+00
    0.16126E+07        -0.50059E+08         0.00000E+00
    0.00000E+00         0.00000E+00        -0.53394E+08
 
   -0.53698E+08         0.16597E+07         0.00000E+00
    0.16597E+07        -0.50064E+08         0.00000E+00
    0.00000E+00         0.00000E+00        -0.53391E+08
 
   -0.53676E+08         0.17068E+07         0.00000E+00
    0.17068E+07        -0.50069E+08         0.00000E+00
    0.00000E+00         0.00000E+00        -0.53388E+08
 
   -0.53654E+08         0.17539E+07         0.00000E+00
    0.17539E+07        -0.50075E+08         0.00000E+00
    0.00000E+00         0.00000E+00        -0.53385E+08
 
   -0.53632E+08         0.18011E+07         0.00000E+00
    0.18011E+07        -0.50080E+08         0.00000E+00
    0.00000E+00         0.00000E+00        -0.53382E+08
 
   -0.53609E+08         0.18484E+07         0.00000E+00
    0.18484E+07        -0.50086E+08         0.00000E+00
    0.00000E+00         0.00000E+00        -0.53379E+08
 
   -0.53587E+08         0.18957E+07         0.00000E+00
    0.18957E+07        -0.50093E+08         0.00000E+00
    0.00000E+00         0.00000E+00        -0.53376E+08
 
   -0.53565E+08         0.19430E+07         0.00000E+00
    0.19430E+07        -0.50099E+08         0.00000E+00
    0.00000E+00         0.00000E+00        -0.53373E+08
 
   -0.53543E+08         0.19904E+07         0.00000E+00
    0.19904E+07        -0.50106E+08         0.00000E+00
    0.00000E+00         0.00000E+00        -0.53370E+08
 
   -0.53520E+08         0.20378E+07         0.00000E+00
    0.20378E+07        -0.50114E+08         0.00000E+00
    0.00000E+00         0.00000E+00        -0.53367E+08
 
   -0.53498E+08         0.20853E+07         0.00000E+00
    0.20853E+07        -0.50122E+08         0.00000E+00
    0.00000E+00         0.00000E+00        -0.53364E+08
 
   -0.53475E+08         0.21329E+07         0.00000E+00
    0.21329E+07        -0.50130E+08         0.00000E+00
    0.00000E+00         0.00000E+00        -0.53361E+08
 
   -0.53452E+08         0.21805E+07         0.00000E+00
    0.21805E+07        -0.50138E+08         0.00000E+00
    0.00000E+00         0.00000E+00        -0.53359E+08
 
   -0.53429E+08         0.22282E+07         0.00000E+00
    0.22282E+07        -0.50147E+08         0.00000E+00
    0.00000E+00         0.00000E+00        -0.53356E+08
 
   -0.53406E+08         0.22760E+07         0.00000E+00
    0.22760E+07        -0.50156E+08         0.00000E+00
    0.00000E+00         0.00000E+00        -0.53353E+08
 
   -0.53382E+08         0.23238E+07         0.00000E+00
    0.23238E+07        -0.50166E+08         0.00000E+00
    0.00000E+00         0.00000E+00        -0.53350E+08
 
   -0.53358E+08         0.23716E+07         0.00000E+00
    0.23716E+07        -0.50176E+08         0.00000E+00
    0.00000E+00         0.00000E+00        -0.53348E+08
 
   -0.54302E+08         0.25690E+05         0.00000E+00
    0.25690E+05        -0.50000E+08         0.00000E+00
    0.00000E+00         0.00000E+00        -0.53304E+08
 
   -0.54273E+08         0.76261E+05         0.00000E+00
    0.76261E+05        -0.50000E+08         0.00000E+00
    0.00000E+00         0.00000E+00        -0.53298E+08
 
   -0.54245E+08         0.12651E+06         0.00000E+00
    0.12651E+06        -0.50000E+08         0.00000E+00
    0.00000E+00         0.00000E+00        -0.53293E+08
 
   -0.54217E+08         0.17644E+06         0.00000E+00
    0.17644E+06        -0.50001E+08         0.00000E+00
    0.00000E+00         0.00000E+00        -0.53287E+08
 
   -0.54189E+08         0.22607E+06         0.00000E+00
    0.22607E+06        -0.50001E+08         0.00000E+00
    0.00000E+00         0.00000E+00        -0.53282E+08
 
   -0.54162E+08         0.27543E+06         0.00000E+00
    0.27543E+06        -0.50002E+08         0.00000E+00
    0.00000E+00         0.00000E+00        -0.53276E+08
 
   -0.54135E+08         0.32450E+06         0.00000E+00
    0.32450E+06        -0.50002E+08         0.00000E+00
    0.00000E+00         0.00000E+00        -0.53271E+08
 
   -0.54108E+08         0.37333E+06         0.00000E+00
    0.37333E+06        -0.50003E+08         0.00000E+00
    0.00000E+00         0.00000E+00        -0.53266E+08
 
   -0.54081E+08         0.42190E+06         0.00000E+00
    0.42190E+06        -0.50003E+08         0.00000E+00
    0.00000E+00         0.00000E+00        -0.53261E+08
 
   -0.54055E+08         0.47025E+06         0.00000E+00
    0.47025E+06        -0.50004E+08         0.00000E+00
    0.00000E+00         0.00000E+00        -0.53256E+08
 
   -0.54029E+08         0.51837E+06         0.00000E+00
    0.51837E+06        -0.50005E+08         0.00000E+00
    0.00000E+00         0.00000E+00        -0.53251E+08
 
   -0.54003E+08         0.56629E+06         0.00000E+00
    0.56629E+06        -0.50006E+08         0.00000E+00
    0.00000E+00         0.00000E+00        -0.53246E+08
 
   -0.53978E+08         0.61401E+06         0.00000E+00
    0.61401E+06        -0.50007E+08         0.00000E+00
    0.00000E+00         0.00000E+00        -0.53242E+08
 
   -0.53953E+08         0.66154E+06         0.00000E+00
    0.66154E+06        -0.50009E+08         0.00000E+00
    0.00000E+00         0.00000E+00        -0.53237E+08
 
   -0.53928E+08         0.70890E+06         0.00000E+00
    0.70890E+06        -0.50010E+08         0.00000E+00
    0.00000E+00         0.00000E+00        -0.53232E+08
 
   -0.53903E+08         0.75610E+06         0.00000E+00
    0.75610E+06        -0.50011E+08         0.00000E+00
    0.00000E+00         0.00000E+00        -0.53228E+08
 
   -0.53879E+08         0.80314E+06         0.00000E+00
    0.80314E+06        -0.50013E+08         0.00000E+00
    0.00000E+00         0.00000E+00        -0.53224E+08
 
   -0.53854E+08         0.85005E+06         0.00000E+00
    0.85005E+06        -0.50015E+08         0.00000E+00
    0.00000E+00         0.00000E+00        -0.53219E+08
 
   -0.53830E+08         0.89682E+06         0.00000E+00
    0.89682E+06        -0.50017E+08         0.00000E+00
    0.00000E+00         0.00000E+00        -0.53215E+08
 
   -0.53807E+08         0.94346E+06         0.00000E+00
    0.94346E+06        -0.50019E+08         0.00000E+00
    0.00000E+00         0.00000E+00        -0.53211E+08
 
   -0.53783E+08         0.99000E+06         0.00000E+00
    0.99000E+06        -0.50021E+08         0.00000E+00
    0.00000E+00         0.00000E+00        -0.53207E+08
 
   -0.53760E+08         0.10364E+07         0.00000E+00
    0.10364E+07        -0.50023E+08         0.00000E+00
    0.00000E+00         0.00000E+00        -0.53203E+08
 
   -0.53736E+08         0.10828E+07         0.00000E+00
    0.10828E+07        -0.50026E+08         0.00000E+00
    0.00000E+00         0.00000E+00        -0.53199E+08
 
   -0.53713E+08         0.11290E+07         0.00000E+00
    0.11290E+07        -0.50029E+08         0.00000E+00
    0.00000E+00         0.00000E+00        -0.53195E+08
 
   -0.53690E+08         0.11752E+07         0.00000E+00
    0.11752E+07        -0.50032E+08         0.00000E+00
    0.00000E+00         0.00000E+00        -0.53191E+08
 
   -0.53667E+08         0.12213E+07         0.00000E+00
    0.12213E+07        -0.50035E+08         0.00000E+00
    0.00000E+00         0.00000E+00        -0.53188E+08
 
   -0.53645E+08         0.12673E+07         0.00000E+00
    0.12673E+07        -0.50038E+08         0.00000E+00
    0.00000E+00         0.00000E+00        -0.53184E+08
 
   -0.53622E+08         0.13133E+07         0.00000E+00
    0.13133E+07        -0.50042E+08         0.00000E+00
    0.00000E+00         0.00000E+00        -0.53181E+08
 
   -0.53600E+08         0.13592E+07         0.00000E+00
    0.13592E+07        -0.50045E+08         0.00000E+00
    0.00000E+00         0.00000E+00        -0.53177E+08
 
   -0.53577E+08         0.14050E+07         0.00000E+00
    0.14050E+07        -0.50049E+08         0.00000E+00
    0.00000E+00         0.00000E+00        -0.53174E+08
 
   -0.53555E+08         0.14509E+07         0.00000E+00
    0.14509E+07        -0.50053E+08         0.00000E+00
    0.00000E+00         0.00000E+00        -0.53170E+08
 
   -0.53533E+08         0.14967E+07         0.00000E+00
    0.14967E+07        -0.50058E+08         0.00000E+00
    0.00000E+00         0.00000E+00        -0.53167E+08
 
   -0.53510E+08         0.15424E+07         0.00000E+00
    0.15424E+07        -0.50062E+08         0.00000E+00
    0.00000E+00         0.00000E+00        -0.53163E+08
 
   -0.53488E+08         0.15882E+07         0.00000E+00
    0.15882E+07        -0.50067E+08         0.00000E+00
    0.00000E+00         0.00000E+00        -0.53160E+08
 
   -0.53466E+08         0.16339E+07         0.00000E+00
    0.16339E+07        -0.50072E+08         0.00000E+00
    0.00000E+00         0.00000E+00        -0.53157E+08
 
   -0.53444E+08         0.16796E+07         0.00000E+00
    0.16796E+07        -0.50078E+08         0.00000E+00
    0.00000E+00         0.00000E+00        -0.53154E+08
 
   -0.53422E+08         0.17253E+07         0.00000E+00
    0.17253E+07        -0.50084E+08         0.00000E+00
    0.00000E+00         0.00000E+00        -0.53151E+08
 
   -0.53399E+08         0.17710E+07         0.00000E+00
    0.17710E+07        -0.50090E+08         0.00000E+00
    0.00000E+00         0.00000E+00        -0.53148E+08
 
   -0.53377E+08         0.18167E+07         0.00000E+00
    0.18167E+07        -0.50096E+08         0.00000E+00
    0.00000E+00         0.00000E+00        -0.53145E+08
 
   -0.53355E+08         0.18624E+07         0.00000E+00
    0.18624E+07        -0.50102E+08         0.00000E+00
    0.00000E+00         0.00000E+00        -0.53142E+08
 
   -0.53332E+08         0.19080E+07         0.00000E+00
    0.19080E+07        -0.50109E+08         0.00000E+00
    0.00000E+00         0.00000E+00        -0.53139E+08
 
   -0.53310E+08         0.19537E+07         0.00000E+00
    0.19537E+07        -0.50117E+08         0.00000E+00
    0.00000E+00         0.00000E+00        -0.53136E+08
 
   -0.53287E+08         0.19994E+07         0.00000E+00
    0.19994E+07        -0.50124E+08         0.00000E+00
    0.00000E+00         0.00000E+00        -0.53133E+08
 
   -0.53264E+08         0.20451E+07         0.00000E+00
    0.20451E+07        -0.50132E+08         0.00000E+00
    0.00000E+00         0.00000E+00        -0.53130E+08
 
   -0.53242E+08         0.20908E+07         0.00000E+00
    0.20908E+07        -0.50141E+08         0.00000E+00
    0.00000E+00         0.00000E+00        -0.53127E+08
 
   -0.53218E+08         0.21365E+07         0.00000E+00
    0.21365E+07        -0.50149E+08         0.00000E+00
    0.00000E+00         0.00000E+00        -0.53125E+08
 
   -0.53195E+08         0.21822E+07         0.00000E+00
    0.21822E+07        -0.50158E+08         0.00000E+00
    0.00000E+00         0.00000E+00        -0.53122E+08
 
   -0.53172E+08         0.22279E+07         0.00000E+00
    0.22279E+07        -0.50168E+08         0.00000E+00
    0.00000E+00         0.00000E+00        -0.53119E+08
 
   -0.53148E+08         0.22736E+07         0.00000E+00
    0.22736E+07        -0.50178E+08         0.00000E+00
    0.00000E+00         0.00000E+00        -0.53116E+08
 
   -0.53124E+08         0.23193E+07         0.00000E+00
    0.23193E+07        -0.50188E+08         0.00000E+00
    0.00000E+00         0.00000E+00        -0.53114E+08
 
   -0.54049E+08         0.25451E+05         0.00000E+00
    0.25451E+05        -0.50000E+08         0.00000E+00
    0.00000E+00         0.00000E+00        -0.53074E+08
 
   -0.54022E+08         0.75546E+05         0.00000E+00
    0.75546E+05        -0.50000E+08         0.00000E+00
    0.00000E+00         0.00000E+00        -0.53069E+08
 
   -0.53996E+08         0.12531E+06         0.00000E+00
    0.12531E+06        -0.50001E+08         0.00000E+00
    0.00000E+00         0.00000E+00        -0.53064E+08
 
   -0.53969E+08         0.17476E+06         0.00000E+00
    0.17476E+06        -0.50001E+08         0.00000E+00
    0.00000E+00         0.00000E+00        -0.53058E+08
 
   -0.53943E+08         0.22391E+06         0.00000E+00
    0.22391E+06        -0.50001E+08         0.00000E+00
    0.00000E+00         0.00000E+00        -0.53053E+08
 
   -0.53917E+08         0.27276E+06         0.00000E+00
    0.27276E+06        -0.50002E+08         0.00000E+00
    0.00000E+00         0.00000E+00        -0.53048E+08
 
   -0.53891E+08         0.32133E+06         0.00000E+00
    0.32133E+06        -0.50002E+08         0.00000E+00
    0.00000E+00         0.00000E+00        -0.53043E+08
 
   -0.53866E+08         0.36964E+06         0.00000E+00
    0.36964E+06        -0.50003E+08         0.00000E+00
    0.00000E+00         0.00000E+00        -0.53039E+08
 
   -0.53840E+08         0.41769E+06         0.00000E+00
    0.41769E+06        -0.50004E+08         0.00000E+00
    0.00000E+00         0.00000E+00        -0.53034E+08
 
   -0.53815E+08         0.46549E+06         0.00000E+00
    0.46549E+06        -0.50005E+08         0.00000E+00
    0.00000E+00         0.00000E+00        -0.53029E+08
 
   -0.53790E+08         0.51305E+06         0.00000E+00
    0.51305E+06        -0.50006E+08         0.00000E+00
    0.00000E+00         0.00000E+00        -0.53024E+08
 
   -0.53766E+08         0.56039E+06         0.00000E+00
    0.56039E+06        -0.50007E+08         0.00000E+00
    0.00000E+00         0.00000E+00        -0.53020E+08
 
   -0.53741E+08         0.60751E+06         0.00000E+00
    0.60751E+06        -0.50009E+08         0.00000E+00
    0.00000E+00         0.00000E+00        -0.53015E+08
 
   -0.53717E+08         0.65443E+06         0.00000E+00
    0.65443E+06        -0.50010E+08         0.00000E+00
    0.00000E+00         0.00000E+00        -0.53011E+08
 
   -0.53693E+08         0.70115E+06         0.00000E+00
    0.70115E+06        -0.50012E+08         0.00000E+00
    0.00000E+00         0.00000E+00        -0.53007E+08
 
   -0.53669E+08         0.74768E+06         0.00000E+00
    0.74768E+06        -0.50013E+08         0.00000E+00
    0.00000E+00         0.00000E+00        -0.53002E+08
 
   -0.53646E+08         0.79404E+06         0.00000E+00
    0.79404E+06        -0.50015E+08         0.00000E+00
    0.00000E+00         0.00000E+00        -0.52998E+08
 
   -0.53622E+08         0.84023E+06         0.00000E+00
    0.84023E+06        -0.50017E+08         0.00000E+00
    0.00000E+00         0.00000E+00        -0.52994E+08
 
   -0.53599E+08         0.88626E+06         0.00000E+00
    0.88626E+06        -0.50019E+08         0.00000E+00
    0.00000E+00         0.00000E+00        -0.52990E+08
 
   -0.53576E+08         0.93213E+06         0.00000E+00
    0.93213E+06        -0.50022E+08         0.00000E+00
    0.00000E+00         0.00000E+00        -0.52986E+08
 
   -0.53553E+08         0.97787E+06         0.00000E+00
    0.97787E+06        -0.50024E+08         0.00000E+00
    0.00000E+00         0.00000E+00        -0.52982E+08
 
   -0.53530E+08         0.10235E+07         0.00000E+00
    0.10235E+07        -0.50027E+08         0.00000E+00
    0.00000E+00         0.00000E+00        -0.52978E+08
 
   -0.53507E+08         0.10689E+07         0.00000E+00
    0.10689E+07        -0.50029E+08         0.00000E+00
    0.00000E+00         0.00000E+00        -0.52974E+08
 
   -0.53484E+08         0.11143E+07         0.00000E+00
    0.11143E+07        -0.50032E+08         0.00000E+00
    0.00000E+00         0.00000E+00        -0.52971E+08
 
   -0.53462E+08         0.11595E+07         0.00000E+00
    0.11595E+07        -0.50036E+08         0.00000E+00
    0.00000E+00         0.00000E+00        -0.52967E+08
 
   -0.53440E+08         0.12046E+07         0.00000E+00
    0.12046E+07        -0.50039E+08         0.00000E+00
    0.00000E+00         0.00000E+00        -0.52963E+08
 
   -0.53417E+08         0.12497E+07         0.00000E+00
    0.12497E+07        -0.50042E+08         0.00000E+00
    0.00000E+00         0.00000E+00        -0.52960E+08
 
   -0.53395E+08         0.12946E+07         0.00000E+00
    0.12946E+07        -0.50046E+08         0.00000E+00
    0.00000E+00         0.00000E+00        -0.52956E+08
 
   -0.53373E+08         0.13394E+07         0.00000E+00
    0.13394E+07        -0.50050E+08         0.00000E+00
    0.00000E+00         0.00000E+00        -0.52953E+08
 
   -0.53351E+08         0.13842E+07         0.00000E+00
    0.13842E+07        -0.50054E+08         0.00000E+00
    0.00000E+00         0.00000E+00        -0.52949E+08
 
   -0.53329E+08         0.14289E+07         0.00000E+00
    0.14289E+07        -0.50059E+08         0.00000E+00
    0.00000E+00         0.00000E+00        -0.52946E+08
 
   -0.53307E+08         0.14735E+07         0.00000E+00
    0.14735E+07        -0.50063E+08         0.00000E+00
    0.00000E+00         0.00000E+00        -0.52943E+08
 
   -0.53285E+08         0.15180E+07         0.00000E+00
    0.15180E+07        -0.50068E+08         0.00000E+00
    0.00000E+00         0.00000E+00        -0.52940E+08
 
   -0.53263E+08         0.15625E+07         0.00000E+00
    0.15625E+07        -0.50073E+08         0.00000E+00
    0.00000E+00         0.00000E+00        -0.52936E+08
 
   -0.53241E+08         0.16069E+07         0.00000E+00
    0.16069E+07        -0.50079E+08         0.00000E+00
    0.00000E+00         0.00000E+00        -0.52933E+08
 
   -0.53219E+08         0.16512E+07         0.00000E+00
    0.16512E+07        -0.50084E+08         0.00000E+00
    0.00000E+00         0.00000E+00        -0.52930E+08
 
   -0.53197E+08         0.16955E+07         0.00000E+00
    0.16955E+07        -0.50090E+08         0.00000E+00
    0.00000E+00         0.00000E+00        -0.52927E+08
 
   -0.53175E+08         0.17397E+07         0.00000E+00
    0.17397E+07        -0.50096E+08         0.00000E+00
    0.00000E+00         0.00000E+00        -0.52924E+08
 
   -0.53153E+08         0.17839E+07         0.00000E+00
    0.17839E+07        -0.50103E+08         0.00000E+00
    0.00000E+00         0.00000E+00        -0.52921E+08
 
   -0.53130E+08         0.18280E+07         0.00000E+00
    0.18280E+07        -0.50110E+08         0.00000E+00
    0.00000E+00         0.00000E+00        -0.52918E+08
 
   -0.53108E+08         0.18721E+07         0.00000E+00
    0.18721E+07        -0.50117E+08         0.00000E+00
    0.00000E+00         0.00000E+00        -0.52915E+08
 
   -0.53086E+08         0.19162E+07         0.00000E+00
    0.19162E+07        -0.50124E+08         0.00000E+00
    0.00000E+00         0.00000E+00        -0.52912E+08
 
   -0.53063E+08         0.19602E+07         0.00000E+00
    0.19602E+07        -0.50132E+08         0.00000E+00
    0.00000E+00         0.00000E+00        -0.52909E+08
 
   -0.53040E+08         0.20041E+07         0.00000E+00
    0.20041E+07        -0.50140E+08         0.00000E+00
    0.00000E+00         0.00000E+00        -0.52907E+08
 
   -0.53018E+08         0.20480E+07         0.00000E+00
    0.20480E+07        -0.50148E+08         0.00000E+00
    0.00000E+00         0.00000E+00        -0.52904E+08
 
   -0.52995E+08         0.20919E+07         0.00000E+00
    0.20919E+07        -0.50157E+08         0.00000E+00
    0.00000E+00         0.00000E+00        -0.52901E+08
 
   -0.52972E+08         0.21357E+07         0.00000E+00
    0.21357E+07        -0.50166E+08         0.00000E+00
    0.00000E+00         0.00000E+00        -0.52898E+08
 
   -0.52948E+08         0.21795E+07         0.00000E+00
    0.21795E+07        -0.50176E+08         0.00000E+00
    0.00000E+00         0.00000E+00        -0.52896E+08
 
   -0.52925E+08         0.22232E+07         0.00000E+00
    0.22232E+07        -0.50185E+08         0.00000E+00
    0.00000E+00         0.00000E+00        -0.52893E+08
 
   -0.52901E+08         0.22669E+07         0.00000E+00
    0.22669E+07        -0.50196E+08         0.00000E+00
    0.00000E+00         0.00000E+00        -0.52890E+08
 
   -0.53799E+08         0.25173E+05         0.00000E+00
    0.25173E+05        -0.50000E+08         0.00000E+00
    0.00000E+00         0.00000E+00        -0.52854E+08
 
   -0.53774E+08         0.74716E+05         0.00000E+00
    0.74716E+05        -0.50000E+08         0.00000E+00
    0.00000E+00         0.00000E+00        -0.52849E+08
 
   -0.53749E+08         0.12393E+06         0.00000E+00
    0.12393E+06        -0.50001E+08         0.00000E+00
    0.00000E+00         0.00000E+00        -0.52844E+08
 
   -0.53724E+08         0.17283E+06         0.00000E+00
    0.17283E+06        -0.50001E+08         0.00000E+00
    0.00000E+00         0.00000E+00        -0.52839E+08
 
   -0.53699E+08         0.22142E+06         0.00000E+00
    0.22142E+06        -0.50001E+08         0.00000E+00
    0.00000E+00         0.00000E+00        -0.52834E+08
 
   -0.53675E+08         0.26971E+06         0.00000E+00
    0.26971E+06        -0.50002E+08         0.00000E+00
    0.00000E+00         0.00000E+00        -0.52830E+08
 
   -0.53650E+08         0.31771E+06         0.00000E+00
    0.31771E+06        -0.50003E+08         0.00000E+00
    0.00000E+00         0.00000E+00        -0.52825E+08
 
   -0.53626E+08         0.36544E+06         0.00000E+00
    0.36544E+06        -0.50003E+08         0.00000E+00
    0.00000E+00         0.00000E+00        -0.52820E+08
 
   -0.53602E+08         0.41290E+06         0.00000E+00
    0.41290E+06        -0.50004E+08         0.00000E+00
    0.00000E+00         0.00000E+00        -0.52816E+08
 
   -0.53578E+08         0.46010E+06         0.00000E+00
    0.46010E+06        -0.50005E+08         0.00000E+00
    0.00000E+00         0.00000E+00        -0.52811E+08
 
   -0.53555E+08         0.50705E+06         0.00000E+00
    0.50705E+06        -0.50007E+08         0.00000E+00
    0.00000E+00         0.00000E+00        -0.52807E+08
 
   -0.53531E+08         0.55376E+06         0.00000E+00
    0.55376E+06        -0.50008E+08         0.00000E+00
    0.00000E+00         0.00000E+00        -0.52803E+08
 
   -0.53508E+08         0.60024E+06         0.00000E+00
    0.60024E+06        -0.50009E+08         0.00000E+00
    0.00000E+00         0.00000E+00        -0.52798E+08
 
   -0.53485E+08         0.64650E+06         0.00000E+00
    0.64650E+06        -0.50011E+08         0.00000E+00
    0.00000E+00         0.00000E+00        -0.52794E+08
 
   -0.53462E+08         0.69254E+06         0.00000E+00
    0.69254E+06        -0.50013E+08         0.00000E+00
    0.00000E+00         0.00000E+00        -0.52790E+08
 
   -0.53439E+08         0.73838E+06         0.00000E+00
    0.73838E+06        -0.50015E+08         0.00000E+00
    0.00000E+00         0.00000E+00        -0.52786E+08
 
   -0.53416E+08         0.78402E+06         0.00000E+00
    0.78402E+06        -0.50017E+08         0.00000E+00
    0.00000E+00         0.00000E+00        -0.52782E+08
 
   -0.53393E+08         0.82946E+06         0.00000E+00
    0.82946E+06        -0.50019E+08         0.00000E+00
    0.00000E+00         0.00000E+00        -0.52778E+08
 
   -0.53371E+08         0.87473E+06         0.00000E+00
    0.87473E+06        -0.50021E+08         0.00000E+00
    0.00000E+00         0.00000E+00        -0.52774E+08
 
   -0.53349E+08         0.91982E+06         0.00000E+00
    0.91982E+06        -0.50023E+08         0.00000E+00
    0.00000E+00         0.00000E+00        -0.52770E+08
 
   -0.53326E+08         0.96473E+06         0.00000E+00
    0.96473E+06        -0.50026E+08         0.00000E+00
    0.00000E+00         0.00000E+00        -0.52766E+08
 
   -0.53304E+08         0.10095E+07         0.00000E+00
    0.10095E+07        -0.50029E+08         0.00000E+00
    0.00000E+00         0.00000E+00        -0.52763E+08
 
   -0.53282E+08         0.10541E+07         0.00000E+00
    0.10541E+07        -0.50032E+08         0.00000E+00
    0.00000E+00         0.00000E+00        -0.52759E+08
 
   -0.53260E+08         0.10985E+07         0.00000E+00
    0.10985E+07        -0.50035E+08         0.00000E+00
    0.00000E+00         0.00000E+00        -0.52755E+08
 
   -0.53238E+08         0.11428E+07         0.00000E+00
    0.11428E+07        -0.50038E+08         0.00000E+00
    0.00000E+00         0.00000E+00        -0.52752E+08
 
   -0.53217E+08         0.11870E+07         0.00000E+00
    0.11870E+07        -0.50042E+08         0.00000E+00
    0.00000E+00         0.00000E+00        -0.52748E+08
 
   -0.53195E+08         0.12310E+07         0.00000E+00
    0.12310E+07        -0.50045E+08         0.00000E+00
    0.00000E+00         0.00000E+00        -0.52745E+08
 
   -0.53173E+08         0.12750E+07         0.00000E+00
    0.12750E+07        -0.50049E+08         0.00000E+00
    0.00000E+00         0.00000E+00        -0.52742E+08
 
   -0.53152E+08         0.13187E+07         0.00000E+00
    0.13187E+07        -0.50053E+08         0.00000E+00
    0.00000E+00         0.00000E+00        -0.52738E+08
 
   -0.53130E+08         0.13624E+07         0.00000E+00
    0.13624E+07        -0.50058E+08         0.00000E+00
    0.00000E+00         0.00000E+00        -0.52735E+08
 
   -0.53108E+08         0.14059E+07         0.00000E+00
    0.14059E+07        -0.50062E+08         0.00000E+00
    0.00000E+00         0.00000E+00        -0.52732E+08
 
   -0.53087E+08         0.14494E+07         0.00000E+00
    0.14494E+07        -0.50067E+08         0.00000E+00
    0.00000E+00         0.00000E+00        -0.52729E+08
 
   -0.53065E+08         0.14927E+07         0.00000E+00
    0.14927E+07        -0.50072E+08         0.00000E+00
    0.00000E+00         0.00000E+00        -0.52725E+08
 
   -0.53044E+08         0.15359E+07         0.00000E+00
    0.15359E+07        -0.50077E+08         0.00000E+00
    0.00000E+00         0.00000E+00        -0.52722E+08
 
   -0.53022E+08         0.15791E+07         0.00000E+00
    0.15791E+07        -0.50083E+08         0.00000E+00
    0.00000E+00         0.00000E+00        -0.52719E+08
 
   -0.53001E+08         0.16221E+07         0.00000E+00
    0.16221E+07        -0.50089E+08         0.00000E+00
    0.00000E+00         0.00000E+00        -0.52716E+08
 
   -0.52979E+08         0.16650E+07         0.00000E+00
    0.16650E+07        -0.50095E+08         0.00000E+00
    0.00000E+00         0.00000E+00        -0.52713E+08
 
   -0.52957E+08         0.17078E+07         0.00000E+00
    0.17078E+07        -0.50101E+08         0.00000E+00
    0.00000E+00         0.00000E+00        -0.52710E+08
 
   -0.52935E+08         0.17506E+07         0.00000E+00
    0.17506E+07        -0.50107E+08         0.00000E+00
    0.00000E+00         0.00000E+00        -0.52707E+08
 
   -0.52914E+08         0.17932E+07         0.00000E+00
    0.17932E+07        -0.50114E+08         0.00000E+00
    0.00000E+00         0.00000E+00        -0.52704E+08
 
   -0.52892E+08         0.18358E+07         0.00000E+00
    0.18358E+07        -0.50121E+08         0.00000E+00
    0.00000E+00         0.00000E+00        -0.52702E+08
 
   -0.52869E+08         0.18783E+07         0.00000E+00
    0.18783E+07        -0.50129E+08         0.00000E+00
    0.00000E+00         0.00000E+00        -0.52699E+08
 
   -0.52847E+08         0.19207E+07         0.00000E+00
    0.19207E+07        -0.50136E+08         0.00000E+00
    0.00000E+00         0.00000E+00        -0.52696E+08
 
   -0.52825E+08         0.19630E+07         0.00000E+00
    0.19630E+07        -0.50144E+08         0.00000E+00
    0.00000E+00         0.00000E+00        -0.52693E+08
 
   -0.52802E+08         0.20052E+07         0.00000E+00
    0.20052E+07        -0.50153E+08         0.00000E+00
    0.00000E+00         0.00000E+00        -0.52690E+08
 
   -0.52780E+08         0.20473E+07         0.00000E+00
    0.20473E+07        -0.50162E+08         0.00000E+00
    0.00000E+00         0.00000E+00        -0.52688E+08
 
   -0.52757E+08         0.20893E+07         0.00000E+00
    0.20893E+07        -0.50171E+08         0.00000E+00
    0.00000E+00         0.00000E+00        -0.52685E+08
 
   -0.52734E+08         0.21313E+07         0.00000E+00
    0.21313E+07        -0.50180E+08         0.00000E+00
    0.00000E+00         0.00000E+00        -0.52682E+08
 
   -0.52711E+08         0.21731E+07         0.00000E+00
    0.21731E+07        -0.50190E+08         0.00000E+00
    0.00000E+00         0.00000E+00        -0.52680E+08
 
   -0.52687E+08         0.22149E+07         0.00000E+00
    0.22149E+07        -0.50200E+08         0.00000E+00
    0.00000E+00         0.00000E+00        -0.52677E+08
 
   -0.53552E+08         0.24866E+05         0.00000E+00
    0.24866E+05        -0.50000E+08         0.00000E+00
    0.00000E+00         0.00000E+00        -0.52642E+08
 
   -0.53529E+08         0.73804E+05         0.00000E+00
    0.73804E+05        -0.50000E+08         0.00000E+00
    0.00000E+00         0.00000E+00        -0.52638E+08
 
   -0.53505E+08         0.12241E+06         0.00000E+00
    0.12241E+06        -0.50001E+08         0.00000E+00
    0.00000E+00         0.00000E+00        -0.52633E+08
 
   -0.53482E+08         0.17071E+06         0.00000E+00
    0.17071E+06        -0.50001E+08         0.00000E+00
    0.00000E+00         0.00000E+00        -0.52629E+08
 
   -0.53459E+08         0.21869E+06         0.00000E+00
    0.21869E+06        -0.50001E+08         0.00000E+00
    0.00000E+00         0.00000E+00        -0.52624E+08
 
   -0.53435E+08         0.26637E+06         0.00000E+00
    0.26637E+06        -0.50002E+08         0.00000E+00
    0.00000E+00         0.00000E+00        -0.52620E+08
 
   -0.53413E+08         0.31376E+06         0.00000E+00
    0.31376E+06        -0.50003E+08         0.00000E+00
    0.00000E+00         0.00000E+00        -0.52615E+08
 
   -0.53390E+08         0.36087E+06         0.00000E+00
    0.36087E+06        -0.50004E+08         0.00000E+00
    0.00000E+00         0.00000E+00        -0.52611E+08
 
   -0.53367E+08         0.40770E+06         0.00000E+00
    0.40770E+06        -0.50005E+08         0.00000E+00
    0.00000E+00         0.00000E+00        -0.52607E+08
 
   -0.53344E+08         0.45426E+06         0.00000E+00
    0.45426E+06        -0.50006E+08         0.00000E+00
    0.00000E+00         0.00000E+00        -0.52602E+08
 
   -0.53322E+08         0.50057E+06         0.00000E+00
    0.50057E+06        -0.50007E+08         0.00000E+00
    0.00000E+00         0.00000E+00        -0.52598E+08
 
   -0.53300E+08         0.54662E+06         0.00000E+00
    0.54662E+06        -0.50008E+08         0.00000E+00
    0.00000E+00         0.00000E+00        -0.52594E+08
 
   -0.53278E+08         0.59243E+06         0.00000E+00
    0.59243E+06        -0.50010E+08         0.00000E+00
    0.00000E+00         0.00000E+00        -0.52590E+08
 
   -0.53256E+08         0.63800E+06         0.00000E+00
    0.63800E+06        -0.50012E+08         0.00000E+00
    0.00000E+00         0.00000E+00        -0.52586E+08
 
   -0.53234E+08         0.68334E+06         0.00000E+00
    0.68334E+06        -0.50013E+08         0.00000E+00
    0.00000E+00         0.00000E+00        -0.52582E+08
 
   -0.53212E+08         0.72846E+06         0.00000E+00
    0.72846E+06        -0.50015E+08         0.00000E+00
    0.00000E+00         0.00000E+00        -0.52578E+08
 
   -0.53190E+08         0.77336E+06         0.00000E+00
    0.77336E+06        -0.50018E+08         0.00000E+00
    0.00000E+00         0.00000E+00        -0.52574E+08
 
   -0.53168E+08         0.81805E+06         0.00000E+00
    0.81805E+06        -0.50020E+08         0.00000E+00
    0.00000E+00         0.00000E+00        -0.52571E+08
 
   -0.53147E+08         0.86254E+06         0.00000E+00
    0.86254E+06        -0.50022E+08         0.00000E+00
    0.00000E+00         0.00000E+00        -0.52567E+08
 
   -0.53126E+08         0.90683E+06         0.00000E+00
    0.90683E+06        -0.50025E+08         0.00000E+00
    0.00000E+00         0.00000E+00        -0.52563E+08
 
   -0.53104E+08         0.95093E+06         0.00000E+00
    0.95093E+06        -0.50027E+08         0.00000E+00
    0.00000E+00         0.00000E+00        -0.52560E+08
 
   -0.53083E+08         0.99484E+06         0.00000E+00
    0.99484E+06        -0.50030E+08         0.00000E+00
    0.00000E+00         0.00000E+00        -0.52556E+08
 
   -0.53062E+08         0.10386E+07         0.00000E+00
    0.10386E+07        -0.50033E+08         0.00000E+00
    0.00000E+00         0.00000E+00        -0.52553E+08
 
   -0.53041E+08         0.10821E+07         0.00000E+00
    0.10821E+07        -0.50037E+08         0.00000E+00
    0.00000E+00         0.00000E+00        -0.52549E+08
 
   -0.53019E+08         0.11255E+07         0.00000E+00
    0.11255E+07        -0.50040E+08         0.00000E+00
    0.00000E+00         0.00000E+00        -0.52546E+08
 
   -0.52998E+08         0.11687E+07         0.00000E+00
    0.11687E+07        -0.50044E+08         0.00000E+00
    0.00000E+00         0.00000E+00        -0.52542E+08
 
   -0.52977E+08         0.12118E+07         0.00000E+00
    0.12118E+07        -0.50047E+08         0.00000E+00
    0.00000E+00         0.00000E+00        -0.52539E+08
 
   -0.52957E+08         0.12547E+07         0.00000E+00
    0.12547E+07        -0.50051E+08         0.00000E+00
    0.00000E+00         0.00000E+00        -0.52536E+08
 
   -0.52936E+08         0.12975E+07         0.00000E+00
    0.12975E+07        -0.50056E+08         0.00000E+00
    0.00000E+00         0.00000E+00        -0.52533E+08
 
   -0.52915E+08         0.13400E+07         0.00000E+00
    0.13400E+07        -0.50060E+08         0.00000E+00
    0.00000E+00         0.00000E+00        -0.52530E+08
 
   -0.52894E+08         0.13825E+07         0.00000E+00
    0.13825E+07        -0.50065E+08         0.00000E+00
    0.00000E+00         0.00000E+00        -0.52526E+08
 
   -0.52873E+08         0.14248E+07         0.00000E+00
    0.14248E+07        -0.50069E+08         0.00000E+00
    0.00000E+00         0.00000E+00        -0.52523E+08
 
   -0.52852E+08         0.14670E+07         0.00000E+00
    0.14670E+07        -0.50074E+08         0.00000E+00
    0.00000E+00         0.00000E+00        -0.52520E+08
 
   -0.52831E+08         0.15090E+07         0.00000E+00
    0.15090E+07        -0.50080E+08         0.00000E+00
    0.00000E+00         0.00000E+00        -0.52517E+08
 
   -0.52810E+08         0.15509E+07         0.00000E+00
    0.15509E+07        -0.50085E+08         0.00000E+00
    0.00000E+00         0.00000E+00        -0.52514E+08
 
   -0.52789E+08         0.15927E+07         0.00000E+00
    0.15927E+07        -0.50091E+08         0.00000E+00
    0.00000E+00         0.00000E+00        -0.52511E+08
 
   -0.52768E+08         0.16343E+07         0.00000E+00
    0.16343E+07        -0.50097E+08         0.00000E+00
    0.00000E+00         0.00000E+00        -0.52508E+08
 
   -0.52747E+08         0.16758E+07         0.00000E+00
    0.16758E+07        -0.50103E+08         0.00000E+00
    0.00000E+00         0.00000E+00        -0.52506E+08
 
   -0.52725E+08         0.17172E+07         0.00000E+00
    0.17172E+07        -0.50110E+08         0.00000E+00
    0.00000E+00         0.00000E+00        -0.52503E+08
 
   -0.52704E+08         0.17584E+07         0.00000E+00
    0.17584E+07        -0.50117E+08         0.00000E+00
    0.00000E+00         0.00000E+00        -0.52500E+08
 
   -0.52683E+08         0.17996E+07         0.00000E+00
    0.17996E+07        -0.50124E+08         0.00000E+00
    0.00000E+00         0.00000E+00        -0.52497E+08
 
   -0.52661E+08         0.18405E+07         0.00000E+00
    0.18405E+07        -0.50131E+08         0.00000E+00
    0.00000E+00         0.00000E+00        -0.52494E+08
 
   -0.52639E+08         0.18814E+07         0.00000E+00
    0.18814E+07        -0.50139E+08         0.00000E+00
    0.00000E+00         0.00000E+00        -0.52492E+08
 
   -0.52618E+08         0.19222E+07         0.00000E+00
    0.19222E+07        -0.50147E+08         0.00000E+00
    0.00000E+00         0.00000E+00        -0.52489E+08
 
   -0.52596E+08         0.19628E+07         0.00000E+00
    0.19628E+07        -0.50155E+08         0.00000E+00
    0.00000E+00         0.00000E+00        -0.52486E+08
 
   -0.52574E+08         0.20033E+07         0.00000E+00
    0.20033E+07        -0.50163E+08         0.00000E+00
    0.00000E+00         0.00000E+00        -0.52484E+08
 
   -0.52551E+08         0.20436E+07         0.00000E+00
    0.20436E+07        -0.50172E+08         0.00000E+00
    0.00000E+00         0.00000E+00        -0.52481E+08
 
   -0.52529E+08         0.20839E+07         0.00000E+00
    0.20839E+07        -0.50181E+08         0.00000E+00
    0.00000E+00         0.00000E+00        -0.52478E+08
 
   -0.52506E+08         0.21240E+07         0.00000E+00
    0.21240E+07        -0.50191E+08         0.00000E+00
    0.00000E+00         0.00000E+00        -0.52476E+08
 
   -0.52483E+08         0.21639E+07         0.00000E+00
    0.21639E+07        -0.50201E+08         0.00000E+00
    0.00000E+00         0.00000E+00        -0.52473E+08
 
   -0.53308E+08         0.24539E+05         0.00000E+00
    0.24539E+05        -0.50000E+08         0.00000E+00
    0.00000E+00         0.00000E+00        -0.52439E+08
 
   -0.53286E+08         0.72835E+05         0.00000E+00
    0.72835E+05        -0.50000E+08         0.00000E+00
    0.00000E+00         0.00000E+00        -0.52435E+08
 
   -0.53264E+08         0.12081E+06         0.00000E+00
    0.12081E+06        -0.50001E+08         0.00000E+00
    0.00000E+00         0.00000E+00        -0.52430E+08
 
   -0.53243E+08         0.16846E+06         0.00000E+00
    0.16846E+06        -0.50001E+08         0.00000E+00
    0.00000E+00         0.00000E+00        -0.52426E+08
 
   -0.53221E+08         0.21580E+06         0.00000E+00
    0.21580E+06        -0.50001E+08         0.00000E+00
    0.00000E+00         0.00000E+00        -0.52422E+08
 
   -0.53199E+08         0.26285E+06         0.00000E+00
    0.26285E+06        -0.50002E+08         0.00000E+00
    0.00000E+00         0.00000E+00        -0.52418E+08
 
   -0.53178E+08         0.30960E+06         0.00000E+00
    0.30960E+06        -0.50003E+08         0.00000E+00
    0.00000E+00         0.00000E+00        -0.52414E+08
 
   -0.53156E+08         0.35606E+06         0.00000E+00
    0.35606E+06        -0.50004E+08         0.00000E+00
    0.00000E+00         0.00000E+00        -0.52410E+08
 
   -0.53135E+08         0.40223E+06         0.00000E+00
    0.40223E+06        -0.50005E+08         0.00000E+00
    0.00000E+00         0.00000E+00        -0.52406E+08
 
   -0.53114E+08         0.44814E+06         0.00000E+00
    0.44814E+06        -0.50006E+08         0.00000E+00
    0.00000E+00         0.00000E+00        -0.52402E+08
 
   -0.53093E+08         0.49378E+06         0.00000E+00
    0.49378E+06        -0.50007E+08         0.00000E+00
    0.00000E+00         0.00000E+00        -0.52398E+08
 
   -0.53072E+08         0.53915E+06         0.00000E+00
    0.53915E+06        -0.50009E+08         0.00000E+00
    0.00000E+00         0.00000E+00        -0.52394E+08
 
   -0.53051E+08         0.58427E+06         0.00000E+00
    0.58427E+06        -0.50010E+08         0.00000E+00
    0.00000E+00         0.00000E+00        -0.52390E+08
 
   -0.53030E+08         0.62914E+06         0.00000E+00
    0.62914E+06        -0.50012E+08         0.00000E+00
    0.00000E+00         0.00000E+00        -0.52386E+08
 
   -0.53009E+08         0.67377E+06         0.00000E+00
    0.67377E+06        -0.50014E+08         0.00000E+00
    0.00000E+00         0.00000E+00        -0.52383E+08
 
   -0.52989E+08         0.71816E+06         0.00000E+00
    0.71816E+06        -0.50016E+08         0.00000E+00
    0.00000E+00         0.00000E+00        -0.52379E+08
 
   -0.52968E+08         0.76232E+06         0.00000E+00
    0.76232E+06        -0.50018E+08         0.00000E+00
    0.00000E+00         0.00000E+00        -0.52375E+08
 
   -0.52947E+08         0.80626E+06         0.00000E+00
    0.80626E+06        -0.50020E+08         0.00000E+00
    0.00000E+00         0.00000E+00        -0.52372E+08
 
   -0.52927E+08         0.84997E+06         0.00000E+00
    0.84997E+06        -0.50023E+08         0.00000E+00
    0.00000E+00         0.00000E+00        -0.52368E+08
 
   -0.52907E+08         0.89347E+06         0.00000E+00
    0.89347E+06        -0.50025E+08         0.00000E+00
    0.00000E+00         0.00000E+00        -0.52365E+08
 
   -0.52886E+08         0.93676E+06         0.00000E+00
    0.93676E+06        -0.50028E+08         0.00000E+00
    0.00000E+00         0.00000E+00        -0.52361E+08
 
   -0.52866E+08         0.97984E+06         0.00000E+00
    0.97984E+06        -0.50031E+08         0.00000E+00
    0.00000E+00         0.00000E+00        -0.52358E+08
 
   -0.52846E+08         0.10227E+07         0.00000E+00
    0.10227E+07        -0.50034E+08         0.00000E+00
    0.00000E+00         0.00000E+00        -0.52355E+08
 
   -0.52825E+08         0.10654E+07         0.00000E+00
    0.10654E+07        -0.50038E+08         0.00000E+00
    0.00000E+00         0.00000E+00        -0.52351E+08
 
   -0.52805E+08         0.11079E+07         0.00000E+00
    0.11079E+07        -0.50041E+08         0.00000E+00
    0.00000E+00         0.00000E+00        -0.52348E+08
 
   -0.52785E+08         0.11502E+07         0.00000E+00
    0.11502E+07        -0.50045E+08         0.00000E+00
    0.00000E+00         0.00000E+00        -0.52345E+08
 
   -0.52765E+08         0.11923E+07         0.00000E+00
    0.11923E+07        -0.50048E+08         0.00000E+00
    0.00000E+00         0.00000E+00        -0.52342E+08
 
   -0.52745E+08         0.12342E+07         0.00000E+00
    0.12342E+07        -0.50052E+08         0.00000E+00
    0.00000E+00         0.00000E+00        -0.52339E+08
 
   -0.52725E+08         0.12760E+07         0.00000E+00
    0.12760E+07        -0.50057E+08         0.00000E+00
    0.00000E+00         0.00000E+00        -0.52336E+08
 
   -0.52705E+08         0.13175E+07         0.00000E+00
    0.13175E+07        -0.50061E+08         0.00000E+00
    0.00000E+00         0.00000E+00        -0.52333E+08
 
   -0.52684E+08         0.13589E+07         0.00000E+00
    0.13589E+07        -0.50066E+08         0.00000E+00
    0.00000E+00         0.00000E+00        -0.52330E+08
 
   -0.52664E+08         0.14002E+07         0.00000E+00
    0.14002E+07        -0.50070E+08         0.00000E+00
    0.00000E+00         0.00000E+00        -0.52327E+08
 
   -0.52644E+08         0.14412E+07         0.00000E+00
    0.14412E+07        -0.50075E+08         0.00000E+00
    0.00000E+00         0.00000E+00        -0.52324E+08
 
   -0.52624E+08         0.14821E+07         0.00000E+00
    0.14821E+07        -0.50081E+08         0.00000E+00
    0.00000E+00         0.00000E+00        -0.52321E+08
 
   -0.52604E+08         0.15229E+07         0.00000E+00
    0.15229E+07        -0.50086E+08         0.00000E+00
    0.00000E+00         0.00000E+00        -0.52318E+08
 
   -0.52583E+08         0.15634E+07         0.00000E+00
    0.15634E+07        -0.50092E+08         0.00000E+00
    0.00000E+00         0.00000E+00        -0.52315E+08
 
   -0.52563E+08         0.16038E+07         0.00000E+00
    0.16038E+07        -0.50098E+08         0.00000E+00
    0.00000E+00         0.00000E+00        -0.52312E+08
 
   -0.52543E+08         0.16441E+07         0.00000E+00
    0.16441E+07        -0.50104E+08         0.00000E+00
    0.00000E+00         0.00000E+00        -0.52310E+08
 
   -0.52522E+08         0.16841E+07         0.00000E+00
    0.16841E+07        -0.50110E+08         0.00000E+00
    0.00000E+00         0.00000E+00        -0.52307E+08
 
   -0.52501E+08         0.17241E+07         0.00000E+00
    0.17241E+07        -0.50117E+08         0.00000E+00
    0.00000E+00         0.00000E+00        -0.52304E+08
 
   -0.52481E+08         0.17638E+07         0.00000E+00
    0.17638E+07        -0.50124E+08         0.00000E+00
    0.00000E+00         0.00000E+00        -0.52301E+08
 
   -0.52460E+08         0.18034E+07         0.00000E+00
    0.18034E+07        -0.50131E+08         0.00000E+00
    0.00000E+00         0.00000E+00        -0.52299E+08
 
   -0.52439E+08         0.18429E+07         0.00000E+00
    0.18429E+07        -0.50139E+08         0.00000E+00
    0.00000E+00         0.00000E+00        -0.52296E+08
 
   -0.52418E+08         0.18821E+07         0.00000E+00
    0.18821E+07        -0.50146E+08         0.00000E+00
    0.00000E+00         0.00000E+00        -0.52294E+08
 
   -0.52397E+08         0.19213E+07         0.00000E+00
    0.19213E+07        -0.50154E+08         0.00000E+00
    0.00000E+00         0.00000E+00        -0.52291E+08
 
   -0.52375E+08         0.19602E+07         0.00000E+00
    0.19602E+07        -0.50163E+08         0.00000E+00
    0.00000E+00         0.00000E+00        -0.52288E+08
 
   -0.52354E+08         0.19990E+07         0.00000E+00
    0.19990E+07        -0.50171E+08         0.00000E+00
    0.00000E+00         0.00000E+00        -0.52286E+08
 
   -0.52332E+08         0.20376E+07         0.00000E+00
    0.20376E+07        -0.50180E+08         0.00000E+00
    0.00000E+00         0.00000E+00        -0.52283E+08
 
   -0.52310E+08         0.20761E+07         0.00000E+00
    0.20761E+07        -0.50190E+08         0.00000E+00
    0.00000E+00         0.00000E+00        -0.52281E+08
 
   -0.52288E+08         0.21144E+07         0.00000E+00
    0.21144E+07        -0.50199E+08         0.00000E+00
    0.00000E+00         0.00000E+00        -0.52278E+08
 
   -0.53068E+08         0.24201E+05         0.00000E+00
    0.24201E+05        -0.50000E+08         0.00000E+00
    0.00000E+00         0.00000E+00        -0.52243E+08
 
   -0.53047E+08         0.71834E+05         0.00000E+00
    0.71834E+05        -0.50000E+08         0.00000E+00
    0.00000E+00         0.00000E+00        -0.52239E+08
 
   -0.53027E+08         0.11915E+06         0.00000E+00
    0.11915E+06        -0.50001E+08         0.00000E+00
    0.00000E+00         0.00000E+00        -0.52235E+08
 
   -0.53007E+08         0.16614E+06         0.00000E+00
    0.16614E+06        -0.50001E+08         0.00000E+00
    0.00000E+00         0.00000E+00        -0.52231E+08
 
   -0.52987E+08         0.21283E+06         0.00000E+00
    0.21283E+06        -0.50001E+08         0.00000E+00
    0.00000E+00         0.00000E+00        -0.52227E+08
 
   -0.52967E+08         0.25922E+06         0.00000E+00
    0.25922E+06        -0.50002E+08         0.00000E+00
    0.00000E+00         0.00000E+00        -0.52223E+08
 
   -0.52946E+08         0.30531E+06         0.00000E+00
    0.30531E+06        -0.50003E+08         0.00000E+00
    0.00000E+00         0.00000E+00        -0.52220E+08
 
   -0.52926E+08         0.35111E+06         0.00000E+00
    0.35111E+06        -0.50004E+08         0.00000E+00
    0.00000E+00         0.00000E+00        -0.52216E+08
 
   -0.52907E+08         0.39663E+06         0.00000E+00
    0.39663E+06        -0.50005E+08         0.00000E+00
    0.00000E+00         0.00000E+00        -0.52212E+08
 
   -0.52887E+08         0.44187E+06         0.00000E+00
    0.44187E+06        -0.50006E+08         0.00000E+00
    0.00000E+00         0.00000E+00        -0.52208E+08
 
   -0.52867E+08         0.48683E+06         0.00000E+00
    0.48683E+06        -0.50007E+08         0.00000E+00
    0.00000E+00         0.00000E+00        -0.52205E+08
 
   -0.52847E+08         0.53152E+06         0.00000E+00
    0.53152E+06        -0.50009E+08         0.00000E+00
    0.00000E+00         0.00000E+00        -0.52201E+08
 
   -0.52828E+08         0.57595E+06         0.00000E+00
    0.57595E+06        -0.50010E+08         0.00000E+00
    0.00000E+00         0.00000E+00        -0.52198E+08
 
   -0.52808E+08         0.62013E+06         0.00000E+00
    0.62013E+06        -0.50012E+08         0.00000E+00
    0.00000E+00         0.00000E+00        -0.52194E+08
 
   -0.52788E+08         0.66404E+06         0.00000E+00
    0.66404E+06        -0.50014E+08         0.00000E+00
    0.00000E+00         0.00000E+00        -0.52191E+08
 
   -0.52769E+08         0.70771E+06         0.00000E+00
    0.70771E+06        -0.50016E+08         0.00000E+00
    0.00000E+00         0.00000E+00        -0.52187E+08
 
   -0.52750E+08         0.75114E+06         0.00000E+00
    0.75114E+06        -0.50018E+08         0.00000E+00
    0.00000E+00         0.00000E+00        -0.52184E+08
 
   -0.52730E+08         0.79433E+06         0.00000E+00
    0.79433E+06        -0.50021E+08         0.00000E+00
    0.00000E+00         0.00000E+00        -0.52180E+08
 
   -0.52711E+08         0.83728E+06         0.00000E+00
    0.83728E+06        -0.50023E+08         0.00000E+00
    0.00000E+00         0.00000E+00        -0.52177E+08
 
   -0.52692E+08         0.88000E+06         0.00000E+00
    0.88000E+06        -0.50026E+08         0.00000E+00
    0.00000E+00         0.00000E+00        -0.52174E+08
 
   -0.52672E+08         0.92249E+06         0.00000E+00
    0.92249E+06        -0.50028E+08         0.00000E+00
    0.00000E+00         0.00000E+00        -0.52171E+08
 
   -0.52653E+08         0.96475E+06         0.00000E+00
    0.96475E+06        -0.50031E+08         0.00000E+00
    0.00000E+00         0.00000E+00        -0.52167E+08
 
   -0.52634E+08         0.10068E+07         0.00000E+00
    0.10068E+07        -0.50034E+08         0.00000E+00
    0.00000E+00         0.00000E+00        -0.52164E+08
 
   -0.52615E+08         0.10486E+07         0.00000E+00
    0.10486E+07        -0.50038E+08         0.00000E+00
    0.00000E+00         0.00000E+00        -0.52161E+08
 
   -0.52595E+08         0.10903E+07         0.00000E+00
    0.10903E+07        -0.50041E+08         0.00000E+00
    0.00000E+00         0.00000E+00        -0.52158E+08
 
   -0.52576E+08         0.11317E+07         0.00000E+00
    0.11317E+07        -0.50045E+08         0.00000E+00
    0.00000E+00         0.00000E+00        -0.52155E+08
 
   -0.52557E+08         0.11729E+07         0.00000E+00
    0.11729E+07        -0.50048E+08         0.00000E+00
    0.00000E+00         0.00000E+00        -0.52152E+08
 
   -0.52538E+08         0.12139E+07         0.00000E+00
    0.12139E+07        -0.50052E+08         0.00000E+00
    0.00000E+00         0.00000E+00        -0.52149E+08
 
   -0.52519E+08         0.12546E+07         0.00000E+00
    0.12546E+07        -0.50057E+08         0.00000E+00
    0.00000E+00         0.00000E+00        -0.52146E+08
 
   -0.52500E+08         0.12952E+07         0.00000E+00
    0.12952E+07        -0.50061E+08         0.00000E+00
    0.00000E+00         0.00000E+00        -0.52143E+08
 
   -0.52480E+08         0.13356E+07         0.00000E+00
    0.13356E+07        -0.50065E+08         0.00000E+00
    0.00000E+00         0.00000E+00        -0.52141E+08
 
   -0.52461E+08         0.13758E+07         0.00000E+00
    0.13758E+07        -0.50070E+08         0.00000E+00
    0.00000E+00         0.00000E+00        -0.52138E+08
 
   -0.52442E+08         0.14158E+07         0.00000E+00
    0.14158E+07        -0.50075E+08         0.00000E+00
    0.00000E+00         0.00000E+00        -0.52135E+08
 
   -0.52423E+08         0.14556E+07         0.00000E+00
    0.14556E+07        -0.50080E+08         0.00000E+00
    0.00000E+00         0.00000E+00        -0.52132E+08
 
   -0.52403E+08         0.14953E+07         0.00000E+00
    0.14953E+07        -0.50086E+08         0.00000E+00
    0.00000E+00         0.00000E+00        -0.52129E+08
 
   -0.52384E+08         0.15347E+07         0.00000E+00
    0.15347E+07        -0.50091E+08         0.00000E+00
    0.00000E+00         0.00000E+00        -0.52127E+08
 
   -0.52364E+08         0.15739E+07         0.00000E+00
    0.15739E+07        -0.50097E+08         0.00000E+00
    0.00000E+00         0.00000E+00        -0.52124E+08
 
   -0.52345E+08         0.16130E+07         0.00000E+00
    0.16130E+07        -0.50103E+08         0.00000E+00
    0.00000E+00         0.00000E+00        -0.52121E+08
 
   -0.52325E+08         0.16518E+07         0.00000E+00
    0.16518E+07        -0.50109E+08         0.00000E+00
    0.00000E+00         0.00000E+00        -0.52119E+08
 
   -0.52305E+08         0.16905E+07         0.00000E+00
    0.16905E+07        -0.50116E+08         0.00000E+00
    0.00000E+00         0.00000E+00        -0.52116E+08
 
   -0.52286E+08         0.17290E+07         0.00000E+00
    0.17290E+07        -0.50122E+08         0.00000E+00
    0.00000E+00         0.00000E+00        -0.52114E+08
 
   -0.52266E+08         0.17673E+07         0.00000E+00
    0.17673E+07        -0.50129E+08         0.00000E+00
    0.00000E+00         0.00000E+00        -0.52111E+08
 
   -0.52246E+08         0.18054E+07         0.00000E+00
    0.18054E+07        -0.50136E+08         0.00000E+00
    0.00000E+00         0.00000E+00        -0.52109E+08
 
   -0.52225E+08         0.18433E+07         0.00000E+00
    0.18433E+07        -0.50144E+08         0.00000E+00
    0.00000E+00         0.00000E+00        -0.52106E+08
 
   -0.52205E+08         0.18810E+07         0.00000E+00
    0.18810E+07        -0.50152E+08         0.00000E+00
    0.00000E+00         0.00000E+00        -0.52104E+08
 
   -0.52185E+08         0.19186E+07         0.00000E+00
    0.19186E+07        -0.50160E+08         0.00000E+00
    0.00000E+00         0.00000E+00        -0.52101E+08
 
   -0.52164E+08         0.19559E+07         0.00000E+00
    0.19559E+07        -0.50168E+08         0.00000E+00
    0.00000E+00         0.00000E+00        -0.52099E+08
 
   -0.52143E+08         0.19930E+07         0.00000E+00
    0.19930E+07        -0.50177E+08         0.00000E+00
    0.00000E+00         0.00000E+00        -0.52096E+08
 
   -0.52122E+08         0.20300E+07         0.00000E+00
    0.20300E+07        -0.50186E+08         0.00000E+00
    0.00000E+00         0.00000E+00        -0.52094E+08
 
   -0.52101E+08         0.20667E+07         0.00000E+00
    0.20667E+07        -0.50195E+08         0.00000E+00
    0.00000E+00         0.00000E+00        -0.52092E+08
 
   -0.52830E+08         0.23859E+05         0.00000E+00
    0.23859E+05        -0.50000E+08         0.00000E+00
    0.00000E+00         0.00000E+00        -0.52055E+08
 
   -0.52812E+08         0.70824E+05         0.00000E+00
    0.70824E+05        -0.50000E+08         0.00000E+00
    0.00000E+00         0.00000E+00        -0.52051E+08
 
   -0.52793E+08         0.11747E+06         0.00000E+00
    0.11747E+06        -0.50001E+08         0.00000E+00
    0.00000E+00         0.00000E+00        -0.52047E+08
 
   -0.52774E+08         0.16381E+06         0.00000E+00
    0.16381E+06        -0.50001E+08         0.00000E+00
    0.00000E+00         0.00000E+00        -0.52044E+08
 
   -0.52756E+08         0.20984E+06         0.00000E+00
    0.20984E+06        -0.50001E+08         0.00000E+00
    0.00000E+00         0.00000E+00        -0.52040E+08
 
   -0.52737E+08         0.25557E+06         0.00000E+00
    0.25557E+06        -0.50002E+08         0.00000E+00
    0.00000E+00         0.00000E+00        -0.52036E+08
 
   -0.52718E+08         0.30101E+06         0.00000E+00
    0.30101E+06        -0.50003E+08         0.00000E+00
    0.00000E+00         0.00000E+00        -0.52033E+08
 
   -0.52700E+08         0.34615E+06         0.00000E+00
    0.34615E+06        -0.50004E+08         0.00000E+00
    0.00000E+00         0.00000E+00        -0.52029E+08
 
   -0.52681E+08         0.39100E+06         0.00000E+00
    0.39100E+06        -0.50005E+08         0.00000E+00
    0.00000E+00         0.00000E+00        -0.52026E+08
 
   -0.52663E+08         0.43558E+06         0.00000E+00
    0.43558E+06        -0.50006E+08         0.00000E+00
    0.00000E+00         0.00000E+00        -0.52022E+08
 
   -0.52644E+08         0.47987E+06         0.00000E+00
    0.47987E+06        -0.50007E+08         0.00000E+00
    0.00000E+00         0.00000E+00        -0.52019E+08
 
   -0.52626E+08         0.52389E+06         0.00000E+00
    0.52389E+06        -0.50009E+08         0.00000E+00
    0.00000E+00         0.00000E+00        -0.52016E+08
 
   -0.52608E+08         0.56764E+06         0.00000E+00
    0.56764E+06        -0.50010E+08         0.00000E+00
    0.00000E+00         0.00000E+00        -0.52012E+08
 
   -0.52589E+08         0.61112E+06         0.00000E+00
    0.61112E+06        -0.50012E+08         0.00000E+00
    0.00000E+00         0.00000E+00        -0.52009E+08
 
   -0.52571E+08         0.65434E+06         0.00000E+00
    0.65434E+06        -0.50014E+08         0.00000E+00
    0.00000E+00         0.00000E+00        -0.52006E+08
 
   -0.52553E+08         0.69731E+06         0.00000E+00
    0.69731E+06        -0.50016E+08         0.00000E+00
    0.00000E+00         0.00000E+00        -0.52003E+08
 
   -0.52535E+08         0.74001E+06         0.00000E+00
    0.74001E+06        -0.50018E+08         0.00000E+00
    0.00000E+00         0.00000E+00        -0.51999E+08
 
   -0.52517E+08         0.78247E+06         0.00000E+00
    0.78247E+06        -0.50020E+08         0.00000E+00
    0.00000E+00         0.00000E+00        -0.51996E+08
 
   -0.52499E+08         0.82468E+06         0.00000E+00
    0.82468E+06        -0.50023E+08         0.00000E+00
    0.00000E+00         0.00000E+00        -0.51993E+08
 
   -0.52480E+08         0.86664E+06         0.00000E+00
    0.86664E+06        -0.50025E+08         0.00000E+00
    0.00000E+00         0.00000E+00        -0.51990E+08
 
   -0.52462E+08         0.90836E+06         0.00000E+00
    0.90836E+06        -0.50028E+08         0.00000E+00
    0.00000E+00         0.00000E+00        -0.51987E+08
 
   -0.52444E+08         0.94985E+06         0.00000E+00
    0.94985E+06        -0.50031E+08         0.00000E+00
    0.00000E+00         0.00000E+00        -0.51984E+08
 
   -0.52426E+08         0.99110E+06         0.00000E+00
    0.99110E+06        -0.50034E+08         0.00000E+00
    0.00000E+00         0.00000E+00        -0.51981E+08
 
   -0.52408E+08         0.10321E+07         0.00000E+00
    0.10321E+07        -0.50037E+08         0.00000E+00
    0.00000E+00         0.00000E+00        -0.51978E+08
 
   -0.52390E+08         0.10729E+07         0.00000E+00
    0.10729E+07        -0.50041E+08         0.00000E+00
    0.00000E+00         0.00000E+00        -0.51975E+08
 
   -0.52372E+08         0.11134E+07         0.00000E+00
    0.11134E+07        -0.50044E+08         0.00000E+00
    0.00000E+00         0.00000E+00        -0.51973E+08
 
   -0.52354E+08         0.11538E+07         0.00000E+00
    0.11538E+07        -0.50048E+08         0.00000E+00
    0.00000E+00         0.00000E+00        -0.51970E+08
 
   -0.52336E+08         0.11939E+07         0.00000E+00
    0.11939E+07        -0.50052E+08         0.00000E+00
    0.00000E+00         0.00000E+00        -0.51967E+08
 
   -0.52318E+08         0.12338E+07         0.00000E+00
    0.12338E+07        -0.50056E+08         0.00000E+00
    0.00000E+00         0.00000E+00        -0.51964E+08
 
   -0.52300E+08         0.12734E+07         0.00000E+00
    0.12734E+07        -0.50060E+08         0.00000E+00
    0.00000E+00         0.00000E+00        -0.51962E+08
 
   -0.52281E+08         0.13129E+07         0.00000E+00
    0.13129E+07        -0.50064E+08         0.00000E+00
    0.00000E+00         0.00000E+00        -0.51959E+08
 
   -0.52263E+08         0.13521E+07         0.00000E+00
    0.13521E+07        -0.50069E+08         0.00000E+00
    0.00000E+00         0.00000E+00        -0.51956E+08
 
   -0.52245E+08         0.13911E+07         0.00000E+00
    0.13911E+07        -0.50073E+08         0.00000E+00
    0.00000E+00         0.00000E+00        -0.51954E+08
 
   -0.52227E+08         0.14299E+07         0.00000E+00
    0.14299E+07        -0.50078E+08         0.00000E+00
    0.00000E+00         0.00000E+00        -0.51951E+08
 
   -0.52208E+08         0.14685E+07         0.00000E+00
    0.14685E+07        -0.50084E+08         0.00000E+00
    0.00000E+00         0.00000E+00        -0.51948E+08
 
   -0.52190E+08         0.15068E+07         0.00000E+00
    0.15068E+07        -0.50089E+08         0.00000E+00
    0.00000E+00         0.00000E+00        -0.51946E+08
 
   -0.52171E+08         0.15450E+07         0.00000E+00
    0.15450E+07        -0.50095E+08         0.00000E+00
    0.00000E+00         0.00000E+00        -0.51943E+08
 
   -0.52153E+08         0.15829E+07         0.00000E+00
    0.15829E+07        -0.50100E+08         0.00000E+00
    0.00000E+00         0.00000E+00        -0.51941E+08
 
   -0.52134E+08         0.16206E+07         0.00000E+00
    0.16206E+07        -0.50106E+08         0.00000E+00
    0.00000E+00         0.00000E+00        -0.51938E+08
 
   -0.52115E+08         0.16581E+07         0.00000E+00
    0.16581E+07        -0.50113E+08         0.00000E+00
    0.00000E+00         0.00000E+00        -0.51936E+08
 
   -0.52097E+08         0.16954E+07         0.00000E+00
    0.16954E+07        -0.50119E+08         0.00000E+00
    0.00000E+00         0.00000E+00        -0.51934E+08
 
   -0.52078E+08         0.17325E+07         0.00000E+00
    0.17325E+07        -0.50126E+08         0.00000E+00
    0.00000E+00         0.00000E+00        -0.51931E+08
 
   -0.52059E+08         0.17694E+07         0.00000E+00
    0.17694E+07        -0.50133E+08         0.00000E+00
    0.00000E+00         0.00000E+00        -0.51929E+08
 
   -0.52040E+08         0.18060E+07         0.00000E+00
    0.18060E+07        -0.50140E+08         0.00000E+00
    0.00000E+00         0.00000E+00        -0.51926E+08
 
   -0.52020E+08         0.18424E+07         0.00000E+00
    0.18424E+07        -0.50147E+08         0.00000E+00
    0.00000E+00         0.00000E+00        -0.51924E+08
 
   -0.52001E+08         0.18786E+07         0.00000E+00
    0.18786E+07        -0.50155E+08         0.00000E+00
    0.00000E+00         0.00000E+00        -0.51922E+08
 
   -0.51981E+08         0.19146E+07         0.00000E+00
    0.19146E+07        -0.50163E+08         0.00000E+00
    0.00000E+00         0.00000E+00        -0.51919E+08
 
   -0.51961E+08         0.19504E+07         0.00000E+00
    0.19504E+07        -0.50171E+08         0.00000E+00
    0.00000E+00         0.00000E+00        -0.51917E+08
 
   -0.51942E+08         0.19859E+07         0.00000E+00
    0.19859E+07        -0.50179E+08         0.00000E+00
    0.00000E+00         0.00000E+00        -0.51915E+08
 
   -0.51921E+08         0.20212E+07         0.00000E+00
    0.20212E+07        -0.50188E+08         0.00000E+00
    0.00000E+00         0.00000E+00        -0.51913E+08
 
   -0.52596E+08         0.23521E+05         0.00000E+00
    0.23521E+05        -0.50000E+08         0.00000E+00
    0.00000E+00         0.00000E+00        -0.51873E+08
 
   -0.52579E+08         0.69824E+05         0.00000E+00
    0.69824E+05        -0.50000E+08         0.00000E+00
    0.00000E+00         0.00000E+00        -0.51869E+08
 
   -0.52562E+08         0.11582E+06         0.00000E+00
    0.11582E+06        -0.50000E+08         0.00000E+00
    0.00000E+00         0.00000E+00        -0.51866E+08
 
   -0.52545E+08         0.16150E+06         0.00000E+00
    0.16150E+06        -0.50001E+08         0.00000E+00
    0.00000E+00         0.00000E+00        -0.51862E+08
 
   -0.52528E+08         0.20689E+06         0.00000E+00
    0.20689E+06        -0.50001E+08         0.00000E+00
    0.00000E+00         0.00000E+00        -0.51859E+08
 
   -0.52511E+08         0.25197E+06         0.00000E+00
    0.25197E+06        -0.50002E+08         0.00000E+00
    0.00000E+00         0.00000E+00        -0.51856E+08
 
   -0.52494E+08         0.29676E+06         0.00000E+00
    0.29676E+06        -0.50003E+08         0.00000E+00
    0.00000E+00         0.00000E+00        -0.51853E+08
 
   -0.52476E+08         0.34126E+06         0.00000E+00
    0.34126E+06        -0.50004E+08         0.00000E+00
    0.00000E+00         0.00000E+00        -0.51849E+08
 
   -0.52459E+08         0.38547E+06         0.00000E+00
    0.38547E+06        -0.50005E+08         0.00000E+00
    0.00000E+00         0.00000E+00        -0.51846E+08
 
   -0.52442E+08         0.42939E+06         0.00000E+00
    0.42939E+06        -0.50006E+08         0.00000E+00
    0.00000E+00         0.00000E+00        -0.51843E+08
 
   -0.52425E+08         0.47303E+06         0.00000E+00
    0.47303E+06        -0.50007E+08         0.00000E+00
    0.00000E+00         0.00000E+00        -0.51840E+08
 
   -0.52408E+08         0.51639E+06         0.00000E+00
    0.51639E+06        -0.50009E+08         0.00000E+00
    0.00000E+00         0.00000E+00        -0.51837E+08
 
   -0.52391E+08         0.55948E+06         0.00000E+00
    0.55948E+06        -0.50010E+08         0.00000E+00
    0.00000E+00         0.00000E+00        -0.51834E+08
 
   -0.52374E+08         0.60229E+06         0.00000E+00
    0.60229E+06        -0.50012E+08         0.00000E+00
    0.00000E+00         0.00000E+00        -0.51831E+08
 
   -0.52357E+08         0.64484E+06         0.00000E+00
    0.64484E+06        -0.50014E+08         0.00000E+00
    0.00000E+00         0.00000E+00        -0.51828E+08
 
   -0.52341E+08         0.68712E+06         0.00000E+00
    0.68712E+06        -0.50016E+08         0.00000E+00
    0.00000E+00         0.00000E+00        -0.51825E+08
 
   -0.52324E+08         0.72913E+06         0.00000E+00
    0.72913E+06        -0.50018E+08         0.00000E+00
    0.00000E+00         0.00000E+00        -0.51822E+08
 
   -0.52307E+08         0.77089E+06         0.00000E+00
    0.77089E+06        -0.50020E+08         0.00000E+00
    0.00000E+00         0.00000E+00        -0.51819E+08
 
   -0.52290E+08         0.81238E+06         0.00000E+00
    0.81238E+06        -0.50022E+08         0.00000E+00
    0.00000E+00         0.00000E+00        -0.51816E+08
 
   -0.52273E+08         0.85362E+06         0.00000E+00
    0.85362E+06        -0.50025E+08         0.00000E+00
    0.00000E+00         0.00000E+00        -0.51813E+08
 
   -0.52256E+08         0.89461E+06         0.00000E+00
    0.89461E+06        -0.50027E+08         0.00000E+00
    0.00000E+00         0.00000E+00        -0.51810E+08
 
   -0.52239E+08         0.93535E+06         0.00000E+00
    0.93535E+06        -0.50030E+08         0.00000E+00
    0.00000E+00         0.00000E+00        -0.51808E+08
 
   -0.52222E+08         0.97583E+06         0.00000E+00
    0.97583E+06        -0.50033E+08         0.00000E+00
    0.00000E+00         0.00000E+00        -0.51805E+08
 
   -0.52206E+08         0.10161E+07         0.00000E+00
    0.10161E+07        -0.50036E+08         0.00000E+00
    0.00000E+00         0.00000E+00        -0.51802E+08
 
   -0.52189E+08         0.10561E+07         0.00000E+00
    0.10561E+07        -0.50039E+08         0.00000E+00
    0.00000E+00         0.00000E+00        -0.51799E+08
 
   -0.52172E+08         0.10958E+07         0.00000E+00
    0.10958E+07        -0.50043E+08         0.00000E+00
    0.00000E+00         0.00000E+00        -0.51797E+08
 
   -0.52155E+08         0.11353E+07         0.00000E+00
    0.11353E+07        -0.50046E+08         0.00000E+00
    0.00000E+00         0.00000E+00        -0.51794E+08
 
   -0.52138E+08         0.11746E+07         0.00000E+00
    0.11746E+07        -0.50050E+08         0.00000E+00
    0.00000E+00         0.00000E+00        -0.51792E+08
 
   -0.52121E+08         0.12136E+07         0.00000E+00
    0.12136E+07        -0.50054E+08         0.00000E+00
    0.00000E+00         0.00000E+00        -0.51789E+08
 
   -0.52104E+08         0.12524E+07         0.00000E+00
    0.12524E+07        -0.50058E+08         0.00000E+00
    0.00000E+00         0.00000E+00        -0.51786E+08
 
   -0.52087E+08         0.12909E+07         0.00000E+00
    0.12909E+07        -0.50062E+08         0.00000E+00
    0.00000E+00         0.00000E+00        -0.51784E+08
 
   -0.52070E+08         0.13293E+07         0.00000E+00
    0.13293E+07        -0.50066E+08         0.00000E+00
    0.00000E+00         0.00000E+00        -0.51781E+08
 
   -0.52053E+08         0.13673E+07         0.00000E+00
    0.13673E+07        -0.50071E+08         0.00000E+00
    0.00000E+00         0.00000E+00        -0.51779E+08
 
   -0.52036E+08         0.14052E+07         0.00000E+00
    0.14052E+07        -0.50076E+08         0.00000E+00
    0.00000E+00         0.00000E+00        -0.51777E+08
 
   -0.52018E+08         0.14428E+07         0.00000E+00
    0.14428E+07        -0.50081E+08         0.00000E+00
    0.00000E+00         0.00000E+00        -0.51774E+08
 
   -0.52001E+08         0.14802E+07         0.00000E+00
    0.14802E+07        -0.50086E+08         0.00000E+00
    0.00000E+00         0.00000E+00        -0.51772E+08
 
   -0.51984E+08         0.15173E+07         0.00000E+00
    0.15173E+07        -0.50091E+08         0.00000E+00
    0.00000E+00         0.00000E+00        -0.51769E+08
 
   -0.51966E+08         0.15542E+07         0.00000E+00
    0.15542E+07        -0.50096E+08         0.00000E+00
    0.00000E+00         0.00000E+00        -0.51767E+08
 
   -0.51949E+08         0.15908E+07         0.00000E+00
    0.15908E+07        -0.50102E+08         0.00000E+00
    0.00000E+00         0.00000E+00        -0.51765E+08
 
   -0.51931E+08         0.16273E+07         0.00000E+00
    0.16273E+07        -0.50108E+08         0.00000E+00
    0.00000E+00         0.00000E+00        -0.51762E+08
 
   -0.51914E+08         0.16635E+07         0.00000E+00
    0.16635E+07        -0.50114E+08         0.00000E+00
    0.00000E+00         0.00000E+00        -0.51760E+08
 
   -0.51896E+08         0.16994E+07         0.00000E+00
    0.16994E+07        -0.50120E+08         0.00000E+00
    0.00000E+00         0.00000E+00        -0.51758E+08
 
   -0.51878E+08         0.17351E+07         0.00000E+00
    0.17351E+07        -0.50127E+08         0.00000E+00
    0.00000E+00         0.00000E+00        -0.51756E+08
 
   -0.51860E+08         0.17706E+07         0.00000E+00
    0.17706E+07        -0.50134E+08         0.00000E+00
    0.00000E+00         0.00000E+00        -0.51753E+08
 
   -0.51842E+08         0.18058E+07         0.00000E+00
    0.18058E+07        -0.50141E+08         0.00000E+00
    0.00000E+00         0.00000E+00        -0.51751E+08
 
   -0.51823E+08         0.18408E+07         0.00000E+00
    0.18408E+07        -0.50148E+08         0.00000E+00
    0.00000E+00         0.00000E+00        -0.51749E+08
 
   -0.51805E+08         0.18755E+07         0.00000E+00
    0.18755E+07        -0.50155E+08         0.00000E+00
    0.00000E+00         0.00000E+00        -0.51747E+08
 
   -0.51786E+08         0.19100E+07         0.00000E+00
    0.19100E+07        -0.50163E+08         0.00000E+00
    0.00000E+00         0.00000E+00        -0.51745E+08
 
   -0.51768E+08         0.19443E+07         0.00000E+00
    0.19443E+07        -0.50171E+08         0.00000E+00
    0.00000E+00         0.00000E+00        -0.51743E+08
 
   -0.51749E+08         0.19782E+07         0.00000E+00
    0.19782E+07        -0.50179E+08         0.00000E+00
    0.00000E+00         0.00000E+00        -0.51740E+08
 
   -0.52366E+08         0.23192E+05         0.00000E+00
    0.23192E+05        -0.50000E+08         0.00000E+00
    0.00000E+00         0.00000E+00        -0.51697E+08
 
   -0.52350E+08         0.68854E+05         0.00000E+00
    0.68854E+05        -0.50000E+08         0.00000E+00
    0.00000E+00         0.00000E+00        -0.51693E+08
 
   -0.52334E+08         0.11421E+06         0.00000E+00
    0.11421E+06        -0.50000E+08         0.00000E+00
    0.00000E+00         0.00000E+00        -0.51690E+08
 
   -0.52319E+08         0.15927E+06         0.00000E+00
    0.15927E+06        -0.50001E+08         0.00000E+00
    0.00000E+00         0.00000E+00        -0.51687E+08
 
   -0.52303E+08         0.20402E+06         0.00000E+00
    0.20402E+06        -0.50001E+08         0.00000E+00
    0.00000E+00         0.00000E+00        -0.51684E+08
 
   -0.52287E+08         0.24848E+06         0.00000E+00
    0.24848E+06        -0.50002E+08         0.00000E+00
    0.00000E+00         0.00000E+00        -0.51681E+08
 
   -0.52272E+08         0.29265E+06         0.00000E+00
    0.29265E+06        -0.50003E+08         0.00000E+00
    0.00000E+00         0.00000E+00        -0.51678E+08
 
   -0.52256E+08         0.33652E+06         0.00000E+00
    0.33652E+06        -0.50004E+08         0.00000E+00
    0.00000E+00         0.00000E+00        -0.51675E+08
 
   -0.52241E+08         0.38011E+06         0.00000E+00
    0.38011E+06        -0.50005E+08         0.00000E+00
    0.00000E+00         0.00000E+00        -0.51672E+08
 
   -0.52225E+08         0.42340E+06         0.00000E+00
    0.42340E+06        -0.50006E+08         0.00000E+00
    0.00000E+00         0.00000E+00        -0.51670E+08
 
   -0.52209E+08         0.46642E+06         0.00000E+00
    0.46642E+06        -0.50007E+08         0.00000E+00
    0.00000E+00         0.00000E+00        -0.51667E+08
 
   -0.52194E+08         0.50915E+06         0.00000E+00
    0.50915E+06        -0.50008E+08         0.00000E+00
    0.00000E+00         0.00000E+00        -0.51664E+08
 
   -0.52178E+08         0.55161E+06         0.00000E+00
    0.55161E+06        -0.50010E+08         0.00000E+00
    0.00000E+00         0.00000E+00        -0.51661E+08
 
   -0.52163E+08         0.59378E+06         0.00000E+00
    0.59378E+06        -0.50011E+08         0.00000E+00
    0.00000E+00         0.00000E+00        -0.51658E+08
 
   -0.52147E+08         0.63568E+06         0.00000E+00
    0.63568E+06        -0.50013E+08         0.00000E+00
    0.00000E+00         0.00000E+00        -0.51656E+08
 
   -0.52131E+08         0.67731E+06         0.00000E+00
    0.67731E+06        -0.50015E+08         0.00000E+00
    0.00000E+00         0.00000E+00        -0.51653E+08
 
   -0.52116E+08         0.71867E+06         0.00000E+00
    0.71867E+06        -0.50017E+08         0.00000E+00
    0.00000E+00         0.00000E+00        -0.51650E+08
 
   -0.52100E+08         0.75976E+06         0.00000E+00
    0.75976E+06        -0.50019E+08         0.00000E+00
    0.00000E+00         0.00000E+00        -0.51647E+08
 
   -0.52085E+08         0.80058E+06         0.00000E+00
    0.80058E+06        -0.50021E+08         0.00000E+00
    0.00000E+00         0.00000E+00        -0.51645E+08
 
   -0.52069E+08         0.84114E+06         0.00000E+00
    0.84114E+06        -0.50024E+08         0.00000E+00
    0.00000E+00         0.00000E+00        -0.51642E+08
 
   -0.52054E+08         0.88143E+06         0.00000E+00
    0.88143E+06        -0.50026E+08         0.00000E+00
    0.00000E+00         0.00000E+00        -0.51640E+08
 
   -0.52038E+08         0.92146E+06         0.00000E+00
    0.92146E+06        -0.50029E+08         0.00000E+00
    0.00000E+00         0.00000E+00        -0.51637E+08
 
   -0.52022E+08         0.96123E+06         0.00000E+00
    0.96123E+06        -0.50031E+08         0.00000E+00
    0.00000E+00         0.00000E+00        -0.51634E+08
 
   -0.52007E+08         0.10007E+07         0.00000E+00
    0.10007E+07        -0.50034E+08         0.00000E+00
    0.00000E+00         0.00000E+00        -0.51632E+08
 
   -0.51991E+08         0.10400E+07         0.00000E+00
    0.10400E+07        -0.50037E+08         0.00000E+00
    0.00000E+00         0.00000E+00        -0.51630E+08
 
   -0.51976E+08         0.10790E+07         0.00000E+00
    0.10790E+07        -0.50041E+08         0.00000E+00
    0.00000E+00         0.00000E+00        -0.51627E+08
 
   -0.51960E+08         0.11177E+07         0.00000E+00
    0.11177E+07        -0.50044E+08         0.00000E+00
    0.00000E+00         0.00000E+00        -0.51625E+08
 
   -0.51944E+08         0.11562E+07         0.00000E+00
    0.11562E+07        -0.50047E+08         0.00000E+00
    0.00000E+00         0.00000E+00        -0.51622E+08
 
   -0.51928E+08         0.11944E+07         0.00000E+00
    0.11944E+07        -0.50051E+08         0.00000E+00
    0.00000E+00         0.00000E+00        -0.51620E+08
 
   -0.51913E+08         0.12324E+07         0.00000E+00
    0.12324E+07        -0.50055E+08         0.00000E+00
    0.00000E+00         0.00000E+00        -0.51618E+08
 
   -0.51897E+08         0.12701E+07         0.00000E+00
    0.12701E+07        -0.50059E+08         0.00000E+00
    0.00000E+00         0.00000E+00        -0.51615E+08
 
   -0.51881E+08         0.13076E+07         0.00000E+00
    0.13076E+07        -0.50063E+08         0.00000E+00
    0.00000E+00         0.00000E+00        -0.51613E+08
 
   -0.51865E+08         0.13448E+07         0.00000E+00
    0.13448E+07        -0.50067E+08         0.00000E+00
    0.00000E+00         0.00000E+00        -0.51611E+08
 
   -0.51849E+08         0.13818E+07         0.00000E+00
    0.13818E+07        -0.50072E+08         0.00000E+00
    0.00000E+00         0.00000E+00        -0.51608E+08
 
   -0.51833E+08         0.14185E+07         0.00000E+00
    0.14185E+07        -0.50076E+08         0.00000E+00
    0.00000E+00         0.00000E+00        -0.51606E+08
 
   -0.51817E+08         0.14549E+07         0.00000E+00
    0.14549E+07        -0.50081E+08         0.00000E+00
    0.00000E+00         0.00000E+00        -0.51604E+08
 
   -0.51801E+08         0.14911E+07         0.00000E+00
    0.14911E+07        -0.50086E+08         0.00000E+00
    0.00000E+00         0.00000E+00        -0.51602E+08
 
   -0.51785E+08         0.15270E+07         0.00000E+00
    0.15270E+07        -0.50091E+08         0.00000E+00
    0.00000E+00         0.00000E+00        -0.51600E+08
 
   -0.51769E+08         0.15627E+07         0.00000E+00
    0.15627E+07        -0.50097E+08         0.00000E+00
    0.00000E+00         0.00000E+00        -0.51597E+08
 
   -0.51752E+08         0.15982E+07         0.00000E+00
    0.15982E+07        -0.50102E+08         0.00000E+00
    0.00000E+00         0.00000E+00        -0.51595E+08
 
   -0.51736E+08         0.16333E+07         0.00000E+00
    0.16333E+07        -0.50108E+08         0.00000E+00
    0.00000E+00         0.00000E+00        -0.51593E+08
 
   -0.51719E+08         0.16683E+07         0.00000E+00
    0.16683E+07        -0.50114E+08         0.00000E+00
    0.00000E+00         0.00000E+00        -0.51591E+08
 
   -0.51703E+08         0.17029E+07         0.00000E+00
    0.17029E+07        -0.50120E+08         0.00000E+00
    0.00000E+00         0.00000E+00        -0.51589E+08
 
   -0.51686E+08         0.17373E+07         0.00000E+00
    0.17373E+07        -0.50126E+08         0.00000E+00
    0.00000E+00         0.00000E+00        -0.51587E+08
 
   -0.51669E+08         0.17714E+07         0.00000E+00
    0.17714E+07        -0.50133E+08         0.00000E+00
    0.00000E+00         0.00000E+00        -0.51585E+08
 
   -0.51652E+08         0.18053E+07         0.00000E+00
    0.18053E+07        -0.50140E+08         0.00000E+00
    0.00000E+00         0.00000E+00        -0.51583E+08
 
   -0.51635E+08         0.18389E+07         0.00000E+00
    0.18389E+07        -0.50146E+08         0.00000E+00
    0.00000E+00         0.00000E+00        -0.51581E+08
 
   -0.51618E+08         0.18722E+07         0.00000E+00
    0.18722E+07        -0.50154E+08         0.00000E+00
    0.00000E+00         0.00000E+00        -0.51579E+08
 
   -0.51600E+08         0.19053E+07         0.00000E+00
    0.19053E+07        -0.50161E+08         0.00000E+00
    0.00000E+00         0.00000E+00        -0.51577E+08
 
   -0.51583E+08         0.19380E+07         0.00000E+00
    0.19380E+07        -0.50169E+08         0.00000E+00
    0.00000E+00         0.00000E+00        -0.51575E+08
 
   -0.52138E+08         0.22878E+05         0.00000E+00
    0.22878E+05        -0.50000E+08         0.00000E+00
    0.00000E+00         0.00000E+00        -0.51526E+08
 
   -0.52124E+08         0.67928E+05         0.00000E+00
    0.67928E+05        -0.50000E+08         0.00000E+00
    0.00000E+00         0.00000E+00        -0.51523E+08
 
   -0.52110E+08         0.11268E+06         0.00000E+00
    0.11268E+06        -0.50000E+08         0.00000E+00
    0.00000E+00         0.00000E+00        -0.51521E+08
 
   -0.52096E+08         0.15713E+06         0.00000E+00
    0.15713E+06        -0.50001E+08         0.00000E+00
    0.00000E+00         0.00000E+00        -0.51518E+08
 
   -0.52082E+08         0.20129E+06         0.00000E+00
    0.20129E+06        -0.50001E+08         0.00000E+00
    0.00000E+00         0.00000E+00        -0.51515E+08
 
   -0.52067E+08         0.24516E+06         0.00000E+00
    0.24516E+06        -0.50002E+08         0.00000E+00
    0.00000E+00         0.00000E+00        -0.51512E+08
 
   -0.52053E+08         0.28873E+06         0.00000E+00
    0.28873E+06        -0.50003E+08         0.00000E+00
    0.00000E+00         0.00000E+00        -0.51510E+08
 
   -0.52039E+08         0.33202E+06         0.00000E+00
    0.33202E+06        -0.50003E+08         0.00000E+00
    0.00000E+00         0.00000E+00        -0.51507E+08
 
   -0.52025E+08         0.37501E+06         0.00000E+00
    0.37501E+06        -0.50004E+08         0.00000E+00
    0.00000E+00         0.00000E+00        -0.51504E+08
 
   -0.52011E+08         0.41772E+06         0.00000E+00
    0.41772E+06        -0.50005E+08         0.00000E+00
    0.00000E+00         0.00000E+00        -0.51502E+08
 
   -0.51996E+08         0.46014E+06         0.00000E+00
    0.46014E+06        -0.50006E+08         0.00000E+00
    0.00000E+00         0.00000E+00        -0.51499E+08
 
   -0.51982E+08         0.50228E+06         0.00000E+00
    0.50228E+06        -0.50008E+08         0.00000E+00
    0.00000E+00         0.00000E+00        -0.51496E+08
 
   -0.51968E+08         0.54414E+06         0.00000E+00
    0.54414E+06        -0.50009E+08         0.00000E+00
    0.00000E+00         0.00000E+00        -0.51494E+08
 
   -0.51954E+08         0.58571E+06         0.00000E+00
    0.58571E+06        -0.50011E+08         0.00000E+00
    0.00000E+00         0.00000E+00        -0.51491E+08
 
   -0.51940E+08         0.62701E+06         0.00000E+00
    0.62701E+06        -0.50012E+08         0.00000E+00
    0.00000E+00         0.00000E+00        -0.51489E+08
 
   -0.51926E+08         0.66803E+06         0.00000E+00
    0.66803E+06        -0.50014E+08         0.00000E+00
    0.00000E+00         0.00000E+00        -0.51486E+08
 
   -0.51911E+08         0.70877E+06         0.00000E+00
    0.70877E+06        -0.50016E+08         0.00000E+00
    0.00000E+00         0.00000E+00        -0.51484E+08
 
   -0.51897E+08         0.74924E+06         0.00000E+00
    0.74924E+06        -0.50018E+08         0.00000E+00
    0.00000E+00         0.00000E+00        -0.51482E+08
 
   -0.51883E+08         0.78943E+06         0.00000E+00
    0.78943E+06        -0.50020E+08         0.00000E+00
    0.00000E+00         0.00000E+00        -0.51479E+08
 
   -0.51869E+08         0.82935E+06         0.00000E+00
    0.82935E+06        -0.50022E+08         0.00000E+00
    0.00000E+00         0.00000E+00        -0.51477E+08
 
   -0.51854E+08         0.86899E+06         0.00000E+00
    0.86899E+06        -0.50024E+08         0.00000E+00
    0.00000E+00         0.00000E+00        -0.51474E+08
 
   -0.51840E+08         0.90836E+06         0.00000E+00
    0.90836E+06        -0.50027E+08         0.00000E+00
    0.00000E+00         0.00000E+00        -0.51472E+08
 
   -0.51826E+08         0.94747E+06         0.00000E+00
    0.94747E+06        -0.50030E+08         0.00000E+00
    0.00000E+00         0.00000E+00        -0.51470E+08
 
   -0.51812E+08         0.98630E+06         0.00000E+00
    0.98630E+06        -0.50032E+08         0.00000E+00
    0.00000E+00         0.00000E+00        -0.51467E+08
 
   -0.51797E+08         0.10249E+07         0.00000E+00
    0.10249E+07        -0.50035E+08         0.00000E+00
    0.00000E+00         0.00000E+00        -0.51465E+08
 
   -0.51783E+08         0.10632E+07         0.00000E+00
    0.10632E+07        -0.50038E+08         0.00000E+00
    0.00000E+00         0.00000E+00        -0.51463E+08
 
   -0.51769E+08         0.11012E+07         0.00000E+00
    0.11012E+07        -0.50041E+08         0.00000E+00
    0.00000E+00         0.00000E+00        -0.51461E+08
 
   -0.51754E+08         0.11389E+07         0.00000E+00
    0.11389E+07        -0.50044E+08         0.00000E+00
    0.00000E+00         0.00000E+00        -0.51459E+08
 
   -0.51740E+08         0.11764E+07         0.00000E+00
    0.11764E+07        -0.50048E+08         0.00000E+00
    0.00000E+00         0.00000E+00        -0.51456E+08
 
   -0.51725E+08         0.12137E+07         0.00000E+00
    0.12137E+07        -0.50051E+08         0.00000E+00
    0.00000E+00         0.00000E+00        -0.51454E+08
 
   -0.51711E+08         0.12506E+07         0.00000E+00
    0.12506E+07        -0.50055E+08         0.00000E+00
    0.00000E+00         0.00000E+00        -0.51452E+08
 
   -0.51696E+08         0.12873E+07         0.00000E+00
    0.12873E+07        -0.50059E+08         0.00000E+00
    0.00000E+00         0.00000E+00        -0.51450E+08
 
   -0.51682E+08         0.13237E+07         0.00000E+00
    0.13237E+07        -0.50063E+08         0.00000E+00
    0.00000E+00         0.00000E+00        -0.51448E+08
 
   -0.51667E+08         0.13599E+07         0.00000E+00
    0.13599E+07        -0.50067E+08         0.00000E+00
    0.00000E+00         0.00000E+00        -0.51446E+08
 
   -0.51652E+08         0.13957E+07         0.00000E+00
    0.13957E+07        -0.50071E+08         0.00000E+00
    0.00000E+00         0.00000E+00        -0.51444E+08
 
   -0.51638E+08         0.14314E+07         0.00000E+00
    0.14314E+07        -0.50076E+08         0.00000E+00
    0.00000E+00         0.00000E+00        -0.51442E+08
 
   -0.51623E+08         0.14667E+07         0.00000E+00
    0.14667E+07        -0.50080E+08         0.00000E+00
    0.00000E+00         0.00000E+00        -0.51440E+08
 
   -0.51608E+08         0.15018E+07         0.00000E+00
    0.15018E+07        -0.50085E+08         0.00000E+00
    0.00000E+00         0.00000E+00        -0.51438E+08
 
   -0.51593E+08         0.15366E+07         0.00000E+00
    0.15366E+07        -0.50090E+08         0.00000E+00
    0.00000E+00         0.00000E+00        -0.51436E+08
 
   -0.51578E+08         0.15711E+07         0.00000E+00
    0.15711E+07        -0.50095E+08         0.00000E+00
    0.00000E+00         0.00000E+00        -0.51434E+08
 
   -0.51563E+08         0.16053E+07         0.00000E+00
    0.16053E+07        -0.50100E+08         0.00000E+00
    0.00000E+00         0.00000E+00        -0.51432E+08
 
   -0.51548E+08         0.16393E+07         0.00000E+00
    0.16393E+07        -0.50106E+08         0.00000E+00
    0.00000E+00         0.00000E+00        -0.51430E+08
 
   -0.51532E+08         0.16730E+07         0.00000E+00
    0.16730E+07        -0.50112E+08         0.00000E+00
    0.00000E+00         0.00000E+00        -0.51428E+08
 
   -0.51517E+08         0.17064E+07         0.00000E+00
    0.17064E+07        -0.50117E+08         0.00000E+00
    0.00000E+00         0.00000E+00        -0.51426E+08
 
   -0.51501E+08         0.17395E+07         0.00000E+00
    0.17395E+07        -0.50123E+08         0.00000E+00
    0.00000E+00         0.00000E+00        -0.51424E+08
 
   -0.51486E+08         0.17724E+07         0.00000E+00
    0.17724E+07        -0.50130E+08         0.00000E+00
    0.00000E+00         0.00000E+00        -0.51422E+08
 
   -0.51470E+08         0.18049E+07         0.00000E+00
    0.18049E+07        -0.50136E+08         0.00000E+00
    0.00000E+00         0.00000E+00        -0.51421E+08
 
   -0.51454E+08         0.18372E+07         0.00000E+00
    0.18372E+07        -0.50143E+08         0.00000E+00
    0.00000E+00         0.00000E+00        -0.51419E+08
 
   -0.51438E+08         0.18692E+07         0.00000E+00
    0.18692E+07        -0.50149E+08         0.00000E+00
    0.00000E+00         0.00000E+00        -0.51417E+08
 
   -0.51422E+08         0.19009E+07         0.00000E+00
    0.19009E+07        -0.50156E+08         0.00000E+00
    0.00000E+00         0.00000E+00        -0.51415E+08
 
   -0.51914E+08         0.22584E+05         0.00000E+00
    0.22584E+05        -0.50000E+08         0.00000E+00
    0.00000E+00         0.00000E+00        -0.51361E+08
 
   -0.51901E+08         0.67063E+05         0.00000E+00
    0.67063E+05        -0.50000E+08         0.00000E+00
    0.00000E+00         0.00000E+00        -0.51358E+08
 
   -0.51888E+08         0.11125E+06         0.00000E+00
    0.11125E+06        -0.50000E+08         0.00000E+00
    0.00000E+00         0.00000E+00        -0.51356E+08
 
   -0.51876E+08         0.15514E+06         0.00000E+00
    0.15514E+06        -0.50001E+08         0.00000E+00
    0.00000E+00         0.00000E+00        -0.51353E+08
 
   -0.51863E+08         0.19875E+06         0.00000E+00
    0.19875E+06        -0.50001E+08         0.00000E+00
    0.00000E+00         0.00000E+00        -0.51351E+08
 
   -0.51850E+08         0.24206E+06         0.00000E+00
    0.24206E+06        -0.50002E+08         0.00000E+00
    0.00000E+00         0.00000E+00        -0.51348E+08
 
   -0.51837E+08         0.28508E+06         0.00000E+00
    0.28508E+06        -0.50002E+08         0.00000E+00
    0.00000E+00         0.00000E+00        -0.51346E+08
 
   -0.51825E+08         0.32782E+06         0.00000E+00
    0.32782E+06        -0.50003E+08         0.00000E+00
    0.00000E+00         0.00000E+00        -0.51343E+08
 
   -0.51812E+08         0.37026E+06         0.00000E+00
    0.37026E+06        -0.50004E+08         0.00000E+00
    0.00000E+00         0.00000E+00        -0.51341E+08
 
   -0.51799E+08         0.41242E+06         0.00000E+00
    0.41242E+06        -0.50005E+08         0.00000E+00
    0.00000E+00         0.00000E+00        -0.51339E+08
 
   -0.51786E+08         0.45430E+06         0.00000E+00
    0.45430E+06        -0.50006E+08         0.00000E+00
    0.00000E+00         0.00000E+00        -0.51336E+08
 
   -0.51774E+08         0.49588E+06         0.00000E+00
    0.49588E+06        -0.50007E+08         0.00000E+00
    0.00000E+00         0.00000E+00        -0.51334E+08
 
   -0.51761E+08         0.53719E+06         0.00000E+00
    0.53719E+06        -0.50008E+08         0.00000E+00
    0.00000E+00         0.00000E+00        -0.51332E+08
 
   -0.51748E+08         0.57821E+06         0.00000E+00
    0.57821E+06        -0.50010E+08         0.00000E+00
    0.00000E+00         0.00000E+00        -0.51329E+08
 
   -0.51735E+08         0.61895E+06         0.00000E+00
    0.61895E+06        -0.50011E+08         0.00000E+00
    0.00000E+00         0.00000E+00        -0.51327E+08
 
   -0.51723E+08         0.65940E+06         0.00000E+00
    0.65940E+06        -0.50013E+08         0.00000E+00
    0.00000E+00         0.00000E+00        -0.51325E+08
 
   -0.51710E+08         0.69958E+06         0.00000E+00
    0.69958E+06        -0.50015E+08         0.00000E+00
    0.00000E+00         0.00000E+00        -0.51323E+08
 
   -0.51697E+08         0.73947E+06         0.00000E+00
    0.73947E+06        -0.50016E+08         0.00000E+00
    0.00000E+00         0.00000E+00        -0.51321E+08
 
   -0.51684E+08         0.77908E+06         0.00000E+00
    0.77908E+06        -0.50018E+08         0.00000E+00
    0.00000E+00         0.00000E+00        -0.51318E+08
 
   -0.51671E+08         0.81841E+06         0.00000E+00
    0.81841E+06        -0.50020E+08         0.00000E+00
    0.00000E+00         0.00000E+00        -0.51316E+08
 
   -0.51658E+08         0.85746E+06         0.00000E+00
    0.85746E+06        -0.50023E+08         0.00000E+00
    0.00000E+00         0.00000E+00        -0.51314E+08
 
   -0.51645E+08         0.89624E+06         0.00000E+00
    0.89624E+06        -0.50025E+08         0.00000E+00
    0.00000E+00         0.00000E+00        -0.51312E+08
 
   -0.51633E+08         0.93473E+06         0.00000E+00
    0.93473E+06        -0.50027E+08         0.00000E+00
    0.00000E+00         0.00000E+00        -0.51310E+08
 
   -0.51620E+08         0.97294E+06         0.00000E+00
    0.97294E+06        -0.50030E+08         0.00000E+00
    0.00000E+00         0.00000E+00        -0.51308E+08
 
   -0.51607E+08         0.10109E+07         0.00000E+00
    0.10109E+07        -0.50032E+08         0.00000E+00
    0.00000E+00         0.00000E+00        -0.51306E+08
 
   -0.51594E+08         0.10485E+07         0.00000E+00
    0.10485E+07        -0.50035E+08         0.00000E+00
    0.00000E+00         0.00000E+00        -0.51304E+08
 
   -0.51581E+08         0.10859E+07         0.00000E+00
    0.10859E+07        -0.50038E+08         0.00000E+00
    0.00000E+00         0.00000E+00        -0.51302E+08
 
   -0.51568E+08         0.11230E+07         0.00000E+00
    0.11230E+07        -0.50041E+08         0.00000E+00
    0.00000E+00         0.00000E+00        -0.51300E+08
 
   -0.51555E+08         0.11598E+07         0.00000E+00
    0.11598E+07        -0.50044E+08         0.00000E+00
    0.00000E+00         0.00000E+00        -0.51298E+08
 
   -0.51542E+08         0.11964E+07         0.00000E+00
    0.11964E+07        -0.50047E+08         0.00000E+00
    0.00000E+00         0.00000E+00        -0.51296E+08
 
   -0.51529E+08         0.12326E+07         0.00000E+00
    0.12326E+07        -0.50051E+08         0.00000E+00
    0.00000E+00         0.00000E+00        -0.51294E+08
 
   -0.51515E+08         0.12686E+07         0.00000E+00
    0.12686E+07        -0.50054E+08         0.00000E+00
    0.00000E+00         0.00000E+00        -0.51292E+08
 
   -0.51502E+08         0.13043E+07         0.00000E+00
    0.13043E+07        -0.50058E+08         0.00000E+00
    0.00000E+00         0.00000E+00        -0.51290E+08
 
   -0.51489E+08         0.13397E+07         0.00000E+00
    0.13397E+07        -0.50061E+08         0.00000E+00
    0.00000E+00         0.00000E+00        -0.51288E+08
 
   -0.51476E+08         0.13749E+07         0.00000E+00
    0.13749E+07        -0.50065E+08         0.00000E+00
    0.00000E+00         0.00000E+00        -0.51286E+08
 
   -0.51462E+08         0.14097E+07         0.00000E+00
    0.14097E+07        -0.50069E+08         0.00000E+00
    0.00000E+00         0.00000E+00        -0.51285E+08
 
   -0.51449E+08         0.14443E+07         0.00000E+00
    0.14443E+07        -0.50074E+08         0.00000E+00
    0.00000E+00         0.00000E+00        -0.51283E+08
 
   -0.51435E+08         0.14785E+07         0.00000E+00
    0.14785E+07        -0.50078E+08         0.00000E+00
    0.00000E+00         0.00000E+00        -0.51281E+08
 
   -0.51422E+08         0.15125E+07         0.00000E+00
    0.15125E+07        -0.50082E+08         0.00000E+00
    0.00000E+00         0.00000E+00        -0.51279E+08
 
   -0.51408E+08         0.15462E+07         0.00000E+00
    0.15462E+07        -0.50087E+08         0.00000E+00
    0.00000E+00         0.00000E+00        -0.51277E+08
 
   -0.51394E+08         0.15796E+07         0.00000E+00
    0.15796E+07        -0.50092E+08         0.00000E+00
    0.00000E+00         0.00000E+00        -0.51276E+08
 
   -0.51381E+08         0.16128E+07         0.00000E+00
    0.16128E+07        -0.50097E+08         0.00000E+00
    0.00000E+00         0.00000E+00        -0.51274E+08
 
   -0.51367E+08         0.16456E+07         0.00000E+00
    0.16456E+07        -0.50102E+08         0.00000E+00
    0.00000E+00         0.00000E+00        -0.51272E+08
 
   -0.51353E+08         0.16781E+07         0.00000E+00
    0.16781E+07        -0.50107E+08         0.00000E+00
    0.00000E+00         0.00000E+00        -0.51271E+08
 
   -0.51339E+08         0.17104E+07         0.00000E+00
    0.17104E+07        -0.50113E+08         0.00000E+00
    0.00000E+00         0.00000E+00        -0.51269E+08
 
   -0.51325E+08         0.17423E+07         0.00000E+00
    0.17423E+07        -0.50118E+08         0.00000E+00
    0.00000E+00         0.00000E+00        -0.51267E+08
 
   -0.51310E+08         0.17739E+07         0.00000E+00
    0.17739E+07        -0.50124E+08         0.00000E+00
    0.00000E+00         0.00000E+00        -0.51265E+08
 
   -0.51296E+08         0.18053E+07         0.00000E+00
    0.18053E+07        -0.50130E+08         0.00000E+00
    0.00000E+00         0.00000E+00        -0.51264E+08
 
   -0.51282E+08         0.18363E+07         0.00000E+00
    0.18363E+07        -0.50136E+08         0.00000E+00
    0.00000E+00         0.00000E+00        -0.51262E+08
 
   -0.51267E+08         0.18670E+07         0.00000E+00
    0.18670E+07        -0.50143E+08         0.00000E+00
    0.00000E+00         0.00000E+00        -0.51260E+08
 
   -0.51692E+08         0.22315E+05         0.00000E+00
    0.22315E+05        -0.50000E+08         0.00000E+00
    0.00000E+00         0.00000E+00        -0.51200E+08
 
   -0.51681E+08         0.66271E+05         0.00000E+00
    0.66271E+05        -0.50000E+08         0.00000E+00
    0.00000E+00         0.00000E+00        -0.51197E+08
 
   -0.51669E+08         0.10994E+06         0.00000E+00
    0.10994E+06        -0.50000E+08         0.00000E+00
    0.00000E+00         0.00000E+00        -0.51195E+08
 
   -0.51658E+08         0.15332E+06         0.00000E+00
    0.15332E+06        -0.50001E+08         0.00000E+00
    0.00000E+00         0.00000E+00        -0.51193E+08
 
   -0.51647E+08         0.19642E+06         0.00000E+00
    0.19642E+06        -0.50001E+08         0.00000E+00
    0.00000E+00         0.00000E+00        -0.51191E+08
 
   -0.51636E+08         0.23922E+06         0.00000E+00
    0.23922E+06        -0.50002E+08         0.00000E+00
    0.00000E+00         0.00000E+00        -0.51189E+08
 
   -0.51624E+08         0.28174E+06         0.00000E+00
    0.28174E+06        -0.50002E+08         0.00000E+00
    0.00000E+00         0.00000E+00        -0.51187E+08
 
   -0.51613E+08         0.32398E+06         0.00000E+00
    0.32398E+06        -0.50003E+08         0.00000E+00
    0.00000E+00         0.00000E+00        -0.51184E+08
 
   -0.51602E+08         0.36593E+06         0.00000E+00
    0.36593E+06        -0.50004E+08         0.00000E+00
    0.00000E+00         0.00000E+00        -0.51182E+08
 
   -0.51590E+08         0.40759E+06         0.00000E+00
    0.40759E+06        -0.50004E+08         0.00000E+00
    0.00000E+00         0.00000E+00        -0.51180E+08
 
   -0.51579E+08         0.44896E+06         0.00000E+00
    0.44896E+06        -0.50005E+08         0.00000E+00
    0.00000E+00         0.00000E+00        -0.51178E+08
 
   -0.51568E+08         0.49005E+06         0.00000E+00
    0.49005E+06        -0.50006E+08         0.00000E+00
    0.00000E+00         0.00000E+00        -0.51176E+08
 
   -0.51556E+08         0.53085E+06         0.00000E+00
    0.53085E+06        -0.50008E+08         0.00000E+00
    0.00000E+00         0.00000E+00        -0.51174E+08
 
   -0.51545E+08         0.57137E+06         0.00000E+00
    0.57137E+06        -0.50009E+08         0.00000E+00
    0.00000E+00         0.00000E+00        -0.51172E+08
 
   -0.51534E+08         0.61160E+06         0.00000E+00
    0.61160E+06        -0.50010E+08         0.00000E+00
    0.00000E+00         0.00000E+00        -0.51170E+08
 
   -0.51522E+08         0.65155E+06         0.00000E+00
    0.65155E+06        -0.50012E+08         0.00000E+00
    0.00000E+00         0.00000E+00        -0.51168E+08
 
   -0.51511E+08         0.69121E+06         0.00000E+00
    0.69121E+06        -0.50013E+08         0.00000E+00
    0.00000E+00         0.00000E+00        -0.51166E+08
 
   -0.51499E+08         0.73058E+06         0.00000E+00
    0.73058E+06        -0.50015E+08         0.00000E+00
    0.00000E+00         0.00000E+00        -0.51164E+08
 
   -0.51488E+08         0.76967E+06         0.00000E+00
    0.76967E+06        -0.50017E+08         0.00000E+00
    0.00000E+00         0.00000E+00        -0.51162E+08
 
   -0.51477E+08         0.80847E+06         0.00000E+00
    0.80847E+06        -0.50018E+08         0.00000E+00
    0.00000E+00         0.00000E+00        -0.51160E+08
 
   -0.51465E+08         0.84699E+06         0.00000E+00
    0.84699E+06        -0.50020E+08         0.00000E+00
    0.00000E+00         0.00000E+00        -0.51158E+08
 
   -0.51454E+08         0.88522E+06         0.00000E+00
    0.88522E+06        -0.50022E+08         0.00000E+00
    0.00000E+00         0.00000E+00        -0.51157E+08
 
   -0.51442E+08         0.92316E+06         0.00000E+00
    0.92316E+06        -0.50024E+08         0.00000E+00
    0.00000E+00         0.00000E+00        -0.51155E+08
 
   -0.51431E+08         0.96082E+06         0.00000E+00
    0.96082E+06        -0.50027E+08         0.00000E+00
    0.00000E+00         0.00000E+00        -0.51153E+08
 
   -0.51419E+08         0.99819E+06         0.00000E+00
    0.99819E+06        -0.50029E+08         0.00000E+00
    0.00000E+00         0.00000E+00        -0.51151E+08
 
   -0.51408E+08         0.10353E+07         0.00000E+00
    0.10353E+07        -0.50032E+08         0.00000E+00
    0.00000E+00         0.00000E+00        -0.51149E+08
 
   -0.51396E+08         0.10721E+07         0.00000E+00
    0.10721E+07        -0.50034E+08         0.00000E+00
    0.00000E+00         0.00000E+00        -0.51147E+08
 
   -0.51384E+08         0.11086E+07         0.00000E+00
    0.11086E+07        -0.50037E+08         0.00000E+00
    0.00000E+00         0.00000E+00        -0.51146E+08
 
   -0.51373E+08         0.11448E+07         0.00000E+00
    0.11448E+07        -0.50040E+08         0.00000E+00
    0.00000E+00         0.00000E+00        -0.51144E+08
 
   -0.51361E+08         0.11807E+07         0.00000E+00
    0.11807E+07        -0.50042E+08         0.00000E+00
    0.00000E+00         0.00000E+00        -0.51142E+08
 
   -0.51350E+08         0.12164E+07         0.00000E+00
    0.12164E+07        -0.50045E+08         0.00000E+00
    0.00000E+00         0.00000E+00        -0.51140E+08
 
   -0.51338E+08         0.12517E+07         0.00000E+00
    0.12517E+07        -0.50049E+08         0.00000E+00
    0.00000E+00         0.00000E+00        -0.51139E+08
 
   -0.51326E+08         0.12868E+07         0.00000E+00
    0.12868E+07        -0.50052E+08         0.00000E+00
    0.00000E+00         0.00000E+00        -0.51137E+08
 
   -0.51314E+08         0.13215E+07         0.00000E+00
    0.13215E+07        -0.50055E+08         0.00000E+00
    0.00000E+00         0.00000E+00        -0.51135E+08
 
   -0.51302E+08         0.13560E+07         0.00000E+00
    0.13560E+07        -0.50059E+08         0.00000E+00
    0.00000E+00         0.00000E+00        -0.51134E+08
 
   -0.51290E+08         0.13901E+07         0.00000E+00
    0.13901E+07        -0.50062E+08         0.00000E+00
    0.00000E+00         0.00000E+00        -0.51132E+08
 
   -0.51278E+08         0.14240E+07         0.00000E+00
    0.14240E+07        -0.50066E+08         0.00000E+00
    0.00000E+00         0.00000E+00        -0.51131E+08
 
   -0.51266E+08         0.14576E+07         0.00000E+00
    0.14576E+07        -0.50070E+08         0.00000E+00
    0.00000E+00         0.00000E+00        -0.51129E+08
 
   -0.51254E+08         0.14909E+07         0.00000E+00
    0.14909E+07        -0.50074E+08         0.00000E+00
    0.00000E+00         0.00000E+00        -0.51127E+08
 
   -0.51242E+08         0.15238E+07         0.00000E+00
    0.15238E+07        -0.50078E+08         0.00000E+00
    0.00000E+00         0.00000E+00        -0.51126E+08
 
   -0.51230E+08         0.15565E+07         0.00000E+00
    0.15565E+07        -0.50082E+08         0.00000E+00
    0.00000E+00         0.00000E+00        -0.51124E+08
 
   -0.51218E+08         0.15889E+07         0.00000E+00
    0.15889E+07        -0.50087E+08         0.00000E+00
    0.00000E+00         0.00000E+00        -0.51123E+08
 
   -0.51205E+08         0.16209E+07         0.00000E+00
    0.16209E+07        -0.50091E+08         0.00000E+00
    0.00000E+00         0.00000E+00        -0.51121E+08
 
   -0.51193E+08         0.16527E+07         0.00000E+00
    0.16527E+07        -0.50096E+08         0.00000E+00
    0.00000E+00         0.00000E+00        -0.51120E+08
 
   -0.51180E+08         0.16841E+07         0.00000E+00
    0.16841E+07        -0.50101E+08         0.00000E+00
    0.00000E+00         0.00000E+00        -0.51118E+08
 
   -0.51168E+08         0.17152E+07         0.00000E+00
    0.17152E+07        -0.50106E+08         0.00000E+00
    0.00000E+00         0.00000E+00        -0.51117E+08
 
   -0.51155E+08         0.17460E+07         0.00000E+00
    0.17460E+07        -0.50111E+08         0.00000E+00
    0.00000E+00         0.00000E+00        -0.51115E+08
 
   -0.51142E+08         0.17765E+07         0.00000E+00
    0.17765E+07        -0.50117E+08         0.00000E+00
    0.00000E+00         0.00000E+00        -0.51114E+08
 
   -0.51129E+08         0.18067E+07         0.00000E+00
    0.18067E+07        -0.50122E+08         0.00000E+00
    0.00000E+00         0.00000E+00        -0.51112E+08
 
   -0.51116E+08         0.18365E+07         0.00000E+00
    0.18365E+07        -0.50128E+08         0.00000E+00
    0.00000E+00         0.00000E+00        -0.51111E+08
 
   -0.51472E+08         0.22074E+05         0.00000E+00
    0.22074E+05        -0.50000E+08         0.00000E+00
    0.00000E+00         0.00000E+00        -0.51043E+08
 
   -0.51463E+08         0.65564E+05         0.00000E+00
    0.65564E+05        -0.50000E+08         0.00000E+00
    0.00000E+00         0.00000E+00        -0.51041E+08
 
   -0.51453E+08         0.10877E+06         0.00000E+00
    0.10877E+06        -0.50000E+08         0.00000E+00
    0.00000E+00         0.00000E+00        -0.51039E+08
 
   -0.51443E+08         0.15170E+06         0.00000E+00
    0.15170E+06        -0.50001E+08         0.00000E+00
    0.00000E+00         0.00000E+00        -0.51037E+08
 
   -0.51433E+08         0.19434E+06         0.00000E+00
    0.19434E+06        -0.50001E+08         0.00000E+00
    0.00000E+00         0.00000E+00        -0.51035E+08
 
   -0.51423E+08         0.23670E+06         0.00000E+00
    0.23670E+06        -0.50001E+08         0.00000E+00
    0.00000E+00         0.00000E+00        -0.51033E+08
 
   -0.51414E+08         0.27877E+06         0.00000E+00
    0.27877E+06        -0.50002E+08         0.00000E+00
    0.00000E+00         0.00000E+00        -0.51031E+08
 
   -0.51404E+08         0.32056E+06         0.00000E+00
    0.32056E+06        -0.50002E+08         0.00000E+00
    0.00000E+00         0.00000E+00        -0.51029E+08
 
   -0.51394E+08         0.36206E+06         0.00000E+00
    0.36206E+06        -0.50003E+08         0.00000E+00
    0.00000E+00         0.00000E+00        -0.51028E+08
 
   -0.51384E+08         0.40328E+06         0.00000E+00
    0.40328E+06        -0.50004E+08         0.00000E+00
    0.00000E+00         0.00000E+00        -0.51026E+08
 
   -0.51374E+08         0.44421E+06         0.00000E+00
    0.44421E+06        -0.50005E+08         0.00000E+00
    0.00000E+00         0.00000E+00        -0.51024E+08
 
   -0.51364E+08         0.48486E+06         0.00000E+00
    0.48486E+06        -0.50006E+08         0.00000E+00
    0.00000E+00         0.00000E+00        -0.51022E+08
 
   -0.51354E+08         0.52522E+06         0.00000E+00
    0.52522E+06        -0.50007E+08         0.00000E+00
    0.00000E+00         0.00000E+00        -0.51020E+08
 
   -0.51344E+08         0.56529E+06         0.00000E+00
    0.56529E+06        -0.50008E+08         0.00000E+00
    0.00000E+00         0.00000E+00        -0.51019E+08
 
   -0.51334E+08         0.60507E+06         0.00000E+00
    0.60507E+06        -0.50009E+08         0.00000E+00
    0.00000E+00         0.00000E+00        -0.51017E+08
 
   -0.51324E+08         0.64456E+06         0.00000E+00
    0.64456E+06        -0.50010E+08         0.00000E+00
    0.00000E+00         0.00000E+00        -0.51015E+08
 
   -0.51314E+08         0.68377E+06         0.00000E+00
    0.68377E+06        -0.50012E+08         0.00000E+00
    0.00000E+00         0.00000E+00        -0.51013E+08
 
   -0.51304E+08         0.72268E+06         0.00000E+00
    0.72268E+06        -0.50013E+08         0.00000E+00
    0.00000E+00         0.00000E+00        -0.51012E+08
 
   -0.51294E+08         0.76131E+06         0.00000E+00
    0.76131E+06        -0.50015E+08         0.00000E+00
    0.00000E+00         0.00000E+00        -0.51010E+08
 
   -0.51284E+08         0.79964E+06         0.00000E+00
    0.79964E+06        -0.50016E+08         0.00000E+00
    0.00000E+00         0.00000E+00        -0.51008E+08
 
   -0.51274E+08         0.83769E+06         0.00000E+00
    0.83769E+06        -0.50018E+08         0.00000E+00
    0.00000E+00         0.00000E+00        -0.51007E+08
 
   -0.51264E+08         0.87544E+06         0.00000E+00
    0.87544E+06        -0.50020E+08         0.00000E+00
    0.00000E+00         0.00000E+00        -0.51005E+08
 
   -0.51254E+08         0.91290E+06         0.00000E+00
    0.91290E+06        -0.50021E+08         0.00000E+00
    0.00000E+00         0.00000E+00        -0.51003E+08
 
   -0.51244E+08         0.95007E+06         0.00000E+00
    0.95007E+06        -0.50023E+08         0.00000E+00
    0.00000E+00         0.00000E+00        -0.51002E+08
 
   -0.51234E+08         0.98694E+06         0.00000E+00
    0.98694E+06        -0.50025E+08         0.00000E+00
    0.00000E+00         0.00000E+00        -0.51000E+08
 
   -0.51224E+08         0.10235E+07         0.00000E+00
    0.10235E+07        -0.50028E+08         0.00000E+00
    0.00000E+00         0.00000E+00        -0.50999E+08
 
   -0.51214E+08         0.10598E+07         0.00000E+00
    0.10598E+07        -0.50030E+08         0.00000E+00
    0.00000E+00         0.00000E+00        -0.50997E+08
 
   -0.51204E+08         0.10958E+07         0.00000E+00
    0.10958E+07        -0.50032E+08         0.00000E+00
    0.00000E+00         0.00000E+00        -0.50996E+08
 
   -0.51194E+08         0.11315E+07         0.00000E+00
    0.11315E+07        -0.50035E+08         0.00000E+00
    0.00000E+00         0.00000E+00        -0.50994E+08
 
   -0.51184E+08         0.11669E+07         0.00000E+00
    0.11669E+07        -0.50037E+08         0.00000E+00
    0.00000E+00         0.00000E+00        -0.50992E+08
 
   -0.51173E+08         0.12019E+07         0.00000E+00
    0.12019E+07        -0.50040E+08         0.00000E+00
    0.00000E+00         0.00000E+00        -0.50991E+08
 
   -0.51163E+08         0.12367E+07         0.00000E+00
    0.12367E+07        -0.50043E+08         0.00000E+00
    0.00000E+00         0.00000E+00        -0.50990E+08
 
   -0.51153E+08         0.12712E+07         0.00000E+00
    0.12712E+07        -0.50045E+08         0.00000E+00
    0.00000E+00         0.00000E+00        -0.50988E+08
 
   -0.51143E+08         0.13054E+07         0.00000E+00
    0.13054E+07        -0.50048E+08         0.00000E+00
    0.00000E+00         0.00000E+00        -0.50987E+08
 
   -0.51132E+08         0.13393E+07         0.00000E+00
    0.13393E+07        -0.50051E+08         0.00000E+00
    0.00000E+00         0.00000E+00        -0.50985E+08
 
   -0.51122E+08         0.13729E+07         0.00000E+00
    0.13729E+07        -0.50055E+08         0.00000E+00
    0.00000E+00         0.00000E+00        -0.50984E+08
 
   -0.51111E+08         0.14061E+07         0.00000E+00
    0.14061E+07        -0.50058E+08         0.00000E+00
    0.00000E+00         0.00000E+00        -0.50982E+08
 
   -0.51101E+08         0.14391E+07         0.00000E+00
    0.14391E+07        -0.50061E+08         0.00000E+00
    0.00000E+00         0.00000E+00        -0.50981E+08
 
   -0.51090E+08         0.14717E+07         0.00000E+00
    0.14717E+07        -0.50065E+08         0.00000E+00
    0.00000E+00         0.00000E+00        -0.50980E+08
 
   -0.51080E+08         0.15040E+07         0.00000E+00
    0.15040E+07        -0.50068E+08         0.00000E+00
    0.00000E+00         0.00000E+00        -0.50978E+08
 
   -0.51069E+08         0.15360E+07         0.00000E+00
    0.15360E+07        -0.50072E+08         0.00000E+00
    0.00000E+00         0.00000E+00        -0.50977E+08
 
   -0.51058E+08         0.15677E+07         0.00000E+00
    0.15677E+07        -0.50076E+08         0.00000E+00
    0.00000E+00         0.00000E+00        -0.50975E+08
 
   -0.51048E+08         0.15991E+07         0.00000E+00
    0.15991E+07        -0.50080E+08         0.00000E+00
    0.00000E+00         0.00000E+00        -0.50974E+08
 
   -0.51037E+08         0.16302E+07         0.00000E+00
    0.16302E+07        -0.50084E+08         0.00000E+00
    0.00000E+00         0.00000E+00        -0.50973E+08
 
   -0.51026E+08         0.16609E+07         0.00000E+00
    0.16609E+07        -0.50088E+08         0.00000E+00
    0.00000E+00         0.00000E+00        -0.50971E+08
 
   -0.51015E+08         0.16913E+07         0.00000E+00
    0.16913E+07        -0.50093E+08         0.00000E+00
    0.00000E+00         0.00000E+00        -0.50970E+08
 
   -0.51004E+08         0.17214E+07         0.00000E+00
    0.17214E+07        -0.50097E+08         0.00000E+00
    0.00000E+00         0.00000E+00        -0.50969E+08
 
   -0.50993E+08         0.17511E+07         0.00000E+00
    0.17511E+07        -0.50102E+08         0.00000E+00
    0.00000E+00         0.00000E+00        -0.50968E+08
 
   -0.50981E+08         0.17805E+07         0.00000E+00
    0.17805E+07        -0.50107E+08         0.00000E+00
    0.00000E+00         0.00000E+00        -0.50966E+08
 
   -0.50970E+08         0.18096E+07         0.00000E+00
    0.18096E+07        -0.50112E+08         0.00000E+00
    0.00000E+00         0.00000E+00        -0.50965E+08
 
   -0.51255E+08         0.21866E+05         0.00000E+00
    0.21866E+05        -0.50000E+08         0.00000E+00
    0.00000E+00         0.00000E+00        -0.50889E+08
 
   -0.51247E+08         0.64952E+05         0.00000E+00
    0.64952E+05        -0.50000E+08         0.00000E+00
    0.00000E+00         0.00000E+00        -0.50888E+08
 
   -0.51239E+08         0.10776E+06         0.00000E+00
    0.10776E+06        -0.50000E+08         0.00000E+00
    0.00000E+00         0.00000E+00        -0.50886E+08
 
   -0.51230E+08         0.15029E+06         0.00000E+00
    0.15029E+06        -0.50000E+08         0.00000E+00
    0.00000E+00         0.00000E+00        -0.50884E+08
 
   -0.51222E+08         0.19254E+06         0.00000E+00
    0.19254E+06        -0.50001E+08         0.00000E+00
    0.00000E+00         0.00000E+00        -0.50883E+08
 
   -0.51213E+08         0.23451E+06         0.00000E+00
    0.23451E+06        -0.50001E+08         0.00000E+00
    0.00000E+00         0.00000E+00        -0.50881E+08
 
   -0.51205E+08         0.27620E+06         0.00000E+00
    0.27620E+06        -0.50002E+08         0.00000E+00
    0.00000E+00         0.00000E+00        -0.50879E+08
 
   -0.51196E+08         0.31761E+06         0.00000E+00
    0.31761E+06        -0.50002E+08         0.00000E+00
    0.00000E+00         0.00000E+00        -0.50878E+08
 
   -0.51188E+08         0.35873E+06         0.00000E+00
    0.35873E+06        -0.50003E+08         0.00000E+00
    0.00000E+00         0.00000E+00        -0.50876E+08
 
   -0.51179E+08         0.39956E+06         0.00000E+00
    0.39956E+06        -0.50003E+08         0.00000E+00
    0.00000E+00         0.00000E+00        -0.50875E+08
 
   -0.51171E+08         0.44011E+06         0.00000E+00
    0.44011E+06        -0.50004E+08         0.00000E+00
    0.00000E+00         0.00000E+00        -0.50873E+08
 
   -0.51163E+08         0.48038E+06         0.00000E+00
    0.48038E+06        -0.50005E+08         0.00000E+00
    0.00000E+00         0.00000E+00        -0.50872E+08
 
   -0.51154E+08         0.52035E+06         0.00000E+00
    0.52035E+06        -0.50006E+08         0.00000E+00
    0.00000E+00         0.00000E+00        -0.50870E+08
 
   -0.51146E+08         0.56004E+06         0.00000E+00
    0.56004E+06        -0.50007E+08         0.00000E+00
    0.00000E+00         0.00000E+00        -0.50869E+08
 
   -0.51137E+08         0.59944E+06         0.00000E+00
    0.59944E+06        -0.50008E+08         0.00000E+00
    0.00000E+00         0.00000E+00        -0.50867E+08
 
   -0.51129E+08         0.63854E+06         0.00000E+00
    0.63854E+06        -0.50009E+08         0.00000E+00
    0.00000E+00         0.00000E+00        -0.50866E+08
 
   -0.51120E+08         0.67736E+06         0.00000E+00
    0.67736E+06        -0.50010E+08         0.00000E+00
    0.00000E+00         0.00000E+00        -0.50864E+08
 
   -0.51112E+08         0.71588E+06         0.00000E+00
    0.71588E+06        -0.50011E+08         0.00000E+00
    0.00000E+00         0.00000E+00        -0.50863E+08
 
   -0.51103E+08         0.75411E+06         0.00000E+00
    0.75411E+06        -0.50012E+08         0.00000E+00
    0.00000E+00         0.00000E+00        -0.50861E+08
 
   -0.51095E+08         0.79204E+06         0.00000E+00
    0.79204E+06        -0.50014E+08         0.00000E+00
    0.00000E+00         0.00000E+00        -0.50860E+08
 
   -0.51086E+08         0.82968E+06         0.00000E+00
    0.82968E+06        -0.50015E+08         0.00000E+00
    0.00000E+00         0.00000E+00        -0.50858E+08
 
   -0.51077E+08         0.86702E+06         0.00000E+00
    0.86702E+06        -0.50017E+08         0.00000E+00
    0.00000E+00         0.00000E+00        -0.50857E+08
 
   -0.51069E+08         0.90407E+06         0.00000E+00
    0.90407E+06        -0.50018E+08         0.00000E+00
    0.00000E+00         0.00000E+00        -0.50856E+08
 
   -0.51060E+08         0.94081E+06         0.00000E+00
    0.94081E+06        -0.50020E+08         0.00000E+00
    0.00000E+00         0.00000E+00        -0.50854E+08
 
   -0.51052E+08         0.97726E+06         0.00000E+00
    0.97726E+06        -0.50022E+08         0.00000E+00
    0.00000E+00         0.00000E+00        -0.50853E+08
 
   -0.51043E+08         0.10134E+07         0.00000E+00
    0.10134E+07        -0.50023E+08         0.00000E+00
    0.00000E+00         0.00000E+00        -0.50852E+08
 
   -0.51035E+08         0.10492E+07         0.00000E+00
    0.10492E+07        -0.50025E+08         0.00000E+00
    0.00000E+00         0.00000E+00        -0.50850E+08
 
   -0.51026E+08         0.10848E+07         0.00000E+00
    0.10848E+07        -0.50027E+08         0.00000E+00
    0.00000E+00         0.00000E+00        -0.50849E+08
 
   -0.51017E+08         0.11200E+07         0.00000E+00
    0.11200E+07        -0.50029E+08         0.00000E+00
    0.00000E+00         0.00000E+00        -0.50848E+08
 
   -0.51009E+08         0.11549E+07         0.00000E+00
    0.11549E+07        -0.50031E+08         0.00000E+00
    0.00000E+00         0.00000E+00        -0.50846E+08
 
   -0.51000E+08         0.11896E+07         0.00000E+00
    0.11896E+07        -0.50034E+08         0.00000E+00
    0.00000E+00         0.00000E+00        -0.50845E+08
 
   -0.50991E+08         0.12239E+07         0.00000E+00
    0.12239E+07        -0.50036E+08         0.00000E+00
    0.00000E+00         0.00000E+00        -0.50844E+08
 
   -0.50982E+08         0.12579E+07         0.00000E+00
    0.12579E+07        -0.50038E+08         0.00000E+00
    0.00000E+00         0.00000E+00        -0.50842E+08
 
   -0.50974E+08         0.12915E+07         0.00000E+00
    0.12915E+07        -0.50041E+08         0.00000E+00
    0.00000E+00         0.00000E+00        -0.50841E+08
 
   -0.50965E+08         0.13249E+07         0.00000E+00
    0.13249E+07        -0.50043E+08         0.00000E+00
    0.00000E+00         0.00000E+00        -0.50840E+08
 
   -0.50956E+08         0.13580E+07         0.00000E+00
    0.13580E+07        -0.50046E+08         0.00000E+00
    0.00000E+00         0.00000E+00        -0.50839E+08
 
   -0.50947E+08         0.13907E+07         0.00000E+00
    0.13907E+07        -0.50049E+08         0.00000E+00
    0.00000E+00         0.00000E+00        -0.50838E+08
 
   -0.50938E+08         0.14231E+07         0.00000E+00
    0.14231E+07        -0.50052E+08         0.00000E+00
    0.00000E+00         0.00000E+00        -0.50836E+08
 
   -0.50929E+08         0.14552E+07         0.00000E+00
    0.14552E+07        -0.50055E+08         0.00000E+00
    0.00000E+00         0.00000E+00        -0.50835E+08
 
   -0.50920E+08         0.14870E+07         0.00000E+00
    0.14870E+07        -0.50058E+08         0.00000E+00
    0.00000E+00         0.00000E+00        -0.50834E+08
 
   -0.50911E+08         0.15184E+07         0.00000E+00
    0.15184E+07        -0.50061E+08         0.00000E+00
    0.00000E+00         0.00000E+00        -0.50833E+08
 
   -0.50902E+08         0.15496E+07         0.00000E+00
    0.15496E+07        -0.50064E+08         0.00000E+00
    0.00000E+00         0.00000E+00        -0.50832E+08
 
   -0.50893E+08         0.15804E+07         0.00000E+00
    0.15804E+07        -0.50068E+08         0.00000E+00
    0.00000E+00         0.00000E+00        -0.50831E+08
 
   -0.50884E+08         0.16108E+07         0.00000E+00
    0.16108E+07        -0.50071E+08         0.00000E+00
    0.00000E+00         0.00000E+00        -0.50829E+08
 
   -0.50875E+08         0.16409E+07         0.00000E+00
    0.16409E+07        -0.50075E+08         0.00000E+00
    0.00000E+00         0.00000E+00        -0.50828E+08
 
   -0.50865E+08         0.16707E+07         0.00000E+00
    0.16707E+07        -0.50078E+08         0.00000E+00
    0.00000E+00         0.00000E+00        -0.50827E+08
 
   -0.50856E+08         0.17002E+07         0.00000E+00
    0.17002E+07        -0.50082E+08         0.00000E+00
    0.00000E+00         0.00000E+00        -0.50826E+08
 
   -0.50846E+08         0.17293E+07         0.00000E+00
    0.17293E+07        -0.50086E+08         0.00000E+00
    0.00000E+00         0.00000E+00        -0.50825E+08
 
   -0.50837E+08         0.17580E+07         0.00000E+00
    0.17580E+07        -0.50090E+08         0.00000E+00
    0.00000E+00         0.00000E+00        -0.50824E+08
 
   -0.50827E+08         0.17864E+07         0.00000E+00
    0.17864E+07        -0.50094E+08         0.00000E+00
    0.00000E+00         0.00000E+00        -0.50823E+08
 
   -0.51040E+08         0.21693E+05         0.00000E+00
    0.21693E+05        -0.50000E+08         0.00000E+00
    0.00000E+00         0.00000E+00        -0.50739E+08
 
   -0.51033E+08         0.64444E+05         0.00000E+00
    0.64444E+05        -0.50000E+08         0.00000E+00
    0.00000E+00         0.00000E+00        -0.50737E+08
 
   -0.51026E+08         0.10692E+06         0.00000E+00
    0.10692E+06        -0.50000E+08         0.00000E+00
    0.00000E+00         0.00000E+00        -0.50736E+08
 
   -0.51019E+08         0.14913E+06         0.00000E+00
    0.14913E+06        -0.50000E+08         0.00000E+00
    0.00000E+00         0.00000E+00        -0.50735E+08
 
   -0.51012E+08         0.19105E+06         0.00000E+00
    0.19105E+06        -0.50001E+08         0.00000E+00
    0.00000E+00         0.00000E+00        -0.50733E+08
 
   -0.51005E+08         0.23270E+06         0.00000E+00
    0.23270E+06        -0.50001E+08         0.00000E+00
    0.00000E+00         0.00000E+00        -0.50732E+08
 
   -0.50998E+08         0.27407E+06         0.00000E+00
    0.27407E+06        -0.50001E+08         0.00000E+00
    0.00000E+00         0.00000E+00        -0.50731E+08
 
   -0.50991E+08         0.31516E+06         0.00000E+00
    0.31516E+06        -0.50002E+08         0.00000E+00
    0.00000E+00         0.00000E+00        -0.50729E+08
 
   -0.50984E+08         0.35597E+06         0.00000E+00
    0.35597E+06        -0.50002E+08         0.00000E+00
    0.00000E+00         0.00000E+00        -0.50728E+08
 
   -0.50977E+08         0.39649E+06         0.00000E+00
    0.39649E+06        -0.50003E+08         0.00000E+00
    0.00000E+00         0.00000E+00        -0.50727E+08
 
   -0.50970E+08         0.43673E+06         0.00000E+00
    0.43673E+06        -0.50003E+08         0.00000E+00
    0.00000E+00         0.00000E+00        -0.50725E+08
 
   -0.50963E+08         0.47668E+06         0.00000E+00
    0.47668E+06        -0.50004E+08         0.00000E+00
    0.00000E+00         0.00000E+00        -0.50724E+08
 
   -0.50956E+08         0.51634E+06         0.00000E+00
    0.51634E+06        -0.50005E+08         0.00000E+00
    0.00000E+00         0.00000E+00        -0.50723E+08
 
   -0.50949E+08         0.55571E+06         0.00000E+00
    0.55571E+06        -0.50005E+08         0.00000E+00
    0.00000E+00         0.00000E+00        -0.50721E+08
 
   -0.50942E+08         0.59479E+06         0.00000E+00
    0.59479E+06        -0.50006E+08         0.00000E+00
    0.00000E+00         0.00000E+00        -0.50720E+08
 
   -0.50935E+08         0.63357E+06         0.00000E+00
    0.63357E+06        -0.50007E+08         0.00000E+00
    0.00000E+00         0.00000E+00        -0.50719E+08
 
   -0.50928E+08         0.67207E+06         0.00000E+00
    0.67207E+06        -0.50008E+08         0.00000E+00
    0.00000E+00         0.00000E+00        -0.50718E+08
 
   -0.50921E+08         0.71026E+06         0.00000E+00
    0.71026E+06        -0.50009E+08         0.00000E+00
    0.00000E+00         0.00000E+00        -0.50717E+08
 
   -0.50913E+08         0.74816E+06         0.00000E+00
    0.74816E+06        -0.50010E+08         0.00000E+00
    0.00000E+00         0.00000E+00        -0.50715E+08
 
   -0.50906E+08         0.78576E+06         0.00000E+00
    0.78576E+06        -0.50011E+08         0.00000E+00
    0.00000E+00         0.00000E+00        -0.50714E+08
 
   -0.50899E+08         0.82307E+06         0.00000E+00
    0.82307E+06        -0.50012E+08         0.00000E+00
    0.00000E+00         0.00000E+00        -0.50713E+08
 
   -0.50892E+08         0.86007E+06         0.00000E+00
    0.86007E+06        -0.50013E+08         0.00000E+00
    0.00000E+00         0.00000E+00        -0.50712E+08
 
   -0.50885E+08         0.89677E+06         0.00000E+00
    0.89677E+06        -0.50015E+08         0.00000E+00
    0.00000E+00         0.00000E+00        -0.50711E+08
 
   -0.50878E+08         0.93316E+06         0.00000E+00
    0.93316E+06        -0.50016E+08         0.00000E+00
    0.00000E+00         0.00000E+00        -0.50710E+08
 
   -0.50871E+08         0.96925E+06         0.00000E+00
    0.96925E+06        -0.50017E+08         0.00000E+00
    0.00000E+00         0.00000E+00        -0.50708E+08
 
   -0.50864E+08         0.10050E+07         0.00000E+00
    0.10050E+07        -0.50019E+08         0.00000E+00
    0.00000E+00         0.00000E+00        -0.50707E+08
 
   -0.50857E+08         0.10405E+07         0.00000E+00
    0.10405E+07        -0.50020E+08         0.00000E+00
    0.00000E+00         0.00000E+00        -0.50706E+08
 
   -0.50850E+08         0.10757E+07         0.00000E+00
    0.10757E+07        -0.50022E+08         0.00000E+00
    0.00000E+00         0.00000E+00        -0.50705E+08
 
   -0.50843E+08         0.11105E+07         0.00000E+00
    0.11105E+07        -0.50024E+08         0.00000E+00
    0.00000E+00         0.00000E+00        -0.50704E+08
 
   -0.50836E+08         0.11451E+07         0.00000E+00
    0.11451E+07        -0.50025E+08         0.00000E+00
    0.00000E+00         0.00000E+00        -0.50703E+08
 
   -0.50829E+08         0.11793E+07         0.00000E+00
    0.11793E+07        -0.50027E+08         0.00000E+00
    0.00000E+00         0.00000E+00        -0.50702E+08
 
   -0.50821E+08         0.12132E+07         0.00000E+00
    0.12132E+07        -0.50029E+08         0.00000E+00
    0.00000E+00         0.00000E+00        -0.50701E+08
 
   -0.50814E+08         0.12468E+07         0.00000E+00
    0.12468E+07        -0.50031E+08         0.00000E+00
    0.00000E+00         0.00000E+00        -0.50700E+08
 
   -0.50807E+08         0.12801E+07         0.00000E+00
    0.12801E+07        -0.50033E+08         0.00000E+00
    0.00000E+00         0.00000E+00        -0.50699E+08
 
   -0.50800E+08         0.13130E+07         0.00000E+00
    0.13130E+07        -0.50035E+08         0.00000E+00
    0.00000E+00         0.00000E+00        -0.50698E+08
 
   -0.50793E+08         0.13456E+07         0.00000E+00
    0.13456E+07        -0.50037E+08         0.00000E+00
    0.00000E+00         0.00000E+00        -0.50697E+08
 
   -0.50785E+08         0.13779E+07         0.00000E+00
    0.13779E+07        -0.50039E+08         0.00000E+00
    0.00000E+00         0.00000E+00        -0.50696E+08
 
   -0.50778E+08         0.14099E+07         0.00000E+00
    0.14099E+07        -0.50042E+08         0.00000E+00
    0.00000E+00         0.00000E+00        -0.50695E+08
 
   -0.50771E+08         0.14415E+07         0.00000E+00
    0.14415E+07        -0.50044E+08         0.00000E+00
    0.00000E+00         0.00000E+00        -0.50694E+08
 
   -0.50763E+08         0.14729E+07         0.00000E+00
    0.14729E+07        -0.50047E+08         0.00000E+00
    0.00000E+00         0.00000E+00        -0.50693E+08
 
   -0.50756E+08         0.15038E+07         0.00000E+00
    0.15038E+07        -0.50049E+08         0.00000E+00
    0.00000E+00         0.00000E+00        -0.50692E+08
 
   -0.50749E+08         0.15345E+07         0.00000E+00
    0.15345E+07        -0.50052E+08         0.00000E+00
    0.00000E+00         0.00000E+00        -0.50691E+08
 
   -0.50741E+08         0.15648E+07         0.00000E+00
    0.15648E+07        -0.50055E+08         0.00000E+00
    0.00000E+00         0.00000E+00        -0.50690E+08
 
   -0.50734E+08         0.15947E+07         0.00000E+00
    0.15947E+07        -0.50057E+08         0.00000E+00
    0.00000E+00         0.00000E+00        -0.50689E+08
 
   -0.50726E+08         0.16243E+07         0.00000E+00
    0.16243E+07        -0.50060E+08         0.00000E+00
    0.00000E+00         0.00000E+00        -0.50688E+08
 
   -0.50718E+08         0.16536E+07         0.00000E+00
    0.16536E+07        -0.50063E+08         0.00000E+00
    0.00000E+00         0.00000E+00        -0.50687E+08
 
   -0.50711E+08         0.16825E+07         0.00000E+00
    0.16825E+07        -0.50066E+08         0.00000E+00
    0.00000E+00         0.00000E+00        -0.50687E+08
 
   -0.50703E+08         0.17111E+07         0.00000E+00
    0.17111E+07        -0.50070E+08         0.00000E+00
    0.00000E+00         0.00000E+00        -0.50686E+08
 
   -0.50695E+08         0.17393E+07         0.00000E+00
    0.17393E+07        -0.50073E+08         0.00000E+00
    0.00000E+00         0.00000E+00        -0.50685E+08
 
   -0.50687E+08         0.17671E+07         0.00000E+00
    0.17671E+07        -0.50076E+08         0.00000E+00
    0.00000E+00         0.00000E+00        -0.50684E+08
 
   -0.50826E+08         0.21558E+05         0.00000E+00
    0.21558E+05        -0.50000E+08         0.00000E+00
    0.00000E+00         0.00000E+00        -0.50591E+08
 
   -0.50821E+08         0.64049E+05         0.00000E+00
    0.64049E+05        -0.50000E+08         0.00000E+00
    0.00000E+00         0.00000E+00        -0.50590E+08
 
   -0.50815E+08         0.10627E+06         0.00000E+00
    0.10627E+06        -0.50000E+08         0.00000E+00
    0.00000E+00         0.00000E+00        -0.50588E+08
 
   -0.50809E+08         0.14822E+06         0.00000E+00
    0.14822E+06        -0.50000E+08         0.00000E+00
    0.00000E+00         0.00000E+00        -0.50587E+08
 
   -0.50804E+08         0.18990E+06         0.00000E+00
    0.18990E+06        -0.50000E+08         0.00000E+00
    0.00000E+00         0.00000E+00        -0.50586E+08
 
   -0.50798E+08         0.23130E+06         0.00000E+00
    0.23130E+06        -0.50001E+08         0.00000E+00
    0.00000E+00         0.00000E+00        -0.50585E+08
 
   -0.50792E+08         0.27242E+06         0.00000E+00
    0.27242E+06        -0.50001E+08         0.00000E+00
    0.00000E+00         0.00000E+00        -0.50584E+08
 
   -0.50787E+08         0.31327E+06         0.00000E+00
    0.31327E+06        -0.50001E+08         0.00000E+00
    0.00000E+00         0.00000E+00        -0.50583E+08
 
   -0.50781E+08         0.35383E+06         0.00000E+00
    0.35383E+06        -0.50002E+08         0.00000E+00
    0.00000E+00         0.00000E+00        -0.50582E+08
 
   -0.50776E+08         0.39411E+06         0.00000E+00
    0.39411E+06        -0.50002E+08         0.00000E+00
    0.00000E+00         0.00000E+00        -0.50581E+08
 
   -0.50770E+08         0.43410E+06         0.00000E+00
    0.43410E+06        -0.50002E+08         0.00000E+00
    0.00000E+00         0.00000E+00        -0.50580E+08
 
   -0.50764E+08         0.47381E+06         0.00000E+00
    0.47381E+06        -0.50003E+08         0.00000E+00
    0.00000E+00         0.00000E+00        -0.50579E+08
 
   -0.50759E+08         0.51322E+06         0.00000E+00
    0.51322E+06        -0.50003E+08         0.00000E+00
    0.00000E+00         0.00000E+00        -0.50578E+08
 
   -0.50753E+08         0.55235E+06         0.00000E+00
    0.55235E+06        -0.50004E+08         0.00000E+00
    0.00000E+00         0.00000E+00        -0.50577E+08
 
   -0.50748E+08         0.59118E+06         0.00000E+00
    0.59118E+06        -0.50005E+08         0.00000E+00
    0.00000E+00         0.00000E+00        -0.50576E+08
 
   -0.50742E+08         0.62972E+06         0.00000E+00
    0.62972E+06        -0.50005E+08         0.00000E+00
    0.00000E+00         0.00000E+00        -0.50575E+08
 
   -0.50736E+08         0.66796E+06         0.00000E+00
    0.66796E+06        -0.50006E+08         0.00000E+00
    0.00000E+00         0.00000E+00        -0.50574E+08
 
   -0.50731E+08         0.70590E+06         0.00000E+00
    0.70590E+06        -0.50007E+08         0.00000E+00
    0.00000E+00         0.00000E+00        -0.50573E+08
 
   -0.50725E+08         0.74355E+06         0.00000E+00
    0.74355E+06        -0.50007E+08         0.00000E+00
    0.00000E+00         0.00000E+00        -0.50572E+08
 
   -0.50720E+08         0.78089E+06         0.00000E+00
    0.78089E+06        -0.50008E+08         0.00000E+00
    0.00000E+00         0.00000E+00        -0.50571E+08
 
   -0.50714E+08         0.81793E+06         0.00000E+00
    0.81793E+06        -0.50009E+08         0.00000E+00
    0.00000E+00         0.00000E+00        -0.50570E+08
 
   -0.50709E+08         0.85467E+06         0.00000E+00
    0.85467E+06        -0.50010E+08         0.00000E+00
    0.00000E+00         0.00000E+00        -0.50569E+08
 
   -0.50703E+08         0.89109E+06         0.00000E+00
    0.89109E+06        -0.50011E+08         0.00000E+00
    0.00000E+00         0.00000E+00        -0.50568E+08
 
   -0.50698E+08         0.92721E+06         0.00000E+00
    0.92721E+06        -0.50012E+08         0.00000E+00
    0.00000E+00         0.00000E+00        -0.50567E+08
 
   -0.50692E+08         0.96303E+06         0.00000E+00
    0.96303E+06        -0.50013E+08         0.00000E+00
    0.00000E+00         0.00000E+00        -0.50567E+08
 
   -0.50687E+08         0.99852E+06         0.00000E+00
    0.99852E+06        -0.50014E+08         0.00000E+00
    0.00000E+00         0.00000E+00        -0.50566E+08
 
   -0.50681E+08         0.10337E+07         0.00000E+00
    0.10337E+07        -0.50015E+08         0.00000E+00
    0.00000E+00         0.00000E+00        -0.50565E+08
 
   -0.50676E+08         0.10686E+07         0.00000E+00
    0.10686E+07        -0.50016E+08         0.00000E+00
    0.00000E+00         0.00000E+00        -0.50564E+08
 
   -0.50670E+08         0.11031E+07         0.00000E+00
    0.11031E+07        -0.50017E+08         0.00000E+00
    0.00000E+00         0.00000E+00        -0.50563E+08
 
   -0.50665E+08         0.11374E+07         0.00000E+00
    0.11374E+07        -0.50019E+08         0.00000E+00
    0.00000E+00         0.00000E+00        -0.50562E+08
 
   -0.50659E+08         0.11713E+07         0.00000E+00
    0.11713E+07        -0.50020E+08         0.00000E+00
    0.00000E+00         0.00000E+00        -0.50562E+08
 
   -0.50654E+08         0.12049E+07         0.00000E+00
    0.12049E+07        -0.50022E+08         0.00000E+00
    0.00000E+00         0.00000E+00        -0.50561E+08
 
   -0.50648E+08         0.12381E+07         0.00000E+00
    0.12381E+07        -0.50023E+08         0.00000E+00
    0.00000E+00         0.00000E+00        -0.50560E+08
 
   -0.50642E+08         0.12711E+07         0.00000E+00
    0.12711E+07        -0.50024E+08         0.00000E+00
    0.00000E+00         0.00000E+00        -0.50559E+08
 
   -0.50637E+08         0.13037E+07         0.00000E+00
    0.13037E+07        -0.50026E+08         0.00000E+00
    0.00000E+00         0.00000E+00        -0.50558E+08
 
   -0.50631E+08         0.13360E+07         0.00000E+00
    0.13360E+07        -0.50028E+08         0.00000E+00
    0.00000E+00         0.00000E+00        -0.50558E+08
 
   -0.50626E+08         0.13679E+07         0.00000E+00
    0.13679E+07        -0.50029E+08         0.00000E+00
    0.00000E+00         0.00000E+00        -0.50557E+08
 
   -0.50620E+08         0.13995E+07         0.00000E+00
    0.13995E+07        -0.50031E+08         0.00000E+00
    0.00000E+00         0.00000E+00        -0.50556E+08
 
   -0.50614E+08         0.14308E+07         0.00000E+00
    0.14308E+07        -0.50033E+08         0.00000E+00
    0.00000E+00         0.00000E+00        -0.50555E+08
 
   -0.50609E+08         0.14617E+07         0.00000E+00
    0.14617E+07        -0.50035E+08         0.00000E+00
    0.00000E+00         0.00000E+00        -0.50555E+08
 
   -0.50603E+08         0.14923E+07         0.00000E+00
    0.14923E+07        -0.50037E+08         0.00000E+00
    0.00000E+00         0.00000E+00        -0.50554E+08
 
   -0.50597E+08         0.15226E+07         0.00000E+00
    0.15226E+07        -0.50039E+08         0.00000E+00
    0.00000E+00         0.00000E+00        -0.50553E+08
 
   -0.50592E+08         0.15525E+07         0.00000E+00
    0.15525E+07        -0.50041E+08         0.00000E+00
    0.00000E+00         0.00000E+00        -0.50552E+08
 
   -0.50586E+08         0.15820E+07         0.00000E+00
    0.15820E+07        -0.50043E+08         0.00000E+00
    0.00000E+00         0.00000E+00        -0.50552E+08
 
   -0.50580E+08         0.16112E+07         0.00000E+00
    0.16112E+07        -0.50045E+08         0.00000E+00
    0.00000E+00         0.00000E+00        -0.50551E+08
 
   -0.50574E+08         0.16400E+07         0.00000E+00
    0.16400E+07        -0.50048E+08         0.00000E+00
    0.00000E+00         0.00000E+00        -0.50550E+08
 
   -0.50568E+08         0.16685E+07         0.00000E+00
    0.16685E+07        -0.50050E+08         0.00000E+00
    0.00000E+00         0.00000E+00        -0.50550E+08
 
   -0.50562E+08         0.16967E+07         0.00000E+00
    0.16967E+07        -0.50052E+08         0.00000E+00
    0.00000E+00         0.00000E+00        -0.50549E+08
 
   -0.50556E+08         0.17244E+07         0.00000E+00
    0.17244E+07        -0.50055E+08         0.00000E+00
    0.00000E+00         0.00000E+00        -0.50548E+08
 
   -0.50550E+08         0.17518E+07         0.00000E+00
    0.17518E+07        -0.50058E+08         0.00000E+00
    0.00000E+00         0.00000E+00        -0.50548E+08
 
   -0.50614E+08         0.21463E+05         0.00000E+00
    0.21463E+05        -0.50000E+08         0.00000E+00
    0.00000E+00         0.00000E+00        -0.50445E+08
 
   -0.50609E+08         0.63773E+05         0.00000E+00
    0.63773E+05        -0.50000E+08         0.00000E+00
    0.00000E+00         0.00000E+00        -0.50444E+08
 
   -0.50605E+08         0.10582E+06         0.00000E+00
    0.10582E+06        -0.50000E+08         0.00000E+00
    0.00000E+00         0.00000E+00        -0.50443E+08
 
   -0.50601E+08         0.14759E+06         0.00000E+00
    0.14759E+06        -0.50000E+08         0.00000E+00
    0.00000E+00         0.00000E+00        -0.50442E+08
 
   -0.50596E+08         0.18909E+06         0.00000E+00
    0.18909E+06        -0.50000E+08         0.00000E+00
    0.00000E+00         0.00000E+00        -0.50441E+08
 
   -0.50592E+08         0.23032E+06         0.00000E+00
    0.23032E+06        -0.50000E+08         0.00000E+00
    0.00000E+00         0.00000E+00        -0.50440E+08
 
   -0.50588E+08         0.27128E+06         0.00000E+00
    0.27128E+06        -0.50001E+08         0.00000E+00
    0.00000E+00         0.00000E+00        -0.50440E+08
 
   -0.50584E+08         0.31195E+06         0.00000E+00
    0.31195E+06        -0.50001E+08         0.00000E+00
    0.00000E+00         0.00000E+00        -0.50439E+08
 
   -0.50579E+08         0.35234E+06         0.00000E+00
    0.35234E+06        -0.50001E+08         0.00000E+00
    0.00000E+00         0.00000E+00        -0.50438E+08
 
   -0.50575E+08         0.39245E+06         0.00000E+00
    0.39245E+06        -0.50001E+08         0.00000E+00
    0.00000E+00         0.00000E+00        -0.50437E+08
 
   -0.50571E+08         0.43228E+06         0.00000E+00
    0.43228E+06        -0.50002E+08         0.00000E+00
    0.00000E+00         0.00000E+00        -0.50436E+08
 
   -0.50567E+08         0.47181E+06         0.00000E+00
    0.47181E+06        -0.50002E+08         0.00000E+00
    0.00000E+00         0.00000E+00        -0.50436E+08
 
   -0.50563E+08         0.51106E+06         0.00000E+00
    0.51106E+06        -0.50002E+08         0.00000E+00
    0.00000E+00         0.00000E+00        -0.50435E+08
 
   -0.50559E+08         0.55002E+06         0.00000E+00
    0.55002E+06        -0.50002E+08         0.00000E+00
    0.00000E+00         0.00000E+00        -0.50434E+08
 
   -0.50555E+08         0.58868E+06         0.00000E+00
    0.58868E+06        -0.50003E+08         0.00000E+00
    0.00000E+00         0.00000E+00        -0.50433E+08
 
   -0.50551E+08         0.62704E+06         0.00000E+00
    0.62704E+06        -0.50003E+08         0.00000E+00
    0.00000E+00         0.00000E+00        -0.50433E+08
 
   -0.50546E+08         0.66511E+06         0.00000E+00
    0.66511E+06        -0.50004E+08         0.00000E+00
    0.00000E+00         0.00000E+00        -0.50432E+08
 
   -0.50542E+08         0.70287E+06         0.00000E+00
    0.70287E+06        -0.50004E+08         0.00000E+00
    0.00000E+00         0.00000E+00        -0.50431E+08
 
   -0.50538E+08         0.74034E+06         0.00000E+00
    0.74034E+06        -0.50005E+08         0.00000E+00
    0.00000E+00         0.00000E+00        -0.50431E+08
 
   -0.50534E+08         0.77750E+06         0.00000E+00
    0.77750E+06        -0.50005E+08         0.00000E+00
    0.00000E+00         0.00000E+00        -0.50430E+08
 
   -0.50530E+08         0.81435E+06         0.00000E+00
    0.81435E+06        -0.50006E+08         0.00000E+00
    0.00000E+00         0.00000E+00        -0.50429E+08
 
   -0.50526E+08         0.85089E+06         0.00000E+00
    0.85089E+06        -0.50006E+08         0.00000E+00
    0.00000E+00         0.00000E+00        -0.50429E+08
 
   -0.50522E+08         0.88713E+06         0.00000E+00
    0.88713E+06        -0.50007E+08         0.00000E+00
    0.00000E+00         0.00000E+00        -0.50428E+08
 
   -0.50518E+08         0.92305E+06         0.00000E+00
    0.92305E+06        -0.50007E+08         0.00000E+00
    0.00000E+00         0.00000E+00        -0.50427E+08
 
   -0.50514E+08         0.95866E+06         0.00000E+00
    0.95866E+06        -0.50008E+08         0.00000E+00
    0.00000E+00         0.00000E+00        -0.50427E+08
 
   -0.50511E+08         0.99395E+06         0.00000E+00
    0.99395E+06        -0.50009E+08         0.00000E+00
    0.00000E+00         0.00000E+00        -0.50426E+08
 
   -0.50507E+08         0.10289E+07         0.00000E+00
    0.10289E+07        -0.50010E+08         0.00000E+00
    0.00000E+00         0.00000E+00        -0.50425E+08
 
   -0.50503E+08         0.10636E+07         0.00000E+00
    0.10636E+07        -0.50010E+08         0.00000E+00
    0.00000E+00         0.00000E+00        -0.50425E+08
 
   -0.50499E+08         0.10979E+07         0.00000E+00
    0.10979E+07        -0.50011E+08         0.00000E+00
    0.00000E+00         0.00000E+00        -0.50424E+08
 
   -0.50495E+08         0.11319E+07         0.00000E+00
    0.11319E+07        -0.50012E+08         0.00000E+00
    0.00000E+00         0.00000E+00        -0.50424E+08
 
   -0.50491E+08         0.11656E+07         0.00000E+00
    0.11656E+07        -0.50013E+08         0.00000E+00
    0.00000E+00         0.00000E+00        -0.50423E+08
 
   -0.50487E+08         0.11990E+07         0.00000E+00
    0.11990E+07        -0.50014E+08         0.00000E+00
    0.00000E+00         0.00000E+00        -0.50422E+08
 
   -0.50483E+08         0.12320E+07         0.00000E+00
    0.12320E+07        -0.50015E+08         0.00000E+00
    0.00000E+00         0.00000E+00        -0.50422E+08
 
   -0.50479E+08         0.12647E+07         0.00000E+00
    0.12647E+07        -0.50016E+08         0.00000E+00
    0.00000E+00         0.00000E+00        -0.50421E+08
 
   -0.50475E+08         0.12970E+07         0.00000E+00
    0.12970E+07        -0.50017E+08         0.00000E+00
    0.00000E+00         0.00000E+00        -0.50421E+08
 
   -0.50471E+08         0.13290E+07         0.00000E+00
    0.13290E+07        -0.50018E+08         0.00000E+00
    0.00000E+00         0.00000E+00        -0.50420E+08
 
   -0.50467E+08         0.13607E+07         0.00000E+00
    0.13607E+07        -0.50019E+08         0.00000E+00
    0.00000E+00         0.00000E+00        -0.50420E+08
 
   -0.50464E+08         0.13921E+07         0.00000E+00
    0.13921E+07        -0.50020E+08         0.00000E+00
    0.00000E+00         0.00000E+00        -0.50419E+08
 
   -0.50460E+08         0.14231E+07         0.00000E+00
    0.14231E+07        -0.50021E+08         0.00000E+00
    0.00000E+00         0.00000E+00        -0.50419E+08
 
   -0.50456E+08         0.14537E+07         0.00000E+00
    0.14537E+07        -0.50023E+08         0.00000E+00
    0.00000E+00         0.00000E+00        -0.50418E+08
 
   -0.50452E+08         0.14840E+07         0.00000E+00
    0.14840E+07        -0.50024E+08         0.00000E+00
    0.00000E+00         0.00000E+00        -0.50418E+08
 
   -0.50448E+08         0.15139E+07         0.00000E+00
    0.15139E+07        -0.50025E+08         0.00000E+00
    0.00000E+00         0.00000E+00        -0.50417E+08
 
   -0.50444E+08         0.15435E+07         0.00000E+00
    0.15435E+07        -0.50027E+08         0.00000E+00
    0.00000E+00         0.00000E+00        -0.50417E+08
 
   -0.50440E+08         0.15728E+07         0.00000E+00
    0.15728E+07        -0.50028E+08         0.00000E+00
    0.00000E+00         0.00000E+00        -0.50416E+08
 
   -0.50436E+08         0.16016E+07         0.00000E+00
    0.16016E+07        -0.50030E+08         0.00000E+00
    0.00000E+00         0.00000E+00        -0.50416E+08
 
   -0.50432E+08         0.16302E+07         0.00000E+00
    0.16302E+07        -0.50031E+08         0.00000E+00
    0.00000E+00         0.00000E+00        -0.50415E+08
 
   -0.50428E+08         0.16583E+07         0.00000E+00
    0.16583E+07        -0.50033E+08         0.00000E+00
    0.00000E+00         0.00000E+00        -0.50415E+08
 
   -0.50423E+08         0.16861E+07         0.00000E+00
    0.16861E+07        -0.50035E+08         0.00000E+00
    0.00000E+00         0.00000E+00        -0.50414E+08
 
   -0.50419E+08         0.17135E+07         0.00000E+00
    0.17135E+07        -0.50036E+08         0.00000E+00
    0.00000E+00         0.00000E+00        -0.50414E+08
 
   -0.50415E+08         0.17405E+07         0.00000E+00
    0.17405E+07        -0.50038E+08         0.00000E+00
    0.00000E+00         0.00000E+00        -0.50413E+08
 
   -0.50402E+08         0.21411E+05         0.00000E+00
    0.21411E+05        -0.50000E+08         0.00000E+00
    0.00000E+00         0.00000E+00        -0.50300E+08
 
   -0.50399E+08         0.63622E+05         0.00000E+00
    0.63622E+05        -0.50000E+08         0.00000E+00
    0.00000E+00         0.00000E+00        -0.50299E+08
 
   -0.50396E+08         0.10557E+06         0.00000E+00
    0.10557E+06        -0.50000E+08         0.00000E+00
    0.00000E+00         0.00000E+00        -0.50299E+08
 
   -0.50393E+08         0.14725E+06         0.00000E+00
    0.14725E+06        -0.50000E+08         0.00000E+00
    0.00000E+00         0.00000E+00        -0.50298E+08
 
   -0.50390E+08         0.18866E+06         0.00000E+00
    0.18866E+06        -0.50000E+08         0.00000E+00
    0.00000E+00         0.00000E+00        -0.50298E+08
 
   -0.50387E+08         0.22980E+06         0.00000E+00
    0.22980E+06        -0.50000E+08         0.00000E+00
    0.00000E+00         0.00000E+00        -0.50297E+08
 
   -0.50384E+08         0.27066E+06         0.00000E+00
    0.27066E+06        -0.50000E+08         0.00000E+00
    0.00000E+00         0.00000E+00        -0.50297E+08
 
   -0.50381E+08         0.31124E+06         0.00000E+00
    0.31124E+06        -0.50000E+08         0.00000E+00
    0.00000E+00         0.00000E+00        -0.50296E+08
 
   -0.50378E+08         0.35155E+06         0.00000E+00
    0.35155E+06        -0.50000E+08         0.00000E+00
    0.00000E+00         0.00000E+00        -0.50295E+08
 
   -0.50376E+08         0.39157E+06         0.00000E+00
    0.39157E+06        -0.50001E+08         0.00000E+00
    0.00000E+00         0.00000E+00        -0.50295E+08
 
   -0.50373E+08         0.43130E+06         0.00000E+00
    0.43130E+06        -0.50001E+08         0.00000E+00
    0.00000E+00         0.00000E+00        -0.50294E+08
 
   -0.50370E+08         0.47075E+06         0.00000E+00
    0.47075E+06        -0.50001E+08         0.00000E+00
    0.00000E+00         0.00000E+00        -0.50294E+08
 
   -0.50368E+08         0.50990E+06         0.00000E+00
    0.50990E+06        -0.50001E+08         0.00000E+00
    0.00000E+00         0.00000E+00        -0.50293E+08
 
   -0.50365E+08         0.54876E+06         0.00000E+00
    0.54876E+06        -0.50001E+08         0.00000E+00
    0.00000E+00         0.00000E+00        -0.50293E+08
 
   -0.50362E+08         0.58733E+06         0.00000E+00
    0.58733E+06        -0.50001E+08         0.00000E+00
    0.00000E+00         0.00000E+00        -0.50292E+08
 
   -0.50360E+08         0.62559E+06         0.00000E+00
    0.62559E+06        -0.50001E+08         0.00000E+00
    0.00000E+00         0.00000E+00        -0.50292E+08
 
   -0.50357E+08         0.66356E+06         0.00000E+00
    0.66356E+06        -0.50001E+08         0.00000E+00
    0.00000E+00         0.00000E+00        -0.50292E+08
 
   -0.50355E+08         0.70123E+06         0.00000E+00
    0.70123E+06        -0.50002E+08         0.00000E+00
    0.00000E+00         0.00000E+00        -0.50291E+08
 
   -0.50352E+08         0.73859E+06         0.00000E+00
    0.73859E+06        -0.50002E+08         0.00000E+00
    0.00000E+00         0.00000E+00        -0.50291E+08
 
   -0.50350E+08         0.77564E+06         0.00000E+00
    0.77564E+06        -0.50002E+08         0.00000E+00
    0.00000E+00         0.00000E+00        -0.50290E+08
 
   -0.50347E+08         0.81239E+06         0.00000E+00
    0.81239E+06        -0.50002E+08         0.00000E+00
    0.00000E+00         0.00000E+00        -0.50290E+08
 
   -0.50345E+08         0.84882E+06         0.00000E+00
    0.84882E+06        -0.50002E+08         0.00000E+00
    0.00000E+00         0.00000E+00        -0.50289E+08
 
   -0.50342E+08         0.88494E+06         0.00000E+00
    0.88494E+06        -0.50003E+08         0.00000E+00
    0.00000E+00         0.00000E+00        -0.50289E+08
 
   -0.50340E+08         0.92075E+06         0.00000E+00
    0.92075E+06        -0.50003E+08         0.00000E+00
    0.00000E+00         0.00000E+00        -0.50289E+08
 
   -0.50338E+08         0.95623E+06         0.00000E+00
    0.95623E+06        -0.50003E+08         0.00000E+00
    0.00000E+00         0.00000E+00        -0.50288E+08
 
   -0.50335E+08         0.99140E+06         0.00000E+00
    0.99140E+06        -0.50004E+08         0.00000E+00
    0.00000E+00         0.00000E+00        -0.50288E+08
 
   -0.50333E+08         0.10262E+07         0.00000E+00
    0.10262E+07        -0.50004E+08         0.00000E+00
    0.00000E+00         0.00000E+00        -0.50287E+08
 
   -0.50331E+08         0.10608E+07         0.00000E+00
    0.10608E+07        -0.50004E+08         0.00000E+00
    0.00000E+00         0.00000E+00        -0.50287E+08
 
   -0.50328E+08         0.10950E+07         0.00000E+00
    0.10950E+07        -0.50005E+08         0.00000E+00
    0.00000E+00         0.00000E+00        -0.50287E+08
 
   -0.50326E+08         0.11288E+07         0.00000E+00
    0.11288E+07        -0.50005E+08         0.00000E+00
    0.00000E+00         0.00000E+00        -0.50286E+08
 
   -0.50324E+08         0.11624E+07         0.00000E+00
    0.11624E+07        -0.50005E+08         0.00000E+00
    0.00000E+00         0.00000E+00        -0.50286E+08
 
   -0.50321E+08         0.11956E+07         0.00000E+00
    0.11956E+07        -0.50006E+08         0.00000E+00
    0.00000E+00         0.00000E+00        -0.50286E+08
 
   -0.50319E+08         0.12284E+07         0.00000E+00
    0.12284E+07        -0.50006E+08         0.00000E+00
    0.00000E+00         0.00000E+00        -0.50285E+08
 
   -0.50317E+08         0.12609E+07         0.00000E+00
    0.12609E+07        -0.50007E+08         0.00000E+00
    0.00000E+00         0.00000E+00        -0.50285E+08
 
   -0.50315E+08         0.12931E+07         0.00000E+00
    0.12931E+07        -0.50007E+08         0.00000E+00
    0.00000E+00         0.00000E+00        -0.50285E+08
 
   -0.50313E+08         0.13250E+07         0.00000E+00
    0.13250E+07        -0.50008E+08         0.00000E+00
    0.00000E+00         0.00000E+00        -0.50284E+08
 
   -0.50310E+08         0.13565E+07         0.00000E+00
    0.13565E+07        -0.50008E+08         0.00000E+00
    0.00000E+00         0.00000E+00        -0.50284E+08
 
   -0.50308E+08         0.13876E+07         0.00000E+00
    0.13876E+07        -0.50009E+08         0.00000E+00
    0.00000E+00         0.00000E+00        -0.50284E+08
 
   -0.50306E+08         0.14184E+07         0.00000E+00
    0.14184E+07        -0.50009E+08         0.00000E+00
    0.00000E+00         0.00000E+00        -0.50283E+08
 
   -0.50304E+08         0.14489E+07         0.00000E+00
    0.14489E+07        -0.50010E+08         0.00000E+00
    0.00000E+00         0.00000E+00        -0.50283E+08
 
   -0.50302E+08         0.14790E+07         0.00000E+00
    0.14790E+07        -0.50011E+08         0.00000E+00
    0.00000E+00         0.00000E+00        -0.50283E+08
 
   -0.50299E+08         0.15087E+07         0.00000E+00
    0.15087E+07        -0.50011E+08         0.00000E+00
    0.00000E+00         0.00000E+00        -0.50283E+08
 
   -0.50297E+08         0.15381E+07         0.00000E+00
    0.15381E+07        -0.50012E+08         0.00000E+00
    0.00000E+00         0.00000E+00        -0.50282E+08
 
   -0.50295E+08         0.15671E+07         0.00000E+00
    0.15671E+07        -0.50013E+08         0.00000E+00
    0.00000E+00         0.00000E+00        -0.50282E+08
 
   -0.50293E+08         0.15957E+07         0.00000E+00
    0.15957E+07        -0.50014E+08         0.00000E+00
    0.00000E+00         0.00000E+00        -0.50282E+08
 
   -0.50291E+08         0.16240E+07         0.00000E+00
    0.16240E+07        -0.50014E+08         0.00000E+00
    0.00000E+00         0.00000E+00        -0.50281E+08
 
   -0.50288E+08         0.16519E+07         0.00000E+00
    0.16519E+07        -0.50015E+08         0.00000E+00
    0.00000E+00         0.00000E+00        -0.50281E+08
 
   -0.50286E+08         0.16795E+07         0.00000E+00
    0.16795E+07        -0.50016E+08         0.00000E+00
    0.00000E+00         0.00000E+00        -0.50281E+08
 
   -0.50284E+08         0.17066E+07         0.00000E+00
    0.17066E+07        -0.50017E+08         0.00000E+00
    0.00000E+00         0.00000E+00        -0.50281E+08
 
   -0.50281E+08         0.17334E+07         0.00000E+00
    0.17334E+07        -0.50018E+08         0.00000E+00
    0.00000E+00         0.00000E+00        -0.50280E+08
 
   -0.50190E+08         0.21403E+05         0.00000E+00
    0.21403E+05        -0.50000E+08         0.00000E+00
    0.00000E+00         0.00000E+00        -0.50156E+08
 
   -0.50188E+08         0.63602E+05         0.00000E+00
    0.63602E+05        -0.50000E+08         0.00000E+00
    0.00000E+00         0.00000E+00        -0.50156E+08
 
   -0.50187E+08         0.10554E+06         0.00000E+00
    0.10554E+06        -0.50000E+08         0.00000E+00
    0.00000E+00         0.00000E+00        -0.50156E+08
 
   -0.50185E+08         0.14721E+06         0.00000E+00
    0.14721E+06        -0.50000E+08         0.00000E+00
    0.00000E+00         0.00000E+00        -0.50155E+08
 
   -0.50184E+08         0.18861E+06         0.00000E+00
    0.18861E+06        -0.50000E+08         0.00000E+00
    0.00000E+00         0.00000E+00        -0.50155E+08
 
   -0.50182E+08         0.22974E+06         0.00000E+00
    0.22974E+06        -0.50000E+08         0.00000E+00
    0.00000E+00         0.00000E+00        -0.50155E+08
 
   -0.50181E+08         0.27059E+06         0.00000E+00
    0.27059E+06        -0.50000E+08         0.00000E+00
    0.00000E+00         0.00000E+00        -0.50154E+08
 
   -0.50179E+08         0.31117E+06         0.00000E+00
    0.31117E+06        -0.50000E+08         0.00000E+00
    0.00000E+00         0.00000E+00        -0.50154E+08
 
   -0.50178E+08         0.35146E+06         0.00000E+00
    0.35146E+06        -0.50000E+08         0.00000E+00
    0.00000E+00         0.00000E+00        -0.50154E+08
 
   -0.50176E+08         0.39147E+06         0.00000E+00
    0.39147E+06        -0.50000E+08         0.00000E+00
    0.00000E+00         0.00000E+00        -0.50154E+08
 
   -0.50175E+08         0.43120E+06         0.00000E+00
    0.43120E+06        -0.50000E+08         0.00000E+00
    0.00000E+00         0.00000E+00        -0.50153E+08
 
   -0.50174E+08         0.47063E+06         0.00000E+00
    0.47063E+06        -0.50000E+08         0.00000E+00
    0.00000E+00         0.00000E+00        -0.50153E+08
 
   -0.50173E+08         0.50977E+06         0.00000E+00
    0.50977E+06        -0.50000E+08         0.00000E+00
    0.00000E+00         0.00000E+00        -0.50153E+08
 
   -0.50171E+08         0.54862E+06         0.00000E+00
    0.54862E+06        -0.49999E+08         0.00000E+00
    0.00000E+00         0.00000E+00        -0.50153E+08
 
   -0.50170E+08         0.58717E+06         0.00000E+00
    0.58717E+06        -0.49999E+08         0.00000E+00
    0.00000E+00         0.00000E+00        -0.50152E+08
 
   -0.50169E+08         0.62543E+06         0.00000E+00
    0.62543E+06        -0.49999E+08         0.00000E+00
    0.00000E+00         0.00000E+00        -0.50152E+08
 
   -0.50168E+08         0.66337E+06         0.00000E+00
    0.66337E+06        -0.49999E+08         0.00000E+00
    0.00000E+00         0.00000E+00        -0.50152E+08
 
   -0.50167E+08         0.70102E+06         0.00000E+00
    0.70102E+06        -0.49999E+08         0.00000E+00
    0.00000E+00         0.00000E+00        -0.50152E+08
 
   -0.50166E+08         0.73836E+06         0.00000E+00
    0.73836E+06        -0.49999E+08         0.00000E+00
    0.00000E+00         0.00000E+00        -0.50152E+08
 
   -0.50165E+08         0.77539E+06         0.00000E+00
    0.77539E+06        -0.49999E+08         0.00000E+00
    0.00000E+00         0.00000E+00        -0.50151E+08
 
   -0.50164E+08         0.81210E+06         0.00000E+00
    0.81210E+06        -0.49999E+08         0.00000E+00
    0.00000E+00         0.00000E+00        -0.50151E+08
 
   -0.50163E+08         0.84850E+06         0.00000E+00
    0.84850E+06        -0.49999E+08         0.00000E+00
    0.00000E+00         0.00000E+00        -0.50151E+08
 
   -0.50163E+08         0.88459E+06         0.00000E+00
    0.88459E+06        -0.49998E+08         0.00000E+00
    0.00000E+00         0.00000E+00        -0.50151E+08
 
   -0.50162E+08         0.92036E+06         0.00000E+00
    0.92036E+06        -0.49998E+08         0.00000E+00
    0.00000E+00         0.00000E+00        -0.50151E+08
 
   -0.50161E+08         0.95580E+06         0.00000E+00
    0.95580E+06        -0.49998E+08         0.00000E+00
    0.00000E+00         0.00000E+00        -0.50151E+08
 
   -0.50160E+08         0.99093E+06         0.00000E+00
    0.99093E+06        -0.49998E+08         0.00000E+00
    0.00000E+00         0.00000E+00        -0.50151E+08
 
   -0.50160E+08         0.10257E+07         0.00000E+00
    0.10257E+07        -0.49998E+08         0.00000E+00
    0.00000E+00         0.00000E+00        -0.50150E+08
 
   -0.50159E+08         0.10602E+07         0.00000E+00
    0.10602E+07        -0.49998E+08         0.00000E+00
    0.00000E+00         0.00000E+00        -0.50150E+08
 
   -0.50158E+08         0.10943E+07         0.00000E+00
    0.10943E+07        -0.49998E+08         0.00000E+00
    0.00000E+00         0.00000E+00        -0.50150E+08
 
   -0.50158E+08         0.11281E+07         0.00000E+00
    0.11281E+07        -0.49998E+08         0.00000E+00
    0.00000E+00         0.00000E+00        -0.50150E+08
 
   -0.50157E+08         0.11616E+07         0.00000E+00
    0.11616E+07        -0.49998E+08         0.00000E+00
    0.00000E+00         0.00000E+00        -0.50150E+08
 
   -0.50157E+08         0.11947E+07         0.00000E+00
    0.11947E+07        -0.49997E+08         0.00000E+00
    0.00000E+00         0.00000E+00        -0.50150E+08
 
   -0.50156E+08         0.12275E+07         0.00000E+00
    0.12275E+07        -0.49997E+08         0.00000E+00
    0.00000E+00         0.00000E+00        -0.50150E+08
 
   -0.50155E+08         0.12600E+07         0.00000E+00
    0.12600E+07        -0.49997E+08         0.00000E+00
    0.00000E+00         0.00000E+00        -0.50150E+08
 
   -0.50155E+08         0.12921E+07         0.00000E+00
    0.12921E+07        -0.49997E+08         0.00000E+00
    0.00000E+00         0.00000E+00        -0.50150E+08
 
   -0.50154E+08         0.13238E+07         0.00000E+00
    0.13238E+07        -0.49997E+08         0.00000E+00
    0.00000E+00         0.00000E+00        -0.50150E+08
 
   -0.50154E+08         0.13552E+07         0.00000E+00
    0.13552E+07        -0.49997E+08         0.00000E+00
    0.00000E+00         0.00000E+00        -0.50149E+08
 
   -0.50154E+08         0.13863E+07         0.00000E+00
    0.13863E+07        -0.49997E+08         0.00000E+00
    0.00000E+00         0.00000E+00        -0.50149E+08
 
   -0.50153E+08         0.14170E+07         0.00000E+00
    0.14170E+07        -0.49997E+08         0.00000E+00
    0.00000E+00         0.00000E+00        -0.50149E+08
 
   -0.50153E+08         0.14473E+07         0.00000E+00
    0.14473E+07        -0.49997E+08         0.00000E+00
    0.00000E+00         0.00000E+00        -0.50149E+08
 
   -0.50152E+08         0.14773E+07         0.00000E+00
    0.14773E+07        -0.49997E+08         0.00000E+00
    0.00000E+00         0.00000E+00        -0.50149E+08
 
   -0.50152E+08         0.15069E+07         0.00000E+00
    0.15069E+07        -0.49997E+08         0.00000E+00
    0.00000E+00         0.00000E+00        -0.50149E+08
 
   -0.50152E+08         0.15362E+07         0.00000E+00
    0.15362E+07        -0.49997E+08         0.00000E+00
    0.00000E+00         0.00000E+00        -0.50149E+08
 
   -0.50151E+08         0.15651E+07         0.00000E+00
    0.15651E+07        -0.49997E+08         0.00000E+00
    0.00000E+00         0.00000E+00        -0.50149E+08
 
   -0.50151E+08         0.15936E+07         0.00000E+00
    0.15936E+07        -0.49997E+08         0.00000E+00
    0.00000E+00         0.00000E+00        -0.50149E+08
 
   -0.50150E+08         0.16217E+07         0.00000E+00
    0.16217E+07        -0.49997E+08         0.00000E+00
    0.00000E+00         0.00000E+00        -0.50149E+08
 
   -0.50150E+08         0.16495E+07         0.00000E+00
    0.16495E+07        -0.49997E+08         0.00000E+00
    0.00000E+00         0.00000E+00        -0.50149E+08
 
   -0.50150E+08         0.16769E+07         0.00000E+00
    0.16769E+07        -0.49997E+08         0.00000E+00
    0.00000E+00         0.00000E+00        -0.50149E+08
 
   -0.50149E+08         0.17039E+07         0.00000E+00
    0.17039E+07        -0.49997E+08         0.00000E+00
    0.00000E+00         0.00000E+00        -0.50149E+08
 
   -0.50149E+08         0.17305E+07         0.00000E+00
    0.17305E+07        -0.49998E+08         0.00000E+00
    0.00000E+00         0.00000E+00        -0.50149E+08
 
   -0.49978E+08         0.21440E+05         0.00000E+00
    0.21440E+05        -0.50000E+08         0.00000E+00
    0.00000E+00         0.00000E+00        -0.50013E+08
 
   -0.49978E+08         0.63716E+05         0.00000E+00
    0.63716E+05        -0.50000E+08         0.00000E+00
    0.00000E+00         0.00000E+00        -0.50013E+08
 
   -0.49977E+08         0.10573E+06         0.00000E+00
    0.10573E+06        -0.50000E+08         0.00000E+00
    0.00000E+00         0.00000E+00        -0.50013E+08
 
   -0.49977E+08         0.14748E+06         0.00000E+00
    0.14748E+06        -0.50000E+08         0.00000E+00
    0.00000E+00         0.00000E+00        -0.50013E+08
 
   -0.49977E+08         0.18896E+06         0.00000E+00
    0.18896E+06        -0.50000E+08         0.00000E+00
    0.00000E+00         0.00000E+00        -0.50013E+08
 
   -0.49977E+08         0.23016E+06         0.00000E+00
    0.23016E+06        -0.50000E+08         0.00000E+00
    0.00000E+00         0.00000E+00        -0.50013E+08
 
   -0.49977E+08         0.27109E+06         0.00000E+00
    0.27109E+06        -0.49999E+08         0.00000E+00
    0.00000E+00         0.00000E+00        -0.50013E+08
 
   -0.49977E+08         0.31174E+06         0.00000E+00
    0.31174E+06        -0.49999E+08         0.00000E+00
    0.00000E+00         0.00000E+00        -0.50013E+08
 
   -0.49977E+08         0.35211E+06         0.00000E+00
    0.35211E+06        -0.49999E+08         0.00000E+00
    0.00000E+00         0.00000E+00        -0.50013E+08
 
   -0.49977E+08         0.39220E+06         0.00000E+00
    0.39220E+06        -0.49999E+08         0.00000E+00
    0.00000E+00         0.00000E+00        -0.50013E+08
 
   -0.49977E+08         0.43200E+06         0.00000E+00
    0.43200E+06        -0.49999E+08         0.00000E+00
    0.00000E+00         0.00000E+00        -0.50013E+08
 
   -0.49977E+08         0.47150E+06         0.00000E+00
    0.47150E+06        -0.49998E+08         0.00000E+00
    0.00000E+00         0.00000E+00        -0.50013E+08
 
   -0.49977E+08         0.51072E+06         0.00000E+00
    0.51072E+06        -0.49998E+08         0.00000E+00
    0.00000E+00         0.00000E+00        -0.50013E+08
 
   -0.49978E+08         0.54963E+06         0.00000E+00
    0.54963E+06        -0.49998E+08         0.00000E+00
    0.00000E+00         0.00000E+00        -0.50013E+08
 
   -0.49978E+08         0.58825E+06         0.00000E+00
    0.58825E+06        -0.49997E+08         0.00000E+00
    0.00000E+00         0.00000E+00        -0.50013E+08
 
   -0.49979E+08         0.62657E+06         0.00000E+00
    0.62657E+06        -0.49997E+08         0.00000E+00
    0.00000E+00         0.00000E+00        -0.50013E+08
 
   -0.49979E+08         0.66458E+06         0.00000E+00
    0.66458E+06        -0.49997E+08         0.00000E+00
    0.00000E+00         0.00000E+00        -0.50013E+08
 
   -0.49979E+08         0.70229E+06         0.00000E+00
    0.70229E+06        -0.49996E+08         0.00000E+00
    0.00000E+00         0.00000E+00        -0.50013E+08
 
   -0.49980E+08         0.73968E+06         0.00000E+00
    0.73968E+06        -0.49996E+08         0.00000E+00
    0.00000E+00         0.00000E+00        -0.50013E+08
 
   -0.49981E+08         0.77677E+06         0.00000E+00
    0.77677E+06        -0.49996E+08         0.00000E+00
    0.00000E+00         0.00000E+00        -0.50013E+08
 
   -0.49981E+08         0.81354E+06         0.00000E+00
    0.81354E+06        -0.49995E+08         0.00000E+00
    0.00000E+00         0.00000E+00        -0.50013E+08
 
   -0.49982E+08         0.84999E+06         0.00000E+00
    0.84999E+06        -0.49995E+08         0.00000E+00
    0.00000E+00         0.00000E+00        -0.50013E+08
 
   -0.49983E+08         0.88613E+06         0.00000E+00
    0.88613E+06        -0.49994E+08         0.00000E+00
    0.00000E+00         0.00000E+00        -0.50014E+08
 
   -0.49984E+08         0.92194E+06         0.00000E+00
    0.92194E+06        -0.49994E+08         0.00000E+00
    0.00000E+00         0.00000E+00        -0.50014E+08
 
   -0.49985E+08         0.95742E+06         0.00000E+00
    0.95742E+06        -0.49993E+08         0.00000E+00
    0.00000E+00         0.00000E+00        -0.50014E+08
 
   -0.49985E+08         0.99259E+06         0.00000E+00
    0.99259E+06        -0.49993E+08         0.00000E+00
    0.00000E+00         0.00000E+00        -0.50014E+08
 
   -0.49986E+08         0.10274E+07         0.00000E+00
    0.10274E+07        -0.49992E+08         0.00000E+00
    0.00000E+00         0.00000E+00        -0.50014E+08
 
   -0.49987E+08         0.10619E+07         0.00000E+00
    0.10619E+07        -0.49991E+08         0.00000E+00
    0.00000E+00         0.00000E+00        -0.50014E+08
 
   -0.49988E+08         0.10961E+07         0.00000E+00
    0.10961E+07        -0.49991E+08         0.00000E+00
    0.00000E+00         0.00000E+00        -0.50014E+08
 
   -0.49989E+08         0.11299E+07         0.00000E+00
    0.11299E+07        -0.49990E+08         0.00000E+00
    0.00000E+00         0.00000E+00        -0.50014E+08
 
   -0.49991E+08         0.11634E+07         0.00000E+00
    0.11634E+07        -0.49990E+08         0.00000E+00
    0.00000E+00         0.00000E+00        -0.50015E+08
 
   -0.49992E+08         0.11965E+07         0.00000E+00
    0.11965E+07        -0.49989E+08         0.00000E+00
    0.00000E+00         0.00000E+00        -0.50015E+08
 
   -0.49993E+08         0.12293E+07         0.00000E+00
    0.12293E+07        -0.49988E+08         0.00000E+00
    0.00000E+00         0.00000E+00        -0.50015E+08
 
   -0.49994E+08         0.12618E+07         0.00000E+00
    0.12618E+07        -0.49988E+08         0.00000E+00
    0.00000E+00         0.00000E+00        -0.50015E+08
 
   -0.49995E+08         0.12939E+07         0.00000E+00
    0.12939E+07        -0.49987E+08         0.00000E+00
    0.00000E+00         0.00000E+00        -0.50015E+08
 
   -0.49997E+08         0.13257E+07         0.00000E+00
    0.13257E+07        -0.49986E+08         0.00000E+00
    0.00000E+00         0.00000E+00        -0.50015E+08
 
   -0.49998E+08         0.13571E+07         0.00000E+00
    0.13571E+07        -0.49986E+08         0.00000E+00
    0.00000E+00         0.00000E+00        -0.50015E+08
 
   -0.49999E+08         0.13881E+07         0.00000E+00
    0.13881E+07        -0.49985E+08         0.00000E+00
    0.00000E+00         0.00000E+00        -0.50016E+08
 
   -0.50001E+08         0.14188E+07         0.00000E+00
    0.14188E+07        -0.49984E+08         0.00000E+00
    0.00000E+00         0.00000E+00        -0.50016E+08
 
   -0.50002E+08         0.14491E+07         0.00000E+00
    0.14491E+07        -0.49984E+08         0.00000E+00
    0.00000E+00         0.00000E+00        -0.50016E+08
 
   -0.50003E+08         0.14791E+07         0.00000E+00
    0.14791E+07        -0.49983E+08         0.00000E+00
    0.00000E+00         0.00000E+00        -0.50016E+08
 
   -0.50005E+08         0.15087E+07         0.00000E+00
    0.15087E+07        -0.49982E+08         0.00000E+00
    0.00000E+00         0.00000E+00        -0.50016E+08
 
   -0.50006E+08         0.15379E+07         0.00000E+00
    0.15379E+07        -0.49982E+08         0.00000E+00
    0.00000E+00         0.00000E+00        -0.50016E+08
 
   -0.50008E+08         0.15667E+07         0.00000E+00
    0.15667E+07        -0.49981E+08         0.00000E+00
    0.00000E+00         0.00000E+00        -0.50017E+08
 
   -0.50009E+08         0.15952E+07         0.00000E+00
    0.15952E+07        -0.49980E+08         0.00000E+00
    0.00000E+00         0.00000E+00        -0.50017E+08
 
   -0.50011E+08         0.16233E+07         0.00000E+00
    0.16233E+07        -0.49979E+08         0.00000E+00
    0.00000E+00         0.00000E+00        -0.50017E+08
 
   -0.50012E+08         0.16510E+07         0.00000E+00
    0.16510E+07        -0.49979E+08         0.00000E+00
    0.00000E+00         0.00000E+00        -0.50017E+08
 
   -0.50014E+08         0.16784E+07         0.00000E+00
    0.16784E+07        -0.49978E+08         0.00000E+00
    0.00000E+00         0.00000E+00        -0.50017E+08
 
   -0.50015E+08         0.17053E+07         0.00000E+00
    0.17053E+07        -0.49977E+08         0.00000E+00
    0.00000E+00         0.00000E+00        -0.50018E+08
 
   -0.50017E+08         0.17319E+07         0.00000E+00
    0.17319E+07        -0.49977E+08         0.00000E+00
    0.00000E+00         0.00000E+00        -0.50018E+08
 
   -0.49766E+08         0.21525E+05         0.00000E+00
    0.21525E+05        -0.50000E+08         0.00000E+00
    0.00000E+00         0.00000E+00        -0.49870E+08
 
   -0.49767E+08         0.63968E+05         0.00000E+00
    0.63968E+05        -0.50000E+08         0.00000E+00
    0.00000E+00         0.00000E+00        -0.49870E+08
 
   -0.49768E+08         0.10615E+06         0.00000E+00
    0.10615E+06        -0.50000E+08         0.00000E+00
    0.00000E+00         0.00000E+00        -0.49871E+08
 
   -0.49769E+08         0.14806E+06         0.00000E+00
    0.14806E+06        -0.50000E+08         0.00000E+00
    0.00000E+00         0.00000E+00        -0.49871E+08
 
   -0.49770E+08         0.18971E+06         0.00000E+00
    0.18971E+06        -0.50000E+08         0.00000E+00
    0.00000E+00         0.00000E+00        -0.49871E+08
 
   -0.49771E+08         0.23108E+06         0.00000E+00
    0.23108E+06        -0.49999E+08         0.00000E+00
    0.00000E+00         0.00000E+00        -0.49871E+08
 
   -0.49772E+08         0.27217E+06         0.00000E+00
    0.27217E+06        -0.49999E+08         0.00000E+00
    0.00000E+00         0.00000E+00        -0.49871E+08
 
   -0.49774E+08         0.31299E+06         0.00000E+00
    0.31299E+06        -0.49999E+08         0.00000E+00
    0.00000E+00         0.00000E+00        -0.49872E+08
 
   -0.49775E+08         0.35352E+06         0.00000E+00
    0.35352E+06        -0.49998E+08         0.00000E+00
    0.00000E+00         0.00000E+00        -0.49872E+08
 
   -0.49777E+08         0.39376E+06         0.00000E+00
    0.39376E+06        -0.49998E+08         0.00000E+00
    0.00000E+00         0.00000E+00        -0.49872E+08
 
   -0.49778E+08         0.43372E+06         0.00000E+00
    0.43372E+06        -0.49998E+08         0.00000E+00
    0.00000E+00         0.00000E+00        -0.49872E+08
 
   -0.49780E+08         0.47338E+06         0.00000E+00
    0.47338E+06        -0.49997E+08         0.00000E+00
    0.00000E+00         0.00000E+00        -0.49873E+08
 
   -0.49782E+08         0.51275E+06         0.00000E+00
    0.51275E+06        -0.49997E+08         0.00000E+00
    0.00000E+00         0.00000E+00        -0.49873E+08
 
   -0.49784E+08         0.55182E+06         0.00000E+00
    0.55182E+06        -0.49996E+08         0.00000E+00
    0.00000E+00         0.00000E+00        -0.49873E+08
 
   -0.49785E+08         0.59059E+06         0.00000E+00
    0.59059E+06        -0.49996E+08         0.00000E+00
    0.00000E+00         0.00000E+00        -0.49874E+08
 
   -0.49787E+08         0.62906E+06         0.00000E+00
    0.62906E+06        -0.49995E+08         0.00000E+00
    0.00000E+00         0.00000E+00        -0.49874E+08
 
   -0.49789E+08         0.66722E+06         0.00000E+00
    0.66722E+06        -0.49994E+08         0.00000E+00
    0.00000E+00         0.00000E+00        -0.49874E+08
 
   -0.49791E+08         0.70507E+06         0.00000E+00
    0.70507E+06        -0.49994E+08         0.00000E+00
    0.00000E+00         0.00000E+00        -0.49874E+08
 
   -0.49794E+08         0.74261E+06         0.00000E+00
    0.74261E+06        -0.49993E+08         0.00000E+00
    0.00000E+00         0.00000E+00        -0.49875E+08
 
   -0.49796E+08         0.77983E+06         0.00000E+00
    0.77983E+06        -0.49992E+08         0.00000E+00
    0.00000E+00         0.00000E+00        -0.49875E+08
 
   -0.49798E+08         0.81674E+06         0.00000E+00
    0.81674E+06        -0.49991E+08         0.00000E+00
    0.00000E+00         0.00000E+00        -0.49875E+08
 
   -0.49800E+08         0.85332E+06         0.00000E+00
    0.85332E+06        -0.49991E+08         0.00000E+00
    0.00000E+00         0.00000E+00        -0.49876E+08
 
   -0.49803E+08         0.88959E+06         0.00000E+00
    0.88959E+06        -0.49990E+08         0.00000E+00
    0.00000E+00         0.00000E+00        -0.49876E+08
 
   -0.49805E+08         0.92553E+06         0.00000E+00
    0.92553E+06        -0.49989E+08         0.00000E+00
    0.00000E+00         0.00000E+00        -0.49877E+08
 
   -0.49808E+08         0.96114E+06         0.00000E+00
    0.96114E+06        -0.49988E+08         0.00000E+00
    0.00000E+00         0.00000E+00        -0.49877E+08
 
   -0.49810E+08         0.99642E+06         0.00000E+00
    0.99642E+06        -0.49987E+08         0.00000E+00
    0.00000E+00         0.00000E+00        -0.49877E+08
 
   -0.49813E+08         0.10314E+07         0.00000E+00
    0.10314E+07        -0.49986E+08         0.00000E+00
    0.00000E+00         0.00000E+00        -0.49878E+08
 
   -0.49815E+08         0.10660E+07         0.00000E+00
    0.10660E+07        -0.49985E+08         0.00000E+00
    0.00000E+00         0.00000E+00        -0.49878E+08
 
   -0.49818E+08         0.11003E+07         0.00000E+00
    0.11003E+07        -0.49984E+08         0.00000E+00
    0.00000E+00         0.00000E+00        -0.49878E+08
 
   -0.49821E+08         0.11342E+07         0.00000E+00
    0.11342E+07        -0.49983E+08         0.00000E+00
    0.00000E+00         0.00000E+00        -0.49879E+08
 
   -0.49824E+08         0.11678E+07         0.00000E+00
    0.11678E+07        -0.49982E+08         0.00000E+00
    0.00000E+00         0.00000E+00        -0.49879E+08
 
   -0.49827E+08         0.12010E+07         0.00000E+00
    0.12010E+07        -0.49980E+08         0.00000E+00
    0.00000E+00         0.00000E+00        -0.49880E+08
 
   -0.49829E+08         0.12340E+07         0.00000E+00
    0.12340E+07        -0.49979E+08         0.00000E+00
    0.00000E+00         0.00000E+00        -0.49880E+08
 
   -0.49832E+08         0.12665E+07         0.00000E+00
    0.12665E+07        -0.49978E+08         0.00000E+00
    0.00000E+00         0.00000E+00        -0.49880E+08
 
   -0.49835E+08         0.12987E+07         0.00000E+00
    0.12987E+07        -0.49977E+08         0.00000E+00
    0.00000E+00         0.00000E+00        -0.49881E+08
 
   -0.49839E+08         0.13305E+07         0.00000E+00
    0.13305E+07        -0.49975E+08         0.00000E+00
    0.00000E+00         0.00000E+00        -0.49881E+08
 
   -0.49842E+08         0.13620E+07         0.00000E+00
    0.13620E+07        -0.49974E+08         0.00000E+00
    0.00000E+00         0.00000E+00        -0.49882E+08
 
   -0.49845E+08         0.13932E+07         0.00000E+00
    0.13932E+07        -0.49973E+08         0.00000E+00
    0.00000E+00         0.00000E+00        -0.49882E+08
 
   -0.49848E+08         0.14239E+07         0.00000E+00
    0.14239E+07        -0.49971E+08         0.00000E+00
    0.00000E+00         0.00000E+00        -0.49882E+08
 
   -0.49851E+08         0.14543E+07         0.00000E+00
    0.14543E+07        -0.49970E+08         0.00000E+00
    0.00000E+00         0.00000E+00        -0.49883E+08
 
   -0.49854E+08         0.14843E+07         0.00000E+00
    0.14843E+07        -0.49969E+08         0.00000E+00
    0.00000E+00         0.00000E+00        -0.49883E+08
 
   -0.49858E+08         0.15140E+07         0.00000E+00
    0.15140E+07        -0.49967E+08         0.00000E+00
    0.00000E+00         0.00000E+00        -0.49884E+08
 
   -0.49861E+08         0.15433E+07         0.00000E+00
    0.15433E+07        -0.49966E+08         0.00000E+00
    0.00000E+00         0.00000E+00        -0.49884E+08
 
   -0.49864E+08         0.15722E+07         0.00000E+00
    0.15722E+07        -0.49964E+08         0.00000E+00
    0.00000E+00         0.00000E+00        -0.49884E+08
 
   -0.49868E+08         0.16007E+07         0.00000E+00
    0.16007E+07        -0.49963E+08         0.00000E+00
    0.00000E+00         0.00000E+00        -0.49885E+08
 
   -0.49871E+08         0.16289E+07         0.00000E+00
    0.16289E+07        -0.49961E+08         0.00000E+00
    0.00000E+00         0.00000E+00        -0.49885E+08
 
   -0.49875E+08         0.16566E+07         0.00000E+00
    0.16566E+07        -0.49960E+08         0.00000E+00
    0.00000E+00         0.00000E+00        -0.49886E+08
 
   -0.49878E+08         0.16840E+07         0.00000E+00
    0.16840E+07        -0.49958E+08         0.00000E+00
    0.00000E+00         0.00000E+00        -0.49886E+08
 
   -0.49882E+08         0.17110E+07         0.00000E+00
    0.17110E+07        -0.49957E+08         0.00000E+00
    0.00000E+00         0.00000E+00        -0.49886E+08
 
   -0.49885E+08         0.17376E+07         0.00000E+00
    0.17376E+07        -0.49955E+08         0.00000E+00
    0.00000E+00         0.00000E+00        -0.49887E+08
 
   -0.49552E+08         0.21657E+05         0.00000E+00
    0.21657E+05        -0.50000E+08         0.00000E+00
    0.00000E+00         0.00000E+00        -0.49727E+08
 
   -0.49554E+08         0.64361E+05         0.00000E+00
    0.64361E+05        -0.50000E+08         0.00000E+00
    0.00000E+00         0.00000E+00        -0.49727E+08
 
   -0.49557E+08         0.10680E+06         0.00000E+00
    0.10680E+06        -0.50000E+08         0.00000E+00
    0.00000E+00         0.00000E+00        -0.49728E+08
 
   -0.49559E+08         0.14897E+06         0.00000E+00
    0.14897E+06        -0.50000E+08         0.00000E+00
    0.00000E+00         0.00000E+00        -0.49728E+08
 
   -0.49562E+08         0.19087E+06         0.00000E+00
    0.19087E+06        -0.49999E+08         0.00000E+00
    0.00000E+00         0.00000E+00        -0.49728E+08
 
   -0.49564E+08         0.23250E+06         0.00000E+00
    0.23250E+06        -0.49999E+08         0.00000E+00
    0.00000E+00         0.00000E+00        -0.49729E+08
 
   -0.49567E+08         0.27385E+06         0.00000E+00
    0.27385E+06        -0.49999E+08         0.00000E+00
    0.00000E+00         0.00000E+00        -0.49729E+08
 
   -0.49570E+08         0.31491E+06         0.00000E+00
    0.31491E+06        -0.49998E+08         0.00000E+00
    0.00000E+00         0.00000E+00        -0.49730E+08
 
   -0.49573E+08         0.35569E+06         0.00000E+00
    0.35569E+06        -0.49998E+08         0.00000E+00
    0.00000E+00         0.00000E+00        -0.49730E+08
 
   -0.49576E+08         0.39618E+06         0.00000E+00
    0.39618E+06        -0.49997E+08         0.00000E+00
    0.00000E+00         0.00000E+00        -0.49731E+08
 
   -0.49579E+08         0.43638E+06         0.00000E+00
    0.43638E+06        -0.49997E+08         0.00000E+00
    0.00000E+00         0.00000E+00        -0.49731E+08
 
   -0.49582E+08         0.47629E+06         0.00000E+00
    0.47629E+06        -0.49996E+08         0.00000E+00
    0.00000E+00         0.00000E+00        -0.49732E+08
 
   -0.49585E+08         0.51590E+06         0.00000E+00
    0.51590E+06        -0.49995E+08         0.00000E+00
    0.00000E+00         0.00000E+00        -0.49733E+08
 
   -0.49588E+08         0.55521E+06         0.00000E+00
    0.55521E+06        -0.49995E+08         0.00000E+00
    0.00000E+00         0.00000E+00        -0.49733E+08
 
   -0.49592E+08         0.59421E+06         0.00000E+00
    0.59421E+06        -0.49994E+08         0.00000E+00
    0.00000E+00         0.00000E+00        -0.49734E+08
 
   -0.49595E+08         0.63291E+06         0.00000E+00
    0.63291E+06        -0.49993E+08         0.00000E+00
    0.00000E+00         0.00000E+00        -0.49734E+08
 
   -0.49599E+08         0.67130E+06         0.00000E+00
    0.67130E+06        -0.49992E+08         0.00000E+00
    0.00000E+00         0.00000E+00        -0.49735E+08
 
   -0.49602E+08         0.70938E+06         0.00000E+00
    0.70938E+06        -0.49991E+08         0.00000E+00
    0.00000E+00         0.00000E+00        -0.49735E+08
 
   -0.49606E+08         0.74715E+06         0.00000E+00
    0.74715E+06        -0.49990E+08         0.00000E+00
    0.00000E+00         0.00000E+00        -0.49736E+08
 
   -0.49610E+08         0.78459E+06         0.00000E+00
    0.78459E+06        -0.49989E+08         0.00000E+00
    0.00000E+00         0.00000E+00        -0.49737E+08
 
   -0.49614E+08         0.82172E+06         0.00000E+00
    0.82172E+06        -0.49988E+08         0.00000E+00
    0.00000E+00         0.00000E+00        -0.49737E+08
 
   -0.49618E+08         0.85853E+06         0.00000E+00
    0.85853E+06        -0.49986E+08         0.00000E+00
    0.00000E+00         0.00000E+00        -0.49738E+08
 
   -0.49622E+08         0.89501E+06         0.00000E+00
    0.89501E+06        -0.49985E+08         0.00000E+00
    0.00000E+00         0.00000E+00        -0.49738E+08
 
   -0.49626E+08         0.93116E+06         0.00000E+00
    0.93116E+06        -0.49984E+08         0.00000E+00
    0.00000E+00         0.00000E+00        -0.49739E+08
 
   -0.49630E+08         0.96698E+06         0.00000E+00
    0.96698E+06        -0.49982E+08         0.00000E+00
    0.00000E+00         0.00000E+00        -0.49740E+08
 
   -0.49634E+08         0.10025E+07         0.00000E+00
    0.10025E+07        -0.49981E+08         0.00000E+00
    0.00000E+00         0.00000E+00        -0.49740E+08
 
   -0.49638E+08         0.10376E+07         0.00000E+00
    0.10376E+07        -0.49980E+08         0.00000E+00
    0.00000E+00         0.00000E+00        -0.49741E+08
 
   -0.49643E+08         0.10724E+07         0.00000E+00
    0.10724E+07        -0.49978E+08         0.00000E+00
    0.00000E+00         0.00000E+00        -0.49741E+08
 
   -0.49647E+08         0.11069E+07         0.00000E+00
    0.11069E+07        -0.49977E+08         0.00000E+00
    0.00000E+00         0.00000E+00        -0.49742E+08
 
   -0.49652E+08         0.11411E+07         0.00000E+00
    0.11411E+07        -0.49975E+08         0.00000E+00
    0.00000E+00         0.00000E+00        -0.49743E+08
 
   -0.49656E+08         0.11748E+07         0.00000E+00
    0.11748E+07        -0.49973E+08         0.00000E+00
    0.00000E+00         0.00000E+00        -0.49743E+08
 
   -0.49661E+08         0.12083E+07         0.00000E+00
    0.12083E+07        -0.49972E+08         0.00000E+00
    0.00000E+00         0.00000E+00        -0.49744E+08
 
   -0.49665E+08         0.12414E+07         0.00000E+00
    0.12414E+07        -0.49970E+08         0.00000E+00
    0.00000E+00         0.00000E+00        -0.49745E+08
 
   -0.49670E+08         0.12741E+07         0.00000E+00
    0.12741E+07        -0.49968E+08         0.00000E+00
    0.00000E+00         0.00000E+00        -0.49745E+08
 
   -0.49675E+08         0.13065E+07         0.00000E+00
    0.13065E+07        -0.49966E+08         0.00000E+00
    0.00000E+00         0.00000E+00        -0.49746E+08
 
   -0.49680E+08         0.13385E+07         0.00000E+00
    0.13385E+07        -0.49964E+08         0.00000E+00
    0.00000E+00         0.00000E+00        -0.49747E+08
 
   -0.49685E+08         0.13702E+07         0.00000E+00
    0.13702E+07        -0.49962E+08         0.00000E+00
    0.00000E+00         0.00000E+00        -0.49747E+08
 
   -0.49690E+08         0.14015E+07         0.00000E+00
    0.14015E+07        -0.49960E+08         0.00000E+00
    0.00000E+00         0.00000E+00        -0.49748E+08
 
   -0.49695E+08         0.14324E+07         0.00000E+00
    0.14324E+07        -0.49958E+08         0.00000E+00
    0.00000E+00         0.00000E+00        -0.49748E+08
 
   -0.49700E+08         0.14629E+07         0.00000E+00
    0.14629E+07        -0.49956E+08         0.00000E+00
    0.00000E+00         0.00000E+00        -0.49749E+08
 
   -0.49705E+08         0.14931E+07         0.00000E+00
    0.14931E+07        -0.49954E+08         0.00000E+00
    0.00000E+00         0.00000E+00        -0.49750E+08
 
   -0.49710E+08         0.15230E+07         0.00000E+00
    0.15230E+07        -0.49952E+08         0.00000E+00
    0.00000E+00         0.00000E+00        -0.49750E+08
 
   -0.49715E+08         0.15524E+07         0.00000E+00
    0.15524E+07        -0.49950E+08         0.00000E+00
    0.00000E+00         0.00000E+00        -0.49751E+08
 
   -0.49720E+08         0.15814E+07         0.00000E+00
    0.15814E+07        -0.49948E+08         0.00000E+00
    0.00000E+00         0.00000E+00        -0.49752E+08
 
   -0.49726E+08         0.16101E+07         0.00000E+00
    0.16101E+07        -0.49946E+08         0.00000E+00
    0.00000E+00         0.00000E+00        -0.49752E+08
 
   -0.49731E+08         0.16384E+07         0.00000E+00
    0.16384E+07        -0.49943E+08         0.00000E+00
    0.00000E+00         0.00000E+00        -0.49753E+08
 
   -0.49737E+08         0.16663E+07         0.00000E+00
    0.16663E+07        -0.49941E+08         0.00000E+00
    0.00000E+00         0.00000E+00        -0.49754E+08
 
   -0.49742E+08         0.16938E+07         0.00000E+00
    0.16938E+07        -0.49939E+08         0.00000E+00
    0.00000E+00         0.00000E+00        -0.49754E+08
 
   -0.49747E+08         0.17209E+07         0.00000E+00
    0.17209E+07        -0.49936E+08         0.00000E+00
    0.00000E+00         0.00000E+00        -0.49755E+08
 
   -0.49753E+08         0.17476E+07         0.00000E+00
    0.17476E+07        -0.49934E+08         0.00000E+00
    0.00000E+00         0.00000E+00        -0.49755E+08
 
   -0.49337E+08         0.21837E+05         0.00000E+00
    0.21837E+05        -0.50000E+08         0.00000E+00
    0.00000E+00         0.00000E+00        -0.49582E+08
 
   -0.49341E+08         0.64896E+05         0.00000E+00
    0.64896E+05        -0.50000E+08         0.00000E+00
    0.00000E+00         0.00000E+00        -0.49583E+08
 
   -0.49344E+08         0.10769E+06         0.00000E+00
    0.10769E+06        -0.50000E+08         0.00000E+00
    0.00000E+00         0.00000E+00        -0.49584E+08
 
   -0.49348E+08         0.15021E+06         0.00000E+00
    0.15021E+06        -0.50000E+08         0.00000E+00
    0.00000E+00         0.00000E+00        -0.49584E+08
 
   -0.49352E+08         0.19246E+06         0.00000E+00
    0.19246E+06        -0.49999E+08         0.00000E+00
    0.00000E+00         0.00000E+00        -0.49585E+08
 
   -0.49356E+08         0.23443E+06         0.00000E+00
    0.23443E+06        -0.49999E+08         0.00000E+00
    0.00000E+00         0.00000E+00        -0.49586E+08
 
   -0.49360E+08         0.27612E+06         0.00000E+00
    0.27612E+06        -0.49998E+08         0.00000E+00
    0.00000E+00         0.00000E+00        -0.49586E+08
 
   -0.49364E+08         0.31752E+06         0.00000E+00
    0.31752E+06        -0.49998E+08         0.00000E+00
    0.00000E+00         0.00000E+00        -0.49587E+08
 
   -0.49369E+08         0.35864E+06         0.00000E+00
    0.35864E+06        -0.49997E+08         0.00000E+00
    0.00000E+00         0.00000E+00        -0.49588E+08
 
   -0.49373E+08         0.39947E+06         0.00000E+00
    0.39947E+06        -0.49996E+08         0.00000E+00
    0.00000E+00         0.00000E+00        -0.49589E+08
 
   -0.49378E+08         0.44000E+06         0.00000E+00
    0.44000E+06        -0.49996E+08         0.00000E+00
    0.00000E+00         0.00000E+00        -0.49590E+08
 
   -0.49382E+08         0.48024E+06         0.00000E+00
    0.48024E+06        -0.49995E+08         0.00000E+00
    0.00000E+00         0.00000E+00        -0.49590E+08
 
   -0.49387E+08         0.52017E+06         0.00000E+00
    0.52017E+06        -0.49994E+08         0.00000E+00
    0.00000E+00         0.00000E+00        -0.49591E+08
 
   -0.49392E+08         0.55981E+06         0.00000E+00
    0.55981E+06        -0.49993E+08         0.00000E+00
    0.00000E+00         0.00000E+00        -0.49592E+08
 
   -0.49397E+08         0.59913E+06         0.00000E+00
    0.59913E+06        -0.49992E+08         0.00000E+00
    0.00000E+00         0.00000E+00        -0.49593E+08
 
   -0.49402E+08         0.63815E+06         0.00000E+00
    0.63815E+06        -0.49991E+08         0.00000E+00
    0.00000E+00         0.00000E+00        -0.49594E+08
 
   -0.49407E+08         0.67686E+06         0.00000E+00
    0.67686E+06        -0.49989E+08         0.00000E+00
    0.00000E+00         0.00000E+00        -0.49594E+08
 
   -0.49412E+08         0.71525E+06         0.00000E+00
    0.71525E+06        -0.49988E+08         0.00000E+00
    0.00000E+00         0.00000E+00        -0.49595E+08
 
   -0.49417E+08         0.75333E+06         0.00000E+00
    0.75333E+06        -0.49987E+08         0.00000E+00
    0.00000E+00         0.00000E+00        -0.49596E+08
 
   -0.49423E+08         0.79108E+06         0.00000E+00
    0.79108E+06        -0.49985E+08         0.00000E+00
    0.00000E+00         0.00000E+00        -0.49597E+08
 
   -0.49428E+08         0.82852E+06         0.00000E+00
    0.82852E+06        -0.49984E+08         0.00000E+00
    0.00000E+00         0.00000E+00        -0.49598E+08
 
   -0.49434E+08         0.86563E+06         0.00000E+00
    0.86563E+06        -0.49982E+08         0.00000E+00
    0.00000E+00         0.00000E+00        -0.49599E+08
 
   -0.49439E+08         0.90241E+06         0.00000E+00
    0.90241E+06        -0.49981E+08         0.00000E+00
    0.00000E+00         0.00000E+00        -0.49600E+08
 
   -0.49445E+08         0.93886E+06         0.00000E+00
    0.93886E+06        -0.49979E+08         0.00000E+00
    0.00000E+00         0.00000E+00        -0.49600E+08
 
   -0.49451E+08         0.97498E+06         0.00000E+00
    0.97498E+06        -0.49977E+08         0.00000E+00
    0.00000E+00         0.00000E+00        -0.49601E+08
 
   -0.49457E+08         0.10108E+07         0.00000E+00
    0.10108E+07        -0.49975E+08         0.00000E+00
    0.00000E+00         0.00000E+00        -0.49602E+08
 
   -0.49463E+08         0.10462E+07         0.00000E+00
    0.10462E+07        -0.49973E+08         0.00000E+00
    0.00000E+00         0.00000E+00        -0.49603E+08
 
   -0.49469E+08         0.10813E+07         0.00000E+00
    0.10813E+07        -0.49971E+08         0.00000E+00
    0.00000E+00         0.00000E+00        -0.49604E+08
 
   -0.49475E+08         0.11161E+07         0.00000E+00
    0.11161E+07        -0.49969E+08         0.00000E+00
    0.00000E+00         0.00000E+00        -0.49605E+08
 
   -0.49481E+08         0.11505E+07         0.00000E+00
    0.11505E+07        -0.49967E+08         0.00000E+00
    0.00000E+00         0.00000E+00        -0.49606E+08
 
   -0.49487E+08         0.11846E+07         0.00000E+00
    0.11846E+07        -0.49965E+08         0.00000E+00
    0.00000E+00         0.00000E+00        -0.49607E+08
 
   -0.49494E+08         0.12183E+07         0.00000E+00
    0.12183E+07        -0.49963E+08         0.00000E+00
    0.00000E+00         0.00000E+00        -0.49607E+08
 
   -0.49500E+08         0.12516E+07         0.00000E+00
    0.12516E+07        -0.49960E+08         0.00000E+00
    0.00000E+00         0.00000E+00        -0.49608E+08
 
   -0.49507E+08         0.12846E+07         0.00000E+00
    0.12846E+07        -0.49958E+08         0.00000E+00
    0.00000E+00         0.00000E+00        -0.49609E+08
 
   -0.49513E+08         0.13173E+07         0.00000E+00
    0.13173E+07        -0.49956E+08         0.00000E+00
    0.00000E+00         0.00000E+00        -0.49610E+08
 
   -0.49520E+08         0.13496E+07         0.00000E+00
    0.13496E+07        -0.49953E+08         0.00000E+00
    0.00000E+00         0.00000E+00        -0.49611E+08
 
   -0.49527E+08         0.13815E+07         0.00000E+00
    0.13815E+07        -0.49951E+08         0.00000E+00
    0.00000E+00         0.00000E+00        -0.49612E+08
 
   -0.49533E+08         0.14131E+07         0.00000E+00
    0.14131E+07        -0.49948E+08         0.00000E+00
    0.00000E+00         0.00000E+00        -0.49613E+08
 
   -0.49540E+08         0.14442E+07         0.00000E+00
    0.14442E+07        -0.49945E+08         0.00000E+00
    0.00000E+00         0.00000E+00        -0.49614E+08
 
   -0.49547E+08         0.14751E+07         0.00000E+00
    0.14751E+07        -0.49943E+08         0.00000E+00
    0.00000E+00         0.00000E+00        -0.49615E+08
 
   -0.49554E+08         0.15055E+07         0.00000E+00
    0.15055E+07        -0.49940E+08         0.00000E+00
    0.00000E+00         0.00000E+00        -0.49615E+08
 
   -0.49561E+08         0.15356E+07         0.00000E+00
    0.15356E+07        -0.49937E+08         0.00000E+00
    0.00000E+00         0.00000E+00        -0.49616E+08
 
   -0.49568E+08         0.15652E+07         0.00000E+00
    0.15652E+07        -0.49934E+08         0.00000E+00
    0.00000E+00         0.00000E+00        -0.49617E+08
 
   -0.49576E+08         0.15945E+07         0.00000E+00
    0.15945E+07        -0.49931E+08         0.00000E+00
    0.00000E+00         0.00000E+00        -0.49618E+08
 
   -0.49583E+08         0.16235E+07         0.00000E+00
    0.16235E+07        -0.49928E+08         0.00000E+00
    0.00000E+00         0.00000E+00        -0.49619E+08
 
   -0.49590E+08         0.16520E+07         0.00000E+00
    0.16520E+07        -0.49925E+08         0.00000E+00
    0.00000E+00         0.00000E+00        -0.49620E+08
 
   -0.49597E+08         0.16801E+07         0.00000E+00
    0.16801E+07        -0.49922E+08         0.00000E+00
    0.00000E+00         0.00000E+00        -0.49621E+08
 
   -0.49605E+08         0.17078E+07         0.00000E+00
    0.17078E+07        -0.49919E+08         0.00000E+00
    0.00000E+00         0.00000E+00        -0.49621E+08
 
   -0.49612E+08         0.17352E+07         0.00000E+00
    0.17352E+07        -0.49915E+08         0.00000E+00
    0.00000E+00         0.00000E+00        -0.49622E+08
 
   -0.49620E+08         0.17621E+07         0.00000E+00
    0.17621E+07        -0.49912E+08         0.00000E+00
    0.00000E+00         0.00000E+00        -0.49623E+08
 
   -0.49120E+08         0.22066E+05         0.00000E+00
    0.22066E+05        -0.50000E+08         0.00000E+00
    0.00000E+00         0.00000E+00        -0.49436E+08
 
   -0.49125E+08         0.65575E+05         0.00000E+00
    0.65575E+05        -0.50000E+08         0.00000E+00
    0.00000E+00         0.00000E+00        -0.49437E+08
 
   -0.49130E+08         0.10881E+06         0.00000E+00
    0.10881E+06        -0.50000E+08         0.00000E+00
    0.00000E+00         0.00000E+00        -0.49438E+08
 
   -0.49135E+08         0.15178E+06         0.00000E+00
    0.15178E+06        -0.49999E+08         0.00000E+00
    0.00000E+00         0.00000E+00        -0.49439E+08
 
   -0.49140E+08         0.19447E+06         0.00000E+00
    0.19447E+06        -0.49999E+08         0.00000E+00
    0.00000E+00         0.00000E+00        -0.49440E+08
 
   -0.49146E+08         0.23687E+06         0.00000E+00
    0.23687E+06        -0.49999E+08         0.00000E+00
    0.00000E+00         0.00000E+00        -0.49441E+08
 
   -0.49151E+08         0.27899E+06         0.00000E+00
    0.27899E+06        -0.49998E+08         0.00000E+00
    0.00000E+00         0.00000E+00        -0.49442E+08
 
   -0.49157E+08         0.32083E+06         0.00000E+00
    0.32083E+06        -0.49997E+08         0.00000E+00
    0.00000E+00         0.00000E+00        -0.49443E+08
 
   -0.49163E+08         0.36237E+06         0.00000E+00
    0.36237E+06        -0.49996E+08         0.00000E+00
    0.00000E+00         0.00000E+00        -0.49444E+08
 
   -0.49169E+08         0.40362E+06         0.00000E+00
    0.40362E+06        -0.49996E+08         0.00000E+00
    0.00000E+00         0.00000E+00        -0.49445E+08
 
   -0.49175E+08         0.44458E+06         0.00000E+00
    0.44458E+06        -0.49995E+08         0.00000E+00
    0.00000E+00         0.00000E+00        -0.49446E+08
 
   -0.49181E+08         0.48523E+06         0.00000E+00
    0.48523E+06        -0.49994E+08         0.00000E+00
    0.00000E+00         0.00000E+00        -0.49447E+08
 
   -0.49187E+08         0.52558E+06         0.00000E+00
    0.52558E+06        -0.49992E+08         0.00000E+00
    0.00000E+00         0.00000E+00        -0.49448E+08
 
   -0.49193E+08         0.56562E+06         0.00000E+00
    0.56562E+06        -0.49991E+08         0.00000E+00
    0.00000E+00         0.00000E+00        -0.49449E+08
 
   -0.49200E+08         0.60536E+06         0.00000E+00
    0.60536E+06        -0.49990E+08         0.00000E+00
    0.00000E+00         0.00000E+00        -0.49451E+08
 
   -0.49206E+08         0.64478E+06         0.00000E+00
    0.64478E+06        -0.49988E+08         0.00000E+00
    0.00000E+00         0.00000E+00        -0.49452E+08
 
   -0.49213E+08         0.68389E+06         0.00000E+00
    0.68389E+06        -0.49987E+08         0.00000E+00
    0.00000E+00         0.00000E+00        -0.49453E+08
 
   -0.49220E+08         0.72269E+06         0.00000E+00
    0.72269E+06        -0.49985E+08         0.00000E+00
    0.00000E+00         0.00000E+00        -0.49454E+08
 
   -0.49227E+08         0.76116E+06         0.00000E+00
    0.76116E+06        -0.49984E+08         0.00000E+00
    0.00000E+00         0.00000E+00        -0.49455E+08
 
   -0.49234E+08         0.79931E+06         0.00000E+00
    0.79931E+06        -0.49982E+08         0.00000E+00
    0.00000E+00         0.00000E+00        -0.49456E+08
 
   -0.49241E+08         0.83714E+06         0.00000E+00
    0.83714E+06        -0.49980E+08         0.00000E+00
    0.00000E+00         0.00000E+00        -0.49457E+08
 
   -0.49248E+08         0.87463E+06         0.00000E+00
    0.87463E+06        -0.49978E+08         0.00000E+00
    0.00000E+00         0.00000E+00        -0.49458E+08
 
   -0.49255E+08         0.91180E+06         0.00000E+00
    0.91180E+06        -0.49976E+08         0.00000E+00
    0.00000E+00         0.00000E+00        -0.49459E+08
 
   -0.49263E+08         0.94864E+06         0.00000E+00
    0.94864E+06        -0.49974E+08         0.00000E+00
    0.00000E+00         0.00000E+00        -0.49461E+08
 
   -0.49270E+08         0.98514E+06         0.00000E+00
    0.98514E+06        -0.49972E+08         0.00000E+00
    0.00000E+00         0.00000E+00        -0.49462E+08
 
   -0.49278E+08         0.10213E+07         0.00000E+00
    0.10213E+07        -0.49969E+08         0.00000E+00
    0.00000E+00         0.00000E+00        -0.49463E+08
 
   -0.49285E+08         0.10571E+07         0.00000E+00
    0.10571E+07        -0.49967E+08         0.00000E+00
    0.00000E+00         0.00000E+00        -0.49464E+08
 
   -0.49293E+08         0.10926E+07         0.00000E+00
    0.10926E+07        -0.49965E+08         0.00000E+00
    0.00000E+00         0.00000E+00        -0.49465E+08
 
   -0.49301E+08         0.11277E+07         0.00000E+00
    0.11277E+07        -0.49962E+08         0.00000E+00
    0.00000E+00         0.00000E+00        -0.49466E+08
 
   -0.49309E+08         0.11625E+07         0.00000E+00
    0.11625E+07        -0.49959E+08         0.00000E+00
    0.00000E+00         0.00000E+00        -0.49467E+08
 
   -0.49317E+08         0.11970E+07         0.00000E+00
    0.11970E+07        -0.49957E+08         0.00000E+00
    0.00000E+00         0.00000E+00        -0.49468E+08
 
   -0.49325E+08         0.12310E+07         0.00000E+00
    0.12310E+07        -0.49954E+08         0.00000E+00
    0.00000E+00         0.00000E+00        -0.49470E+08
 
   -0.49333E+08         0.12648E+07         0.00000E+00
    0.12648E+07        -0.49951E+08         0.00000E+00
    0.00000E+00         0.00000E+00        -0.49471E+08
 
   -0.49342E+08         0.12981E+07         0.00000E+00
    0.12981E+07        -0.49948E+08         0.00000E+00
    0.00000E+00         0.00000E+00        -0.49472E+08
 
   -0.49350E+08         0.13311E+07         0.00000E+00
    0.13311E+07        -0.49945E+08         0.00000E+00
    0.00000E+00         0.00000E+00        -0.49473E+08
 
   -0.49359E+08         0.13638E+07         0.00000E+00
    0.13638E+07        -0.49942E+08         0.00000E+00
    0.00000E+00         0.00000E+00        -0.49474E+08
 
   -0.49367E+08         0.13961E+07         0.00000E+00
    0.13961E+07        -0.49939E+08         0.00000E+00
    0.00000E+00         0.00000E+00        -0.49475E+08
 
   -0.49376E+08         0.14280E+07         0.00000E+00
    0.14280E+07        -0.49935E+08         0.00000E+00
    0.00000E+00         0.00000E+00        -0.49476E+08
 
   -0.49384E+08         0.14595E+07         0.00000E+00
    0.14595E+07        -0.49932E+08         0.00000E+00
    0.00000E+00         0.00000E+00        -0.49478E+08
 
   -0.49393E+08         0.14907E+07         0.00000E+00
    0.14907E+07        -0.49929E+08         0.00000E+00
    0.00000E+00         0.00000E+00        -0.49479E+08
 
   -0.49402E+08         0.15214E+07         0.00000E+00
    0.15214E+07        -0.49925E+08         0.00000E+00
    0.00000E+00         0.00000E+00        -0.49480E+08
 
   -0.49411E+08         0.15518E+07         0.00000E+00
    0.15518E+07        -0.49922E+08         0.00000E+00
    0.00000E+00         0.00000E+00        -0.49481E+08
 
   -0.49420E+08         0.15819E+07         0.00000E+00
    0.15819E+07        -0.49918E+08         0.00000E+00
    0.00000E+00         0.00000E+00        -0.49482E+08
 
   -0.49429E+08         0.16115E+07         0.00000E+00
    0.16115E+07        -0.49914E+08         0.00000E+00
    0.00000E+00         0.00000E+00        -0.49483E+08
 
   -0.49438E+08         0.16408E+07         0.00000E+00
    0.16408E+07        -0.49910E+08         0.00000E+00
    0.00000E+00         0.00000E+00        -0.49484E+08
 
   -0.49448E+08         0.16696E+07         0.00000E+00
    0.16696E+07        -0.49906E+08         0.00000E+00
    0.00000E+00         0.00000E+00        -0.49485E+08
 
   -0.49457E+08         0.16981E+07         0.00000E+00
    0.16981E+07        -0.49902E+08         0.00000E+00
    0.00000E+00         0.00000E+00        -0.49486E+08
 
   -0.49466E+08         0.17261E+07         0.00000E+00
    0.17261E+07        -0.49898E+08         0.00000E+00
    0.00000E+00         0.00000E+00        -0.49487E+08
 
   -0.49476E+08         0.17538E+07         0.00000E+00
    0.17538E+07        -0.49894E+08         0.00000E+00
    0.00000E+00         0.00000E+00        -0.49489E+08
 
   -0.49485E+08         0.17811E+07         0.00000E+00
    0.17811E+07        -0.49890E+08         0.00000E+00
    0.00000E+00         0.00000E+00        -0.49490E+08
 
   -0.48901E+08         0.22343E+05         0.00000E+00
    0.22343E+05        -0.50000E+08         0.00000E+00
    0.00000E+00         0.00000E+00        -0.49288E+08
 
   -0.48907E+08         0.66397E+05         0.00000E+00
    0.66397E+05        -0.50000E+08         0.00000E+00
    0.00000E+00         0.00000E+00        -0.49289E+08
 
   -0.48913E+08         0.11018E+06         0.00000E+00
    0.11018E+06        -0.50000E+08         0.00000E+00
    0.00000E+00         0.00000E+00        -0.49291E+08
 
   -0.48920E+08         0.15368E+06         0.00000E+00
    0.15368E+06        -0.49999E+08         0.00000E+00
    0.00000E+00         0.00000E+00        -0.49292E+08
 
   -0.48926E+08         0.19690E+06         0.00000E+00
    0.19690E+06        -0.49999E+08         0.00000E+00
    0.00000E+00         0.00000E+00        -0.49293E+08
 
   -0.48933E+08         0.23983E+06         0.00000E+00
    0.23983E+06        -0.49998E+08         0.00000E+00
    0.00000E+00         0.00000E+00        -0.49294E+08
 
   -0.48940E+08         0.28247E+06         0.00000E+00
    0.28247E+06        -0.49998E+08         0.00000E+00
    0.00000E+00         0.00000E+00        -0.49296E+08
 
   -0.48947E+08         0.32483E+06         0.00000E+00
    0.32483E+06        -0.49997E+08         0.00000E+00
    0.00000E+00         0.00000E+00        -0.49297E+08
 
   -0.48955E+08         0.36689E+06         0.00000E+00
    0.36689E+06        -0.49996E+08         0.00000E+00
    0.00000E+00         0.00000E+00        -0.49298E+08
 
   -0.48962E+08         0.40865E+06         0.00000E+00
    0.40865E+06        -0.49995E+08         0.00000E+00
    0.00000E+00         0.00000E+00        -0.49300E+08
 
   -0.48969E+08         0.45011E+06         0.00000E+00
    0.45011E+06        -0.49994E+08         0.00000E+00
    0.00000E+00         0.00000E+00        -0.49301E+08
 
   -0.48977E+08         0.49127E+06         0.00000E+00
    0.49127E+06        -0.49992E+08         0.00000E+00
    0.00000E+00         0.00000E+00        -0.49302E+08
 
   -0.48985E+08         0.53212E+06         0.00000E+00
    0.53212E+06        -0.49991E+08         0.00000E+00
    0.00000E+00         0.00000E+00        -0.49304E+08
 
   -0.48993E+08         0.57266E+06         0.00000E+00
    0.57266E+06        -0.49989E+08         0.00000E+00
    0.00000E+00         0.00000E+00        -0.49305E+08
 
   -0.49001E+08         0.61289E+06         0.00000E+00
    0.61289E+06        -0.49988E+08         0.00000E+00
    0.00000E+00         0.00000E+00        -0.49306E+08
 
   -0.49009E+08         0.65281E+06         0.00000E+00
    0.65281E+06        -0.49986E+08         0.00000E+00
    0.00000E+00         0.00000E+00        -0.49308E+08
 
   -0.49017E+08         0.69241E+06         0.00000E+00
    0.69241E+06        -0.49984E+08         0.00000E+00
    0.00000E+00         0.00000E+00        -0.49309E+08
 
   -0.49025E+08         0.73169E+06         0.00000E+00
    0.73169E+06        -0.49983E+08         0.00000E+00
    0.00000E+00         0.00000E+00        -0.49310E+08
 
   -0.49034E+08         0.77064E+06         0.00000E+00
    0.77064E+06        -0.49981E+08         0.00000E+00
    0.00000E+00         0.00000E+00        -0.49312E+08
 
   -0.49043E+08         0.80928E+06         0.00000E+00
    0.80928E+06        -0.49978E+08         0.00000E+00
    0.00000E+00         0.00000E+00        -0.49313E+08
 
   -0.49051E+08         0.84758E+06         0.00000E+00
    0.84758E+06        -0.49976E+08         0.00000E+00
    0.00000E+00         0.00000E+00        -0.49315E+08
 
   -0.49060E+08         0.88555E+06         0.00000E+00
    0.88555E+06        -0.49974E+08         0.00000E+00
    0.00000E+00         0.00000E+00        -0.49316E+08
 
   -0.49069E+08         0.92319E+06         0.00000E+00
    0.92319E+06        -0.49971E+08         0.00000E+00
    0.00000E+00         0.00000E+00        -0.49317E+08
 
   -0.49078E+08         0.96050E+06         0.00000E+00
    0.96050E+06        -0.49969E+08         0.00000E+00
    0.00000E+00         0.00000E+00        -0.49319E+08
 
   -0.49087E+08         0.99747E+06         0.00000E+00
    0.99747E+06        -0.49966E+08         0.00000E+00
    0.00000E+00         0.00000E+00        -0.49320E+08
 
   -0.49097E+08         0.10341E+07         0.00000E+00
    0.10341E+07        -0.49964E+08         0.00000E+00
    0.00000E+00         0.00000E+00        -0.49322E+08
 
   -0.49106E+08         0.10704E+07         0.00000E+00
    0.10704E+07        -0.49961E+08         0.00000E+00
    0.00000E+00         0.00000E+00        -0.49323E+08
 
   -0.49115E+08         0.11063E+07         0.00000E+00
    0.11063E+07        -0.49958E+08         0.00000E+00
    0.00000E+00         0.00000E+00        -0.49324E+08
 
   -0.49125E+08         0.11419E+07         0.00000E+00
    0.11419E+07        -0.49955E+08         0.00000E+00
    0.00000E+00         0.00000E+00        -0.49326E+08
 
   -0.49135E+08         0.11772E+07         0.00000E+00
    0.11772E+07        -0.49952E+08         0.00000E+00
    0.00000E+00         0.00000E+00        -0.49327E+08
 
   -0.49145E+08         0.12120E+07         0.00000E+00
    0.12120E+07        -0.49948E+08         0.00000E+00
    0.00000E+00         0.00000E+00        -0.49328E+08
 
   -0.49155E+08         0.12466E+07         0.00000E+00
    0.12466E+07        -0.49945E+08         0.00000E+00
    0.00000E+00         0.00000E+00        -0.49330E+08
 
   -0.49165E+08         0.12808E+07         0.00000E+00
    0.12808E+07        -0.49942E+08         0.00000E+00
    0.00000E+00         0.00000E+00        -0.49331E+08
 
   -0.49175E+08         0.13146E+07         0.00000E+00
    0.13146E+07        -0.49938E+08         0.00000E+00
    0.00000E+00         0.00000E+00        -0.49333E+08
 
   -0.49185E+08         0.13480E+07         0.00000E+00
    0.13480E+07        -0.49934E+08         0.00000E+00
    0.00000E+00         0.00000E+00        -0.49334E+08
 
   -0.49195E+08         0.13811E+07         0.00000E+00
    0.13811E+07        -0.49931E+08         0.00000E+00
    0.00000E+00         0.00000E+00        -0.49335E+08
 
   -0.49206E+08         0.14138E+07         0.00000E+00
    0.14138E+07        -0.49927E+08         0.00000E+00
    0.00000E+00         0.00000E+00        -0.49337E+08
 
   -0.49216E+08         0.14462E+07         0.00000E+00
    0.14462E+07        -0.49923E+08         0.00000E+00
    0.00000E+00         0.00000E+00        -0.49338E+08
 
   -0.49227E+08         0.14782E+07         0.00000E+00
    0.14782E+07        -0.49919E+08         0.00000E+00
    0.00000E+00         0.00000E+00        -0.49339E+08
 
   -0.49237E+08         0.15098E+07         0.00000E+00
    0.15098E+07        -0.49915E+08         0.00000E+00
    0.00000E+00         0.00000E+00        -0.49341E+08
 
   -0.49248E+08         0.15410E+07         0.00000E+00
    0.15410E+07        -0.49911E+08         0.00000E+00
    0.00000E+00         0.00000E+00        -0.49342E+08
 
   -0.49259E+08         0.15718E+07         0.00000E+00
    0.15718E+07        -0.49906E+08         0.00000E+00
    0.00000E+00         0.00000E+00        -0.49344E+08
 
   -0.49270E+08         0.16023E+07         0.00000E+00
    0.16023E+07        -0.49902E+08         0.00000E+00
    0.00000E+00         0.00000E+00        -0.49345E+08
 
   -0.49281E+08         0.16324E+07         0.00000E+00
    0.16324E+07        -0.49897E+08         0.00000E+00
    0.00000E+00         0.00000E+00        -0.49346E+08
 
   -0.49292E+08         0.16620E+07         0.00000E+00
    0.16620E+07        -0.49893E+08         0.00000E+00
    0.00000E+00         0.00000E+00        -0.49348E+08
 
   -0.49303E+08         0.16913E+07         0.00000E+00
    0.16913E+07        -0.49888E+08         0.00000E+00
    0.00000E+00         0.00000E+00        -0.49349E+08
 
   -0.49315E+08         0.17202E+07         0.00000E+00
    0.17202E+07        -0.49883E+08         0.00000E+00
    0.00000E+00         0.00000E+00        -0.49350E+08
 
   -0.49326E+08         0.17487E+07         0.00000E+00
    0.17487E+07        -0.49878E+08         0.00000E+00
    0.00000E+00         0.00000E+00        -0.49352E+08
 
   -0.49337E+08         0.17768E+07         0.00000E+00
    0.17768E+07        -0.49873E+08         0.00000E+00
    0.00000E+00         0.00000E+00        -0.49353E+08
 
   -0.49349E+08         0.18045E+07         0.00000E+00
    0.18045E+07        -0.49868E+08         0.00000E+00
    0.00000E+00         0.00000E+00        -0.49354E+08
 
   -0.48678E+08         0.22670E+05         0.00000E+00
    0.22670E+05        -0.50000E+08         0.00000E+00
    0.00000E+00         0.00000E+00        -0.49138E+08
 
   -0.48686E+08         0.67362E+05         0.00000E+00
    0.67362E+05        -0.50000E+08         0.00000E+00
    0.00000E+00         0.00000E+00        -0.49139E+08
 
   -0.48693E+08         0.11177E+06         0.00000E+00
    0.11177E+06        -0.50000E+08         0.00000E+00
    0.00000E+00         0.00000E+00        -0.49141E+08
 
   -0.48701E+08         0.15590E+06         0.00000E+00
    0.15590E+06        -0.49999E+08         0.00000E+00
    0.00000E+00         0.00000E+00        -0.49142E+08
 
   -0.48709E+08         0.19975E+06         0.00000E+00
    0.19975E+06        -0.49999E+08         0.00000E+00
    0.00000E+00         0.00000E+00        -0.49144E+08
 
   -0.48718E+08         0.24330E+06         0.00000E+00
    0.24330E+06        -0.49998E+08         0.00000E+00
    0.00000E+00         0.00000E+00        -0.49145E+08
 
   -0.48726E+08         0.28656E+06         0.00000E+00
    0.28656E+06        -0.49997E+08         0.00000E+00
    0.00000E+00         0.00000E+00        -0.49147E+08
 
   -0.48735E+08         0.32952E+06         0.00000E+00
    0.32952E+06        -0.49996E+08         0.00000E+00
    0.00000E+00         0.00000E+00        -0.49148E+08
 
   -0.48743E+08         0.37218E+06         0.00000E+00
    0.37218E+06        -0.49995E+08         0.00000E+00
    0.00000E+00         0.00000E+00        -0.49150E+08
 
   -0.48752E+08         0.41455E+06         0.00000E+00
    0.41455E+06        -0.49994E+08         0.00000E+00
    0.00000E+00         0.00000E+00        -0.49152E+08
 
   -0.48761E+08         0.45660E+06         0.00000E+00
    0.45660E+06        -0.49993E+08         0.00000E+00
    0.00000E+00         0.00000E+00        -0.49153E+08
 
   -0.48771E+08         0.49835E+06         0.00000E+00
    0.49835E+06        -0.49991E+08         0.00000E+00
    0.00000E+00         0.00000E+00        -0.49155E+08
 
   -0.48780E+08         0.53979E+06         0.00000E+00
    0.53979E+06        -0.49990E+08         0.00000E+00
    0.00000E+00         0.00000E+00        -0.49156E+08
 
   -0.48789E+08         0.58092E+06         0.00000E+00
    0.58092E+06        -0.49988E+08         0.00000E+00
    0.00000E+00         0.00000E+00        -0.49158E+08
 
   -0.48799E+08         0.62173E+06         0.00000E+00
    0.62173E+06        -0.49986E+08         0.00000E+00
    0.00000E+00         0.00000E+00        -0.49160E+08
 
   -0.48809E+08         0.66223E+06         0.00000E+00
    0.66223E+06        -0.49984E+08         0.00000E+00
    0.00000E+00         0.00000E+00        -0.49161E+08
 
   -0.48818E+08         0.70240E+06         0.00000E+00
    0.70240E+06        -0.49982E+08         0.00000E+00
    0.00000E+00         0.00000E+00        -0.49163E+08
 
   -0.48828E+08         0.74225E+06         0.00000E+00
    0.74225E+06        -0.49980E+08         0.00000E+00
    0.00000E+00         0.00000E+00        -0.49165E+08
 
   -0.48839E+08         0.78178E+06         0.00000E+00
    0.78178E+06        -0.49977E+08         0.00000E+00
    0.00000E+00         0.00000E+00        -0.49166E+08
 
   -0.48849E+08         0.82098E+06         0.00000E+00
    0.82098E+06        -0.49975E+08         0.00000E+00
    0.00000E+00         0.00000E+00        -0.49168E+08
 
   -0.48859E+08         0.85984E+06         0.00000E+00
    0.85984E+06        -0.49972E+08         0.00000E+00
    0.00000E+00         0.00000E+00        -0.49170E+08
 
   -0.48870E+08         0.89838E+06         0.00000E+00
    0.89838E+06        -0.49970E+08         0.00000E+00
    0.00000E+00         0.00000E+00        -0.49171E+08
 
   -0.48880E+08         0.93658E+06         0.00000E+00
    0.93658E+06        -0.49967E+08         0.00000E+00
    0.00000E+00         0.00000E+00        -0.49173E+08
 
   -0.48891E+08         0.97444E+06         0.00000E+00
    0.97444E+06        -0.49964E+08         0.00000E+00
    0.00000E+00         0.00000E+00        -0.49175E+08
 
   -0.48902E+08         0.10120E+07         0.00000E+00
    0.10120E+07        -0.49961E+08         0.00000E+00
    0.00000E+00         0.00000E+00        -0.49176E+08
 
   -0.48913E+08         0.10491E+07         0.00000E+00
    0.10491E+07        -0.49958E+08         0.00000E+00
    0.00000E+00         0.00000E+00        -0.49178E+08
 
   -0.48924E+08         0.10860E+07         0.00000E+00
    0.10860E+07        -0.49954E+08         0.00000E+00
    0.00000E+00         0.00000E+00        -0.49179E+08
 
   -0.48935E+08         0.11225E+07         0.00000E+00
    0.11225E+07        -0.49951E+08         0.00000E+00
    0.00000E+00         0.00000E+00        -0.49181E+08
 
   -0.48947E+08         0.11586E+07         0.00000E+00
    0.11586E+07        -0.49947E+08         0.00000E+00
    0.00000E+00         0.00000E+00        -0.49183E+08
 
   -0.48958E+08         0.11944E+07         0.00000E+00
    0.11944E+07        -0.49944E+08         0.00000E+00
    0.00000E+00         0.00000E+00        -0.49184E+08
 
   -0.48970E+08         0.12298E+07         0.00000E+00
    0.12298E+07        -0.49940E+08         0.00000E+00
    0.00000E+00         0.00000E+00        -0.49186E+08
 
   -0.48981E+08         0.12649E+07         0.00000E+00
    0.12649E+07        -0.49936E+08         0.00000E+00
    0.00000E+00         0.00000E+00        -0.49188E+08
 
   -0.48993E+08         0.12996E+07         0.00000E+00
    0.12996E+07        -0.49932E+08         0.00000E+00
    0.00000E+00         0.00000E+00        -0.49189E+08
 
   -0.49005E+08         0.13340E+07         0.00000E+00
    0.13340E+07        -0.49928E+08         0.00000E+00
    0.00000E+00         0.00000E+00        -0.49191E+08
 
   -0.49017E+08         0.13680E+07         0.00000E+00
    0.13680E+07        -0.49924E+08         0.00000E+00
    0.00000E+00         0.00000E+00        -0.49193E+08
 
   -0.49029E+08         0.14016E+07         0.00000E+00
    0.14016E+07        -0.49919E+08         0.00000E+00
    0.00000E+00         0.00000E+00        -0.49194E+08
 
   -0.49041E+08         0.14349E+07         0.00000E+00
    0.14349E+07        -0.49915E+08         0.00000E+00
    0.00000E+00         0.00000E+00        -0.49196E+08
 
   -0.49054E+08         0.14678E+07         0.00000E+00
    0.14678E+07        -0.49910E+08         0.00000E+00
    0.00000E+00         0.00000E+00        -0.49197E+08
 
   -0.49066E+08         0.15003E+07         0.00000E+00
    0.15003E+07        -0.49906E+08         0.00000E+00
    0.00000E+00         0.00000E+00        -0.49199E+08
 
   -0.49079E+08         0.15324E+07         0.00000E+00
    0.15324E+07        -0.49901E+08         0.00000E+00
    0.00000E+00         0.00000E+00        -0.49201E+08
 
   -0.49092E+08         0.15642E+07         0.00000E+00
    0.15642E+07        -0.49896E+08         0.00000E+00
    0.00000E+00         0.00000E+00        -0.49202E+08
 
   -0.49104E+08         0.15955E+07         0.00000E+00
    0.15955E+07        -0.49891E+08         0.00000E+00
    0.00000E+00         0.00000E+00        -0.49204E+08
 
   -0.49117E+08         0.16265E+07         0.00000E+00
    0.16265E+07        -0.49886E+08         0.00000E+00
    0.00000E+00         0.00000E+00        -0.49205E+08
 
   -0.49130E+08         0.16571E+07         0.00000E+00
    0.16571E+07        -0.49880E+08         0.00000E+00
    0.00000E+00         0.00000E+00        -0.49207E+08
 
   -0.49143E+08         0.16873E+07         0.00000E+00
    0.16873E+07        -0.49875E+08         0.00000E+00
    0.00000E+00         0.00000E+00        -0.49209E+08
 
   -0.49156E+08         0.17171E+07         0.00000E+00
    0.17171E+07        -0.49870E+08         0.00000E+00
    0.00000E+00         0.00000E+00        -0.49210E+08
 
   -0.49170E+08         0.17466E+07         0.00000E+00
    0.17466E+07        -0.49864E+08         0.00000E+00
    0.00000E+00         0.00000E+00        -0.49212E+08
 
   -0.49183E+08         0.17756E+07         0.00000E+00
    0.17756E+07        -0.49858E+08         0.00000E+00
    0.00000E+00         0.00000E+00        -0.49213E+08
 
   -0.49197E+08         0.18042E+07         0.00000E+00
    0.18042E+07        -0.49852E+08         0.00000E+00
    0.00000E+00         0.00000E+00        -0.49215E+08
 
   -0.49210E+08         0.18324E+07         0.00000E+00
    0.18324E+07        -0.49846E+08         0.00000E+00
    0.00000E+00         0.00000E+00        -0.49216E+08
 
   -0.48452E+08         0.23044E+05         0.00000E+00
    0.23044E+05        -0.50000E+08         0.00000E+00
    0.00000E+00         0.00000E+00        -0.48984E+08
 
   -0.48461E+08         0.68469E+05         0.00000E+00
    0.68469E+05        -0.50000E+08         0.00000E+00
    0.00000E+00         0.00000E+00        -0.48986E+08
 
   -0.48470E+08         0.11361E+06         0.00000E+00
    0.11361E+06        -0.50000E+08         0.00000E+00
    0.00000E+00         0.00000E+00        -0.48988E+08
 
   -0.48480E+08         0.15846E+06         0.00000E+00
    0.15846E+06        -0.49999E+08         0.00000E+00
    0.00000E+00         0.00000E+00        -0.48990E+08
 
   -0.48489E+08         0.20301E+06         0.00000E+00
    0.20301E+06        -0.49998E+08         0.00000E+00
    0.00000E+00         0.00000E+00        -0.48991E+08
 
   -0.48499E+08         0.24727E+06         0.00000E+00
    0.24727E+06        -0.49998E+08         0.00000E+00
    0.00000E+00         0.00000E+00        -0.48993E+08
 
   -0.48509E+08         0.29123E+06         0.00000E+00
    0.29123E+06        -0.49997E+08         0.00000E+00
    0.00000E+00         0.00000E+00        -0.48995E+08
 
   -0.48519E+08         0.33489E+06         0.00000E+00
    0.33489E+06        -0.49996E+08         0.00000E+00
    0.00000E+00         0.00000E+00        -0.48997E+08
 
   -0.48529E+08         0.37825E+06         0.00000E+00
    0.37825E+06        -0.49994E+08         0.00000E+00
    0.00000E+00         0.00000E+00        -0.48999E+08
 
   -0.48540E+08         0.42130E+06         0.00000E+00
    0.42130E+06        -0.49993E+08         0.00000E+00
    0.00000E+00         0.00000E+00        -0.49001E+08
 
   -0.48550E+08         0.46404E+06         0.00000E+00
    0.46404E+06        -0.49992E+08         0.00000E+00
    0.00000E+00         0.00000E+00        -0.49003E+08
 
   -0.48561E+08         0.50647E+06         0.00000E+00
    0.50647E+06        -0.49990E+08         0.00000E+00
    0.00000E+00         0.00000E+00        -0.49004E+08
 
   -0.48572E+08         0.54859E+06         0.00000E+00
    0.54859E+06        -0.49988E+08         0.00000E+00
    0.00000E+00         0.00000E+00        -0.49006E+08
 
   -0.48583E+08         0.59039E+06         0.00000E+00
    0.59039E+06        -0.49986E+08         0.00000E+00
    0.00000E+00         0.00000E+00        -0.49008E+08
 
   -0.48594E+08         0.63187E+06         0.00000E+00
    0.63187E+06        -0.49984E+08         0.00000E+00
    0.00000E+00         0.00000E+00        -0.49010E+08
 
   -0.48605E+08         0.67302E+06         0.00000E+00
    0.67302E+06        -0.49982E+08         0.00000E+00
    0.00000E+00         0.00000E+00        -0.49012E+08
 
   -0.48617E+08         0.71386E+06         0.00000E+00
    0.71386E+06        -0.49979E+08         0.00000E+00
    0.00000E+00         0.00000E+00        -0.49014E+08
 
   -0.48628E+08         0.75437E+06         0.00000E+00
    0.75437E+06        -0.49977E+08         0.00000E+00
    0.00000E+00         0.00000E+00        -0.49016E+08
 
   -0.48640E+08         0.79455E+06         0.00000E+00
    0.79455E+06        -0.49974E+08         0.00000E+00
    0.00000E+00         0.00000E+00        -0.49018E+08
 
   -0.48652E+08         0.83440E+06         0.00000E+00
    0.83440E+06        -0.49972E+08         0.00000E+00
    0.00000E+00         0.00000E+00        -0.49020E+08
 
   -0.48664E+08         0.87392E+06         0.00000E+00
    0.87392E+06        -0.49969E+08         0.00000E+00
    0.00000E+00         0.00000E+00        -0.49022E+08
 
   -0.48676E+08         0.91310E+06         0.00000E+00
    0.91310E+06        -0.49966E+08         0.00000E+00
    0.00000E+00         0.00000E+00        -0.49024E+08
 
   -0.48689E+08         0.95194E+06         0.00000E+00
    0.95194E+06        -0.49962E+08         0.00000E+00
    0.00000E+00         0.00000E+00        -0.49025E+08
 
   -0.48701E+08         0.99045E+06         0.00000E+00
    0.99045E+06        -0.49959E+08         0.00000E+00
    0.00000E+00         0.00000E+00        -0.49027E+08
 
   -0.48714E+08         0.10286E+07         0.00000E+00
    0.10286E+07        -0.49956E+08         0.00000E+00
    0.00000E+00         0.00000E+00        -0.49029E+08
 
   -0.48726E+08         0.10664E+07         0.00000E+00
    0.10664E+07        -0.49952E+08         0.00000E+00
    0.00000E+00         0.00000E+00        -0.49031E+08
 
   -0.48739E+08         0.11039E+07         0.00000E+00
    0.11039E+07        -0.49948E+08         0.00000E+00
    0.00000E+00         0.00000E+00        -0.49033E+08
 
   -0.48752E+08         0.11410E+07         0.00000E+00
    0.11410E+07        -0.49944E+08         0.00000E+00
    0.00000E+00         0.00000E+00        -0.49035E+08
 
   -0.48765E+08         0.11778E+07         0.00000E+00
    0.11778E+07        -0.49940E+08         0.00000E+00
    0.00000E+00         0.00000E+00        -0.49037E+08
 
   -0.48778E+08         0.12142E+07         0.00000E+00
    0.12142E+07        -0.49936E+08         0.00000E+00
    0.00000E+00         0.00000E+00        -0.49039E+08
 
   -0.48792E+08         0.12503E+07         0.00000E+00
    0.12503E+07        -0.49932E+08         0.00000E+00
    0.00000E+00         0.00000E+00        -0.49041E+08
 
   -0.48805E+08         0.12860E+07         0.00000E+00
    0.12860E+07        -0.49927E+08         0.00000E+00
    0.00000E+00         0.00000E+00        -0.49043E+08
 
   -0.48819E+08         0.13214E+07         0.00000E+00
    0.13214E+07        -0.49923E+08         0.00000E+00
    0.00000E+00         0.00000E+00        -0.49045E+08
 
   -0.48833E+08         0.13563E+07         0.00000E+00
    0.13563E+07        -0.49918E+08         0.00000E+00
    0.00000E+00         0.00000E+00        -0.49046E+08
 
   -0.48847E+08         0.13910E+07         0.00000E+00
    0.13910E+07        -0.49913E+08         0.00000E+00
    0.00000E+00         0.00000E+00        -0.49048E+08
 
   -0.48860E+08         0.14252E+07         0.00000E+00
    0.14252E+07        -0.49908E+08         0.00000E+00
    0.00000E+00         0.00000E+00        -0.49050E+08
 
   -0.48875E+08         0.14591E+07         0.00000E+00
    0.14591E+07        -0.49903E+08         0.00000E+00
    0.00000E+00         0.00000E+00        -0.49052E+08
 
   -0.48889E+08         0.14926E+07         0.00000E+00
    0.14926E+07        -0.49898E+08         0.00000E+00
    0.00000E+00         0.00000E+00        -0.49054E+08
 
   -0.48903E+08         0.15258E+07         0.00000E+00
    0.15258E+07        -0.49893E+08         0.00000E+00
    0.00000E+00         0.00000E+00        -0.49056E+08
 
   -0.48918E+08         0.15585E+07         0.00000E+00
    0.15585E+07        -0.49887E+08         0.00000E+00
    0.00000E+00         0.00000E+00        -0.49058E+08
 
   -0.48932E+08         0.15909E+07         0.00000E+00
    0.15909E+07        -0.49881E+08         0.00000E+00
    0.00000E+00         0.00000E+00        -0.49059E+08
 
   -0.48947E+08         0.16229E+07         0.00000E+00
    0.16229E+07        -0.49876E+08         0.00000E+00
    0.00000E+00         0.00000E+00        -0.49061E+08
 
   -0.48962E+08         0.16545E+07         0.00000E+00
    0.16545E+07        -0.49870E+08         0.00000E+00
    0.00000E+00         0.00000E+00        -0.49063E+08
 
   -0.48977E+08         0.16858E+07         0.00000E+00
    0.16858E+07        -0.49864E+08         0.00000E+00
    0.00000E+00         0.00000E+00        -0.49065E+08
 
   -0.48992E+08         0.17166E+07         0.00000E+00
    0.17166E+07        -0.49858E+08         0.00000E+00
    0.00000E+00         0.00000E+00        -0.49067E+08
 
   -0.49007E+08         0.17471E+07         0.00000E+00
    0.17471E+07        -0.49851E+08         0.00000E+00
    0.00000E+00         0.00000E+00        -0.49069E+08
 
   -0.49022E+08         0.17771E+07         0.00000E+00
    0.17771E+07        -0.49845E+08         0.00000E+00
    0.00000E+00         0.00000E+00        -0.49070E+08
 
   -0.49038E+08         0.18068E+07         0.00000E+00
    0.18068E+07        -0.49838E+08         0.00000E+00
    0.00000E+00         0.00000E+00        -0.49072E+08
 
   -0.49053E+08         0.18360E+07         0.00000E+00
    0.18360E+07        -0.49831E+08         0.00000E+00
    0.00000E+00         0.00000E+00        -0.49074E+08
 
   -0.49069E+08         0.18648E+07         0.00000E+00
    0.18648E+07        -0.49825E+08         0.00000E+00
    0.00000E+00         0.00000E+00        -0.49076E+08
 
   -0.48222E+08         0.23465E+05         0.00000E+00
    0.23465E+05        -0.50000E+08         0.00000E+00
    0.00000E+00         0.00000E+00        -0.48827E+08
 
   -0.48233E+08         0.69715E+05         0.00000E+00
    0.69715E+05        -0.50000E+08         0.00000E+00
    0.00000E+00         0.00000E+00        -0.48829E+08
 
   -0.48243E+08         0.11567E+06         0.00000E+00
    0.11567E+06        -0.49999E+08         0.00000E+00
    0.00000E+00         0.00000E+00        -0.48831E+08
 
   -0.48254E+08         0.16133E+06         0.00000E+00
    0.16133E+06        -0.49999E+08         0.00000E+00
    0.00000E+00         0.00000E+00        -0.48834E+08
 
   -0.48265E+08         0.20669E+06         0.00000E+00
    0.20669E+06        -0.49998E+08         0.00000E+00
    0.00000E+00         0.00000E+00        -0.48836E+08
 
   -0.48276E+08         0.25175E+06         0.00000E+00
    0.25175E+06        -0.49997E+08         0.00000E+00
    0.00000E+00         0.00000E+00        -0.48838E+08
 
   -0.48288E+08         0.29650E+06         0.00000E+00
    0.29650E+06        -0.49996E+08         0.00000E+00
    0.00000E+00         0.00000E+00        -0.48840E+08
 
   -0.48299E+08         0.34094E+06         0.00000E+00
    0.34094E+06        -0.49995E+08         0.00000E+00
    0.00000E+00         0.00000E+00        -0.48842E+08
 
   -0.48311E+08         0.38508E+06         0.00000E+00
    0.38508E+06        -0.49994E+08         0.00000E+00
    0.00000E+00         0.00000E+00        -0.48844E+08
 
   -0.48323E+08         0.42890E+06         0.00000E+00
    0.42890E+06        -0.49992E+08         0.00000E+00
    0.00000E+00         0.00000E+00        -0.48846E+08
 
   -0.48335E+08         0.47241E+06         0.00000E+00
    0.47241E+06        -0.49991E+08         0.00000E+00
    0.00000E+00         0.00000E+00        -0.48848E+08
 
   -0.48348E+08         0.51561E+06         0.00000E+00
    0.51561E+06        -0.49989E+08         0.00000E+00
    0.00000E+00         0.00000E+00        -0.48851E+08
 
   -0.48360E+08         0.55848E+06         0.00000E+00
    0.55848E+06        -0.49987E+08         0.00000E+00
    0.00000E+00         0.00000E+00        -0.48853E+08
 
   -0.48373E+08         0.60104E+06         0.00000E+00
    0.60104E+06        -0.49985E+08         0.00000E+00
    0.00000E+00         0.00000E+00        -0.48855E+08
 
   -0.48386E+08         0.64327E+06         0.00000E+00
    0.64327E+06        -0.49982E+08         0.00000E+00
    0.00000E+00         0.00000E+00        -0.48857E+08
 
   -0.48398E+08         0.68518E+06         0.00000E+00
    0.68518E+06        -0.49980E+08         0.00000E+00
    0.00000E+00         0.00000E+00        -0.48859E+08
 
   -0.48412E+08         0.72676E+06         0.00000E+00
    0.72676E+06        -0.49977E+08         0.00000E+00
    0.00000E+00         0.00000E+00        -0.48862E+08
 
   -0.48425E+08         0.76801E+06         0.00000E+00
    0.76801E+06        -0.49974E+08         0.00000E+00
    0.00000E+00         0.00000E+00        -0.48864E+08
 
   -0.48438E+08         0.80893E+06         0.00000E+00
    0.80893E+06        -0.49971E+08         0.00000E+00
    0.00000E+00         0.00000E+00        -0.48866E+08
 
   -0.48452E+08         0.84952E+06         0.00000E+00
    0.84952E+06        -0.49968E+08         0.00000E+00
    0.00000E+00         0.00000E+00        -0.48868E+08
 
   -0.48466E+08         0.88977E+06         0.00000E+00
    0.88977E+06        -0.49965E+08         0.00000E+00
    0.00000E+00         0.00000E+00        -0.48870E+08
 
   -0.48479E+08         0.92968E+06         0.00000E+00
    0.92968E+06        -0.49962E+08         0.00000E+00
    0.00000E+00         0.00000E+00        -0.48872E+08
 
   -0.48493E+08         0.96926E+06         0.00000E+00
    0.96926E+06        -0.49958E+08         0.00000E+00
    0.00000E+00         0.00000E+00        -0.48875E+08
 
   -0.48508E+08         0.10085E+07         0.00000E+00
    0.10085E+07        -0.49954E+08         0.00000E+00
    0.00000E+00         0.00000E+00        -0.48877E+08
 
   -0.48522E+08         0.10474E+07         0.00000E+00
    0.10474E+07        -0.49950E+08         0.00000E+00
    0.00000E+00         0.00000E+00        -0.48879E+08
 
   -0.48536E+08         0.10859E+07         0.00000E+00
    0.10859E+07        -0.49946E+08         0.00000E+00
    0.00000E+00         0.00000E+00        -0.48881E+08
 
   -0.48551E+08         0.11241E+07         0.00000E+00
    0.11241E+07        -0.49942E+08         0.00000E+00
    0.00000E+00         0.00000E+00        -0.48883E+08
 
   -0.48566E+08         0.11620E+07         0.00000E+00
    0.11620E+07        -0.49938E+08         0.00000E+00
    0.00000E+00         0.00000E+00        -0.48886E+08
 
   -0.48580E+08         0.11995E+07         0.00000E+00
    0.11995E+07        -0.49933E+08         0.00000E+00
    0.00000E+00         0.00000E+00        -0.48888E+08
 
   -0.48595E+08         0.12366E+07         0.00000E+00
    0.12366E+07        -0.49929E+08         0.00000E+00
    0.00000E+00         0.00000E+00        -0.48890E+08
 
   -0.48611E+08         0.12734E+07         0.00000E+00
    0.12734E+07        -0.49924E+08         0.00000E+00
    0.00000E+00         0.00000E+00        -0.48892E+08
 
   -0.48626E+08         0.13099E+07         0.00000E+00
    0.13099E+07        -0.49919E+08         0.00000E+00
    0.00000E+00         0.00000E+00        -0.48894E+08
 
   -0.48641E+08         0.13459E+07         0.00000E+00
    0.13459E+07        -0.49914E+08         0.00000E+00
    0.00000E+00         0.00000E+00        -0.48896E+08
 
   -0.48657E+08         0.13816E+07         0.00000E+00
    0.13816E+07        -0.49908E+08         0.00000E+00
    0.00000E+00         0.00000E+00        -0.48898E+08
 
   -0.48673E+08         0.14170E+07         0.00000E+00
    0.14170E+07        -0.49903E+08         0.00000E+00
    0.00000E+00         0.00000E+00        -0.48901E+08
 
   -0.48688E+08         0.14520E+07         0.00000E+00
    0.14520E+07        -0.49897E+08         0.00000E+00
    0.00000E+00         0.00000E+00        -0.48903E+08
 
   -0.48704E+08         0.14866E+07         0.00000E+00
    0.14866E+07        -0.49892E+08         0.00000E+00
    0.00000E+00         0.00000E+00        -0.48905E+08
 
   -0.48720E+08         0.15208E+07         0.00000E+00
    0.15208E+07        -0.49886E+08         0.00000E+00
    0.00000E+00         0.00000E+00        -0.48907E+08
 
   -0.48737E+08         0.15547E+07         0.00000E+00
    0.15547E+07        -0.49880E+08         0.00000E+00
    0.00000E+00         0.00000E+00        -0.48909E+08
 
   -0.48753E+08         0.15882E+07         0.00000E+00
    0.15882E+07        -0.49874E+08         0.00000E+00
    0.00000E+00         0.00000E+00        -0.48911E+08
 
   -0.48769E+08         0.16213E+07         0.00000E+00
    0.16213E+07        -0.49867E+08         0.00000E+00
    0.00000E+00         0.00000E+00        -0.48913E+08
 
   -0.48786E+08         0.16540E+07         0.00000E+00
    0.16540E+07        -0.49861E+08         0.00000E+00
    0.00000E+00         0.00000E+00        -0.48915E+08
 
   -0.48803E+08         0.16864E+07         0.00000E+00
    0.16864E+07        -0.49854E+08         0.00000E+00
    0.00000E+00         0.00000E+00        -0.48917E+08
 
   -0.48820E+08         0.17183E+07         0.00000E+00
    0.17183E+07        -0.49847E+08         0.00000E+00
    0.00000E+00         0.00000E+00        -0.48919E+08
 
   -0.48837E+08         0.17499E+07         0.00000E+00
    0.17499E+07        -0.49840E+08         0.00000E+00
    0.00000E+00         0.00000E+00        -0.48921E+08
 
   -0.48854E+08         0.17811E+07         0.00000E+00
    0.17811E+07        -0.49833E+08         0.00000E+00
    0.00000E+00         0.00000E+00        -0.48924E+08
 
   -0.48871E+08         0.18118E+07         0.00000E+00
    0.18118E+07        -0.49826E+08         0.00000E+00
    0.00000E+00         0.00000E+00        -0.48926E+08
 
   -0.48888E+08         0.18422E+07         0.00000E+00
    0.18422E+07        -0.49818E+08         0.00000E+00
    0.00000E+00         0.00000E+00        -0.48928E+08
 
   -0.48906E+08         0.18722E+07         0.00000E+00
    0.18722E+07        -0.49811E+08         0.00000E+00
    0.00000E+00         0.00000E+00        -0.48930E+08
 
   -0.48924E+08         0.19018E+07         0.00000E+00
    0.19018E+07        -0.49803E+08         0.00000E+00
    0.00000E+00         0.00000E+00        -0.48932E+08
 
   -0.47988E+08         0.23933E+05         0.00000E+00
    0.23933E+05        -0.50000E+08         0.00000E+00
    0.00000E+00         0.00000E+00        -0.48666E+08
 
   -0.48000E+08         0.71096E+05         0.00000E+00
    0.71096E+05        -0.50000E+08         0.00000E+00
    0.00000E+00         0.00000E+00        -0.48669E+08
 
   -0.48012E+08         0.11796E+06         0.00000E+00
    0.11796E+06        -0.49999E+08         0.00000E+00
    0.00000E+00         0.00000E+00        -0.48671E+08
 
   -0.48024E+08         0.16451E+06         0.00000E+00
    0.16451E+06        -0.49999E+08         0.00000E+00
    0.00000E+00         0.00000E+00        -0.48673E+08
 
   -0.48037E+08         0.21076E+06         0.00000E+00
    0.21076E+06        -0.49998E+08         0.00000E+00
    0.00000E+00         0.00000E+00        -0.48676E+08
 
   -0.48050E+08         0.25670E+06         0.00000E+00
    0.25670E+06        -0.49997E+08         0.00000E+00
    0.00000E+00         0.00000E+00        -0.48678E+08
 
   -0.48063E+08         0.30233E+06         0.00000E+00
    0.30233E+06        -0.49996E+08         0.00000E+00
    0.00000E+00         0.00000E+00        -0.48681E+08
 
   -0.48076E+08         0.34765E+06         0.00000E+00
    0.34765E+06        -0.49995E+08         0.00000E+00
    0.00000E+00         0.00000E+00        -0.48683E+08
 
   -0.48089E+08         0.39265E+06         0.00000E+00
    0.39265E+06        -0.49993E+08         0.00000E+00
    0.00000E+00         0.00000E+00        -0.48685E+08
 
   -0.48103E+08         0.43733E+06         0.00000E+00
    0.43733E+06        -0.49991E+08         0.00000E+00
    0.00000E+00         0.00000E+00        -0.48688E+08
 
   -0.48116E+08         0.48170E+06         0.00000E+00
    0.48170E+06        -0.49990E+08         0.00000E+00
    0.00000E+00         0.00000E+00        -0.48690E+08
 
   -0.48130E+08         0.52574E+06         0.00000E+00
    0.52574E+06        -0.49988E+08         0.00000E+00
    0.00000E+00         0.00000E+00        -0.48693E+08
 
   -0.48144E+08         0.56946E+06         0.00000E+00
    0.56946E+06        -0.49985E+08         0.00000E+00
    0.00000E+00         0.00000E+00        -0.48695E+08
 
   -0.48159E+08         0.61285E+06         0.00000E+00
    0.61285E+06        -0.49983E+08         0.00000E+00
    0.00000E+00         0.00000E+00        -0.48698E+08
 
   -0.48173E+08         0.65592E+06         0.00000E+00
    0.65592E+06        -0.49980E+08         0.00000E+00
    0.00000E+00         0.00000E+00        -0.48700E+08
 
   -0.48188E+08         0.69866E+06         0.00000E+00
    0.69866E+06        -0.49978E+08         0.00000E+00
    0.00000E+00         0.00000E+00        -0.48703E+08
 
   -0.48202E+08         0.74107E+06         0.00000E+00
    0.74107E+06        -0.49975E+08         0.00000E+00
    0.00000E+00         0.00000E+00        -0.48705E+08
 
   -0.48217E+08         0.78314E+06         0.00000E+00
    0.78314E+06        -0.49972E+08         0.00000E+00
    0.00000E+00         0.00000E+00        -0.48708E+08
 
   -0.48232E+08         0.82489E+06         0.00000E+00
    0.82489E+06        -0.49968E+08         0.00000E+00
    0.00000E+00         0.00000E+00        -0.48710E+08
 
   -0.48248E+08         0.86630E+06         0.00000E+00
    0.86630E+06        -0.49965E+08         0.00000E+00
    0.00000E+00         0.00000E+00        -0.48713E+08
 
   -0.48263E+08         0.90737E+06         0.00000E+00
    0.90737E+06        -0.49961E+08         0.00000E+00
    0.00000E+00         0.00000E+00        -0.48715E+08
 
   -0.48279E+08         0.94810E+06         0.00000E+00
    0.94810E+06        -0.49958E+08         0.00000E+00
    0.00000E+00         0.00000E+00        -0.48717E+08
 
   -0.48294E+08         0.98849E+06         0.00000E+00
    0.98849E+06        -0.49954E+08         0.00000E+00
    0.00000E+00         0.00000E+00        -0.48720E+08
 
   -0.48310E+08         0.10285E+07         0.00000E+00
    0.10285E+07        -0.49950E+08         0.00000E+00
    0.00000E+00         0.00000E+00        -0.48722E+08
 
   -0.48326E+08         0.10682E+07         0.00000E+00
    0.10682E+07        -0.49945E+08         0.00000E+00
    0.00000E+00         0.00000E+00        -0.48725E+08
 
   -0.48342E+08         0.11076E+07         0.00000E+00
    0.11076E+07        -0.49941E+08         0.00000E+00
    0.00000E+00         0.00000E+00        -0.48727E+08
 
   -0.48359E+08         0.11466E+07         0.00000E+00
    0.11466E+07        -0.49936E+08         0.00000E+00
    0.00000E+00         0.00000E+00        -0.48730E+08
 
   -0.48375E+08         0.11853E+07         0.00000E+00
    0.11853E+07        -0.49931E+08         0.00000E+00
    0.00000E+00         0.00000E+00        -0.48732E+08
 
   -0.48392E+08         0.12236E+07         0.00000E+00
    0.12236E+07        -0.49926E+08         0.00000E+00
    0.00000E+00         0.00000E+00        -0.48735E+08
 
   -0.48409E+08         0.12615E+07         0.00000E+00
    0.12615E+07        -0.49921E+08         0.00000E+00
    0.00000E+00         0.00000E+00        -0.48737E+08
 
   -0.48426E+08         0.12992E+07         0.00000E+00
    0.12992E+07        -0.49916E+08         0.00000E+00
    0.00000E+00         0.00000E+00        -0.48739E+08
 
   -0.48443E+08         0.13364E+07         0.00000E+00
    0.13364E+07        -0.49910E+08         0.00000E+00
    0.00000E+00         0.00000E+00        -0.48742E+08
 
   -0.48460E+08         0.13733E+07         0.00000E+00
    0.13733E+07        -0.49905E+08         0.00000E+00
    0.00000E+00         0.00000E+00        -0.48744E+08
 
   -0.48477E+08         0.14098E+07         0.00000E+00
    0.14098E+07        -0.49899E+08         0.00000E+00
    0.00000E+00         0.00000E+00        -0.48747E+08
 
   -0.48495E+08         0.14460E+07         0.00000E+00
    0.14460E+07        -0.49893E+08         0.00000E+00
    0.00000E+00         0.00000E+00        -0.48749E+08
 
   -0.48512E+08         0.14818E+07         0.00000E+00
    0.14818E+07        -0.49887E+08         0.00000E+00
    0.00000E+00         0.00000E+00        -0.48751E+08
 
   -0.48530E+08         0.15172E+07         0.00000E+00
    0.15172E+07        -0.49880E+08         0.00000E+00
    0.00000E+00         0.00000E+00        -0.48754E+08
 
   -0.48548E+08         0.15523E+07         0.00000E+00
    0.15523E+07        -0.49874E+08         0.00000E+00
    0.00000E+00         0.00000E+00        -0.48756E+08
 
   -0.48566E+08         0.15869E+07         0.00000E+00
    0.15869E+07        -0.49867E+08         0.00000E+00
    0.00000E+00         0.00000E+00        -0.48758E+08
 
   -0.48584E+08         0.16213E+07         0.00000E+00
    0.16213E+07        -0.49860E+08         0.00000E+00
    0.00000E+00         0.00000E+00        -0.48761E+08
 
   -0.48603E+08         0.16552E+07         0.00000E+00
    0.16552E+07        -0.49853E+08         0.00000E+00
    0.00000E+00         0.00000E+00        -0.48763E+08
 
   -0.48621E+08         0.16887E+07         0.00000E+00
    0.16887E+07        -0.49846E+08         0.00000E+00
    0.00000E+00         0.00000E+00        -0.48765E+08
 
   -0.48640E+08         0.17219E+07         0.00000E+00
    0.17219E+07        -0.49839E+08         0.00000E+00
    0.00000E+00         0.00000E+00        -0.48768E+08
 
   -0.48659E+08         0.17547E+07         0.00000E+00
    0.17547E+07        -0.49831E+08         0.00000E+00
    0.00000E+00         0.00000E+00        -0.48770E+08
 
   -0.48678E+08         0.17871E+07         0.00000E+00
    0.17871E+07        -0.49823E+08         0.00000E+00
    0.00000E+00         0.00000E+00        -0.48772E+08
 
   -0.48697E+08         0.18191E+07         0.00000E+00
    0.18191E+07        -0.49815E+08         0.00000E+00
    0.00000E+00         0.00000E+00        -0.48775E+08
 
   -0.48716E+08         0.18507E+07         0.00000E+00
    0.18507E+07        -0.49807E+08         0.00000E+00
    0.00000E+00         0.00000E+00        -0.48777E+08
 
   -0.48735E+08         0.18820E+07         0.00000E+00
    0.18820E+07        -0.49799E+08         0.00000E+00
    0.00000E+00         0.00000E+00        -0.48779E+08
 
   -0.48755E+08         0.19128E+07         0.00000E+00
    0.19128E+07        -0.49790E+08         0.00000E+00
    0.00000E+00         0.00000E+00        -0.48781E+08
 
   -0.48775E+08         0.19432E+07         0.00000E+00
    0.19432E+07        -0.49782E+08         0.00000E+00
    0.00000E+00         0.00000E+00        -0.48784E+08
 
   -0.47749E+08         0.24445E+05         0.00000E+00
    0.24445E+05        -0.50000E+08         0.00000E+00
    0.00000E+00         0.00000E+00        -0.48501E+08
 
   -0.47762E+08         0.72609E+05         0.00000E+00
    0.72609E+05        -0.50000E+08         0.00000E+00
    0.00000E+00         0.00000E+00        -0.48503E+08
 
   -0.47776E+08         0.12046E+06         0.00000E+00
    0.12046E+06        -0.49999E+08         0.00000E+00
    0.00000E+00         0.00000E+00        -0.48506E+08
 
   -0.47790E+08         0.16800E+06         0.00000E+00
    0.16800E+06        -0.49999E+08         0.00000E+00
    0.00000E+00         0.00000E+00        -0.48509E+08
 
   -0.47804E+08         0.21523E+06         0.00000E+00
    0.21523E+06        -0.49998E+08         0.00000E+00
    0.00000E+00         0.00000E+00        -0.48511E+08
 
   -0.47818E+08         0.26213E+06         0.00000E+00
    0.26213E+06        -0.49997E+08         0.00000E+00
    0.00000E+00         0.00000E+00        -0.48514E+08
 
   -0.47833E+08         0.30872E+06         0.00000E+00
    0.30872E+06        -0.49996E+08         0.00000E+00
    0.00000E+00         0.00000E+00        -0.48517E+08
 
   -0.47848E+08         0.35499E+06         0.00000E+00
    0.35499E+06        -0.49994E+08         0.00000E+00
    0.00000E+00         0.00000E+00        -0.48520E+08
 
   -0.47863E+08         0.40094E+06         0.00000E+00
    0.40094E+06        -0.49993E+08         0.00000E+00
    0.00000E+00         0.00000E+00        -0.48522E+08
 
   -0.47878E+08         0.44656E+06         0.00000E+00
    0.44656E+06        -0.49991E+08         0.00000E+00
    0.00000E+00         0.00000E+00        -0.48525E+08
 
   -0.47893E+08         0.49186E+06         0.00000E+00
    0.49186E+06        -0.49989E+08         0.00000E+00
    0.00000E+00         0.00000E+00        -0.48528E+08
 
   -0.47909E+08         0.53683E+06         0.00000E+00
    0.53683E+06        -0.49986E+08         0.00000E+00
    0.00000E+00         0.00000E+00        -0.48530E+08
 
   -0.47924E+08         0.58148E+06         0.00000E+00
    0.58148E+06        -0.49984E+08         0.00000E+00
    0.00000E+00         0.00000E+00        -0.48533E+08
 
   -0.47940E+08         0.62579E+06         0.00000E+00
    0.62579E+06        -0.49981E+08         0.00000E+00
    0.00000E+00         0.00000E+00        -0.48536E+08
 
   -0.47956E+08         0.66977E+06         0.00000E+00
    0.66977E+06        -0.49979E+08         0.00000E+00
    0.00000E+00         0.00000E+00        -0.48539E+08
 
   -0.47973E+08         0.71343E+06         0.00000E+00
    0.71343E+06        -0.49976E+08         0.00000E+00
    0.00000E+00         0.00000E+00        -0.48541E+08
 
   -0.47989E+08         0.75675E+06         0.00000E+00
    0.75675E+06        -0.49973E+08         0.00000E+00
    0.00000E+00         0.00000E+00        -0.48544E+08
 
   -0.48006E+08         0.79973E+06         0.00000E+00
    0.79973E+06        -0.49969E+08         0.00000E+00
    0.00000E+00         0.00000E+00        -0.48547E+08
 
   -0.48022E+08         0.84238E+06         0.00000E+00
    0.84238E+06        -0.49966E+08         0.00000E+00
    0.00000E+00         0.00000E+00        -0.48550E+08
 
   -0.48039E+08         0.88469E+06         0.00000E+00
    0.88469E+06        -0.49962E+08         0.00000E+00
    0.00000E+00         0.00000E+00        -0.48552E+08
 
   -0.48056E+08         0.92666E+06         0.00000E+00
    0.92666E+06        -0.49958E+08         0.00000E+00
    0.00000E+00         0.00000E+00        -0.48555E+08
 
   -0.48074E+08         0.96830E+06         0.00000E+00
    0.96830E+06        -0.49954E+08         0.00000E+00
    0.00000E+00         0.00000E+00        -0.48558E+08
 
   -0.48091E+08         0.10096E+07         0.00000E+00
    0.10096E+07        -0.49949E+08         0.00000E+00
    0.00000E+00         0.00000E+00        -0.48561E+08
 
   -0.48109E+08         0.10505E+07         0.00000E+00
    0.10505E+07        -0.49945E+08         0.00000E+00
    0.00000E+00         0.00000E+00        -0.48563E+08
 
   -0.48126E+08         0.10911E+07         0.00000E+00
    0.10911E+07        -0.49940E+08         0.00000E+00
    0.00000E+00         0.00000E+00        -0.48566E+08
 
   -0.48144E+08         0.11314E+07         0.00000E+00
    0.11314E+07        -0.49935E+08         0.00000E+00
    0.00000E+00         0.00000E+00        -0.48569E+08
 
   -0.48162E+08         0.11713E+07         0.00000E+00
    0.11713E+07        -0.49930E+08         0.00000E+00
    0.00000E+00         0.00000E+00        -0.48572E+08
 
   -0.48181E+08         0.12109E+07         0.00000E+00
    0.12109E+07        -0.49925E+08         0.00000E+00
    0.00000E+00         0.00000E+00        -0.48574E+08
 
   -0.48199E+08         0.12501E+07         0.00000E+00
    0.12501E+07        -0.49920E+08         0.00000E+00
    0.00000E+00         0.00000E+00        -0.48577E+08
 
   -0.48217E+08         0.12889E+07         0.00000E+00
    0.12889E+07        -0.49914E+08         0.00000E+00
    0.00000E+00         0.00000E+00        -0.48580E+08
 
   -0.48236E+08         0.13274E+07         0.00000E+00
    0.13274E+07        -0.49908E+08         0.00000E+00
    0.00000E+00         0.00000E+00        -0.48582E+08
 
   -0.48255E+08         0.13656E+07         0.00000E+00
    0.13656E+07        -0.49902E+08         0.00000E+00
    0.00000E+00         0.00000E+00        -0.48585E+08
 
   -0.48274E+08         0.14034E+07         0.00000E+00
    0.14034E+07        -0.49896E+08         0.00000E+00
    0.00000E+00         0.00000E+00        -0.48588E+08
 
   -0.48293E+08         0.14408E+07         0.00000E+00
    0.14408E+07        -0.49890E+08         0.00000E+00
    0.00000E+00         0.00000E+00        -0.48590E+08
 
   -0.48313E+08         0.14779E+07         0.00000E+00
    0.14779E+07        -0.49883E+08         0.00000E+00
    0.00000E+00         0.00000E+00        -0.48593E+08
 
   -0.48332E+08         0.15146E+07         0.00000E+00
    0.15146E+07        -0.49876E+08         0.00000E+00
    0.00000E+00         0.00000E+00        -0.48596E+08
 
   -0.48352E+08         0.15509E+07         0.00000E+00
    0.15509E+07        -0.49869E+08         0.00000E+00
    0.00000E+00         0.00000E+00        -0.48598E+08
 
   -0.48371E+08         0.15869E+07         0.00000E+00
    0.15869E+07        -0.49862E+08         0.00000E+00
    0.00000E+00         0.00000E+00        -0.48601E+08
 
   -0.48391E+08         0.16225E+07         0.00000E+00
    0.16225E+07        -0.49855E+08         0.00000E+00
    0.00000E+00         0.00000E+00        -0.48603E+08
 
   -0.48411E+08         0.16578E+07         0.00000E+00
    0.16578E+07        -0.49847E+08         0.00000E+00
    0.00000E+00         0.00000E+00        -0.48606E+08
 
   -0.48432E+08         0.16926E+07         0.00000E+00
    0.16926E+07        -0.49840E+08         0.00000E+00
    0.00000E+00         0.00000E+00        -0.48608E+08
 
   -0.48452E+08         0.17271E+07         0.00000E+00
    0.17271E+07        -0.49832E+08         0.00000E+00
    0.00000E+00         0.00000E+00        -0.48611E+08
 
   -0.48473E+08         0.17612E+07         0.00000E+00
    0.17612E+07        -0.49824E+08         0.00000E+00
    0.00000E+00         0.00000E+00        -0.48614E+08
 
   -0.48493E+08         0.17949E+07         0.00000E+00
    0.17949E+07        -0.49815E+08         0.00000E+00
    0.00000E+00         0.00000E+00        -0.48616E+08
 
   -0.48514E+08         0.18283E+07         0.00000E+00
    0.18283E+07        -0.49807E+08         0.00000E+00
    0.00000E+00         0.00000E+00        -0.48619E+08
 
   -0.48535E+08         0.18612E+07         0.00000E+00
    0.18612E+07        -0.49798E+08         0.00000E+00
    0.00000E+00         0.00000E+00        -0.48621E+08
 
   -0.48557E+08         0.18938E+07         0.00000E+00
    0.18938E+07        -0.49789E+08         0.00000E+00
    0.00000E+00         0.00000E+00        -0.48624E+08
 
   -0.48578E+08         0.19259E+07         0.00000E+00
    0.19259E+07        -0.49780E+08         0.00000E+00
    0.00000E+00         0.00000E+00        -0.48626E+08
 
   -0.48600E+08         0.19577E+07         0.00000E+00
    0.19577E+07        -0.49771E+08         0.00000E+00
    0.00000E+00         0.00000E+00        -0.48629E+08
 
   -0.48621E+08         0.19891E+07         0.00000E+00
    0.19891E+07        -0.49761E+08         0.00000E+00
    0.00000E+00         0.00000E+00        -0.48631E+08
 
   -0.47505E+08         0.24999E+05         0.00000E+00
    0.24999E+05        -0.50000E+08         0.00000E+00
    0.00000E+00         0.00000E+00        -0.48330E+08
 
   -0.47520E+08         0.74248E+05         0.00000E+00
    0.74248E+05        -0.50000E+08         0.00000E+00
    0.00000E+00         0.00000E+00        -0.48333E+08
 
   -0.47535E+08         0.12317E+06         0.00000E+00
    0.12317E+06        -0.49999E+08         0.00000E+00
    0.00000E+00         0.00000E+00        -0.48336E+08
 
   -0.47550E+08         0.17178E+06         0.00000E+00
    0.17178E+06        -0.49999E+08         0.00000E+00
    0.00000E+00         0.00000E+00        -0.48339E+08
 
   -0.47566E+08         0.22006E+06         0.00000E+00
    0.22006E+06        -0.49998E+08         0.00000E+00
    0.00000E+00         0.00000E+00        -0.48342E+08
 
   -0.47582E+08         0.26801E+06         0.00000E+00
    0.26801E+06        -0.49997E+08         0.00000E+00
    0.00000E+00         0.00000E+00        -0.48345E+08
 
   -0.47598E+08         0.31564E+06         0.00000E+00
    0.31564E+06        -0.49995E+08         0.00000E+00
    0.00000E+00         0.00000E+00        -0.48348E+08
 
   -0.47615E+08         0.36294E+06         0.00000E+00
    0.36294E+06        -0.49994E+08         0.00000E+00
    0.00000E+00         0.00000E+00        -0.48351E+08
 
   -0.47631E+08         0.40991E+06         0.00000E+00
    0.40991E+06        -0.49992E+08         0.00000E+00
    0.00000E+00         0.00000E+00        -0.48354E+08
 
   -0.47648E+08         0.45656E+06         0.00000E+00
    0.45656E+06        -0.49990E+08         0.00000E+00
    0.00000E+00         0.00000E+00        -0.48357E+08
 
   -0.47665E+08         0.50287E+06         0.00000E+00
    0.50287E+06        -0.49988E+08         0.00000E+00
    0.00000E+00         0.00000E+00        -0.48360E+08
 
   -0.47682E+08         0.54885E+06         0.00000E+00
    0.54885E+06        -0.49985E+08         0.00000E+00
    0.00000E+00         0.00000E+00        -0.48363E+08
 
   -0.47699E+08         0.59450E+06         0.00000E+00
    0.59450E+06        -0.49983E+08         0.00000E+00
    0.00000E+00         0.00000E+00        -0.48366E+08
 
   -0.47717E+08         0.63981E+06         0.00000E+00
    0.63981E+06        -0.49980E+08         0.00000E+00
    0.00000E+00         0.00000E+00        -0.48369E+08
 
   -0.47735E+08         0.68479E+06         0.00000E+00
    0.68479E+06        -0.49977E+08         0.00000E+00
    0.00000E+00         0.00000E+00        -0.48372E+08
 
   -0.47753E+08         0.72944E+06         0.00000E+00
    0.72944E+06        -0.49974E+08         0.00000E+00
    0.00000E+00         0.00000E+00        -0.48375E+08
 
   -0.47771E+08         0.77375E+06         0.00000E+00
    0.77375E+06        -0.49970E+08         0.00000E+00
    0.00000E+00         0.00000E+00        -0.48378E+08
 
   -0.47789E+08         0.81772E+06         0.00000E+00
    0.81772E+06        -0.49967E+08         0.00000E+00
    0.00000E+00         0.00000E+00        -0.48381E+08
 
   -0.47807E+08         0.86135E+06         0.00000E+00
    0.86135E+06        -0.49963E+08         0.00000E+00
    0.00000E+00         0.00000E+00        -0.48384E+08
 
   -0.47826E+08         0.90465E+06         0.00000E+00
    0.90465E+06        -0.49959E+08         0.00000E+00
    0.00000E+00         0.00000E+00        -0.48387E+08
 
   -0.47845E+08         0.94760E+06         0.00000E+00
    0.94760E+06        -0.49955E+08         0.00000E+00
    0.00000E+00         0.00000E+00        -0.48390E+08
 
   -0.47864E+08         0.99022E+06         0.00000E+00
    0.99022E+06        -0.49950E+08         0.00000E+00
    0.00000E+00         0.00000E+00        -0.48393E+08
 
   -0.47883E+08         0.10325E+07         0.00000E+00
    0.10325E+07        -0.49946E+08         0.00000E+00
    0.00000E+00         0.00000E+00        -0.48396E+08
 
   -0.47902E+08         0.10744E+07         0.00000E+00
    0.10744E+07        -0.49941E+08         0.00000E+00
    0.00000E+00         0.00000E+00        -0.48399E+08
 
   -0.47922E+08         0.11160E+07         0.00000E+00
    0.11160E+07        -0.49936E+08         0.00000E+00
    0.00000E+00         0.00000E+00        -0.48402E+08
 
   -0.47941E+08         0.11572E+07         0.00000E+00
    0.11572E+07        -0.49930E+08         0.00000E+00
    0.00000E+00         0.00000E+00        -0.48405E+08
 
   -0.47961E+08         0.11981E+07         0.00000E+00
    0.11981E+07        -0.49925E+08         0.00000E+00
    0.00000E+00         0.00000E+00        -0.48408E+08
 
   -0.47981E+08         0.12387E+07         0.00000E+00
    0.12387E+07        -0.49919E+08         0.00000E+00
    0.00000E+00         0.00000E+00        -0.48411E+08
 
   -0.48001E+08         0.12789E+07         0.00000E+00
    0.12789E+07        -0.49913E+08         0.00000E+00
    0.00000E+00         0.00000E+00        -0.48414E+08
 
   -0.48022E+08         0.13187E+07         0.00000E+00
    0.13187E+07        -0.49907E+08         0.00000E+00
    0.00000E+00         0.00000E+00        -0.48417E+08
 
   -0.48042E+08         0.13582E+07         0.00000E+00
    0.13582E+07        -0.49901E+08         0.00000E+00
    0.00000E+00         0.00000E+00        -0.48420E+08
 
   -0.48063E+08         0.13974E+07         0.00000E+00
    0.13974E+07        -0.49894E+08         0.00000E+00
    0.00000E+00         0.00000E+00        -0.48423E+08
 
   -0.48083E+08         0.14362E+07         0.00000E+00
    0.14362E+07        -0.49888E+08         0.00000E+00
    0.00000E+00         0.00000E+00        -0.48426E+08
 
   -0.48104E+08         0.14746E+07         0.00000E+00
    0.14746E+07        -0.49881E+08         0.00000E+00
    0.00000E+00         0.00000E+00        -0.48429E+08
 
   -0.48126E+08         0.15127E+07         0.00000E+00
    0.15127E+07        -0.49874E+08         0.00000E+00
    0.00000E+00         0.00000E+00        -0.48432E+08
 
   -0.48147E+08         0.15504E+07         0.00000E+00
    0.15504E+07        -0.49866E+08         0.00000E+00
    0.00000E+00         0.00000E+00        -0.48435E+08
 
   -0.48168E+08         0.15877E+07         0.00000E+00
    0.15877E+07        -0.49859E+08         0.00000E+00
    0.00000E+00         0.00000E+00        -0.48437E+08
 
   -0.48190E+08         0.16247E+07         0.00000E+00
    0.16247E+07        -0.49851E+08         0.00000E+00
    0.00000E+00         0.00000E+00        -0.48440E+08
 
   -0.48212E+08         0.16614E+07         0.00000E+00
    0.16614E+07        -0.49843E+08         0.00000E+00
    0.00000E+00         0.00000E+00        -0.48443E+08
 
   -0.48234E+08         0.16976E+07         0.00000E+00
    0.16976E+07        -0.49835E+08         0.00000E+00
    0.00000E+00         0.00000E+00        -0.48446E+08
 
   -0.48256E+08         0.17335E+07         0.00000E+00
    0.17335E+07        -0.49826E+08         0.00000E+00
    0.00000E+00         0.00000E+00        -0.48449E+08
 
   -0.48278E+08         0.17690E+07         0.00000E+00
    0.17690E+07        -0.49818E+08         0.00000E+00
    0.00000E+00         0.00000E+00        -0.48452E+08
 
   -0.48301E+08         0.18041E+07         0.00000E+00
    0.18041E+07        -0.49809E+08         0.00000E+00
    0.00000E+00         0.00000E+00        -0.48454E+08
 
   -0.48323E+08         0.18389E+07         0.00000E+00
    0.18389E+07        -0.49800E+08         0.00000E+00
    0.00000E+00         0.00000E+00        -0.48457E+08
 
   -0.48346E+08         0.18733E+07         0.00000E+00
    0.18733E+07        -0.49791E+08         0.00000E+00
    0.00000E+00         0.00000E+00        -0.48460E+08
 
   -0.48369E+08         0.19073E+07         0.00000E+00
    0.19073E+07        -0.49781E+08         0.00000E+00
    0.00000E+00         0.00000E+00        -0.48463E+08
 
   -0.48392E+08         0.19409E+07         0.00000E+00
    0.19409E+07        -0.49771E+08         0.00000E+00
    0.00000E+00         0.00000E+00        -0.48465E+08
 
   -0.48416E+08         0.19741E+07         0.00000E+00
    0.19741E+07        -0.49761E+08         0.00000E+00
    0.00000E+00         0.00000E+00        -0.48468E+08
 
   -0.48439E+08         0.20070E+07         0.00000E+00
    0.20070E+07        -0.49751E+08         0.00000E+00
    0.00000E+00         0.00000E+00        -0.48471E+08
 
   -0.48463E+08         0.20394E+07         0.00000E+00
    0.20394E+07        -0.49741E+08         0.00000E+00
    0.00000E+00         0.00000E+00        -0.48473E+08
 
   -0.47255E+08         0.25594E+05         0.00000E+00
    0.25594E+05        -0.50000E+08         0.00000E+00
    0.00000E+00         0.00000E+00        -0.48153E+08
 
   -0.47271E+08         0.76005E+05         0.00000E+00
    0.76005E+05        -0.50000E+08         0.00000E+00
    0.00000E+00         0.00000E+00        -0.48157E+08
 
   -0.47288E+08         0.12608E+06         0.00000E+00
    0.12608E+06        -0.49999E+08         0.00000E+00
    0.00000E+00         0.00000E+00        -0.48160E+08
 
   -0.47305E+08         0.17583E+06         0.00000E+00
    0.17583E+06        -0.49998E+08         0.00000E+00
    0.00000E+00         0.00000E+00        -0.48163E+08
 
   -0.47323E+08         0.22524E+06         0.00000E+00
    0.22524E+06        -0.49998E+08         0.00000E+00
    0.00000E+00         0.00000E+00        -0.48167E+08
 
   -0.47340E+08         0.27432E+06         0.00000E+00
    0.27432E+06        -0.49996E+08         0.00000E+00
    0.00000E+00         0.00000E+00        -0.48170E+08
 
   -0.47358E+08         0.32306E+06         0.00000E+00
    0.32306E+06        -0.49995E+08         0.00000E+00
    0.00000E+00         0.00000E+00        -0.48173E+08
 
   -0.47376E+08         0.37147E+06         0.00000E+00
    0.37147E+06        -0.49993E+08         0.00000E+00
    0.00000E+00         0.00000E+00        -0.48177E+08
 
   -0.47394E+08         0.41954E+06         0.00000E+00
    0.41954E+06        -0.49991E+08         0.00000E+00
    0.00000E+00         0.00000E+00        -0.48180E+08
 
   -0.47413E+08         0.46728E+06         0.00000E+00
    0.46728E+06        -0.49989E+08         0.00000E+00
    0.00000E+00         0.00000E+00        -0.48183E+08
 
   -0.47431E+08         0.51468E+06         0.00000E+00
    0.51468E+06        -0.49987E+08         0.00000E+00
    0.00000E+00         0.00000E+00        -0.48187E+08
 
   -0.47450E+08         0.56174E+06         0.00000E+00
    0.56174E+06        -0.49984E+08         0.00000E+00
    0.00000E+00         0.00000E+00        -0.48190E+08
 
   -0.47469E+08         0.60847E+06         0.00000E+00
    0.60847E+06        -0.49982E+08         0.00000E+00
    0.00000E+00         0.00000E+00        -0.48193E+08
 
   -0.47489E+08         0.65486E+06         0.00000E+00
    0.65486E+06        -0.49979E+08         0.00000E+00
    0.00000E+00         0.00000E+00        -0.48197E+08
 
   -0.47508E+08         0.70091E+06         0.00000E+00
    0.70091E+06        -0.49975E+08         0.00000E+00
    0.00000E+00         0.00000E+00        -0.48200E+08
 
   -0.47528E+08         0.74662E+06         0.00000E+00
    0.74662E+06        -0.49972E+08         0.00000E+00
    0.00000E+00         0.00000E+00        -0.48203E+08
 
   -0.47547E+08         0.79200E+06         0.00000E+00
    0.79200E+06        -0.49968E+08         0.00000E+00
    0.00000E+00         0.00000E+00        -0.48207E+08
 
   -0.47567E+08         0.83703E+06         0.00000E+00
    0.83703E+06        -0.49964E+08         0.00000E+00
    0.00000E+00         0.00000E+00        -0.48210E+08
 
   -0.47587E+08         0.88173E+06         0.00000E+00
    0.88173E+06        -0.49960E+08         0.00000E+00
    0.00000E+00         0.00000E+00        -0.48213E+08
 
   -0.47608E+08         0.92609E+06         0.00000E+00
    0.92609E+06        -0.49956E+08         0.00000E+00
    0.00000E+00         0.00000E+00        -0.48217E+08
 
   -0.47628E+08         0.97011E+06         0.00000E+00
    0.97011E+06        -0.49951E+08         0.00000E+00
    0.00000E+00         0.00000E+00        -0.48220E+08
 
   -0.47649E+08         0.10138E+07         0.00000E+00
    0.10138E+07        -0.49947E+08         0.00000E+00
    0.00000E+00         0.00000E+00        -0.48223E+08
 
   -0.47670E+08         0.10571E+07         0.00000E+00
    0.10571E+07        -0.49942E+08         0.00000E+00
    0.00000E+00         0.00000E+00        -0.48226E+08
 
   -0.47691E+08         0.11001E+07         0.00000E+00
    0.11001E+07        -0.49937E+08         0.00000E+00
    0.00000E+00         0.00000E+00        -0.48230E+08
 
   -0.47712E+08         0.11428E+07         0.00000E+00
    0.11428E+07        -0.49931E+08         0.00000E+00
    0.00000E+00         0.00000E+00        -0.48233E+08
 
   -0.47733E+08         0.11851E+07         0.00000E+00
    0.11851E+07        -0.49925E+08         0.00000E+00
    0.00000E+00         0.00000E+00        -0.48236E+08
 
   -0.47755E+08         0.12270E+07         0.00000E+00
    0.12270E+07        -0.49920E+08         0.00000E+00
    0.00000E+00         0.00000E+00        -0.48239E+08
 
   -0.47777E+08         0.12687E+07         0.00000E+00
    0.12687E+07        -0.49914E+08         0.00000E+00
    0.00000E+00         0.00000E+00        -0.48243E+08
 
   -0.47798E+08         0.13099E+07         0.00000E+00
    0.13099E+07        -0.49907E+08         0.00000E+00
    0.00000E+00         0.00000E+00        -0.48246E+08
 
   -0.47821E+08         0.13509E+07         0.00000E+00
    0.13509E+07        -0.49901E+08         0.00000E+00
    0.00000E+00         0.00000E+00        -0.48249E+08
 
   -0.47843E+08         0.13914E+07         0.00000E+00
    0.13914E+07        -0.49894E+08         0.00000E+00
    0.00000E+00         0.00000E+00        -0.48252E+08
 
   -0.47865E+08         0.14317E+07         0.00000E+00
    0.14317E+07        -0.49887E+08         0.00000E+00
    0.00000E+00         0.00000E+00        -0.48256E+08
 
   -0.47888E+08         0.14715E+07         0.00000E+00
    0.14715E+07        -0.49880E+08         0.00000E+00
    0.00000E+00         0.00000E+00        -0.48259E+08
 
   -0.47910E+08         0.15111E+07         0.00000E+00
    0.15111E+07        -0.49872E+08         0.00000E+00
    0.00000E+00         0.00000E+00        -0.48262E+08
 
   -0.47933E+08         0.15502E+07         0.00000E+00
    0.15502E+07        -0.49865E+08         0.00000E+00
    0.00000E+00         0.00000E+00        -0.48265E+08
 
   -0.47956E+08         0.15890E+07         0.00000E+00
    0.15890E+07        -0.49857E+08         0.00000E+00
    0.00000E+00         0.00000E+00        -0.48268E+08
 
   -0.47980E+08         0.16275E+07         0.00000E+00
    0.16275E+07        -0.49849E+08         0.00000E+00
    0.00000E+00         0.00000E+00        -0.48271E+08
 
   -0.48003E+08         0.16656E+07         0.00000E+00
    0.16656E+07        -0.49840E+08         0.00000E+00
    0.00000E+00         0.00000E+00        -0.48274E+08
 
   -0.48027E+08         0.17033E+07         0.00000E+00
    0.17033E+07        -0.49832E+08         0.00000E+00
    0.00000E+00         0.00000E+00        -0.48277E+08
 
   -0.48051E+08         0.17407E+07         0.00000E+00
    0.17407E+07        -0.49823E+08         0.00000E+00
    0.00000E+00         0.00000E+00        -0.48280E+08
 
   -0.48074E+08         0.17777E+07         0.00000E+00
    0.17777E+07        -0.49814E+08         0.00000E+00
    0.00000E+00         0.00000E+00        -0.48283E+08
 
   -0.48099E+08         0.18144E+07         0.00000E+00
    0.18144E+07        -0.49804E+08         0.00000E+00
    0.00000E+00         0.00000E+00        -0.48286E+08
 
   -0.48123E+08         0.18507E+07         0.00000E+00
    0.18507E+07        -0.49795E+08         0.00000E+00
    0.00000E+00         0.00000E+00        -0.48289E+08
 
   -0.48147E+08         0.18866E+07         0.00000E+00
    0.18866E+07        -0.49785E+08         0.00000E+00
    0.00000E+00         0.00000E+00        -0.48292E+08
 
   -0.48172E+08         0.19221E+07         0.00000E+00
    0.19221E+07        -0.49775E+08         0.00000E+00
    0.00000E+00         0.00000E+00        -0.48295E+08
 
   -0.48197E+08         0.19573E+07         0.00000E+00
    0.19573E+07        -0.49765E+08         0.00000E+00
    0.00000E+00         0.00000E+00        -0.48298E+08
 
   -0.48222E+08         0.19921E+07         0.00000E+00
    0.19921E+07        -0.49754E+08         0.00000E+00
    0.00000E+00         0.00000E+00        -0.48301E+08
 
   -0.48247E+08         0.20264E+07         0.00000E+00
    0.20264E+07        -0.49744E+08         0.00000E+00
    0.00000E+00         0.00000E+00        -0.48304E+08
 
   -0.48273E+08         0.20605E+07         0.00000E+00
    0.20605E+07        -0.49733E+08         0.00000E+00
    0.00000E+00         0.00000E+00        -0.48307E+08
 
   -0.48299E+08         0.20941E+07         0.00000E+00
    0.20941E+07        -0.49721E+08         0.00000E+00
    0.00000E+00         0.00000E+00        -0.48310E+08
 
   -0.46999E+08         0.26226E+05         0.00000E+00
    0.26226E+05        -0.50000E+08         0.00000E+00
    0.00000E+00         0.00000E+00        -0.47970E+08
 
   -0.47017E+08         0.77873E+05         0.00000E+00
    0.77873E+05        -0.50000E+08         0.00000E+00
    0.00000E+00         0.00000E+00        -0.47974E+08
 
   -0.47036E+08         0.12918E+06         0.00000E+00
    0.12918E+06        -0.49999E+08         0.00000E+00
    0.00000E+00         0.00000E+00        -0.47978E+08
 
   -0.47054E+08         0.18013E+06         0.00000E+00
    0.18013E+06        -0.49998E+08         0.00000E+00
    0.00000E+00         0.00000E+00        -0.47981E+08
 
   -0.47073E+08         0.23075E+06         0.00000E+00
    0.23075E+06        -0.49997E+08         0.00000E+00
    0.00000E+00         0.00000E+00        -0.47985E+08
 
   -0.47093E+08         0.28102E+06         0.00000E+00
    0.28102E+06        -0.49996E+08         0.00000E+00
    0.00000E+00         0.00000E+00        -0.47989E+08
 
   -0.47112E+08         0.33095E+06         0.00000E+00
    0.33095E+06        -0.49995E+08         0.00000E+00
    0.00000E+00         0.00000E+00        -0.47992E+08
 
   -0.47132E+08         0.38053E+06         0.00000E+00
    0.38053E+06        -0.49993E+08         0.00000E+00
    0.00000E+00         0.00000E+00        -0.47996E+08
 
   -0.47152E+08         0.42978E+06         0.00000E+00
    0.42978E+06        -0.49991E+08         0.00000E+00
    0.00000E+00         0.00000E+00        -0.48000E+08
 
   -0.47172E+08         0.47868E+06         0.00000E+00
    0.47868E+06        -0.49989E+08         0.00000E+00
    0.00000E+00         0.00000E+00        -0.48003E+08
 
   -0.47192E+08         0.52724E+06         0.00000E+00
    0.52724E+06        -0.49986E+08         0.00000E+00
    0.00000E+00         0.00000E+00        -0.48007E+08
 
   -0.47213E+08         0.57545E+06         0.00000E+00
    0.57545E+06        -0.49984E+08         0.00000E+00
    0.00000E+00         0.00000E+00        -0.48011E+08
 
   -0.47234E+08         0.62333E+06         0.00000E+00
    0.62333E+06        -0.49981E+08         0.00000E+00
    0.00000E+00         0.00000E+00        -0.48014E+08
 
   -0.47255E+08         0.67087E+06         0.00000E+00
    0.67087E+06        -0.49977E+08         0.00000E+00
    0.00000E+00         0.00000E+00        -0.48018E+08
 
   -0.47276E+08         0.71806E+06         0.00000E+00
    0.71806E+06        -0.49974E+08         0.00000E+00
    0.00000E+00         0.00000E+00        -0.48022E+08
 
   -0.47297E+08         0.76491E+06         0.00000E+00
    0.76491E+06        -0.49970E+08         0.00000E+00
    0.00000E+00         0.00000E+00        -0.48025E+08
 
   -0.47318E+08         0.81143E+06         0.00000E+00
    0.81143E+06        -0.49966E+08         0.00000E+00
    0.00000E+00         0.00000E+00        -0.48029E+08
 
   -0.47340E+08         0.85760E+06         0.00000E+00
    0.85760E+06        -0.49962E+08         0.00000E+00
    0.00000E+00         0.00000E+00        -0.48032E+08
 
   -0.47362E+08         0.90344E+06         0.00000E+00
    0.90344E+06        -0.49958E+08         0.00000E+00
    0.00000E+00         0.00000E+00        -0.48036E+08
 
   -0.47384E+08         0.94893E+06         0.00000E+00
    0.94893E+06        -0.49953E+08         0.00000E+00
    0.00000E+00         0.00000E+00        -0.48040E+08
 
   -0.47406E+08         0.99409E+06         0.00000E+00
    0.99409E+06        -0.49949E+08         0.00000E+00
    0.00000E+00         0.00000E+00        -0.48043E+08
 
   -0.47429E+08         0.10389E+07         0.00000E+00
    0.10389E+07        -0.49944E+08         0.00000E+00
    0.00000E+00         0.00000E+00        -0.48047E+08
 
   -0.47451E+08         0.10834E+07         0.00000E+00
    0.10834E+07        -0.49938E+08         0.00000E+00
    0.00000E+00         0.00000E+00        -0.48050E+08
 
   -0.47474E+08         0.11275E+07         0.00000E+00
    0.11275E+07        -0.49933E+08         0.00000E+00
    0.00000E+00         0.00000E+00        -0.48054E+08
 
   -0.47497E+08         0.11713E+07         0.00000E+00
    0.11713E+07        -0.49927E+08         0.00000E+00
    0.00000E+00         0.00000E+00        -0.48057E+08
 
   -0.47520E+08         0.12148E+07         0.00000E+00
    0.12148E+07        -0.49921E+08         0.00000E+00
    0.00000E+00         0.00000E+00        -0.48061E+08
 
   -0.47543E+08         0.12579E+07         0.00000E+00
    0.12579E+07        -0.49915E+08         0.00000E+00
    0.00000E+00         0.00000E+00        -0.48064E+08
 
   -0.47566E+08         0.13007E+07         0.00000E+00
    0.13007E+07        -0.49908E+08         0.00000E+00
    0.00000E+00         0.00000E+00        -0.48068E+08
 
   -0.47590E+08         0.13431E+07         0.00000E+00
    0.13431E+07        -0.49902E+08         0.00000E+00
    0.00000E+00         0.00000E+00        -0.48071E+08
 
   -0.47614E+08         0.13852E+07         0.00000E+00
    0.13852E+07        -0.49895E+08         0.00000E+00
    0.00000E+00         0.00000E+00        -0.48075E+08
 
   -0.47638E+08         0.14269E+07         0.00000E+00
    0.14269E+07        -0.49887E+08         0.00000E+00
    0.00000E+00         0.00000E+00        -0.48078E+08
 
   -0.47662E+08         0.14683E+07         0.00000E+00
    0.14683E+07        -0.49880E+08         0.00000E+00
    0.00000E+00         0.00000E+00        -0.48082E+08
 
   -0.47686E+08         0.15094E+07         0.00000E+00
    0.15094E+07        -0.49872E+08         0.00000E+00
    0.00000E+00         0.00000E+00        -0.48085E+08
 
   -0.47711E+08         0.15501E+07         0.00000E+00
    0.15501E+07        -0.49864E+08         0.00000E+00
    0.00000E+00         0.00000E+00        -0.48089E+08
 
   -0.47735E+08         0.15905E+07         0.00000E+00
    0.15905E+07        -0.49856E+08         0.00000E+00
    0.00000E+00         0.00000E+00        -0.48092E+08
 
   -0.47760E+08         0.16305E+07         0.00000E+00
    0.16305E+07        -0.49848E+08         0.00000E+00
    0.00000E+00         0.00000E+00        -0.48095E+08
 
   -0.47785E+08         0.16701E+07         0.00000E+00
    0.16701E+07        -0.49839E+08         0.00000E+00
    0.00000E+00         0.00000E+00        -0.48099E+08
 
   -0.47810E+08         0.17094E+07         0.00000E+00
    0.17094E+07        -0.49830E+08         0.00000E+00
    0.00000E+00         0.00000E+00        -0.48102E+08
 
   -0.47836E+08         0.17484E+07         0.00000E+00
    0.17484E+07        -0.49821E+08         0.00000E+00
    0.00000E+00         0.00000E+00        -0.48105E+08
 
   -0.47861E+08         0.17870E+07         0.00000E+00
    0.17870E+07        -0.49812E+08         0.00000E+00
    0.00000E+00         0.00000E+00        -0.48109E+08
 
   -0.47887E+08         0.18253E+07         0.00000E+00
    0.18253E+07        -0.49802E+08         0.00000E+00
    0.00000E+00         0.00000E+00        -0.48112E+08
 
   -0.47913E+08         0.18632E+07         0.00000E+00
    0.18632E+07        -0.49792E+08         0.00000E+00
    0.00000E+00         0.00000E+00        -0.48115E+08
 
   -0.47939E+08         0.19007E+07         0.00000E+00
    0.19007E+07        -0.49782E+08         0.00000E+00
    0.00000E+00         0.00000E+00        -0.48118E+08
 
   -0.47966E+08         0.19378E+07         0.00000E+00
    0.19378E+07        -0.49771E+08         0.00000E+00
    0.00000E+00         0.00000E+00        -0.48122E+08
 
   -0.47992E+08         0.19746E+07         0.00000E+00
    0.19746E+07        -0.49760E+08         0.00000E+00
    0.00000E+00         0.00000E+00        -0.48125E+08
 
   -0.48019E+08         0.20111E+07         0.00000E+00
    0.20111E+07        -0.49749E+08         0.00000E+00
    0.00000E+00         0.00000E+00        -0.48128E+08
 
   -0.48046E+08         0.20471E+07         0.00000E+00
    0.20471E+07        -0.49738E+08         0.00000E+00
    0.00000E+00         0.00000E+00        -0.48131E+08
 
   -0.48073E+08         0.20828E+07         0.00000E+00
    0.20828E+07        -0.49727E+08         0.00000E+00
    0.00000E+00         0.00000E+00        -0.48134E+08
 
   -0.48101E+08         0.21181E+07         0.00000E+00
    0.21181E+07        -0.49715E+08         0.00000E+00
    0.00000E+00         0.00000E+00        -0.48137E+08
 
   -0.48128E+08         0.21531E+07         0.00000E+00
    0.21531E+07        -0.49703E+08         0.00000E+00
    0.00000E+00         0.00000E+00        -0.48141E+08
 
   -0.46736E+08         0.26893E+05         0.00000E+00
    0.26893E+05        -0.50000E+08         0.00000E+00
    0.00000E+00         0.00000E+00        -0.47781E+08
 
   -0.46756E+08         0.79840E+05         0.00000E+00
    0.79840E+05        -0.50000E+08         0.00000E+00
    0.00000E+00         0.00000E+00        -0.47785E+08
 
   -0.46777E+08         0.13243E+06         0.00000E+00
    0.13243E+06        -0.49999E+08         0.00000E+00
    0.00000E+00         0.00000E+00        -0.47789E+08
 
   -0.46797E+08         0.18467E+06         0.00000E+00
    0.18467E+06        -0.49998E+08         0.00000E+00
    0.00000E+00         0.00000E+00        -0.47793E+08
 
   -0.46818E+08         0.23655E+06         0.00000E+00
    0.23655E+06        -0.49997E+08         0.00000E+00
    0.00000E+00         0.00000E+00        -0.47797E+08
 
   -0.46839E+08         0.28808E+06         0.00000E+00
    0.28808E+06        -0.49996E+08         0.00000E+00
    0.00000E+00         0.00000E+00        -0.47801E+08
 
   -0.46860E+08         0.33926E+06         0.00000E+00
    0.33926E+06        -0.49994E+08         0.00000E+00
    0.00000E+00         0.00000E+00        -0.47805E+08
 
   -0.46882E+08         0.39009E+06         0.00000E+00
    0.39009E+06        -0.49993E+08         0.00000E+00
    0.00000E+00         0.00000E+00        -0.47809E+08
 
   -0.46904E+08         0.44057E+06         0.00000E+00
    0.44057E+06        -0.49990E+08         0.00000E+00
    0.00000E+00         0.00000E+00        -0.47813E+08
 
   -0.46925E+08         0.49070E+06         0.00000E+00
    0.49070E+06        -0.49988E+08         0.00000E+00
    0.00000E+00         0.00000E+00        -0.47817E+08
 
   -0.46947E+08         0.54048E+06         0.00000E+00
    0.54048E+06        -0.49986E+08         0.00000E+00
    0.00000E+00         0.00000E+00        -0.47821E+08
 
   -0.46970E+08         0.58991E+06         0.00000E+00
    0.58991E+06        -0.49983E+08         0.00000E+00
    0.00000E+00         0.00000E+00        -0.47825E+08
 
   -0.46992E+08         0.63901E+06         0.00000E+00
    0.63901E+06        -0.49980E+08         0.00000E+00
    0.00000E+00         0.00000E+00        -0.47828E+08
 
   -0.47015E+08         0.68775E+06         0.00000E+00
    0.68775E+06        -0.49976E+08         0.00000E+00
    0.00000E+00         0.00000E+00        -0.47832E+08
 
   -0.47038E+08         0.73616E+06         0.00000E+00
    0.73616E+06        -0.49973E+08         0.00000E+00
    0.00000E+00         0.00000E+00        -0.47836E+08
 
   -0.47061E+08         0.78422E+06         0.00000E+00
    0.78422E+06        -0.49969E+08         0.00000E+00
    0.00000E+00         0.00000E+00        -0.47840E+08
 
   -0.47084E+08         0.83194E+06         0.00000E+00
    0.83194E+06        -0.49965E+08         0.00000E+00
    0.00000E+00         0.00000E+00        -0.47844E+08
 
   -0.47107E+08         0.87933E+06         0.00000E+00
    0.87933E+06        -0.49960E+08         0.00000E+00
    0.00000E+00         0.00000E+00        -0.47848E+08
 
   -0.47131E+08         0.92637E+06         0.00000E+00
    0.92637E+06        -0.49956E+08         0.00000E+00
    0.00000E+00         0.00000E+00        -0.47852E+08
 
   -0.47154E+08         0.97307E+06         0.00000E+00
    0.97307E+06        -0.49951E+08         0.00000E+00
    0.00000E+00         0.00000E+00        -0.47856E+08
 
   -0.47178E+08         0.10194E+07         0.00000E+00
    0.10194E+07        -0.49946E+08         0.00000E+00
    0.00000E+00         0.00000E+00        -0.47860E+08
 
   -0.47202E+08         0.10655E+07         0.00000E+00
    0.10655E+07        -0.49941E+08         0.00000E+00
    0.00000E+00         0.00000E+00        -0.47864E+08
 
   -0.47227E+08         0.11112E+07         0.00000E+00
    0.11112E+07        -0.49935E+08         0.00000E+00
    0.00000E+00         0.00000E+00        -0.47867E+08
 
   -0.47251E+08         0.11565E+07         0.00000E+00
    0.11565E+07        -0.49929E+08         0.00000E+00
    0.00000E+00         0.00000E+00        -0.47871E+08
 
   -0.47276E+08         0.12015E+07         0.00000E+00
    0.12015E+07        -0.49923E+08         0.00000E+00
    0.00000E+00         0.00000E+00        -0.47875E+08
 
   -0.47300E+08         0.12462E+07         0.00000E+00
    0.12462E+07        -0.49917E+08         0.00000E+00
    0.00000E+00         0.00000E+00        -0.47879E+08
 
   -0.47325E+08         0.12906E+07         0.00000E+00
    0.12906E+07        -0.49910E+08         0.00000E+00
    0.00000E+00         0.00000E+00        -0.47883E+08
 
   -0.47350E+08         0.13346E+07         0.00000E+00
    0.13346E+07        -0.49903E+08         0.00000E+00
    0.00000E+00         0.00000E+00        -0.47886E+08
 
   -0.47376E+08         0.13782E+07         0.00000E+00
    0.13782E+07        -0.49896E+08         0.00000E+00
    0.00000E+00         0.00000E+00        -0.47890E+08
 
   -0.47401E+08         0.14216E+07         0.00000E+00
    0.14216E+07        -0.49889E+08         0.00000E+00
    0.00000E+00         0.00000E+00        -0.47894E+08
 
   -0.47427E+08         0.14646E+07         0.00000E+00
    0.14646E+07        -0.49881E+08         0.00000E+00
    0.00000E+00         0.00000E+00        -0.47898E+08
 
   -0.47453E+08         0.15072E+07         0.00000E+00
    0.15072E+07        -0.49874E+08         0.00000E+00
    0.00000E+00         0.00000E+00        -0.47901E+08
 
   -0.47479E+08         0.15496E+07         0.00000E+00
    0.15496E+07        -0.49865E+08         0.00000E+00
    0.00000E+00         0.00000E+00        -0.47905E+08
 
   -0.47505E+08         0.15916E+07         0.00000E+00
    0.15916E+07        -0.49857E+08         0.00000E+00
    0.00000E+00         0.00000E+00        -0.47909E+08
 
   -0.47531E+08         0.16332E+07         0.00000E+00
    0.16332E+07        -0.49848E+08         0.00000E+00
    0.00000E+00         0.00000E+00        -0.47912E+08
 
   -0.47558E+08         0.16745E+07         0.00000E+00
    0.16745E+07        -0.49839E+08         0.00000E+00
    0.00000E+00         0.00000E+00        -0.47916E+08
 
   -0.47585E+08         0.17155E+07         0.00000E+00
    0.17155E+07        -0.49830E+08         0.00000E+00
    0.00000E+00         0.00000E+00        -0.47919E+08
 
   -0.47612E+08         0.17561E+07         0.00000E+00
    0.17561E+07        -0.49821E+08         0.00000E+00
    0.00000E+00         0.00000E+00        -0.47923E+08
 
   -0.47639E+08         0.17964E+07         0.00000E+00
    0.17964E+07        -0.49811E+08         0.00000E+00
    0.00000E+00         0.00000E+00        -0.47926E+08
 
   -0.47666E+08         0.18363E+07         0.00000E+00
    0.18363E+07        -0.49801E+08         0.00000E+00
    0.00000E+00         0.00000E+00        -0.47930E+08
 
   -0.47694E+08         0.18759E+07         0.00000E+00
    0.18759E+07        -0.49791E+08         0.00000E+00
    0.00000E+00         0.00000E+00        -0.47933E+08
 
   -0.47721E+08         0.19152E+07         0.00000E+00
    0.19152E+07        -0.49780E+08         0.00000E+00
    0.00000E+00         0.00000E+00        -0.47937E+08
 
   -0.47749E+08         0.19541E+07         0.00000E+00
    0.19541E+07        -0.49769E+08         0.00000E+00
    0.00000E+00         0.00000E+00        -0.47940E+08
 
   -0.47777E+08         0.19926E+07         0.00000E+00
    0.19926E+07        -0.49758E+08         0.00000E+00
    0.00000E+00         0.00000E+00        -0.47944E+08
 
   -0.47806E+08         0.20308E+07         0.00000E+00
    0.20308E+07        -0.49747E+08         0.00000E+00
    0.00000E+00         0.00000E+00        -0.47947E+08
 
   -0.47834E+08         0.20686E+07         0.00000E+00
    0.20686E+07        -0.49735E+08         0.00000E+00
    0.00000E+00         0.00000E+00        -0.47951E+08
 
   -0.47863E+08         0.21061E+07         0.00000E+00
    0.21061E+07        -0.49723E+08         0.00000E+00
    0.00000E+00         0.00000E+00        -0.47954E+08
 
   -0.47892E+08         0.21432E+07         0.00000E+00
    0.21432E+07        -0.49711E+08         0.00000E+00
    0.00000E+00         0.00000E+00        -0.47957E+08
 
   -0.47921E+08         0.21799E+07         0.00000E+00
    0.21799E+07        -0.49698E+08         0.00000E+00
    0.00000E+00         0.00000E+00        -0.47961E+08
 
   -0.47951E+08         0.22163E+07         0.00000E+00
    0.22163E+07        -0.49685E+08         0.00000E+00
    0.00000E+00         0.00000E+00        -0.47964E+08
 
   -0.46467E+08         0.27589E+05         0.00000E+00
    0.27589E+05        -0.50000E+08         0.00000E+00
    0.00000E+00         0.00000E+00        -0.47583E+08
 
   -0.46489E+08         0.81896E+05         0.00000E+00
    0.81896E+05        -0.50000E+08         0.00000E+00
    0.00000E+00         0.00000E+00        -0.47588E+08
 
   -0.46511E+08         0.13584E+06         0.00000E+00
    0.13584E+06        -0.49999E+08         0.00000E+00
    0.00000E+00         0.00000E+00        -0.47592E+08
 
   -0.46534E+08         0.18941E+06         0.00000E+00
    0.18941E+06        -0.49998E+08         0.00000E+00
    0.00000E+00         0.00000E+00        -0.47596E+08
 
   -0.46556E+08         0.24262E+06         0.00000E+00
    0.24262E+06        -0.49997E+08         0.00000E+00
    0.00000E+00         0.00000E+00        -0.47601E+08
 
   -0.46579E+08         0.29546E+06         0.00000E+00
    0.29546E+06        -0.49996E+08         0.00000E+00
    0.00000E+00         0.00000E+00        -0.47605E+08
 
   -0.46602E+08         0.34795E+06         0.00000E+00
    0.34795E+06        -0.49994E+08         0.00000E+00
    0.00000E+00         0.00000E+00        -0.47609E+08
 
   -0.46625E+08         0.40007E+06         0.00000E+00
    0.40007E+06        -0.49992E+08         0.00000E+00
    0.00000E+00         0.00000E+00        -0.47614E+08
 
   -0.46649E+08         0.45185E+06         0.00000E+00
    0.45185E+06        -0.49990E+08         0.00000E+00
    0.00000E+00         0.00000E+00        -0.47618E+08
 
   -0.46672E+08         0.50326E+06         0.00000E+00
    0.50326E+06        -0.49988E+08         0.00000E+00
    0.00000E+00         0.00000E+00        -0.47622E+08
 
   -0.46696E+08         0.55433E+06         0.00000E+00
    0.55433E+06        -0.49985E+08         0.00000E+00
    0.00000E+00         0.00000E+00        -0.47627E+08
 
   -0.46720E+08         0.60504E+06         0.00000E+00
    0.60504E+06        -0.49982E+08         0.00000E+00
    0.00000E+00         0.00000E+00        -0.47631E+08
 
   -0.46744E+08         0.65541E+06         0.00000E+00
    0.65541E+06        -0.49979E+08         0.00000E+00
    0.00000E+00         0.00000E+00        -0.47635E+08
 
   -0.46769E+08         0.70543E+06         0.00000E+00
    0.70543E+06        -0.49975E+08         0.00000E+00
    0.00000E+00         0.00000E+00        -0.47640E+08
 
   -0.46793E+08         0.75511E+06         0.00000E+00
    0.75511E+06        -0.49972E+08         0.00000E+00
    0.00000E+00         0.00000E+00        -0.47644E+08
 
   -0.46818E+08         0.80444E+06         0.00000E+00
    0.80444E+06        -0.49968E+08         0.00000E+00
    0.00000E+00         0.00000E+00        -0.47648E+08
 
   -0.46843E+08         0.85344E+06         0.00000E+00
    0.85344E+06        -0.49963E+08         0.00000E+00
    0.00000E+00         0.00000E+00        -0.47652E+08
 
   -0.46868E+08         0.90209E+06         0.00000E+00
    0.90209E+06        -0.49959E+08         0.00000E+00
    0.00000E+00         0.00000E+00        -0.47656E+08
 
   -0.46893E+08         0.95041E+06         0.00000E+00
    0.95041E+06        -0.49954E+08         0.00000E+00
    0.00000E+00         0.00000E+00        -0.47661E+08
 
   -0.46919E+08         0.99838E+06         0.00000E+00
    0.99838E+06        -0.49949E+08         0.00000E+00
    0.00000E+00         0.00000E+00        -0.47665E+08
 
   -0.46944E+08         0.10460E+07         0.00000E+00
    0.10460E+07        -0.49944E+08         0.00000E+00
    0.00000E+00         0.00000E+00        -0.47669E+08
 
   -0.46970E+08         0.10933E+07         0.00000E+00
    0.10933E+07        -0.49938E+08         0.00000E+00
    0.00000E+00         0.00000E+00        -0.47673E+08
 
   -0.46996E+08         0.11403E+07         0.00000E+00
    0.11403E+07        -0.49932E+08         0.00000E+00
    0.00000E+00         0.00000E+00        -0.47677E+08
 
   -0.47022E+08         0.11870E+07         0.00000E+00
    0.11870E+07        -0.49926E+08         0.00000E+00
    0.00000E+00         0.00000E+00        -0.47681E+08
 
   -0.47048E+08         0.12333E+07         0.00000E+00
    0.12333E+07        -0.49920E+08         0.00000E+00
    0.00000E+00         0.00000E+00        -0.47685E+08
 
   -0.47074E+08         0.12793E+07         0.00000E+00
    0.12793E+07        -0.49913E+08         0.00000E+00
    0.00000E+00         0.00000E+00        -0.47689E+08
 
   -0.47101E+08         0.13249E+07         0.00000E+00
    0.13249E+07        -0.49906E+08         0.00000E+00
    0.00000E+00         0.00000E+00        -0.47693E+08
 
   -0.47128E+08         0.13702E+07         0.00000E+00
    0.13702E+07        -0.49899E+08         0.00000E+00
    0.00000E+00         0.00000E+00        -0.47697E+08
 
   -0.47155E+08         0.14152E+07         0.00000E+00
    0.14152E+07        -0.49892E+08         0.00000E+00
    0.00000E+00         0.00000E+00        -0.47701E+08
 
   -0.47182E+08         0.14599E+07         0.00000E+00
    0.14599E+07        -0.49884E+08         0.00000E+00
    0.00000E+00         0.00000E+00        -0.47705E+08
 
   -0.47209E+08         0.15043E+07         0.00000E+00
    0.15043E+07        -0.49876E+08         0.00000E+00
    0.00000E+00         0.00000E+00        -0.47709E+08
 
   -0.47237E+08         0.15483E+07         0.00000E+00
    0.15483E+07        -0.49868E+08         0.00000E+00
    0.00000E+00         0.00000E+00        -0.47713E+08
 
   -0.47264E+08         0.15920E+07         0.00000E+00
    0.15920E+07        -0.49859E+08         0.00000E+00
    0.00000E+00         0.00000E+00        -0.47717E+08
 
   -0.47292E+08         0.16353E+07         0.00000E+00
    0.16353E+07        -0.49850E+08         0.00000E+00
    0.00000E+00         0.00000E+00        -0.47721E+08
 
   -0.47320E+08         0.16784E+07         0.00000E+00
    0.16784E+07        -0.49841E+08         0.00000E+00
    0.00000E+00         0.00000E+00        -0.47725E+08
 
   -0.47349E+08         0.17211E+07         0.00000E+00
    0.17211E+07        -0.49832E+08         0.00000E+00
    0.00000E+00         0.00000E+00        -0.47729E+08
 
   -0.47377E+08         0.17634E+07         0.00000E+00
    0.17634E+07        -0.49822E+08         0.00000E+00
    0.00000E+00         0.00000E+00        -0.47733E+08
 
   -0.47406E+08         0.18055E+07         0.00000E+00
    0.18055E+07        -0.49812E+08         0.00000E+00
    0.00000E+00         0.00000E+00        -0.47736E+08
 
   -0.47435E+08         0.18472E+07         0.00000E+00
    0.18472E+07        -0.49802E+08         0.00000E+00
    0.00000E+00         0.00000E+00        -0.47740E+08
 
   -0.47464E+08         0.18886E+07         0.00000E+00
    0.18886E+07        -0.49791E+08         0.00000E+00
    0.00000E+00         0.00000E+00        -0.47744E+08
 
   -0.47493E+08         0.19296E+07         0.00000E+00
    0.19296E+07        -0.49780E+08         0.00000E+00
    0.00000E+00         0.00000E+00        -0.47748E+08
 
   -0.47522E+08         0.19703E+07         0.00000E+00
    0.19703E+07        -0.49769E+08         0.00000E+00
    0.00000E+00         0.00000E+00        -0.47751E+08
 
   -0.47552E+08         0.20107E+07         0.00000E+00
    0.20107E+07        -0.49758E+08         0.00000E+00
    0.00000E+00         0.00000E+00        -0.47755E+08
 
   -0.47582E+08         0.20507E+07         0.00000E+00
    0.20507E+07        -0.49746E+08         0.00000E+00
    0.00000E+00         0.00000E+00        -0.47759E+08
 
   -0.47612E+08         0.20904E+07         0.00000E+00
    0.20904E+07        -0.49734E+08         0.00000E+00
    0.00000E+00         0.00000E+00        -0.47762E+08
 
   -0.47642E+08         0.21297E+07         0.00000E+00
    0.21297E+07        -0.49722E+08         0.00000E+00
    0.00000E+00         0.00000E+00        -0.47766E+08
 
   -0.47673E+08         0.21687E+07         0.00000E+00
    0.21687E+07        -0.49709E+08         0.00000E+00
    0.00000E+00         0.00000E+00        -0.47769E+08
 
   -0.47704E+08         0.22073E+07         0.00000E+00
    0.22073E+07        -0.49696E+08         0.00000E+00
    0.00000E+00         0.00000E+00        -0.47773E+08
 
   -0.47735E+08         0.22456E+07         0.00000E+00
    0.22456E+07        -0.49682E+08         0.00000E+00
    0.00000E+00         0.00000E+00        -0.47777E+08
 
   -0.47766E+08         0.22836E+07         0.00000E+00
    0.22836E+07        -0.49669E+08         0.00000E+00
    0.00000E+00         0.00000E+00        -0.47780E+08
 
   -0.46191E+08         0.28310E+05         0.00000E+00
    0.28310E+05        -0.50000E+08         0.00000E+00
    0.00000E+00         0.00000E+00        -0.47378E+08
 
   -0.46215E+08         0.84026E+05         0.00000E+00
    0.84026E+05        -0.50000E+08         0.00000E+00
    0.00000E+00         0.00000E+00        -0.47383E+08
 
   -0.46239E+08         0.13936E+06         0.00000E+00
    0.13936E+06        -0.49999E+08         0.00000E+00
    0.00000E+00         0.00000E+00        -0.47387E+08
 
   -0.46263E+08         0.19432E+06         0.00000E+00
    0.19432E+06        -0.49998E+08         0.00000E+00
    0.00000E+00         0.00000E+00        -0.47392E+08
 
   -0.46288E+08         0.24890E+06         0.00000E+00
    0.24890E+06        -0.49997E+08         0.00000E+00
    0.00000E+00         0.00000E+00        -0.47397E+08
 
   -0.46312E+08         0.30311E+06         0.00000E+00
    0.30311E+06        -0.49996E+08         0.00000E+00
    0.00000E+00         0.00000E+00        -0.47401E+08
 
   -0.46337E+08         0.35695E+06         0.00000E+00
    0.35695E+06        -0.49994E+08         0.00000E+00
    0.00000E+00         0.00000E+00        -0.47406E+08
 
   -0.46362E+08         0.41043E+06         0.00000E+00
    0.41043E+06        -0.49992E+08         0.00000E+00
    0.00000E+00         0.00000E+00        -0.47411E+08
 
   -0.46387E+08         0.46355E+06         0.00000E+00
    0.46355E+06        -0.49990E+08         0.00000E+00
    0.00000E+00         0.00000E+00        -0.47415E+08
 
   -0.46413E+08         0.51630E+06         0.00000E+00
    0.51630E+06        -0.49987E+08         0.00000E+00
    0.00000E+00         0.00000E+00        -0.47420E+08
 
   -0.46438E+08         0.56870E+06         0.00000E+00
    0.56870E+06        -0.49984E+08         0.00000E+00
    0.00000E+00         0.00000E+00        -0.47425E+08
 
   -0.46464E+08         0.62075E+06         0.00000E+00
    0.62075E+06        -0.49981E+08         0.00000E+00
    0.00000E+00         0.00000E+00        -0.47429E+08
 
   -0.46490E+08         0.67244E+06         0.00000E+00
    0.67244E+06        -0.49978E+08         0.00000E+00
    0.00000E+00         0.00000E+00        -0.47434E+08
 
   -0.46516E+08         0.72379E+06         0.00000E+00
    0.72379E+06        -0.49974E+08         0.00000E+00
    0.00000E+00         0.00000E+00        -0.47439E+08
 
   -0.46542E+08         0.77479E+06         0.00000E+00
    0.77479E+06        -0.49971E+08         0.00000E+00
    0.00000E+00         0.00000E+00        -0.47443E+08
 
   -0.46569E+08         0.82546E+06         0.00000E+00
    0.82546E+06        -0.49966E+08         0.00000E+00
    0.00000E+00         0.00000E+00        -0.47448E+08
 
   -0.46595E+08         0.87578E+06         0.00000E+00
    0.87578E+06        -0.49962E+08         0.00000E+00
    0.00000E+00         0.00000E+00        -0.47452E+08
 
   -0.46622E+08         0.92576E+06         0.00000E+00
    0.92576E+06        -0.49957E+08         0.00000E+00
    0.00000E+00         0.00000E+00        -0.47457E+08
 
   -0.46649E+08         0.97541E+06         0.00000E+00
    0.97541E+06        -0.49952E+08         0.00000E+00
    0.00000E+00         0.00000E+00        -0.47461E+08
 
   -0.46676E+08         0.10247E+07         0.00000E+00
    0.10247E+07        -0.49947E+08         0.00000E+00
    0.00000E+00         0.00000E+00        -0.47466E+08
 
   -0.46703E+08         0.10737E+07         0.00000E+00
    0.10737E+07        -0.49942E+08         0.00000E+00
    0.00000E+00         0.00000E+00        -0.47470E+08
 
   -0.46731E+08         0.11224E+07         0.00000E+00
    0.11224E+07        -0.49936E+08         0.00000E+00
    0.00000E+00         0.00000E+00        -0.47474E+08
 
   -0.46758E+08         0.11707E+07         0.00000E+00
    0.11707E+07        -0.49930E+08         0.00000E+00
    0.00000E+00         0.00000E+00        -0.47479E+08
 
   -0.46786E+08         0.12187E+07         0.00000E+00
    0.12187E+07        -0.49924E+08         0.00000E+00
    0.00000E+00         0.00000E+00        -0.47483E+08
 
   -0.46814E+08         0.12664E+07         0.00000E+00
    0.12664E+07        -0.49917E+08         0.00000E+00
    0.00000E+00         0.00000E+00        -0.47487E+08
 
   -0.46842E+08         0.13138E+07         0.00000E+00
    0.13138E+07        -0.49910E+08         0.00000E+00
    0.00000E+00         0.00000E+00        -0.47492E+08
 
   -0.46870E+08         0.13608E+07         0.00000E+00
    0.13608E+07        -0.49903E+08         0.00000E+00
    0.00000E+00         0.00000E+00        -0.47496E+08
 
   -0.46899E+08         0.14075E+07         0.00000E+00
    0.14075E+07        -0.49895E+08         0.00000E+00
    0.00000E+00         0.00000E+00        -0.47500E+08
 
   -0.46927E+08         0.14539E+07         0.00000E+00
    0.14539E+07        -0.49888E+08         0.00000E+00
    0.00000E+00         0.00000E+00        -0.47505E+08
 
   -0.46956E+08         0.15000E+07         0.00000E+00
    0.15000E+07        -0.49880E+08         0.00000E+00
    0.00000E+00         0.00000E+00        -0.47509E+08
 
   -0.46985E+08         0.15458E+07         0.00000E+00
    0.15458E+07        -0.49871E+08         0.00000E+00
    0.00000E+00         0.00000E+00        -0.47513E+08
 
   -0.47014E+08         0.15912E+07         0.00000E+00
    0.15912E+07        -0.49863E+08         0.00000E+00
    0.00000E+00         0.00000E+00        -0.47517E+08
 
   -0.47043E+08         0.16364E+07         0.00000E+00
    0.16364E+07        -0.49854E+08         0.00000E+00
    0.00000E+00         0.00000E+00        -0.47521E+08
 
   -0.47073E+08         0.16812E+07         0.00000E+00
    0.16812E+07        -0.49845E+08         0.00000E+00
    0.00000E+00         0.00000E+00        -0.47525E+08
 
   -0.47102E+08         0.17257E+07         0.00000E+00
    0.17257E+07        -0.49835E+08         0.00000E+00
    0.00000E+00         0.00000E+00        -0.47530E+08
 
   -0.47132E+08         0.17699E+07         0.00000E+00
    0.17699E+07        -0.49825E+08         0.00000E+00
    0.00000E+00         0.00000E+00        -0.47534E+08
 
   -0.47162E+08         0.18138E+07         0.00000E+00
    0.18138E+07        -0.49815E+08         0.00000E+00
    0.00000E+00         0.00000E+00        -0.47538E+08
 
   -0.47193E+08         0.18573E+07         0.00000E+00
    0.18573E+07        -0.49805E+08         0.00000E+00
    0.00000E+00         0.00000E+00        -0.47542E+08
 
   -0.47223E+08         0.19006E+07         0.00000E+00
    0.19006E+07        -0.49794E+08         0.00000E+00
    0.00000E+00         0.00000E+00        -0.47546E+08
 
   -0.47254E+08         0.19435E+07         0.00000E+00
    0.19435E+07        -0.49783E+08         0.00000E+00
    0.00000E+00         0.00000E+00        -0.47550E+08
 
   -0.47285E+08         0.19861E+07         0.00000E+00
    0.19861E+07        -0.49771E+08         0.00000E+00
    0.00000E+00         0.00000E+00        -0.47553E+08
 
   -0.47316E+08         0.20284E+07         0.00000E+00
    0.20284E+07        -0.49760E+08         0.00000E+00
    0.00000E+00         0.00000E+00        -0.47557E+08
 
   -0.47347E+08         0.20703E+07         0.00000E+00
    0.20703E+07        -0.49748E+08         0.00000E+00
    0.00000E+00         0.00000E+00        -0.47561E+08
 
   -0.47379E+08         0.21119E+07         0.00000E+00
    0.21119E+07        -0.49735E+08         0.00000E+00
    0.00000E+00         0.00000E+00        -0.47565E+08
 
   -0.47410E+08         0.21532E+07         0.00000E+00
    0.21532E+07        -0.49722E+08         0.00000E+00
    0.00000E+00         0.00000E+00        -0.47569E+08
 
   -0.47442E+08         0.21942E+07         0.00000E+00
    0.21942E+07        -0.49709E+08         0.00000E+00
    0.00000E+00         0.00000E+00        -0.47573E+08
 
   -0.47475E+08         0.22349E+07         0.00000E+00
    0.22349E+07        -0.49696E+08         0.00000E+00
    0.00000E+00         0.00000E+00        -0.47577E+08
 
   -0.47507E+08         0.22752E+07         0.00000E+00
    0.22752E+07        -0.49682E+08         0.00000E+00
    0.00000E+00         0.00000E+00        -0.47580E+08
 
   -0.47540E+08         0.23151E+07         0.00000E+00
    0.23151E+07        -0.49668E+08         0.00000E+00
    0.00000E+00         0.00000E+00        -0.47584E+08
 
   -0.47573E+08         0.23548E+07         0.00000E+00
    0.23548E+07        -0.49654E+08         0.00000E+00
    0.00000E+00         0.00000E+00        -0.47588E+08
 
   -0.45908E+08         0.29051E+05         0.00000E+00
    0.29051E+05        -0.50000E+08         0.00000E+00
    0.00000E+00         0.00000E+00        -0.47164E+08
 
   -0.45934E+08         0.86215E+05         0.00000E+00
    0.86215E+05        -0.50000E+08         0.00000E+00
    0.00000E+00         0.00000E+00        -0.47169E+08
 
   -0.45960E+08         0.14299E+06         0.00000E+00
    0.14299E+06        -0.49999E+08         0.00000E+00
    0.00000E+00         0.00000E+00        -0.47174E+08
 
   -0.45986E+08         0.19937E+06         0.00000E+00
    0.19937E+06        -0.49998E+08         0.00000E+00
    0.00000E+00         0.00000E+00        -0.47179E+08
 
   -0.46012E+08         0.25536E+06         0.00000E+00
    0.25536E+06        -0.49997E+08         0.00000E+00
    0.00000E+00         0.00000E+00        -0.47184E+08
 
   -0.46039E+08         0.31098E+06         0.00000E+00
    0.31098E+06        -0.49996E+08         0.00000E+00
    0.00000E+00         0.00000E+00        -0.47189E+08
 
   -0.46065E+08         0.36621E+06         0.00000E+00
    0.36621E+06        -0.49994E+08         0.00000E+00
    0.00000E+00         0.00000E+00        -0.47194E+08
 
   -0.46092E+08         0.42108E+06         0.00000E+00
    0.42108E+06        -0.49992E+08         0.00000E+00
    0.00000E+00         0.00000E+00        -0.47199E+08
 
   -0.46119E+08         0.47558E+06         0.00000E+00
    0.47558E+06        -0.49989E+08         0.00000E+00
    0.00000E+00         0.00000E+00        -0.47204E+08
 
   -0.46146E+08         0.52972E+06         0.00000E+00
    0.52972E+06        -0.49987E+08         0.00000E+00
    0.00000E+00         0.00000E+00        -0.47209E+08
 
   -0.46174E+08         0.58349E+06         0.00000E+00
    0.58349E+06        -0.49984E+08         0.00000E+00
    0.00000E+00         0.00000E+00        -0.47214E+08
 
   -0.46201E+08         0.63691E+06         0.00000E+00
    0.63691E+06        -0.49981E+08         0.00000E+00
    0.00000E+00         0.00000E+00        -0.47219E+08
 
   -0.46229E+08         0.68998E+06         0.00000E+00
    0.68998E+06        -0.49977E+08         0.00000E+00
    0.00000E+00         0.00000E+00        -0.47224E+08
 
   -0.46257E+08         0.74271E+06         0.00000E+00
    0.74271E+06        -0.49974E+08         0.00000E+00
    0.00000E+00         0.00000E+00        -0.47229E+08
 
   -0.46285E+08         0.79508E+06         0.00000E+00
    0.79508E+06        -0.49970E+08         0.00000E+00
    0.00000E+00         0.00000E+00        -0.47234E+08
 
   -0.46313E+08         0.84712E+06         0.00000E+00
    0.84712E+06        -0.49966E+08         0.00000E+00
    0.00000E+00         0.00000E+00        -0.47239E+08
 
   -0.46341E+08         0.89883E+06         0.00000E+00
    0.89883E+06        -0.49961E+08         0.00000E+00
    0.00000E+00         0.00000E+00        -0.47243E+08
 
   -0.46370E+08         0.95019E+06         0.00000E+00
    0.95019E+06        -0.49956E+08         0.00000E+00
    0.00000E+00         0.00000E+00        -0.47248E+08
 
   -0.46398E+08         0.10012E+07         0.00000E+00
    0.10012E+07        -0.49951E+08         0.00000E+00
    0.00000E+00         0.00000E+00        -0.47253E+08
 
   -0.46427E+08         0.10519E+07         0.00000E+00
    0.10519E+07        -0.49946E+08         0.00000E+00
    0.00000E+00         0.00000E+00        -0.47258E+08
 
   -0.46456E+08         0.11023E+07         0.00000E+00
    0.11023E+07        -0.49940E+08         0.00000E+00
    0.00000E+00         0.00000E+00        -0.47262E+08
 
   -0.46485E+08         0.11524E+07         0.00000E+00
    0.11524E+07        -0.49934E+08         0.00000E+00
    0.00000E+00         0.00000E+00        -0.47267E+08
 
   -0.46514E+08         0.12022E+07         0.00000E+00
    0.12022E+07        -0.49928E+08         0.00000E+00
    0.00000E+00         0.00000E+00        -0.47272E+08
 
   -0.46543E+08         0.12516E+07         0.00000E+00
    0.12516E+07        -0.49921E+08         0.00000E+00
    0.00000E+00         0.00000E+00        -0.47276E+08
 
   -0.46573E+08         0.13007E+07         0.00000E+00
    0.13007E+07        -0.49915E+08         0.00000E+00
    0.00000E+00         0.00000E+00        -0.47281E+08
 
   -0.46602E+08         0.13495E+07         0.00000E+00
    0.13495E+07        -0.49907E+08         0.00000E+00
    0.00000E+00         0.00000E+00        -0.47286E+08
 
   -0.46632E+08         0.13980E+07         0.00000E+00
    0.13980E+07        -0.49900E+08         0.00000E+00
    0.00000E+00         0.00000E+00        -0.47290E+08
 
   -0.46662E+08         0.14462E+07         0.00000E+00
    0.14462E+07        -0.49892E+08         0.00000E+00
    0.00000E+00         0.00000E+00        -0.47295E+08
 
   -0.46692E+08         0.14941E+07         0.00000E+00
    0.14941E+07        -0.49884E+08         0.00000E+00
    0.00000E+00         0.00000E+00        -0.47299E+08
 
   -0.46722E+08         0.15417E+07         0.00000E+00
    0.15417E+07        -0.49876E+08         0.00000E+00
    0.00000E+00         0.00000E+00        -0.47303E+08
 
   -0.46753E+08         0.15890E+07         0.00000E+00
    0.15890E+07        -0.49867E+08         0.00000E+00
    0.00000E+00         0.00000E+00        -0.47308E+08
 
   -0.46784E+08         0.16359E+07         0.00000E+00
    0.16359E+07        -0.49858E+08         0.00000E+00
    0.00000E+00         0.00000E+00        -0.47312E+08
 
   -0.46814E+08         0.16826E+07         0.00000E+00
    0.16826E+07        -0.49849E+08         0.00000E+00
    0.00000E+00         0.00000E+00        -0.47317E+08
 
   -0.46845E+08         0.17290E+07         0.00000E+00
    0.17290E+07        -0.49840E+08         0.00000E+00
    0.00000E+00         0.00000E+00        -0.47321E+08
 
   -0.46877E+08         0.17750E+07         0.00000E+00
    0.17750E+07        -0.49830E+08         0.00000E+00
    0.00000E+00         0.00000E+00        -0.47325E+08
 
   -0.46908E+08         0.18208E+07         0.00000E+00
    0.18208E+07        -0.49820E+08         0.00000E+00
    0.00000E+00         0.00000E+00        -0.47330E+08
 
   -0.46940E+08         0.18663E+07         0.00000E+00
    0.18663E+07        -0.49809E+08         0.00000E+00
    0.00000E+00         0.00000E+00        -0.47334E+08
 
   -0.46971E+08         0.19115E+07         0.00000E+00
    0.19115E+07        -0.49798E+08         0.00000E+00
    0.00000E+00         0.00000E+00        -0.47338E+08
 
   -0.47004E+08         0.19563E+07         0.00000E+00
    0.19563E+07        -0.49787E+08         0.00000E+00
    0.00000E+00         0.00000E+00        -0.47342E+08
 
   -0.47036E+08         0.20009E+07         0.00000E+00
    0.20009E+07        -0.49775E+08         0.00000E+00
    0.00000E+00         0.00000E+00        -0.47346E+08
 
   -0.47068E+08         0.20452E+07         0.00000E+00
    0.20452E+07        -0.49764E+08         0.00000E+00
    0.00000E+00         0.00000E+00        -0.47351E+08
 
   -0.47101E+08         0.20891E+07         0.00000E+00
    0.20891E+07        -0.49751E+08         0.00000E+00
    0.00000E+00         0.00000E+00        -0.47355E+08
 
   -0.47134E+08         0.21328E+07         0.00000E+00
    0.21328E+07        -0.49739E+08         0.00000E+00
    0.00000E+00         0.00000E+00        -0.47359E+08
 
   -0.47167E+08         0.21762E+07         0.00000E+00
    0.21762E+07        -0.49726E+08         0.00000E+00
    0.00000E+00         0.00000E+00        -0.47363E+08
 
   -0.47200E+08         0.22192E+07         0.00000E+00
    0.22192E+07        -0.49712E+08         0.00000E+00
    0.00000E+00         0.00000E+00        -0.47367E+08
 
   -0.47234E+08         0.22619E+07         0.00000E+00
    0.22619E+07        -0.49699E+08         0.00000E+00
    0.00000E+00         0.00000E+00        -0.47371E+08
 
   -0.47268E+08         0.23044E+07         0.00000E+00
    0.23044E+07        -0.49685E+08         0.00000E+00
    0.00000E+00         0.00000E+00        -0.47375E+08
 
   -0.47302E+08         0.23465E+07         0.00000E+00
    0.23465E+07        -0.49670E+08         0.00000E+00
    0.00000E+00         0.00000E+00        -0.47379E+08
 
   -0.47336E+08         0.23883E+07         0.00000E+00
    0.23883E+07        -0.49656E+08         0.00000E+00
    0.00000E+00         0.00000E+00        -0.47383E+08
 
   -0.47371E+08         0.24297E+07         0.00000E+00
    0.24297E+07        -0.49640E+08         0.00000E+00
    0.00000E+00         0.00000E+00        -0.47387E+08
 
   -0.45617E+08         0.29805E+05         0.00000E+00
    0.29805E+05        -0.50000E+08         0.00000E+00
    0.00000E+00         0.00000E+00        -0.46940E+08
 
   -0.45645E+08         0.88444E+05         0.00000E+00
    0.88444E+05        -0.50000E+08         0.00000E+00
    0.00000E+00         0.00000E+00        -0.46945E+08
 
   -0.45673E+08         0.14668E+06         0.00000E+00
    0.14668E+06        -0.49999E+08         0.00000E+00
    0.00000E+00         0.00000E+00        -0.46951E+08
 
   -0.45701E+08         0.20451E+06         0.00000E+00
    0.20451E+06        -0.49998E+08         0.00000E+00
    0.00000E+00         0.00000E+00        -0.46956E+08
 
   -0.45730E+08         0.26194E+06         0.00000E+00
    0.26194E+06        -0.49997E+08         0.00000E+00
    0.00000E+00         0.00000E+00        -0.46962E+08
 
   -0.45758E+08         0.31899E+06         0.00000E+00
    0.31899E+06        -0.49995E+08         0.00000E+00
    0.00000E+00         0.00000E+00        -0.46967E+08
 
   -0.45787E+08         0.37565E+06         0.00000E+00
    0.37565E+06        -0.49994E+08         0.00000E+00
    0.00000E+00         0.00000E+00        -0.46973E+08
 
   -0.45815E+08         0.43194E+06         0.00000E+00
    0.43194E+06        -0.49992E+08         0.00000E+00
    0.00000E+00         0.00000E+00        -0.46978E+08
 
   -0.45844E+08         0.48785E+06         0.00000E+00
    0.48785E+06        -0.49989E+08         0.00000E+00
    0.00000E+00         0.00000E+00        -0.46983E+08
 
   -0.45873E+08         0.54340E+06         0.00000E+00
    0.54340E+06        -0.49987E+08         0.00000E+00
    0.00000E+00         0.00000E+00        -0.46989E+08
 
   -0.45902E+08         0.59859E+06         0.00000E+00
    0.59859E+06        -0.49984E+08         0.00000E+00
    0.00000E+00         0.00000E+00        -0.46994E+08
 
   -0.45932E+08         0.65342E+06         0.00000E+00
    0.65342E+06        -0.49981E+08         0.00000E+00
    0.00000E+00         0.00000E+00        -0.46999E+08
 
   -0.45961E+08         0.70790E+06         0.00000E+00
    0.70790E+06        -0.49977E+08         0.00000E+00
    0.00000E+00         0.00000E+00        -0.47005E+08
 
   -0.45991E+08         0.76203E+06         0.00000E+00
    0.76203E+06        -0.49973E+08         0.00000E+00
    0.00000E+00         0.00000E+00        -0.47010E+08
 
   -0.46020E+08         0.81583E+06         0.00000E+00
    0.81583E+06        -0.49969E+08         0.00000E+00
    0.00000E+00         0.00000E+00        -0.47015E+08
 
   -0.46050E+08         0.86928E+06         0.00000E+00
    0.86928E+06        -0.49965E+08         0.00000E+00
    0.00000E+00         0.00000E+00        -0.47020E+08
 
   -0.46080E+08         0.92241E+06         0.00000E+00
    0.92241E+06        -0.49960E+08         0.00000E+00
    0.00000E+00         0.00000E+00        -0.47025E+08
 
   -0.46110E+08         0.97521E+06         0.00000E+00
    0.97521E+06        -0.49956E+08         0.00000E+00
    0.00000E+00         0.00000E+00        -0.47030E+08
 
   -0.46140E+08         0.10277E+07         0.00000E+00
    0.10277E+07        -0.49950E+08         0.00000E+00
    0.00000E+00         0.00000E+00        -0.47035E+08
 
   -0.46170E+08         0.10798E+07         0.00000E+00
    0.10798E+07        -0.49945E+08         0.00000E+00
    0.00000E+00         0.00000E+00        -0.47040E+08
 
   -0.46201E+08         0.11317E+07         0.00000E+00
    0.11317E+07        -0.49939E+08         0.00000E+00
    0.00000E+00         0.00000E+00        -0.47045E+08
 
   -0.46231E+08         0.11832E+07         0.00000E+00
    0.11832E+07        -0.49933E+08         0.00000E+00
    0.00000E+00         0.00000E+00        -0.47050E+08
 
   -0.46262E+08         0.12344E+07         0.00000E+00
    0.12344E+07        -0.49927E+08         0.00000E+00
    0.00000E+00         0.00000E+00        -0.47055E+08
 
   -0.46293E+08         0.12854E+07         0.00000E+00
    0.12854E+07        -0.49920E+08         0.00000E+00
    0.00000E+00         0.00000E+00        -0.47060E+08
 
   -0.46324E+08         0.13360E+07         0.00000E+00
    0.13360E+07        -0.49913E+08         0.00000E+00
    0.00000E+00         0.00000E+00        -0.47065E+08
 
   -0.46355E+08         0.13863E+07         0.00000E+00
    0.13863E+07        -0.49906E+08         0.00000E+00
    0.00000E+00         0.00000E+00        -0.47070E+08
 
   -0.46387E+08         0.14363E+07         0.00000E+00
    0.14363E+07        -0.49898E+08         0.00000E+00
    0.00000E+00         0.00000E+00        -0.47075E+08
 
   -0.46418E+08         0.14860E+07         0.00000E+00
    0.14860E+07        -0.49890E+08         0.00000E+00
    0.00000E+00         0.00000E+00        -0.47079E+08
 
   -0.46450E+08         0.15355E+07         0.00000E+00
    0.15355E+07        -0.49882E+08         0.00000E+00
    0.00000E+00         0.00000E+00        -0.47084E+08
 
   -0.46481E+08         0.15846E+07         0.00000E+00
    0.15846E+07        -0.49873E+08         0.00000E+00
    0.00000E+00         0.00000E+00        -0.47089E+08
 
   -0.46513E+08         0.16335E+07         0.00000E+00
    0.16335E+07        -0.49865E+08         0.00000E+00
    0.00000E+00         0.00000E+00        -0.47093E+08
 
   -0.46545E+08         0.16821E+07         0.00000E+00
    0.16821E+07        -0.49855E+08         0.00000E+00
    0.00000E+00         0.00000E+00        -0.47098E+08
 
   -0.46578E+08         0.17304E+07         0.00000E+00
    0.17304E+07        -0.49846E+08         0.00000E+00
    0.00000E+00         0.00000E+00        -0.47103E+08
 
   -0.46610E+08         0.17784E+07         0.00000E+00
    0.17784E+07        -0.49836E+08         0.00000E+00
    0.00000E+00         0.00000E+00        -0.47107E+08
 
   -0.46643E+08         0.18261E+07         0.00000E+00
    0.18261E+07        -0.49826E+08         0.00000E+00
    0.00000E+00         0.00000E+00        -0.47112E+08
 
   -0.46676E+08         0.18736E+07         0.00000E+00
    0.18736E+07        -0.49815E+08         0.00000E+00
    0.00000E+00         0.00000E+00        -0.47116E+08
 
   -0.46709E+08         0.19208E+07         0.00000E+00
    0.19208E+07        -0.49804E+08         0.00000E+00
    0.00000E+00         0.00000E+00        -0.47121E+08
 
   -0.46742E+08         0.19676E+07         0.00000E+00
    0.19676E+07        -0.49793E+08         0.00000E+00
    0.00000E+00         0.00000E+00        -0.47125E+08
 
   -0.46776E+08         0.20143E+07         0.00000E+00
    0.20143E+07        -0.49781E+08         0.00000E+00
    0.00000E+00         0.00000E+00        -0.47129E+08
 
   -0.46809E+08         0.20606E+07         0.00000E+00
    0.20606E+07        -0.49770E+08         0.00000E+00
    0.00000E+00         0.00000E+00        -0.47134E+08
 
   -0.46843E+08         0.21066E+07         0.00000E+00
    0.21066E+07        -0.49757E+08         0.00000E+00
    0.00000E+00         0.00000E+00        -0.47138E+08
 
   -0.46877E+08         0.21524E+07         0.00000E+00
    0.21524E+07        -0.49744E+08         0.00000E+00
    0.00000E+00         0.00000E+00        -0.47142E+08
 
   -0.46912E+08         0.21979E+07         0.00000E+00
    0.21979E+07        -0.49731E+08         0.00000E+00
    0.00000E+00         0.00000E+00        -0.47147E+08
 
   -0.46946E+08         0.22431E+07         0.00000E+00
    0.22431E+07        -0.49718E+08         0.00000E+00
    0.00000E+00         0.00000E+00        -0.47151E+08
 
   -0.46981E+08         0.22880E+07         0.00000E+00
    0.22880E+07        -0.49704E+08         0.00000E+00
    0.00000E+00         0.00000E+00        -0.47155E+08
 
   -0.47016E+08         0.23327E+07         0.00000E+00
    0.23327E+07        -0.49690E+08         0.00000E+00
    0.00000E+00         0.00000E+00        -0.47159E+08
 
   -0.47052E+08         0.23770E+07         0.00000E+00
    0.23770E+07        -0.49675E+08         0.00000E+00
    0.00000E+00         0.00000E+00        -0.47164E+08
 
   -0.47087E+08         0.24210E+07         0.00000E+00
    0.24210E+07        -0.49660E+08         0.00000E+00
    0.00000E+00         0.00000E+00        -0.47168E+08
 
   -0.47123E+08         0.24648E+07         0.00000E+00
    0.24648E+07        -0.49645E+08         0.00000E+00
    0.00000E+00         0.00000E+00        -0.47172E+08
 
   -0.47160E+08         0.25082E+07         0.00000E+00
    0.25082E+07        -0.49629E+08         0.00000E+00
    0.00000E+00         0.00000E+00        -0.47176E+08
 
   -0.45319E+08         0.30565E+05         0.00000E+00
    0.30565E+05        -0.50000E+08         0.00000E+00
    0.00000E+00         0.00000E+00        -0.46706E+08
 
   -0.45349E+08         0.90691E+05         0.00000E+00
    0.90691E+05        -0.50000E+08         0.00000E+00
    0.00000E+00         0.00000E+00        -0.46712E+08
 
   -0.45379E+08         0.15040E+06         0.00000E+00
    0.15040E+06        -0.49999E+08         0.00000E+00
    0.00000E+00         0.00000E+00        -0.46718E+08
 
   -0.45409E+08         0.20969E+06         0.00000E+00
    0.20969E+06        -0.49998E+08         0.00000E+00
    0.00000E+00         0.00000E+00        -0.46724E+08
 
   -0.45440E+08         0.26859E+06         0.00000E+00
    0.26859E+06        -0.49997E+08         0.00000E+00
    0.00000E+00         0.00000E+00        -0.46730E+08
 
   -0.45470E+08         0.32708E+06         0.00000E+00
    0.32708E+06        -0.49995E+08         0.00000E+00
    0.00000E+00         0.00000E+00        -0.46735E+08
 
   -0.45501E+08         0.38519E+06         0.00000E+00
    0.38519E+06        -0.49994E+08         0.00000E+00
    0.00000E+00         0.00000E+00        -0.46741E+08
 
   -0.45531E+08         0.44291E+06         0.00000E+00
    0.44291E+06        -0.49992E+08         0.00000E+00
    0.00000E+00         0.00000E+00        -0.46747E+08
 
   -0.45562E+08         0.50026E+06         0.00000E+00
    0.50026E+06        -0.49989E+08         0.00000E+00
    0.00000E+00         0.00000E+00        -0.46753E+08
 
   -0.45593E+08         0.55724E+06         0.00000E+00
    0.55724E+06        -0.49987E+08         0.00000E+00
    0.00000E+00         0.00000E+00        -0.46758E+08
 
   -0.45624E+08         0.61386E+06         0.00000E+00
    0.61386E+06        -0.49984E+08         0.00000E+00
    0.00000E+00         0.00000E+00        -0.46764E+08
 
   -0.45655E+08         0.67012E+06         0.00000E+00
    0.67012E+06        -0.49980E+08         0.00000E+00
    0.00000E+00         0.00000E+00        -0.46770E+08
 
   -0.45686E+08         0.72604E+06         0.00000E+00
    0.72604E+06        -0.49977E+08         0.00000E+00
    0.00000E+00         0.00000E+00        -0.46775E+08
 
   -0.45717E+08         0.78161E+06         0.00000E+00
    0.78161E+06        -0.49973E+08         0.00000E+00
    0.00000E+00         0.00000E+00        -0.46781E+08
 
   -0.45748E+08         0.83685E+06         0.00000E+00
    0.83685E+06        -0.49969E+08         0.00000E+00
    0.00000E+00         0.00000E+00        -0.46786E+08
 
   -0.45780E+08         0.89176E+06         0.00000E+00
    0.89176E+06        -0.49965E+08         0.00000E+00
    0.00000E+00         0.00000E+00        -0.46792E+08
 
   -0.45811E+08         0.94634E+06         0.00000E+00
    0.94634E+06        -0.49960E+08         0.00000E+00
    0.00000E+00         0.00000E+00        -0.46797E+08
 
   -0.45843E+08         0.10006E+07         0.00000E+00
    0.10006E+07        -0.49955E+08         0.00000E+00
    0.00000E+00         0.00000E+00        -0.46802E+08
 
   -0.45875E+08         0.10546E+07         0.00000E+00
    0.10546E+07        -0.49950E+08         0.00000E+00
    0.00000E+00         0.00000E+00        -0.46808E+08
 
   -0.45907E+08         0.11082E+07         0.00000E+00
    0.11082E+07        -0.49944E+08         0.00000E+00
    0.00000E+00         0.00000E+00        -0.46813E+08
 
   -0.45939E+08         0.11615E+07         0.00000E+00
    0.11615E+07        -0.49939E+08         0.00000E+00
    0.00000E+00         0.00000E+00        -0.46818E+08
 
   -0.45971E+08         0.12146E+07         0.00000E+00
    0.12146E+07        -0.49932E+08         0.00000E+00
    0.00000E+00         0.00000E+00        -0.46823E+08
 
   -0.46003E+08         0.12673E+07         0.00000E+00
    0.12673E+07        -0.49926E+08         0.00000E+00
    0.00000E+00         0.00000E+00        -0.46829E+08
 
   -0.46035E+08         0.13198E+07         0.00000E+00
    0.13198E+07        -0.49919E+08         0.00000E+00
    0.00000E+00         0.00000E+00        -0.46834E+08
 
   -0.46068E+08         0.13720E+07         0.00000E+00
    0.13720E+07        -0.49912E+08         0.00000E+00
    0.00000E+00         0.00000E+00        -0.46839E+08
 
   -0.46100E+08         0.14238E+07         0.00000E+00
    0.14238E+07        -0.49905E+08         0.00000E+00
    0.00000E+00         0.00000E+00        -0.46844E+08
 
   -0.46133E+08         0.14755E+07         0.00000E+00
    0.14755E+07        -0.49897E+08         0.00000E+00
    0.00000E+00         0.00000E+00        -0.46849E+08
 
   -0.46166E+08         0.15268E+07         0.00000E+00
    0.15268E+07        -0.49889E+08         0.00000E+00
    0.00000E+00         0.00000E+00        -0.46854E+08
 
   -0.46199E+08         0.15779E+07         0.00000E+00
    0.15779E+07        -0.49880E+08         0.00000E+00
    0.00000E+00         0.00000E+00        -0.46859E+08
 
   -0.46232E+08         0.16287E+07         0.00000E+00
    0.16287E+07        -0.49872E+08         0.00000E+00
    0.00000E+00         0.00000E+00        -0.46864E+08
 
   -0.46266E+08         0.16792E+07         0.00000E+00
    0.16792E+07        -0.49863E+08         0.00000E+00
    0.00000E+00         0.00000E+00        -0.46869E+08
 
   -0.46299E+08         0.17294E+07         0.00000E+00
    0.17294E+07        -0.49853E+08         0.00000E+00
    0.00000E+00         0.00000E+00        -0.46874E+08
 
   -0.46333E+08         0.17794E+07         0.00000E+00
    0.17794E+07        -0.49844E+08         0.00000E+00
    0.00000E+00         0.00000E+00        -0.46878E+08
 
   -0.46366E+08         0.18292E+07         0.00000E+00
    0.18292E+07        -0.49833E+08         0.00000E+00
    0.00000E+00         0.00000E+00        -0.46883E+08
 
   -0.46401E+08         0.18787E+07         0.00000E+00
    0.18787E+07        -0.49823E+08         0.00000E+00
    0.00000E+00         0.00000E+00        -0.46888E+08
 
   -0.46435E+08         0.19279E+07         0.00000E+00
    0.19279E+07        -0.49812E+08         0.00000E+00
    0.00000E+00         0.00000E+00        -0.46892E+08
 
   -0.46469E+08         0.19769E+07         0.00000E+00
    0.19769E+07        -0.49801E+08         0.00000E+00
    0.00000E+00         0.00000E+00        -0.46897E+08
 
   -0.46504E+08         0.20256E+07         0.00000E+00
    0.20256E+07        -0.49789E+08         0.00000E+00
    0.00000E+00         0.00000E+00        -0.46902E+08
 
   -0.46539E+08         0.20740E+07         0.00000E+00
    0.20740E+07        -0.49778E+08         0.00000E+00
    0.00000E+00         0.00000E+00        -0.46906E+08
 
   -0.46574E+08         0.21222E+07         0.00000E+00
    0.21222E+07        -0.49765E+08         0.00000E+00
    0.00000E+00         0.00000E+00        -0.46911E+08
 
   -0.46609E+08         0.21702E+07         0.00000E+00
    0.21702E+07        -0.49753E+08         0.00000E+00
    0.00000E+00         0.00000E+00        -0.46915E+08
 
   -0.46644E+08         0.22179E+07         0.00000E+00
    0.22179E+07        -0.49739E+08         0.00000E+00
    0.00000E+00         0.00000E+00        -0.46920E+08
 
   -0.46680E+08         0.22653E+07         0.00000E+00
    0.22653E+07        -0.49726E+08         0.00000E+00
    0.00000E+00         0.00000E+00        -0.46924E+08
 
   -0.46716E+08         0.23125E+07         0.00000E+00
    0.23125E+07        -0.49712E+08         0.00000E+00
    0.00000E+00         0.00000E+00        -0.46929E+08
 
   -0.46752E+08         0.23594E+07         0.00000E+00
    0.23594E+07        -0.49698E+08         0.00000E+00
    0.00000E+00         0.00000E+00        -0.46933E+08
 
   -0.46789E+08         0.24061E+07         0.00000E+00
    0.24061E+07        -0.49683E+08         0.00000E+00
    0.00000E+00         0.00000E+00        -0.46937E+08
 
   -0.46826E+08         0.24525E+07         0.00000E+00
    0.24525E+07        -0.49668E+08         0.00000E+00
    0.00000E+00         0.00000E+00        -0.46942E+08
 
   -0.46863E+08         0.24986E+07         0.00000E+00
    0.24986E+07        -0.49652E+08         0.00000E+00
    0.00000E+00         0.00000E+00        -0.46946E+08
 
   -0.46900E+08         0.25444E+07         0.00000E+00
    0.25444E+07        -0.49636E+08         0.00000E+00
    0.00000E+00         0.00000E+00        -0.46950E+08
 
   -0.46938E+08         0.25900E+07         0.00000E+00
    0.25900E+07        -0.49620E+08         0.00000E+00
    0.00000E+00         0.00000E+00        -0.46955E+08
 
   -0.45014E+08         0.31323E+05         0.00000E+00
    0.31323E+05        -0.50000E+08         0.00000E+00
    0.00000E+00         0.00000E+00        -0.46461E+08
 
   -0.45046E+08         0.92933E+05         0.00000E+00
    0.92933E+05        -0.50000E+08         0.00000E+00
    0.00000E+00         0.00000E+00        -0.46468E+08
 
   -0.45078E+08         0.15411E+06         0.00000E+00
    0.15411E+06        -0.49999E+08         0.00000E+00
    0.00000E+00         0.00000E+00        -0.46474E+08
 
   -0.45110E+08         0.21487E+06         0.00000E+00
    0.21487E+06        -0.49998E+08         0.00000E+00
    0.00000E+00         0.00000E+00        -0.46480E+08
 
   -0.45143E+08         0.27522E+06         0.00000E+00
    0.27522E+06        -0.49997E+08         0.00000E+00
    0.00000E+00         0.00000E+00        -0.46487E+08
 
   -0.45175E+08         0.33516E+06         0.00000E+00
    0.33516E+06        -0.49995E+08         0.00000E+00
    0.00000E+00         0.00000E+00        -0.46493E+08
 
   -0.45207E+08         0.39471E+06         0.00000E+00
    0.39471E+06        -0.49994E+08         0.00000E+00
    0.00000E+00         0.00000E+00        -0.46499E+08
 
   -0.45240E+08         0.45388E+06         0.00000E+00
    0.45388E+06        -0.49992E+08         0.00000E+00
    0.00000E+00         0.00000E+00        -0.46505E+08
 
   -0.45272E+08         0.51267E+06         0.00000E+00
    0.51267E+06        -0.49989E+08         0.00000E+00
    0.00000E+00         0.00000E+00        -0.46511E+08
 
   -0.45305E+08         0.57109E+06         0.00000E+00
    0.57109E+06        -0.49987E+08         0.00000E+00
    0.00000E+00         0.00000E+00        -0.46517E+08
 
   -0.45338E+08         0.62915E+06         0.00000E+00
    0.62915E+06        -0.49984E+08         0.00000E+00
    0.00000E+00         0.00000E+00        -0.46523E+08
 
   -0.45371E+08         0.68686E+06         0.00000E+00
    0.68686E+06        -0.49981E+08         0.00000E+00
    0.00000E+00         0.00000E+00        -0.46529E+08
 
   -0.45403E+08         0.74422E+06         0.00000E+00
    0.74422E+06        -0.49977E+08         0.00000E+00
    0.00000E+00         0.00000E+00        -0.46535E+08
 
   -0.45436E+08         0.80125E+06         0.00000E+00
    0.80125E+06        -0.49973E+08         0.00000E+00
    0.00000E+00         0.00000E+00        -0.46541E+08
 
   -0.45469E+08         0.85795E+06         0.00000E+00
    0.85795E+06        -0.49969E+08         0.00000E+00
    0.00000E+00         0.00000E+00        -0.46547E+08
 
   -0.45502E+08         0.91433E+06         0.00000E+00
    0.91433E+06        -0.49965E+08         0.00000E+00
    0.00000E+00         0.00000E+00        -0.46552E+08
 
   -0.45536E+08         0.97040E+06         0.00000E+00
    0.97040E+06        -0.49960E+08         0.00000E+00
    0.00000E+00         0.00000E+00        -0.46558E+08
 
   -0.45569E+08         0.10262E+07         0.00000E+00
    0.10262E+07        -0.49955E+08         0.00000E+00
    0.00000E+00         0.00000E+00        -0.46564E+08
 
   -0.45602E+08         0.10816E+07         0.00000E+00
    0.10816E+07        -0.49950E+08         0.00000E+00
    0.00000E+00         0.00000E+00        -0.46569E+08
 
   -0.45635E+08         0.11368E+07         0.00000E+00
    0.11368E+07        -0.49944E+08         0.00000E+00
    0.00000E+00         0.00000E+00        -0.46575E+08
 
   -0.45669E+08         0.11916E+07         0.00000E+00
    0.11916E+07        -0.49939E+08         0.00000E+00
    0.00000E+00         0.00000E+00        -0.46580E+08
 
   -0.45702E+08         0.12462E+07         0.00000E+00
    0.12462E+07        -0.49932E+08         0.00000E+00
    0.00000E+00         0.00000E+00        -0.46586E+08
 
   -0.45736E+08         0.13006E+07         0.00000E+00
    0.13006E+07        -0.49926E+08         0.00000E+00
    0.00000E+00         0.00000E+00        -0.46591E+08
 
   -0.45770E+08         0.13546E+07         0.00000E+00
    0.13546E+07        -0.49919E+08         0.00000E+00
    0.00000E+00         0.00000E+00        -0.46597E+08
 
   -0.45804E+08         0.14084E+07         0.00000E+00
    0.14084E+07        -0.49912E+08         0.00000E+00
    0.00000E+00         0.00000E+00        -0.46602E+08
 
   -0.45838E+08         0.14619E+07         0.00000E+00
    0.14619E+07        -0.49904E+08         0.00000E+00
    0.00000E+00         0.00000E+00        -0.46607E+08
 
   -0.45872E+08         0.15151E+07         0.00000E+00
    0.15151E+07        -0.49897E+08         0.00000E+00
    0.00000E+00         0.00000E+00        -0.46613E+08
 
   -0.45906E+08         0.15681E+07         0.00000E+00
    0.15681E+07        -0.49889E+08         0.00000E+00
    0.00000E+00         0.00000E+00        -0.46618E+08
 
   -0.45940E+08         0.16209E+07         0.00000E+00
    0.16209E+07        -0.49880E+08         0.00000E+00
    0.00000E+00         0.00000E+00        -0.46623E+08
 
   -0.45975E+08         0.16734E+07         0.00000E+00
    0.16734E+07        -0.49871E+08         0.00000E+00
    0.00000E+00         0.00000E+00        -0.46628E+08
 
   -0.46009E+08         0.17257E+07         0.00000E+00
    0.17257E+07        -0.49862E+08         0.00000E+00
    0.00000E+00         0.00000E+00        -0.46633E+08
 
   -0.46044E+08         0.17777E+07         0.00000E+00
    0.17777E+07        -0.49853E+08         0.00000E+00
    0.00000E+00         0.00000E+00        -0.46638E+08
 
   -0.46079E+08         0.18295E+07         0.00000E+00
    0.18295E+07        -0.49843E+08         0.00000E+00
    0.00000E+00         0.00000E+00        -0.46643E+08
 
   -0.46114E+08         0.18810E+07         0.00000E+00
    0.18810E+07        -0.49832E+08         0.00000E+00
    0.00000E+00         0.00000E+00        -0.46648E+08
 
   -0.46149E+08         0.19323E+07         0.00000E+00
    0.19323E+07        -0.49822E+08         0.00000E+00
    0.00000E+00         0.00000E+00        -0.46653E+08
 
   -0.46185E+08         0.19834E+07         0.00000E+00
    0.19834E+07        -0.49811E+08         0.00000E+00
    0.00000E+00         0.00000E+00        -0.46658E+08
 
   -0.46220E+08         0.20343E+07         0.00000E+00
    0.20343E+07        -0.49799E+08         0.00000E+00
    0.00000E+00         0.00000E+00        -0.46663E+08
 
   -0.46256E+08         0.20849E+07         0.00000E+00
    0.20849E+07        -0.49788E+08         0.00000E+00
    0.00000E+00         0.00000E+00        -0.46667E+08
 
   -0.46292E+08         0.21353E+07         0.00000E+00
    0.21353E+07        -0.49775E+08         0.00000E+00
    0.00000E+00         0.00000E+00        -0.46672E+08
 
   -0.46328E+08         0.21855E+07         0.00000E+00
    0.21855E+07        -0.49763E+08         0.00000E+00
    0.00000E+00         0.00000E+00        -0.46677E+08
 
   -0.46365E+08         0.22355E+07         0.00000E+00
    0.22355E+07        -0.49750E+08         0.00000E+00
    0.00000E+00         0.00000E+00        -0.46682E+08
 
   -0.46401E+08         0.22852E+07         0.00000E+00
    0.22852E+07        -0.49736E+08         0.00000E+00
    0.00000E+00         0.00000E+00        -0.46686E+08
 
   -0.46438E+08         0.23347E+07         0.00000E+00
    0.23347E+07        -0.49723E+08         0.00000E+00
    0.00000E+00         0.00000E+00        -0.46691E+08
 
   -0.46476E+08         0.23840E+07         0.00000E+00
    0.23840E+07        -0.49708E+08         0.00000E+00
    0.00000E+00         0.00000E+00        -0.46695E+08
 
   -0.46513E+08         0.24330E+07         0.00000E+00
    0.24330E+07        -0.49694E+08         0.00000E+00
    0.00000E+00         0.00000E+00        -0.46700E+08
 
   -0.46551E+08         0.24819E+07         0.00000E+00
    0.24819E+07        -0.49678E+08         0.00000E+00
    0.00000E+00         0.00000E+00        -0.46704E+08
 
   -0.46589E+08         0.25304E+07         0.00000E+00
    0.25304E+07        -0.49663E+08         0.00000E+00
    0.00000E+00         0.00000E+00        -0.46709E+08
 
   -0.46627E+08         0.25788E+07         0.00000E+00
    0.25788E+07        -0.49647E+08         0.00000E+00
    0.00000E+00         0.00000E+00        -0.46713E+08
 
   -0.46666E+08         0.26269E+07         0.00000E+00
    0.26269E+07        -0.49630E+08         0.00000E+00
    0.00000E+00         0.00000E+00        -0.46718E+08
 
   -0.46705E+08         0.26748E+07         0.00000E+00
    0.26748E+07        -0.49613E+08         0.00000E+00
    0.00000E+00         0.00000E+00        -0.46722E+08
 
   -0.44701E+08         0.32070E+05         0.00000E+00
    0.32070E+05        -0.50000E+08         0.00000E+00
    0.00000E+00         0.00000E+00        -0.46205E+08
 
   -0.44735E+08         0.95144E+05         0.00000E+00
    0.95144E+05        -0.50000E+08         0.00000E+00
    0.00000E+00         0.00000E+00        -0.46212E+08
 
   -0.44770E+08         0.15778E+06         0.00000E+00
    0.15778E+06        -0.49999E+08         0.00000E+00
    0.00000E+00         0.00000E+00        -0.46219E+08
 
   -0.44804E+08         0.21998E+06         0.00000E+00
    0.21998E+06        -0.49998E+08         0.00000E+00
    0.00000E+00         0.00000E+00        -0.46226E+08
 
   -0.44838E+08         0.28177E+06         0.00000E+00
    0.28177E+06        -0.49997E+08         0.00000E+00
    0.00000E+00         0.00000E+00        -0.46232E+08
 
   -0.44873E+08         0.34314E+06         0.00000E+00
    0.34314E+06        -0.49995E+08         0.00000E+00
    0.00000E+00         0.00000E+00        -0.46239E+08
 
   -0.44907E+08         0.40412E+06         0.00000E+00
    0.40412E+06        -0.49994E+08         0.00000E+00
    0.00000E+00         0.00000E+00        -0.46245E+08
 
   -0.44941E+08         0.46472E+06         0.00000E+00
    0.46472E+06        -0.49992E+08         0.00000E+00
    0.00000E+00         0.00000E+00        -0.46252E+08
 
   -0.44976E+08         0.52494E+06         0.00000E+00
    0.52494E+06        -0.49989E+08         0.00000E+00
    0.00000E+00         0.00000E+00        -0.46258E+08
 
   -0.45010E+08         0.58479E+06         0.00000E+00
    0.58479E+06        -0.49987E+08         0.00000E+00
    0.00000E+00         0.00000E+00        -0.46265E+08
 
   -0.45045E+08         0.64429E+06         0.00000E+00
    0.64429E+06        -0.49984E+08         0.00000E+00
    0.00000E+00         0.00000E+00        -0.46271E+08
 
   -0.45079E+08         0.70344E+06         0.00000E+00
    0.70344E+06        -0.49981E+08         0.00000E+00
    0.00000E+00         0.00000E+00        -0.46277E+08
 
   -0.45114E+08         0.76226E+06         0.00000E+00
    0.76226E+06        -0.49977E+08         0.00000E+00
    0.00000E+00         0.00000E+00        -0.46283E+08
 
   -0.45148E+08         0.82075E+06         0.00000E+00
    0.82075E+06        -0.49974E+08         0.00000E+00
    0.00000E+00         0.00000E+00        -0.46289E+08
 
   -0.45183E+08         0.87892E+06         0.00000E+00
    0.87892E+06        -0.49970E+08         0.00000E+00
    0.00000E+00         0.00000E+00        -0.46296E+08
 
   -0.45218E+08         0.93678E+06         0.00000E+00
    0.93678E+06        -0.49965E+08         0.00000E+00
    0.00000E+00         0.00000E+00        -0.46302E+08
 
   -0.45252E+08         0.99434E+06         0.00000E+00
    0.99434E+06        -0.49961E+08         0.00000E+00
    0.00000E+00         0.00000E+00        -0.46308E+08
 
   -0.45287E+08         0.10516E+07         0.00000E+00
    0.10516E+07        -0.49956E+08         0.00000E+00
    0.00000E+00         0.00000E+00        -0.46314E+08
 
   -0.45322E+08         0.11086E+07         0.00000E+00
    0.11086E+07        -0.49951E+08         0.00000E+00
    0.00000E+00         0.00000E+00        -0.46319E+08
 
   -0.45356E+08         0.11653E+07         0.00000E+00
    0.11653E+07        -0.49945E+08         0.00000E+00
    0.00000E+00         0.00000E+00        -0.46325E+08
 
   -0.45391E+08         0.12217E+07         0.00000E+00
    0.12217E+07        -0.49939E+08         0.00000E+00
    0.00000E+00         0.00000E+00        -0.46331E+08
 
   -0.45426E+08         0.12779E+07         0.00000E+00
    0.12779E+07        -0.49933E+08         0.00000E+00
    0.00000E+00         0.00000E+00        -0.46337E+08
 
   -0.45461E+08         0.13338E+07         0.00000E+00
    0.13338E+07        -0.49927E+08         0.00000E+00
    0.00000E+00         0.00000E+00        -0.46342E+08
 
   -0.45496E+08         0.13895E+07         0.00000E+00
    0.13895E+07        -0.49920E+08         0.00000E+00
    0.00000E+00         0.00000E+00        -0.46348E+08
 
   -0.45531E+08         0.14449E+07         0.00000E+00
    0.14449E+07        -0.49913E+08         0.00000E+00
    0.00000E+00         0.00000E+00        -0.46354E+08
 
   -0.45566E+08         0.15001E+07         0.00000E+00
    0.15001E+07        -0.49905E+08         0.00000E+00
    0.00000E+00         0.00000E+00        -0.46359E+08
 
   -0.45602E+08         0.15550E+07         0.00000E+00
    0.15550E+07        -0.49898E+08         0.00000E+00
    0.00000E+00         0.00000E+00        -0.46365E+08
 
   -0.45637E+08         0.16097E+07         0.00000E+00
    0.16097E+07        -0.49889E+08         0.00000E+00
    0.00000E+00         0.00000E+00        -0.46370E+08
 
   -0.45673E+08         0.16642E+07         0.00000E+00
    0.16642E+07        -0.49881E+08         0.00000E+00
    0.00000E+00         0.00000E+00        -0.46375E+08
 
   -0.45708E+08         0.17185E+07         0.00000E+00
    0.17185E+07        -0.49872E+08         0.00000E+00
    0.00000E+00         0.00000E+00        -0.46381E+08
 
   -0.45744E+08         0.17726E+07         0.00000E+00
    0.17726E+07        -0.49863E+08         0.00000E+00
    0.00000E+00         0.00000E+00        -0.46386E+08
 
   -0.45780E+08         0.18264E+07         0.00000E+00
    0.18264E+07        -0.49853E+08         0.00000E+00
    0.00000E+00         0.00000E+00        -0.46391E+08
 
   -0.45816E+08         0.18801E+07         0.00000E+00
    0.18801E+07        -0.49843E+08         0.00000E+00
    0.00000E+00         0.00000E+00        -0.46396E+08
 
   -0.45852E+08         0.19335E+07         0.00000E+00
    0.19335E+07        -0.49833E+08         0.00000E+00
    0.00000E+00         0.00000E+00        -0.46401E+08
 
   -0.45888E+08         0.19868E+07         0.00000E+00
    0.19868E+07        -0.49822E+08         0.00000E+00
    0.00000E+00         0.00000E+00        -0.46406E+08
 
   -0.45925E+08         0.20398E+07         0.00000E+00
    0.20398E+07        -0.49811E+08         0.00000E+00
    0.00000E+00         0.00000E+00        -0.46411E+08
 
   -0.45961E+08         0.20927E+07         0.00000E+00
    0.20927E+07        -0.49800E+08         0.00000E+00
    0.00000E+00         0.00000E+00        -0.46416E+08
 
   -0.45998E+08         0.21453E+07         0.00000E+00
    0.21453E+07        -0.49788E+08         0.00000E+00
    0.00000E+00         0.00000E+00        -0.46421E+08
 
   -0.46035E+08         0.21978E+07         0.00000E+00
    0.21978E+07        -0.49775E+08         0.00000E+00
    0.00000E+00         0.00000E+00        -0.46426E+08
 
   -0.46073E+08         0.22501E+07         0.00000E+00
    0.22501E+07        -0.49762E+08         0.00000E+00
    0.00000E+00         0.00000E+00        -0.46431E+08
 
   -0.46110E+08         0.23021E+07         0.00000E+00
    0.23021E+07        -0.49749E+08         0.00000E+00
    0.00000E+00         0.00000E+00        -0.46436E+08
 
   -0.46148E+08         0.23540E+07         0.00000E+00
    0.23540E+07        -0.49736E+08         0.00000E+00
    0.00000E+00         0.00000E+00        -0.46441E+08
 
   -0.46186E+08         0.24057E+07         0.00000E+00
    0.24057E+07        -0.49721E+08         0.00000E+00
    0.00000E+00         0.00000E+00        -0.46445E+08
 
   -0.46224E+08         0.24572E+07         0.00000E+00
    0.24572E+07        -0.49707E+08         0.00000E+00
    0.00000E+00         0.00000E+00        -0.46450E+08
 
   -0.46263E+08         0.25085E+07         0.00000E+00
    0.25085E+07        -0.49692E+08         0.00000E+00
    0.00000E+00         0.00000E+00        -0.46455E+08
 
   -0.46301E+08         0.25597E+07         0.00000E+00
    0.25597E+07        -0.49676E+08         0.00000E+00
    0.00000E+00         0.00000E+00        -0.46459E+08
 
   -0.46341E+08         0.26106E+07         0.00000E+00
    0.26106E+07        -0.49660E+08         0.00000E+00
    0.00000E+00         0.00000E+00        -0.46464E+08
 
   -0.46380E+08         0.26613E+07         0.00000E+00
    0.26613E+07        -0.49644E+08         0.00000E+00
    0.00000E+00         0.00000E+00        -0.46469E+08
 
   -0.46420E+08         0.27118E+07         0.00000E+00
    0.27118E+07        -0.49627E+08         0.00000E+00
    0.00000E+00         0.00000E+00        -0.46473E+08
 
   -0.46460E+08         0.27622E+07         0.00000E+00
    0.27622E+07        -0.49610E+08         0.00000E+00
    0.00000E+00         0.00000E+00        -0.46478E+08
 
   -0.44381E+08         0.32795E+05         0.00000E+00
    0.32795E+05        -0.50000E+08         0.00000E+00
    0.00000E+00         0.00000E+00        -0.45937E+08
 
   -0.44418E+08         0.97291E+05         0.00000E+00
    0.97291E+05        -0.50000E+08         0.00000E+00
    0.00000E+00         0.00000E+00        -0.45944E+08
 
   -0.44454E+08         0.16134E+06         0.00000E+00
    0.16134E+06        -0.49999E+08         0.00000E+00
    0.00000E+00         0.00000E+00        -0.45951E+08
 
   -0.44490E+08         0.22495E+06         0.00000E+00
    0.22495E+06        -0.49998E+08         0.00000E+00
    0.00000E+00         0.00000E+00        -0.45958E+08
 
   -0.44527E+08         0.28814E+06         0.00000E+00
    0.28814E+06        -0.49997E+08         0.00000E+00
    0.00000E+00         0.00000E+00        -0.45965E+08
 
   -0.44563E+08         0.35091E+06         0.00000E+00
    0.35091E+06        -0.49996E+08         0.00000E+00
    0.00000E+00         0.00000E+00        -0.45972E+08
 
   -0.44600E+08         0.41330E+06         0.00000E+00
    0.41330E+06        -0.49994E+08         0.00000E+00
    0.00000E+00         0.00000E+00        -0.45979E+08
 
   -0.44636E+08         0.47529E+06         0.00000E+00
    0.47529E+06        -0.49992E+08         0.00000E+00
    0.00000E+00         0.00000E+00        -0.45986E+08
 
   -0.44672E+08         0.53692E+06         0.00000E+00
    0.53692E+06        -0.49990E+08         0.00000E+00
    0.00000E+00         0.00000E+00        -0.45993E+08
 
   -0.44708E+08         0.59818E+06         0.00000E+00
    0.59818E+06        -0.49987E+08         0.00000E+00
    0.00000E+00         0.00000E+00        -0.46000E+08
 
   -0.44745E+08         0.65910E+06         0.00000E+00
    0.65910E+06        -0.49985E+08         0.00000E+00
    0.00000E+00         0.00000E+00        -0.46006E+08
 
   -0.44781E+08         0.71967E+06         0.00000E+00
    0.71967E+06        -0.49981E+08         0.00000E+00
    0.00000E+00         0.00000E+00        -0.46013E+08
 
   -0.44817E+08         0.77993E+06         0.00000E+00
    0.77993E+06        -0.49978E+08         0.00000E+00
    0.00000E+00         0.00000E+00        -0.46020E+08
 
   -0.44853E+08         0.83986E+06         0.00000E+00
    0.83986E+06        -0.49975E+08         0.00000E+00
    0.00000E+00         0.00000E+00        -0.46026E+08
 
   -0.44889E+08         0.89950E+06         0.00000E+00
    0.89950E+06        -0.49971E+08         0.00000E+00
    0.00000E+00         0.00000E+00        -0.46032E+08
 
   -0.44925E+08         0.95883E+06         0.00000E+00
    0.95883E+06        -0.49966E+08         0.00000E+00
    0.00000E+00         0.00000E+00        -0.46039E+08
 
   -0.44961E+08         0.10179E+07         0.00000E+00
    0.10179E+07        -0.49962E+08         0.00000E+00
    0.00000E+00         0.00000E+00        -0.46045E+08
 
   -0.44997E+08         0.10767E+07         0.00000E+00
    0.10767E+07        -0.49957E+08         0.00000E+00
    0.00000E+00         0.00000E+00        -0.46051E+08
 
   -0.45034E+08         0.11352E+07         0.00000E+00
    0.11352E+07        -0.49952E+08         0.00000E+00
    0.00000E+00         0.00000E+00        -0.46057E+08
 
   -0.45070E+08         0.11934E+07         0.00000E+00
    0.11934E+07        -0.49947E+08         0.00000E+00
    0.00000E+00         0.00000E+00        -0.46063E+08
 
   -0.45106E+08         0.12514E+07         0.00000E+00
    0.12514E+07        -0.49941E+08         0.00000E+00
    0.00000E+00         0.00000E+00        -0.46069E+08
 
   -0.45142E+08         0.13092E+07         0.00000E+00
    0.13092E+07        -0.49935E+08         0.00000E+00
    0.00000E+00         0.00000E+00        -0.46075E+08
 
   -0.45178E+08         0.13668E+07         0.00000E+00
    0.13668E+07        -0.49928E+08         0.00000E+00
    0.00000E+00         0.00000E+00        -0.46081E+08
 
   -0.45214E+08         0.14241E+07         0.00000E+00
    0.14241E+07        -0.49922E+08         0.00000E+00
    0.00000E+00         0.00000E+00        -0.46087E+08
 
   -0.45250E+08         0.14812E+07         0.00000E+00
    0.14812E+07        -0.49915E+08         0.00000E+00
    0.00000E+00         0.00000E+00        -0.46093E+08
 
   -0.45287E+08         0.15381E+07         0.00000E+00
    0.15381E+07        -0.49907E+08         0.00000E+00
    0.00000E+00         0.00000E+00        -0.46099E+08
 
   -0.45323E+08         0.15947E+07         0.00000E+00
    0.15947E+07        -0.49900E+08         0.00000E+00
    0.00000E+00         0.00000E+00        -0.46104E+08
 
   -0.45360E+08         0.16512E+07         0.00000E+00
    0.16512E+07        -0.49892E+08         0.00000E+00
    0.00000E+00         0.00000E+00        -0.46110E+08
 
   -0.45396E+08         0.17075E+07         0.00000E+00
    0.17075E+07        -0.49883E+08         0.00000E+00
    0.00000E+00         0.00000E+00        -0.46115E+08
 
   -0.45433E+08         0.17636E+07         0.00000E+00
    0.17636E+07        -0.49874E+08         0.00000E+00
    0.00000E+00         0.00000E+00        -0.46121E+08
 
   -0.45469E+08         0.18196E+07         0.00000E+00
    0.18196E+07        -0.49865E+08         0.00000E+00
    0.00000E+00         0.00000E+00        -0.46126E+08
 
   -0.45506E+08         0.18753E+07         0.00000E+00
    0.18753E+07        -0.49856E+08         0.00000E+00
    0.00000E+00         0.00000E+00        -0.46132E+08
 
   -0.45543E+08         0.19309E+07         0.00000E+00
    0.19309E+07        -0.49846E+08         0.00000E+00
    0.00000E+00         0.00000E+00        -0.46137E+08
 
   -0.45580E+08         0.19863E+07         0.00000E+00
    0.19863E+07        -0.49835E+08         0.00000E+00
    0.00000E+00         0.00000E+00        -0.46142E+08
 
   -0.45617E+08         0.20416E+07         0.00000E+00
    0.20416E+07        -0.49825E+08         0.00000E+00
    0.00000E+00         0.00000E+00        -0.46147E+08
 
   -0.45655E+08         0.20966E+07         0.00000E+00
    0.20966E+07        -0.49813E+08         0.00000E+00
    0.00000E+00         0.00000E+00        -0.46153E+08
 
   -0.45692E+08         0.21516E+07         0.00000E+00
    0.21516E+07        -0.49802E+08         0.00000E+00
    0.00000E+00         0.00000E+00        -0.46158E+08
 
   -0.45730E+08         0.22063E+07         0.00000E+00
    0.22063E+07        -0.49790E+08         0.00000E+00
    0.00000E+00         0.00000E+00        -0.46163E+08
 
   -0.45768E+08         0.22610E+07         0.00000E+00
    0.22610E+07        -0.49777E+08         0.00000E+00
    0.00000E+00         0.00000E+00        -0.46168E+08
 
   -0.45806E+08         0.23154E+07         0.00000E+00
    0.23154E+07        -0.49764E+08         0.00000E+00
    0.00000E+00         0.00000E+00        -0.46173E+08
 
   -0.45845E+08         0.23697E+07         0.00000E+00
    0.23697E+07        -0.49751E+08         0.00000E+00
    0.00000E+00         0.00000E+00        -0.46178E+08
 
   -0.45883E+08         0.24239E+07         0.00000E+00
    0.24239E+07        -0.49737E+08         0.00000E+00
    0.00000E+00         0.00000E+00        -0.46183E+08
 
   -0.45922E+08         0.24779E+07         0.00000E+00
    0.24779E+07        -0.49723E+08         0.00000E+00
    0.00000E+00         0.00000E+00        -0.46187E+08
 
   -0.45961E+08         0.25318E+07         0.00000E+00
    0.25318E+07        -0.49708E+08         0.00000E+00
    0.00000E+00         0.00000E+00        -0.46192E+08
 
   -0.46001E+08         0.25855E+07         0.00000E+00
    0.25855E+07        -0.49693E+08         0.00000E+00
    0.00000E+00         0.00000E+00        -0.46197E+08
 
   -0.46040E+08         0.26390E+07         0.00000E+00
    0.26390E+07        -0.49677E+08         0.00000E+00
    0.00000E+00         0.00000E+00        -0.46202E+08
 
   -0.46080E+08         0.26924E+07         0.00000E+00
    0.26924E+07        -0.49661E+08         0.00000E+00
    0.00000E+00         0.00000E+00        -0.46207E+08
 
   -0.46121E+08         0.27457E+07         0.00000E+00
    0.27457E+07        -0.49644E+08         0.00000E+00
    0.00000E+00         0.00000E+00        -0.46211E+08
 
   -0.46161E+08         0.27988E+07         0.00000E+00
    0.27988E+07        -0.49627E+08         0.00000E+00
    0.00000E+00         0.00000E+00        -0.46216E+08
 
   -0.46202E+08         0.28517E+07         0.00000E+00
    0.28517E+07        -0.49609E+08         0.00000E+00
    0.00000E+00         0.00000E+00        -0.46220E+08
 
   -0.44054E+08         0.33486E+05         0.00000E+00
    0.33486E+05        -0.50000E+08         0.00000E+00
    0.00000E+00         0.00000E+00        -0.45656E+08
 
   -0.44093E+08         0.99341E+05         0.00000E+00
    0.99341E+05        -0.49999E+08         0.00000E+00
    0.00000E+00         0.00000E+00        -0.45663E+08
 
   -0.44131E+08         0.16474E+06         0.00000E+00
    0.16474E+06        -0.49999E+08         0.00000E+00
    0.00000E+00         0.00000E+00        -0.45671E+08
 
   -0.44170E+08         0.22970E+06         0.00000E+00
    0.22970E+06        -0.49998E+08         0.00000E+00
    0.00000E+00         0.00000E+00        -0.45679E+08
 
   -0.44208E+08         0.29423E+06         0.00000E+00
    0.29423E+06        -0.49997E+08         0.00000E+00
    0.00000E+00         0.00000E+00        -0.45686E+08
 
   -0.44247E+08         0.35836E+06         0.00000E+00
    0.35836E+06        -0.49996E+08         0.00000E+00
    0.00000E+00         0.00000E+00        -0.45693E+08
 
   -0.44285E+08         0.42209E+06         0.00000E+00
    0.42209E+06        -0.49994E+08         0.00000E+00
    0.00000E+00         0.00000E+00        -0.45701E+08
 
   -0.44323E+08         0.48544E+06         0.00000E+00
    0.48544E+06        -0.49992E+08         0.00000E+00
    0.00000E+00         0.00000E+00        -0.45708E+08
 
   -0.44361E+08         0.54842E+06         0.00000E+00
    0.54842E+06        -0.49990E+08         0.00000E+00
    0.00000E+00         0.00000E+00        -0.45715E+08
 
   -0.44399E+08         0.61105E+06         0.00000E+00
    0.61105E+06        -0.49988E+08         0.00000E+00
    0.00000E+00         0.00000E+00        -0.45722E+08
 
   -0.44437E+08         0.67334E+06         0.00000E+00
    0.67334E+06        -0.49985E+08         0.00000E+00
    0.00000E+00         0.00000E+00        -0.45729E+08
 
   -0.44475E+08         0.73531E+06         0.00000E+00
    0.73531E+06        -0.49982E+08         0.00000E+00
    0.00000E+00         0.00000E+00        -0.45736E+08
 
   -0.44513E+08         0.79697E+06         0.00000E+00
    0.79697E+06        -0.49979E+08         0.00000E+00
    0.00000E+00         0.00000E+00        -0.45743E+08
 
   -0.44551E+08         0.85833E+06         0.00000E+00
    0.85833E+06        -0.49976E+08         0.00000E+00
    0.00000E+00         0.00000E+00        -0.45750E+08
 
   -0.44588E+08         0.91940E+06         0.00000E+00
    0.91940E+06        -0.49972E+08         0.00000E+00
    0.00000E+00         0.00000E+00        -0.45756E+08
 
   -0.44626E+08         0.98020E+06         0.00000E+00
    0.98020E+06        -0.49968E+08         0.00000E+00
    0.00000E+00         0.00000E+00        -0.45763E+08
 
   -0.44663E+08         0.10407E+07         0.00000E+00
    0.10407E+07        -0.49964E+08         0.00000E+00
    0.00000E+00         0.00000E+00        -0.45769E+08
 
   -0.44700E+08         0.11010E+07         0.00000E+00
    0.11010E+07        -0.49959E+08         0.00000E+00
    0.00000E+00         0.00000E+00        -0.45776E+08
 
   -0.44738E+08         0.11611E+07         0.00000E+00
    0.11611E+07        -0.49954E+08         0.00000E+00
    0.00000E+00         0.00000E+00        -0.45782E+08
 
   -0.44775E+08         0.12209E+07         0.00000E+00
    0.12209E+07        -0.49949E+08         0.00000E+00
    0.00000E+00         0.00000E+00        -0.45789E+08
 
   -0.44812E+08         0.12805E+07         0.00000E+00
    0.12805E+07        -0.49943E+08         0.00000E+00
    0.00000E+00         0.00000E+00        -0.45795E+08
 
   -0.44850E+08         0.13398E+07         0.00000E+00
    0.13398E+07        -0.49937E+08         0.00000E+00
    0.00000E+00         0.00000E+00        -0.45801E+08
 
   -0.44887E+08         0.13990E+07         0.00000E+00
    0.13990E+07        -0.49931E+08         0.00000E+00
    0.00000E+00         0.00000E+00        -0.45807E+08
 
   -0.44924E+08         0.14580E+07         0.00000E+00
    0.14580E+07        -0.49925E+08         0.00000E+00
    0.00000E+00         0.00000E+00        -0.45813E+08
 
   -0.44961E+08         0.15168E+07         0.00000E+00
    0.15168E+07        -0.49918E+08         0.00000E+00
    0.00000E+00         0.00000E+00        -0.45819E+08
 
   -0.44998E+08         0.15754E+07         0.00000E+00
    0.15754E+07        -0.49911E+08         0.00000E+00
    0.00000E+00         0.00000E+00        -0.45825E+08
 
   -0.45036E+08         0.16339E+07         0.00000E+00
    0.16339E+07        -0.49903E+08         0.00000E+00
    0.00000E+00         0.00000E+00        -0.45831E+08
 
   -0.45073E+08         0.16922E+07         0.00000E+00
    0.16922E+07        -0.49895E+08         0.00000E+00
    0.00000E+00         0.00000E+00        -0.45836E+08
 
   -0.45110E+08         0.17503E+07         0.00000E+00
    0.17503E+07        -0.49887E+08         0.00000E+00
    0.00000E+00         0.00000E+00        -0.45842E+08
 
   -0.45148E+08         0.18083E+07         0.00000E+00
    0.18083E+07        -0.49878E+08         0.00000E+00
    0.00000E+00         0.00000E+00        -0.45848E+08
 
   -0.45185E+08         0.18661E+07         0.00000E+00
    0.18661E+07        -0.49869E+08         0.00000E+00
    0.00000E+00         0.00000E+00        -0.45853E+08
 
   -0.45223E+08         0.19238E+07         0.00000E+00
    0.19238E+07        -0.49860E+08         0.00000E+00
    0.00000E+00         0.00000E+00        -0.45859E+08
 
   -0.45261E+08         0.19814E+07         0.00000E+00
    0.19814E+07        -0.49850E+08         0.00000E+00
    0.00000E+00         0.00000E+00        -0.45864E+08
 
   -0.45298E+08         0.20389E+07         0.00000E+00
    0.20389E+07        -0.49840E+08         0.00000E+00
    0.00000E+00         0.00000E+00        -0.45870E+08
 
   -0.45336E+08         0.20962E+07         0.00000E+00
    0.20962E+07        -0.49829E+08         0.00000E+00
    0.00000E+00         0.00000E+00        -0.45875E+08
 
   -0.45374E+08         0.21534E+07         0.00000E+00
    0.21534E+07        -0.49818E+08         0.00000E+00
    0.00000E+00         0.00000E+00        -0.45880E+08
 
   -0.45413E+08         0.22105E+07         0.00000E+00
    0.22105E+07        -0.49806E+08         0.00000E+00
    0.00000E+00         0.00000E+00        -0.45886E+08
 
   -0.45451E+08         0.22675E+07         0.00000E+00
    0.22675E+07        -0.49794E+08         0.00000E+00
    0.00000E+00         0.00000E+00        -0.45891E+08
 
   -0.45490E+08         0.23244E+07         0.00000E+00
    0.23244E+07        -0.49782E+08         0.00000E+00
    0.00000E+00         0.00000E+00        -0.45896E+08
 
   -0.45528E+08         0.23811E+07         0.00000E+00
    0.23811E+07        -0.49769E+08         0.00000E+00
    0.00000E+00         0.00000E+00        -0.45901E+08
 
   -0.45567E+08         0.24378E+07         0.00000E+00
    0.24378E+07        -0.49756E+08         0.00000E+00
    0.00000E+00         0.00000E+00        -0.45906E+08
 
   -0.45607E+08         0.24943E+07         0.00000E+00
    0.24943E+07        -0.49742E+08         0.00000E+00
    0.00000E+00         0.00000E+00        -0.45911E+08
 
   -0.45646E+08         0.25508E+07         0.00000E+00
    0.25508E+07        -0.49728E+08         0.00000E+00
    0.00000E+00         0.00000E+00        -0.45916E+08
 
   -0.45686E+08         0.26071E+07         0.00000E+00
    0.26071E+07        -0.49713E+08         0.00000E+00
    0.00000E+00         0.00000E+00        -0.45921E+08
 
   -0.45726E+08         0.26634E+07         0.00000E+00
    0.26634E+07        -0.49697E+08         0.00000E+00
    0.00000E+00         0.00000E+00        -0.45926E+08
 
   -0.45766E+08         0.27195E+07         0.00000E+00
    0.27195E+07        -0.49681E+08         0.00000E+00
    0.00000E+00         0.00000E+00        -0.45931E+08
 
   -0.45807E+08         0.27755E+07         0.00000E+00
    0.27755E+07        -0.49665E+08         0.00000E+00
    0.00000E+00         0.00000E+00        -0.45935E+08
 
   -0.45848E+08         0.28315E+07         0.00000E+00
    0.28315E+07        -0.49648E+08         0.00000E+00
    0.00000E+00         0.00000E+00        -0.45940E+08
 
   -0.45889E+08         0.28873E+07         0.00000E+00
    0.28873E+07        -0.49630E+08         0.00000E+00
    0.00000E+00         0.00000E+00        -0.45945E+08
 
   -0.45931E+08         0.29430E+07         0.00000E+00
    0.29430E+07        -0.49612E+08         0.00000E+00
    0.00000E+00         0.00000E+00        -0.45950E+08
 
   -0.43720E+08         0.34130E+05         0.00000E+00
    0.34130E+05        -0.50000E+08         0.00000E+00
    0.00000E+00         0.00000E+00        -0.45361E+08
 
   -0.43761E+08         0.10125E+06         0.00000E+00
    0.10125E+06        -0.49999E+08         0.00000E+00
    0.00000E+00         0.00000E+00        -0.45369E+08
 
   -0.43802E+08         0.16792E+06         0.00000E+00
    0.16792E+06        -0.49999E+08         0.00000E+00
    0.00000E+00         0.00000E+00        -0.45377E+08
 
   -0.43843E+08         0.23414E+06         0.00000E+00
    0.23414E+06        -0.49998E+08         0.00000E+00
    0.00000E+00         0.00000E+00        -0.45385E+08
 
   -0.43884E+08         0.29994E+06         0.00000E+00
    0.29994E+06        -0.49997E+08         0.00000E+00
    0.00000E+00         0.00000E+00        -0.45393E+08
 
   -0.43924E+08         0.36533E+06         0.00000E+00
    0.36533E+06        -0.49996E+08         0.00000E+00
    0.00000E+00         0.00000E+00        -0.45401E+08
 
   -0.43964E+08         0.43034E+06         0.00000E+00
    0.43034E+06        -0.49995E+08         0.00000E+00
    0.00000E+00         0.00000E+00        -0.45408E+08
 
   -0.44004E+08         0.49497E+06         0.00000E+00
    0.49497E+06        -0.49993E+08         0.00000E+00
    0.00000E+00         0.00000E+00        -0.45416E+08
 
   -0.44044E+08         0.55925E+06         0.00000E+00
    0.55925E+06        -0.49991E+08         0.00000E+00
    0.00000E+00         0.00000E+00        -0.45423E+08
 
   -0.44084E+08         0.62318E+06         0.00000E+00
    0.62318E+06        -0.49989E+08         0.00000E+00
    0.00000E+00         0.00000E+00        -0.45431E+08
 
   -0.44123E+08         0.68680E+06         0.00000E+00
    0.68680E+06        -0.49986E+08         0.00000E+00
    0.00000E+00         0.00000E+00        -0.45438E+08
 
   -0.44163E+08         0.75010E+06         0.00000E+00
    0.75010E+06        -0.49984E+08         0.00000E+00
    0.00000E+00         0.00000E+00        -0.45445E+08
 
   -0.44202E+08         0.81312E+06         0.00000E+00
    0.81312E+06        -0.49981E+08         0.00000E+00
    0.00000E+00         0.00000E+00        -0.45453E+08
 
   -0.44241E+08         0.87585E+06         0.00000E+00
    0.87585E+06        -0.49977E+08         0.00000E+00
    0.00000E+00         0.00000E+00        -0.45460E+08
 
   -0.44280E+08         0.93832E+06         0.00000E+00
    0.93832E+06        -0.49974E+08         0.00000E+00
    0.00000E+00         0.00000E+00        -0.45467E+08
 
   -0.44319E+08         0.10005E+07         0.00000E+00
    0.10005E+07        -0.49970E+08         0.00000E+00
    0.00000E+00         0.00000E+00        -0.45473E+08
 
   -0.44357E+08         0.10625E+07         0.00000E+00
    0.10625E+07        -0.49966E+08         0.00000E+00
    0.00000E+00         0.00000E+00        -0.45480E+08
 
   -0.44396E+08         0.11243E+07         0.00000E+00
    0.11243E+07        -0.49962E+08         0.00000E+00
    0.00000E+00         0.00000E+00        -0.45487E+08
 
   -0.44434E+08         0.11858E+07         0.00000E+00
    0.11858E+07        -0.49957E+08         0.00000E+00
    0.00000E+00         0.00000E+00        -0.45493E+08
 
   -0.44473E+08         0.12472E+07         0.00000E+00
    0.12472E+07        -0.49952E+08         0.00000E+00
    0.00000E+00         0.00000E+00        -0.45500E+08
 
   -0.44511E+08         0.13083E+07         0.00000E+00
    0.13083E+07        -0.49947E+08         0.00000E+00
    0.00000E+00         0.00000E+00        -0.45506E+08
 
   -0.44549E+08         0.13693E+07         0.00000E+00
    0.13693E+07        -0.49941E+08         0.00000E+00
    0.00000E+00         0.00000E+00        -0.45513E+08
 
   -0.44587E+08         0.14301E+07         0.00000E+00
    0.14301E+07        -0.49935E+08         0.00000E+00
    0.00000E+00         0.00000E+00        -0.45519E+08
 
   -0.44625E+08         0.14908E+07         0.00000E+00
    0.14908E+07        -0.49929E+08         0.00000E+00
    0.00000E+00         0.00000E+00        -0.45525E+08
 
   -0.44663E+08         0.15513E+07         0.00000E+00
    0.15513E+07        -0.49922E+08         0.00000E+00
    0.00000E+00         0.00000E+00        -0.45531E+08
 
   -0.44701E+08         0.16117E+07         0.00000E+00
    0.16117E+07        -0.49915E+08         0.00000E+00
    0.00000E+00         0.00000E+00        -0.45537E+08
 
   -0.44739E+08         0.16719E+07         0.00000E+00
    0.16719E+07        -0.49908E+08         0.00000E+00
    0.00000E+00         0.00000E+00        -0.45543E+08
 
   -0.44777E+08         0.17320E+07         0.00000E+00
    0.17320E+07        -0.49900E+08         0.00000E+00
    0.00000E+00         0.00000E+00        -0.45549E+08
 
   -0.44815E+08         0.17921E+07         0.00000E+00
    0.17921E+07        -0.49892E+08         0.00000E+00
    0.00000E+00         0.00000E+00        -0.45555E+08
 
   -0.44853E+08         0.18520E+07         0.00000E+00
    0.18520E+07        -0.49884E+08         0.00000E+00
    0.00000E+00         0.00000E+00        -0.45561E+08
 
   -0.44891E+08         0.19118E+07         0.00000E+00
    0.19118E+07        -0.49875E+08         0.00000E+00
    0.00000E+00         0.00000E+00        -0.45566E+08
 
   -0.44930E+08         0.19715E+07         0.00000E+00
    0.19715E+07        -0.49866E+08         0.00000E+00
    0.00000E+00         0.00000E+00        -0.45572E+08
 
   -0.44968E+08         0.20311E+07         0.00000E+00
    0.20311E+07        -0.49856E+08         0.00000E+00
    0.00000E+00         0.00000E+00        -0.45578E+08
 
   -0.45006E+08         0.20907E+07         0.00000E+00
    0.20907E+07        -0.49846E+08         0.00000E+00
    0.00000E+00         0.00000E+00        -0.45583E+08
 
   -0.45045E+08         0.21502E+07         0.00000E+00
    0.21502E+07        -0.49836E+08         0.00000E+00
    0.00000E+00         0.00000E+00        -0.45589E+08
 
   -0.45083E+08         0.22096E+07         0.00000E+00
    0.22096E+07        -0.49825E+08         0.00000E+00
    0.00000E+00         0.00000E+00        -0.45594E+08
 
   -0.45122E+08         0.22689E+07         0.00000E+00
    0.22689E+07        -0.49814E+08         0.00000E+00
    0.00000E+00         0.00000E+00        -0.45599E+08
 
   -0.45161E+08         0.23282E+07         0.00000E+00
    0.23282E+07        -0.49802E+08         0.00000E+00
    0.00000E+00         0.00000E+00        -0.45605E+08
 
   -0.45200E+08         0.23874E+07         0.00000E+00
    0.23874E+07        -0.49790E+08         0.00000E+00
    0.00000E+00         0.00000E+00        -0.45610E+08
 
   -0.45239E+08         0.24466E+07         0.00000E+00
    0.24466E+07        -0.49777E+08         0.00000E+00
    0.00000E+00         0.00000E+00        -0.45615E+08
 
   -0.45278E+08         0.25057E+07         0.00000E+00
    0.25057E+07        -0.49763E+08         0.00000E+00
    0.00000E+00         0.00000E+00        -0.45620E+08
 
   -0.45318E+08         0.25648E+07         0.00000E+00
    0.25648E+07        -0.49750E+08         0.00000E+00
    0.00000E+00         0.00000E+00        -0.45625E+08
 
   -0.45358E+08         0.26238E+07         0.00000E+00
    0.26238E+07        -0.49735E+08         0.00000E+00
    0.00000E+00         0.00000E+00        -0.45630E+08
 
   -0.45398E+08         0.26828E+07         0.00000E+00
    0.26828E+07        -0.49721E+08         0.00000E+00
    0.00000E+00         0.00000E+00        -0.45635E+08
 
   -0.45438E+08         0.27417E+07         0.00000E+00
    0.27417E+07        -0.49705E+08         0.00000E+00
    0.00000E+00         0.00000E+00        -0.45640E+08
 
   -0.45479E+08         0.28005E+07         0.00000E+00
    0.28005E+07        -0.49689E+08         0.00000E+00
    0.00000E+00         0.00000E+00        -0.45645E+08
 
   -0.45520E+08         0.28593E+07         0.00000E+00
    0.28593E+07        -0.49673E+08         0.00000E+00
    0.00000E+00         0.00000E+00        -0.45650E+08
 
   -0.45561E+08         0.29181E+07         0.00000E+00
    0.29181E+07        -0.49656E+08         0.00000E+00
    0.00000E+00         0.00000E+00        -0.45655E+08
 
   -0.45603E+08         0.29768E+07         0.00000E+00
    0.29768E+07        -0.49638E+08         0.00000E+00
    0.00000E+00         0.00000E+00        -0.45659E+08
 
   -0.45645E+08         0.30355E+07         0.00000E+00
    0.30355E+07        -0.49620E+08         0.00000E+00
    0.00000E+00         0.00000E+00        -0.45664E+08
 
   -0.43380E+08         0.34711E+05         0.00000E+00
    0.34711E+05        -0.50000E+08         0.00000E+00
    0.00000E+00         0.00000E+00        -0.45052E+08
 
   -0.43424E+08         0.10299E+06         0.00000E+00
    0.10299E+06        -0.49999E+08         0.00000E+00
    0.00000E+00         0.00000E+00        -0.45060E+08
 
   -0.43467E+08         0.17080E+06         0.00000E+00
    0.17080E+06        -0.49999E+08         0.00000E+00
    0.00000E+00         0.00000E+00        -0.45069E+08
 
   -0.43510E+08         0.23818E+06         0.00000E+00
    0.23818E+06        -0.49998E+08         0.00000E+00
    0.00000E+00         0.00000E+00        -0.45077E+08
 
   -0.43553E+08         0.30514E+06         0.00000E+00
    0.30514E+06        -0.49998E+08         0.00000E+00
    0.00000E+00         0.00000E+00        -0.45085E+08
 
   -0.43595E+08         0.37170E+06         0.00000E+00
    0.37170E+06        -0.49996E+08         0.00000E+00
    0.00000E+00         0.00000E+00        -0.45094E+08
 
   -0.43637E+08         0.43787E+06         0.00000E+00
    0.43787E+06        -0.49995E+08         0.00000E+00
    0.00000E+00         0.00000E+00        -0.45102E+08
 
   -0.43679E+08         0.50369E+06         0.00000E+00
    0.50369E+06        -0.49994E+08         0.00000E+00
    0.00000E+00         0.00000E+00        -0.45110E+08
 
   -0.43720E+08         0.56917E+06         0.00000E+00
    0.56917E+06        -0.49992E+08         0.00000E+00
    0.00000E+00         0.00000E+00        -0.45118E+08
 
   -0.43762E+08         0.63433E+06         0.00000E+00
    0.63433E+06        -0.49990E+08         0.00000E+00
    0.00000E+00         0.00000E+00        -0.45125E+08
 
   -0.43803E+08         0.69918E+06         0.00000E+00
    0.69918E+06        -0.49988E+08         0.00000E+00
    0.00000E+00         0.00000E+00        -0.45133E+08
 
   -0.43844E+08         0.76375E+06         0.00000E+00
    0.76375E+06        -0.49985E+08         0.00000E+00
    0.00000E+00         0.00000E+00        -0.45140E+08
 
   -0.43884E+08         0.82805E+06         0.00000E+00
    0.82805E+06        -0.49982E+08         0.00000E+00
    0.00000E+00         0.00000E+00        -0.45148E+08
 
   -0.43925E+08         0.89209E+06         0.00000E+00
    0.89209E+06        -0.49979E+08         0.00000E+00
    0.00000E+00         0.00000E+00        -0.45155E+08
 
   -0.43965E+08         0.95590E+06         0.00000E+00
    0.95590E+06        -0.49976E+08         0.00000E+00
    0.00000E+00         0.00000E+00        -0.45162E+08
 
   -0.44005E+08         0.10195E+07         0.00000E+00
    0.10195E+07        -0.49973E+08         0.00000E+00
    0.00000E+00         0.00000E+00        -0.45169E+08
 
   -0.44044E+08         0.10829E+07         0.00000E+00
    0.10829E+07        -0.49969E+08         0.00000E+00
    0.00000E+00         0.00000E+00        -0.45176E+08
 
   -0.44084E+08         0.11461E+07         0.00000E+00
    0.11461E+07        -0.49965E+08         0.00000E+00
    0.00000E+00         0.00000E+00        -0.45183E+08
 
   -0.44123E+08         0.12091E+07         0.00000E+00
    0.12091E+07        -0.49961E+08         0.00000E+00
    0.00000E+00         0.00000E+00        -0.45190E+08
 
   -0.44163E+08         0.12719E+07         0.00000E+00
    0.12719E+07        -0.49956E+08         0.00000E+00
    0.00000E+00         0.00000E+00        -0.45197E+08
 
   -0.44202E+08         0.13346E+07         0.00000E+00
    0.13346E+07        -0.49951E+08         0.00000E+00
    0.00000E+00         0.00000E+00        -0.45203E+08
 
   -0.44241E+08         0.13972E+07         0.00000E+00
    0.13972E+07        -0.49946E+08         0.00000E+00
    0.00000E+00         0.00000E+00        -0.45210E+08
 
   -0.44279E+08         0.14596E+07         0.00000E+00
    0.14596E+07        -0.49940E+08         0.00000E+00
    0.00000E+00         0.00000E+00        -0.45216E+08
 
   -0.44318E+08         0.15220E+07         0.00000E+00
    0.15220E+07        -0.49934E+08         0.00000E+00
    0.00000E+00         0.00000E+00        -0.45223E+08
 
   -0.44357E+08         0.15842E+07         0.00000E+00
    0.15842E+07        -0.49928E+08         0.00000E+00
    0.00000E+00         0.00000E+00        -0.45229E+08
 
   -0.44395E+08         0.16463E+07         0.00000E+00
    0.16463E+07        -0.49922E+08         0.00000E+00
    0.00000E+00         0.00000E+00        -0.45235E+08
 
   -0.44434E+08         0.17084E+07         0.00000E+00
    0.17084E+07        -0.49915E+08         0.00000E+00
    0.00000E+00         0.00000E+00        -0.45241E+08
 
   -0.44472E+08         0.17704E+07         0.00000E+00
    0.17704E+07        -0.49908E+08         0.00000E+00
    0.00000E+00         0.00000E+00        -0.45247E+08
 
   -0.44511E+08         0.18323E+07         0.00000E+00
    0.18323E+07        -0.49900E+08         0.00000E+00
    0.00000E+00         0.00000E+00        -0.45253E+08
 
   -0.44549E+08         0.18941E+07         0.00000E+00
    0.18941E+07        -0.49892E+08         0.00000E+00
    0.00000E+00         0.00000E+00        -0.45259E+08
 
   -0.44587E+08         0.19560E+07         0.00000E+00
    0.19560E+07        -0.49883E+08         0.00000E+00
    0.00000E+00         0.00000E+00        -0.45265E+08
 
   -0.44626E+08         0.20177E+07         0.00000E+00
    0.20177E+07        -0.49875E+08         0.00000E+00
    0.00000E+00         0.00000E+00        -0.45271E+08
 
   -0.44664E+08         0.20795E+07         0.00000E+00
    0.20795E+07        -0.49865E+08         0.00000E+00
    0.00000E+00         0.00000E+00        -0.45276E+08
 
   -0.44703E+08         0.21412E+07         0.00000E+00
    0.21412E+07        -0.49856E+08         0.00000E+00
    0.00000E+00         0.00000E+00        -0.45282E+08
 
   -0.44742E+08         0.22029E+07         0.00000E+00
    0.22029E+07        -0.49845E+08         0.00000E+00
    0.00000E+00         0.00000E+00        -0.45287E+08
 
   -0.44780E+08         0.22646E+07         0.00000E+00
    0.22646E+07        -0.49835E+08         0.00000E+00
    0.00000E+00         0.00000E+00        -0.45293E+08
 
   -0.44819E+08         0.23263E+07         0.00000E+00
    0.23263E+07        -0.49824E+08         0.00000E+00
    0.00000E+00         0.00000E+00        -0.45298E+08
 
   -0.44858E+08         0.23879E+07         0.00000E+00
    0.23879E+07        -0.49812E+08         0.00000E+00
    0.00000E+00         0.00000E+00        -0.45303E+08
 
   -0.44897E+08         0.24496E+07         0.00000E+00
    0.24496E+07        -0.49800E+08         0.00000E+00
    0.00000E+00         0.00000E+00        -0.45309E+08
 
   -0.44937E+08         0.25113E+07         0.00000E+00
    0.25113E+07        -0.49788E+08         0.00000E+00
    0.00000E+00         0.00000E+00        -0.45314E+08
 
   -0.44976E+08         0.25730E+07         0.00000E+00
    0.25730E+07        -0.49775E+08         0.00000E+00
    0.00000E+00         0.00000E+00        -0.45319E+08
 
   -0.45016E+08         0.26346E+07         0.00000E+00
    0.26346E+07        -0.49761E+08         0.00000E+00
    0.00000E+00         0.00000E+00        -0.45324E+08
 
   -0.45056E+08         0.26963E+07         0.00000E+00
    0.26963E+07        -0.49747E+08         0.00000E+00
    0.00000E+00         0.00000E+00        -0.45329E+08
 
   -0.45096E+08         0.27580E+07         0.00000E+00
    0.27580E+07        -0.49732E+08         0.00000E+00
    0.00000E+00         0.00000E+00        -0.45334E+08
 
   -0.45137E+08         0.28198E+07         0.00000E+00
    0.28198E+07        -0.49717E+08         0.00000E+00
    0.00000E+00         0.00000E+00        -0.45339E+08
 
   -0.45178E+08         0.28815E+07         0.00000E+00
    0.28815E+07        -0.49701E+08         0.00000E+00
    0.00000E+00         0.00000E+00        -0.45344E+08
 
   -0.45219E+08         0.29432E+07         0.00000E+00
    0.29432E+07        -0.49685E+08         0.00000E+00
    0.00000E+00         0.00000E+00        -0.45349E+08
 
   -0.45260E+08         0.30050E+07         0.00000E+00
    0.30050E+07        -0.49668E+08         0.00000E+00
    0.00000E+00         0.00000E+00        -0.45354E+08
 
   -0.45302E+08         0.30667E+07         0.00000E+00
    0.30667E+07        -0.49650E+08         0.00000E+00
    0.00000E+00         0.00000E+00        -0.45358E+08
 
   -0.45344E+08         0.31285E+07         0.00000E+00
    0.31285E+07        -0.49632E+08         0.00000E+00
    0.00000E+00         0.00000E+00        -0.45363E+08
 
   -0.43035E+08         0.35213E+05         0.00000E+00
    0.35213E+05        -0.50000E+08         0.00000E+00
    0.00000E+00         0.00000E+00        -0.44727E+08
 
   -0.43081E+08         0.10449E+06         0.00000E+00
    0.10449E+06        -0.49999E+08         0.00000E+00
    0.00000E+00         0.00000E+00        -0.44737E+08
 
   -0.43127E+08         0.17331E+06         0.00000E+00
    0.17331E+06        -0.49999E+08         0.00000E+00
    0.00000E+00         0.00000E+00        -0.44746E+08
 
   -0.43172E+08         0.24170E+06         0.00000E+00
    0.24170E+06        -0.49999E+08         0.00000E+00
    0.00000E+00         0.00000E+00        -0.44754E+08
 
   -0.43216E+08         0.30968E+06         0.00000E+00
    0.30968E+06        -0.49998E+08         0.00000E+00
    0.00000E+00         0.00000E+00        -0.44763E+08
 
   -0.43260E+08         0.37727E+06         0.00000E+00
    0.37727E+06        -0.49997E+08         0.00000E+00
    0.00000E+00         0.00000E+00        -0.44772E+08
 
   -0.43304E+08         0.44450E+06         0.00000E+00
    0.44450E+06        -0.49996E+08         0.00000E+00
    0.00000E+00         0.00000E+00        -0.44780E+08
 
   -0.43348E+08         0.51139E+06         0.00000E+00
    0.51139E+06        -0.49994E+08         0.00000E+00
    0.00000E+00         0.00000E+00        -0.44788E+08
 
   -0.43391E+08         0.57795E+06         0.00000E+00
    0.57795E+06        -0.49993E+08         0.00000E+00
    0.00000E+00         0.00000E+00        -0.44797E+08
 
   -0.43434E+08         0.64422E+06         0.00000E+00
    0.64422E+06        -0.49991E+08         0.00000E+00
    0.00000E+00         0.00000E+00        -0.44805E+08
 
   -0.43476E+08         0.71020E+06         0.00000E+00
    0.71020E+06        -0.49989E+08         0.00000E+00
    0.00000E+00         0.00000E+00        -0.44813E+08
 
   -0.43518E+08         0.77593E+06         0.00000E+00
    0.77593E+06        -0.49987E+08         0.00000E+00
    0.00000E+00         0.00000E+00        -0.44820E+08
 
   -0.43560E+08         0.84142E+06         0.00000E+00
    0.84142E+06        -0.49985E+08         0.00000E+00
    0.00000E+00         0.00000E+00        -0.44828E+08
 
   -0.43602E+08         0.90669E+06         0.00000E+00
    0.90669E+06        -0.49982E+08         0.00000E+00
    0.00000E+00         0.00000E+00        -0.44836E+08
 
   -0.43643E+08         0.97175E+06         0.00000E+00
    0.97175E+06        -0.49979E+08         0.00000E+00
    0.00000E+00         0.00000E+00        -0.44843E+08
 
   -0.43684E+08         0.10366E+07         0.00000E+00
    0.10366E+07        -0.49976E+08         0.00000E+00
    0.00000E+00         0.00000E+00        -0.44850E+08
 
   -0.43724E+08         0.11013E+07         0.00000E+00
    0.11013E+07        -0.49973E+08         0.00000E+00
    0.00000E+00         0.00000E+00        -0.44858E+08
 
   -0.43765E+08         0.11659E+07         0.00000E+00
    0.11659E+07        -0.49969E+08         0.00000E+00
    0.00000E+00         0.00000E+00        -0.44865E+08
 
   -0.43805E+08         0.12303E+07         0.00000E+00
    0.12303E+07        -0.49965E+08         0.00000E+00
    0.00000E+00         0.00000E+00        -0.44872E+08
 
   -0.43845E+08         0.12946E+07         0.00000E+00
    0.12946E+07        -0.49961E+08         0.00000E+00
    0.00000E+00         0.00000E+00        -0.44879E+08
 
   -0.43885E+08         0.13589E+07         0.00000E+00
    0.13589E+07        -0.49957E+08         0.00000E+00
    0.00000E+00         0.00000E+00        -0.44885E+08
 
   -0.43924E+08         0.14230E+07         0.00000E+00
    0.14230E+07        -0.49952E+08         0.00000E+00
    0.00000E+00         0.00000E+00        -0.44892E+08
 
   -0.43963E+08         0.14870E+07         0.00000E+00
    0.14870E+07        -0.49947E+08         0.00000E+00
    0.00000E+00         0.00000E+00        -0.44899E+08
 
   -0.44002E+08         0.15510E+07         0.00000E+00
    0.15510E+07        -0.49942E+08         0.00000E+00
    0.00000E+00         0.00000E+00        -0.44905E+08
 
   -0.44041E+08         0.16149E+07         0.00000E+00
    0.16149E+07        -0.49936E+08         0.00000E+00
    0.00000E+00         0.00000E+00        -0.44911E+08
 
   -0.44080E+08         0.16788E+07         0.00000E+00
    0.16788E+07        -0.49930E+08         0.00000E+00
    0.00000E+00         0.00000E+00        -0.44918E+08
 
   -0.44119E+08         0.17427E+07         0.00000E+00
    0.17427E+07        -0.49923E+08         0.00000E+00
    0.00000E+00         0.00000E+00        -0.44924E+08
 
   -0.44158E+08         0.18065E+07         0.00000E+00
    0.18065E+07        -0.49917E+08         0.00000E+00
    0.00000E+00         0.00000E+00        -0.44930E+08
 
   -0.44196E+08         0.18703E+07         0.00000E+00
    0.18703E+07        -0.49910E+08         0.00000E+00
    0.00000E+00         0.00000E+00        -0.44936E+08
 
   -0.44235E+08         0.19342E+07         0.00000E+00
    0.19342E+07        -0.49902E+08         0.00000E+00
    0.00000E+00         0.00000E+00        -0.44942E+08
 
   -0.44273E+08         0.19980E+07         0.00000E+00
    0.19980E+07        -0.49894E+08         0.00000E+00
    0.00000E+00         0.00000E+00        -0.44948E+08
 
   -0.44312E+08         0.20619E+07         0.00000E+00
    0.20619E+07        -0.49886E+08         0.00000E+00
    0.00000E+00         0.00000E+00        -0.44953E+08
 
   -0.44350E+08         0.21258E+07         0.00000E+00
    0.21258E+07        -0.49877E+08         0.00000E+00
    0.00000E+00         0.00000E+00        -0.44959E+08
 
   -0.44389E+08         0.21897E+07         0.00000E+00
    0.21897E+07        -0.49868E+08         0.00000E+00
    0.00000E+00         0.00000E+00        -0.44965E+08
 
   -0.44427E+08         0.22537E+07         0.00000E+00
    0.22537E+07        -0.49858E+08         0.00000E+00
    0.00000E+00         0.00000E+00        -0.44970E+08
 
   -0.44466E+08         0.23177E+07         0.00000E+00
    0.23177E+07        -0.49848E+08         0.00000E+00
    0.00000E+00         0.00000E+00        -0.44976E+08
 
   -0.44505E+08         0.23818E+07         0.00000E+00
    0.23818E+07        -0.49837E+08         0.00000E+00
    0.00000E+00         0.00000E+00        -0.44981E+08
 
   -0.44544E+08         0.24460E+07         0.00000E+00
    0.24460E+07        -0.49826E+08         0.00000E+00
    0.00000E+00         0.00000E+00        -0.44986E+08
 
   -0.44583E+08         0.25102E+07         0.00000E+00
    0.25102E+07        -0.49814E+08         0.00000E+00
    0.00000E+00         0.00000E+00        -0.44992E+08
 
   -0.44622E+08         0.25744E+07         0.00000E+00
    0.25744E+07        -0.49802E+08         0.00000E+00
    0.00000E+00         0.00000E+00        -0.44997E+08
 
   -0.44661E+08         0.26388E+07         0.00000E+00
    0.26388E+07        -0.49790E+08         0.00000E+00
    0.00000E+00         0.00000E+00        -0.45002E+08
 
   -0.44701E+08         0.27032E+07         0.00000E+00
    0.27032E+07        -0.49776E+08         0.00000E+00
    0.00000E+00         0.00000E+00        -0.45007E+08
 
   -0.44740E+08         0.27677E+07         0.00000E+00
    0.27677E+07        -0.49763E+08         0.00000E+00
    0.00000E+00         0.00000E+00        -0.45012E+08
 
   -0.44780E+08         0.28323E+07         0.00000E+00
    0.28323E+07        -0.49748E+08         0.00000E+00
    0.00000E+00         0.00000E+00        -0.45017E+08
 
   -0.44821E+08         0.28969E+07         0.00000E+00
    0.28969E+07        -0.49733E+08         0.00000E+00
    0.00000E+00         0.00000E+00        -0.45022E+08
 
   -0.44861E+08         0.29616E+07         0.00000E+00
    0.29616E+07        -0.49718E+08         0.00000E+00
    0.00000E+00         0.00000E+00        -0.45027E+08
 
   -0.44902E+08         0.30264E+07         0.00000E+00
    0.30264E+07        -0.49701E+08         0.00000E+00
    0.00000E+00         0.00000E+00        -0.45032E+08
 
   -0.44944E+08         0.30913E+07         0.00000E+00
    0.30913E+07        -0.49685E+08         0.00000E+00
    0.00000E+00         0.00000E+00        -0.45036E+08
 
   -0.44985E+08         0.31563E+07         0.00000E+00
    0.31563E+07        -0.49667E+08         0.00000E+00
    0.00000E+00         0.00000E+00        -0.45041E+08
 
   -0.45027E+08         0.32213E+07         0.00000E+00
    0.32213E+07        -0.49649E+08         0.00000E+00
    0.00000E+00         0.00000E+00        -0.45046E+08
 
   -0.42686E+08         0.35618E+05         0.00000E+00
    0.35618E+05        -0.50000E+08         0.00000E+00
    0.00000E+00         0.00000E+00        -0.44388E+08
 
   -0.42734E+08         0.10571E+06         0.00000E+00
    0.10571E+06        -0.49999E+08         0.00000E+00
    0.00000E+00         0.00000E+00        -0.44397E+08
 
   -0.42781E+08         0.17536E+06         0.00000E+00
    0.17536E+06        -0.49999E+08         0.00000E+00
    0.00000E+00         0.00000E+00        -0.44407E+08
 
   -0.42828E+08         0.24459E+06         0.00000E+00
    0.24459E+06        -0.49999E+08         0.00000E+00
    0.00000E+00         0.00000E+00        -0.44416E+08
 
   -0.42875E+08         0.31342E+06         0.00000E+00
    0.31342E+06        -0.49998E+08         0.00000E+00
    0.00000E+00         0.00000E+00        -0.44425E+08
 
   -0.42921E+08         0.38188E+06         0.00000E+00
    0.38188E+06        -0.49997E+08         0.00000E+00
    0.00000E+00         0.00000E+00        -0.44434E+08
 
   -0.42967E+08         0.44999E+06         0.00000E+00
    0.44999E+06        -0.49997E+08         0.00000E+00
    0.00000E+00         0.00000E+00        -0.44443E+08
 
   -0.43012E+08         0.51779E+06         0.00000E+00
    0.51779E+06        -0.49996E+08         0.00000E+00
    0.00000E+00         0.00000E+00        -0.44451E+08
 
   -0.43057E+08         0.58530E+06         0.00000E+00
    0.58530E+06        -0.49994E+08         0.00000E+00
    0.00000E+00         0.00000E+00        -0.44460E+08
 
   -0.43101E+08         0.65253E+06         0.00000E+00
    0.65253E+06        -0.49993E+08         0.00000E+00
    0.00000E+00         0.00000E+00        -0.44468E+08
 
   -0.43144E+08         0.71952E+06         0.00000E+00
    0.71952E+06        -0.49991E+08         0.00000E+00
    0.00000E+00         0.00000E+00        -0.44476E+08
 
   -0.43188E+08         0.78628E+06         0.00000E+00
    0.78628E+06        -0.49990E+08         0.00000E+00
    0.00000E+00         0.00000E+00        -0.44485E+08
 
   -0.43231E+08         0.85284E+06         0.00000E+00
    0.85284E+06        -0.49988E+08         0.00000E+00
    0.00000E+00         0.00000E+00        -0.44492E+08
 
   -0.43273E+08         0.91922E+06         0.00000E+00
    0.91922E+06        -0.49985E+08         0.00000E+00
    0.00000E+00         0.00000E+00        -0.44500E+08
 
   -0.43315E+08         0.98544E+06         0.00000E+00
    0.98544E+06        -0.49983E+08         0.00000E+00
    0.00000E+00         0.00000E+00        -0.44508E+08
 
   -0.43357E+08         0.10515E+07         0.00000E+00
    0.10515E+07        -0.49981E+08         0.00000E+00
    0.00000E+00         0.00000E+00        -0.44515E+08
 
   -0.43398E+08         0.11175E+07         0.00000E+00
    0.11175E+07        -0.49978E+08         0.00000E+00
    0.00000E+00         0.00000E+00        -0.44523E+08
 
   -0.43439E+08         0.11833E+07         0.00000E+00
    0.11833E+07        -0.49975E+08         0.00000E+00
    0.00000E+00         0.00000E+00        -0.44530E+08
 
   -0.43480E+08         0.12491E+07         0.00000E+00
    0.12491E+07        -0.49971E+08         0.00000E+00
    0.00000E+00         0.00000E+00        -0.44537E+08
 
   -0.43520E+08         0.13148E+07         0.00000E+00
    0.13148E+07        -0.49968E+08         0.00000E+00
    0.00000E+00         0.00000E+00        -0.44544E+08
 
   -0.43560E+08         0.13804E+07         0.00000E+00
    0.13804E+07        -0.49964E+08         0.00000E+00
    0.00000E+00         0.00000E+00        -0.44551E+08
 
   -0.43600E+08         0.14461E+07         0.00000E+00
    0.14461E+07        -0.49960E+08         0.00000E+00
    0.00000E+00         0.00000E+00        -0.44558E+08
 
   -0.43639E+08         0.15116E+07         0.00000E+00
    0.15116E+07        -0.49955E+08         0.00000E+00
    0.00000E+00         0.00000E+00        -0.44564E+08
 
   -0.43679E+08         0.15772E+07         0.00000E+00
    0.15772E+07        -0.49950E+08         0.00000E+00
    0.00000E+00         0.00000E+00        -0.44571E+08
 
   -0.43718E+08         0.16428E+07         0.00000E+00
    0.16428E+07        -0.49945E+08         0.00000E+00
    0.00000E+00         0.00000E+00        -0.44577E+08
 
   -0.43756E+08         0.17085E+07         0.00000E+00
    0.17085E+07        -0.49940E+08         0.00000E+00
    0.00000E+00         0.00000E+00        -0.44584E+08
 
   -0.43795E+08         0.17741E+07         0.00000E+00
    0.17741E+07        -0.49934E+08         0.00000E+00
    0.00000E+00         0.00000E+00        -0.44590E+08
 
   -0.43834E+08         0.18398E+07         0.00000E+00
    0.18398E+07        -0.49928E+08         0.00000E+00
    0.00000E+00         0.00000E+00        -0.44596E+08
 
   -0.43872E+08         0.19056E+07         0.00000E+00
    0.19056E+07        -0.49922E+08         0.00000E+00
    0.00000E+00         0.00000E+00        -0.44602E+08
 
   -0.43911E+08         0.19714E+07         0.00000E+00
    0.19714E+07        -0.49915E+08         0.00000E+00
    0.00000E+00         0.00000E+00        -0.44608E+08
 
   -0.43949E+08         0.20373E+07         0.00000E+00
    0.20373E+07        -0.49907E+08         0.00000E+00
    0.00000E+00         0.00000E+00        -0.44614E+08
 
   -0.43987E+08         0.21033E+07         0.00000E+00
    0.21033E+07        -0.49900E+08         0.00000E+00
    0.00000E+00         0.00000E+00        -0.44620E+08
 
   -0.44025E+08         0.21694E+07         0.00000E+00
    0.21694E+07        -0.49891E+08         0.00000E+00
    0.00000E+00         0.00000E+00        -0.44625E+08
 
   -0.44063E+08         0.22356E+07         0.00000E+00
    0.22356E+07        -0.49883E+08         0.00000E+00
    0.00000E+00         0.00000E+00        -0.44631E+08
 
   -0.44101E+08         0.23019E+07         0.00000E+00
    0.23019E+07        -0.49874E+08         0.00000E+00
    0.00000E+00         0.00000E+00        -0.44636E+08
 
   -0.44140E+08         0.23683E+07         0.00000E+00
    0.23683E+07        -0.49864E+08         0.00000E+00
    0.00000E+00         0.00000E+00        -0.44642E+08
 
   -0.44178E+08         0.24349E+07         0.00000E+00
    0.24349E+07        -0.49854E+08         0.00000E+00
    0.00000E+00         0.00000E+00        -0.44647E+08
 
   -0.44216E+08         0.25016E+07         0.00000E+00
    0.25016E+07        -0.49844E+08         0.00000E+00
    0.00000E+00         0.00000E+00        -0.44653E+08
 
   -0.44255E+08         0.25684E+07         0.00000E+00
    0.25684E+07        -0.49833E+08         0.00000E+00
    0.00000E+00         0.00000E+00        -0.44658E+08
 
   -0.44293E+08         0.26353E+07         0.00000E+00
    0.26353E+07        -0.49821E+08         0.00000E+00
    0.00000E+00         0.00000E+00        -0.44663E+08
 
   -0.44332E+08         0.27024E+07         0.00000E+00
    0.27024E+07        -0.49809E+08         0.00000E+00
    0.00000E+00         0.00000E+00        -0.44668E+08
 
   -0.44371E+08         0.27697E+07         0.00000E+00
    0.27697E+07        -0.49796E+08         0.00000E+00
    0.00000E+00         0.00000E+00        -0.44673E+08
 
   -0.44410E+08         0.28371E+07         0.00000E+00
    0.28371E+07        -0.49783E+08         0.00000E+00
    0.00000E+00         0.00000E+00        -0.44678E+08
 
   -0.44450E+08         0.29047E+07         0.00000E+00
    0.29047E+07        -0.49769E+08         0.00000E+00
    0.00000E+00         0.00000E+00        -0.44683E+08
 
   -0.44490E+08         0.29724E+07         0.00000E+00
    0.29724E+07        -0.49754E+08         0.00000E+00
    0.00000E+00         0.00000E+00        -0.44688E+08
 
   -0.44530E+08         0.30402E+07         0.00000E+00
    0.30402E+07        -0.49739E+08         0.00000E+00
    0.00000E+00         0.00000E+00        -0.44693E+08
 
   -0.44570E+08         0.31083E+07         0.00000E+00
    0.31083E+07        -0.49723E+08         0.00000E+00
    0.00000E+00         0.00000E+00        -0.44697E+08
 
   -0.44611E+08         0.31765E+07         0.00000E+00
    0.31765E+07        -0.49707E+08         0.00000E+00
    0.00000E+00         0.00000E+00        -0.44702E+08
 
   -0.44652E+08         0.32448E+07         0.00000E+00
    0.32448E+07        -0.49690E+08         0.00000E+00
    0.00000E+00         0.00000E+00        -0.44707E+08
 
   -0.44693E+08         0.33133E+07         0.00000E+00
    0.33133E+07        -0.49672E+08         0.00000E+00
    0.00000E+00         0.00000E+00        -0.44712E+08
 
   -0.42332E+08         0.35903E+05         0.00000E+00
    0.35903E+05        -0.50000E+08         0.00000E+00
    0.00000E+00         0.00000E+00        -0.44032E+08
 
   -0.42383E+08         0.10659E+06         0.00000E+00
    0.10659E+06        -0.50000E+08         0.00000E+00
    0.00000E+00         0.00000E+00        -0.44042E+08
 
   -0.42433E+08         0.17684E+06         0.00000E+00
    0.17684E+06        -0.49999E+08         0.00000E+00
    0.00000E+00         0.00000E+00        -0.44051E+08
 
   -0.42482E+08         0.24669E+06         0.00000E+00
    0.24669E+06        -0.49999E+08         0.00000E+00
    0.00000E+00         0.00000E+00        -0.44061E+08
 
   -0.42530E+08         0.31616E+06         0.00000E+00
    0.31616E+06        -0.49999E+08         0.00000E+00
    0.00000E+00         0.00000E+00        -0.44071E+08
 
   -0.42578E+08         0.38529E+06         0.00000E+00
    0.38529E+06        -0.49998E+08         0.00000E+00
    0.00000E+00         0.00000E+00        -0.44080E+08
 
   -0.42625E+08         0.45411E+06         0.00000E+00
    0.45411E+06        -0.49998E+08         0.00000E+00
    0.00000E+00         0.00000E+00        -0.44089E+08
 
   -0.42672E+08         0.52263E+06         0.00000E+00
    0.52263E+06        -0.49997E+08         0.00000E+00
    0.00000E+00         0.00000E+00        -0.44098E+08
 
   -0.42718E+08         0.59090E+06         0.00000E+00
    0.59090E+06        -0.49996E+08         0.00000E+00
    0.00000E+00         0.00000E+00        -0.44107E+08
 
   -0.42763E+08         0.65893E+06         0.00000E+00
    0.65893E+06        -0.49995E+08         0.00000E+00
    0.00000E+00         0.00000E+00        -0.44115E+08
 
   -0.42808E+08         0.72675E+06         0.00000E+00
    0.72675E+06        -0.49994E+08         0.00000E+00
    0.00000E+00         0.00000E+00        -0.44124E+08
 
   -0.42852E+08         0.79440E+06         0.00000E+00
    0.79440E+06        -0.49993E+08         0.00000E+00
    0.00000E+00         0.00000E+00        -0.44132E+08
 
   -0.42896E+08         0.86188E+06         0.00000E+00
    0.86188E+06        -0.49991E+08         0.00000E+00
    0.00000E+00         0.00000E+00        -0.44140E+08
 
   -0.42939E+08         0.92923E+06         0.00000E+00
    0.92923E+06        -0.49990E+08         0.00000E+00
    0.00000E+00         0.00000E+00        -0.44148E+08
 
   -0.42982E+08         0.99647E+06         0.00000E+00
    0.99647E+06        -0.49988E+08         0.00000E+00
    0.00000E+00         0.00000E+00        -0.44156E+08
 
   -0.43024E+08         0.10636E+07         0.00000E+00
    0.10636E+07        -0.49986E+08         0.00000E+00
    0.00000E+00         0.00000E+00        -0.44164E+08
 
   -0.43066E+08         0.11307E+07         0.00000E+00
    0.11307E+07        -0.49984E+08         0.00000E+00
    0.00000E+00         0.00000E+00        -0.44171E+08
 
   -0.43107E+08         0.11977E+07         0.00000E+00
    0.11977E+07        -0.49981E+08         0.00000E+00
    0.00000E+00         0.00000E+00        -0.44179E+08
 
   -0.43148E+08         0.12648E+07         0.00000E+00
    0.12648E+07        -0.49978E+08         0.00000E+00
    0.00000E+00         0.00000E+00        -0.44186E+08
 
   -0.43188E+08         0.13318E+07         0.00000E+00
    0.13318E+07        -0.49976E+08         0.00000E+00
    0.00000E+00         0.00000E+00        -0.44193E+08
 
   -0.43228E+08         0.13988E+07         0.00000E+00
    0.13988E+07        -0.49972E+08         0.00000E+00
    0.00000E+00         0.00000E+00        -0.44200E+08
 
   -0.43268E+08         0.14658E+07         0.00000E+00
    0.14658E+07        -0.49969E+08         0.00000E+00
    0.00000E+00         0.00000E+00        -0.44207E+08
 
   -0.43307E+08         0.15329E+07         0.00000E+00
    0.15329E+07        -0.49965E+08         0.00000E+00
    0.00000E+00         0.00000E+00        -0.44214E+08
 
   -0.43347E+08         0.16000E+07         0.00000E+00
    0.16000E+07        -0.49961E+08         0.00000E+00
    0.00000E+00         0.00000E+00        -0.44220E+08
 
   -0.43385E+08         0.16673E+07         0.00000E+00
    0.16673E+07        -0.49957E+08         0.00000E+00
    0.00000E+00         0.00000E+00        -0.44227E+08
 
   -0.43424E+08         0.17346E+07         0.00000E+00
    0.17346E+07        -0.49952E+08         0.00000E+00
    0.00000E+00         0.00000E+00        -0.44233E+08
 
   -0.43462E+08         0.18020E+07         0.00000E+00
    0.18020E+07        -0.49947E+08         0.00000E+00
    0.00000E+00         0.00000E+00        -0.44239E+08
 
   -0.43500E+08         0.18696E+07         0.00000E+00
    0.18696E+07        -0.49942E+08         0.00000E+00
    0.00000E+00         0.00000E+00        -0.44245E+08
 
   -0.43538E+08         0.19372E+07         0.00000E+00
    0.19372E+07        -0.49936E+08         0.00000E+00
    0.00000E+00         0.00000E+00        -0.44251E+08
 
   -0.43576E+08         0.20050E+07         0.00000E+00
    0.20050E+07        -0.49930E+08         0.00000E+00
    0.00000E+00         0.00000E+00        -0.44257E+08
 
   -0.43614E+08         0.20730E+07         0.00000E+00
    0.20730E+07        -0.49924E+08         0.00000E+00
    0.00000E+00         0.00000E+00        -0.44263E+08
 
   -0.43651E+08         0.21411E+07         0.00000E+00
    0.21411E+07        -0.49917E+08         0.00000E+00
    0.00000E+00         0.00000E+00        -0.44269E+08
 
   -0.43689E+08         0.22095E+07         0.00000E+00
    0.22095E+07        -0.49909E+08         0.00000E+00
    0.00000E+00         0.00000E+00        -0.44274E+08
 
   -0.43726E+08         0.22779E+07         0.00000E+00
    0.22779E+07        -0.49901E+08         0.00000E+00
    0.00000E+00         0.00000E+00        -0.44280E+08
 
   -0.43764E+08         0.23466E+07         0.00000E+00
    0.23466E+07        -0.49893E+08         0.00000E+00
    0.00000E+00         0.00000E+00        -0.44285E+08
 
   -0.43801E+08         0.24155E+07         0.00000E+00
    0.24155E+07        -0.49884E+08         0.00000E+00
    0.00000E+00         0.00000E+00        -0.44291E+08
 
   -0.43838E+08         0.24846E+07         0.00000E+00
    0.24846E+07        -0.49875E+08         0.00000E+00
    0.00000E+00         0.00000E+00        -0.44296E+08
 
   -0.43876E+08         0.25539E+07         0.00000E+00
    0.25539E+07        -0.49865E+08         0.00000E+00
    0.00000E+00         0.00000E+00        -0.44301E+08
 
   -0.43913E+08         0.26234E+07         0.00000E+00
    0.26234E+07        -0.49855E+08         0.00000E+00
    0.00000E+00         0.00000E+00        -0.44306E+08
 
   -0.43951E+08         0.26931E+07         0.00000E+00
    0.26931E+07        -0.49844E+08         0.00000E+00
    0.00000E+00         0.00000E+00        -0.44312E+08
 
   -0.43989E+08         0.27631E+07         0.00000E+00
    0.27631E+07        -0.49833E+08         0.00000E+00
    0.00000E+00         0.00000E+00        -0.44317E+08
 
   -0.44027E+08         0.28333E+07         0.00000E+00
    0.28333E+07        -0.49820E+08         0.00000E+00
    0.00000E+00         0.00000E+00        -0.44321E+08
 
   -0.44065E+08         0.29037E+07         0.00000E+00
    0.29037E+07        -0.49808E+08         0.00000E+00
    0.00000E+00         0.00000E+00        -0.44326E+08
 
   -0.44104E+08         0.29744E+07         0.00000E+00
    0.29744E+07        -0.49795E+08         0.00000E+00
    0.00000E+00         0.00000E+00        -0.44331E+08
 
   -0.44143E+08         0.30453E+07         0.00000E+00
    0.30453E+07        -0.49781E+08         0.00000E+00
    0.00000E+00         0.00000E+00        -0.44336E+08
 
   -0.44182E+08         0.31165E+07         0.00000E+00
    0.31165E+07        -0.49766E+08         0.00000E+00
    0.00000E+00         0.00000E+00        -0.44341E+08
 
   -0.44221E+08         0.31878E+07         0.00000E+00
    0.31878E+07        -0.49751E+08         0.00000E+00
    0.00000E+00         0.00000E+00        -0.44345E+08
 
   -0.44261E+08         0.32595E+07         0.00000E+00
    0.32595E+07        -0.49735E+08         0.00000E+00
    0.00000E+00         0.00000E+00        -0.44350E+08
 
   -0.44301E+08         0.33313E+07         0.00000E+00
    0.33313E+07        -0.49718E+08         0.00000E+00
    0.00000E+00         0.00000E+00        -0.44355E+08
 
   -0.44341E+08         0.34034E+07         0.00000E+00
    0.34034E+07        -0.49701E+08         0.00000E+00
    0.00000E+00         0.00000E+00        -0.44359E+08
 
   -0.41977E+08         0.36044E+05         0.00000E+00
    0.36044E+05        -0.50000E+08         0.00000E+00
    0.00000E+00         0.00000E+00        -0.43659E+08
 
   -0.42029E+08         0.10705E+06         0.00000E+00
    0.10705E+06        -0.50000E+08         0.00000E+00
    0.00000E+00         0.00000E+00        -0.43669E+08
 
   -0.42081E+08         0.17765E+06         0.00000E+00
    0.17765E+06        -0.49999E+08         0.00000E+00
    0.00000E+00         0.00000E+00        -0.43679E+08
 
   -0.42132E+08         0.24786E+06         0.00000E+00
    0.24786E+06        -0.49999E+08         0.00000E+00
    0.00000E+00         0.00000E+00        -0.43690E+08
 
   -0.42182E+08         0.31773E+06         0.00000E+00
    0.31773E+06        -0.49999E+08         0.00000E+00
    0.00000E+00         0.00000E+00        -0.43699E+08
 
   -0.42232E+08         0.38729E+06         0.00000E+00
    0.38729E+06        -0.49999E+08         0.00000E+00
    0.00000E+00         0.00000E+00        -0.43709E+08
 
   -0.42280E+08         0.45657E+06         0.00000E+00
    0.45657E+06        -0.49999E+08         0.00000E+00
    0.00000E+00         0.00000E+00        -0.43718E+08
 
   -0.42328E+08         0.52560E+06         0.00000E+00
    0.52560E+06        -0.49998E+08         0.00000E+00
    0.00000E+00         0.00000E+00        -0.43728E+08
 
   -0.42375E+08         0.59441E+06         0.00000E+00
    0.59441E+06        -0.49998E+08         0.00000E+00
    0.00000E+00         0.00000E+00        -0.43737E+08
 
   -0.42422E+08         0.66303E+06         0.00000E+00
    0.66303E+06        -0.49997E+08         0.00000E+00
    0.00000E+00         0.00000E+00        -0.43746E+08
 
   -0.42467E+08         0.73150E+06         0.00000E+00
    0.73150E+06        -0.49997E+08         0.00000E+00
    0.00000E+00         0.00000E+00        -0.43754E+08
 
   -0.42512E+08         0.79983E+06         0.00000E+00
    0.79983E+06        -0.49996E+08         0.00000E+00
    0.00000E+00         0.00000E+00        -0.43763E+08
 
   -0.42557E+08         0.86806E+06         0.00000E+00
    0.86806E+06        -0.49995E+08         0.00000E+00
    0.00000E+00         0.00000E+00        -0.43771E+08
 
   -0.42600E+08         0.93622E+06         0.00000E+00
    0.93622E+06        -0.49994E+08         0.00000E+00
    0.00000E+00         0.00000E+00        -0.43779E+08
 
   -0.42643E+08         0.10043E+07         0.00000E+00
    0.10043E+07        -0.49993E+08         0.00000E+00
    0.00000E+00         0.00000E+00        -0.43787E+08
 
   -0.42686E+08         0.10724E+07         0.00000E+00
    0.10724E+07        -0.49992E+08         0.00000E+00
    0.00000E+00         0.00000E+00        -0.43795E+08
 
   -0.42728E+08         0.11405E+07         0.00000E+00
    0.11405E+07        -0.49990E+08         0.00000E+00
    0.00000E+00         0.00000E+00        -0.43803E+08
 
   -0.42769E+08         0.12086E+07         0.00000E+00
    0.12086E+07        -0.49989E+08         0.00000E+00
    0.00000E+00         0.00000E+00        -0.43810E+08
 
   -0.42810E+08         0.12767E+07         0.00000E+00
    0.12767E+07        -0.49987E+08         0.00000E+00
    0.00000E+00         0.00000E+00        -0.43817E+08
 
   -0.42850E+08         0.13449E+07         0.00000E+00
    0.13449E+07        -0.49985E+08         0.00000E+00
    0.00000E+00         0.00000E+00        -0.43825E+08
 
   -0.42890E+08         0.14132E+07         0.00000E+00
    0.14132E+07        -0.49983E+08         0.00000E+00
    0.00000E+00         0.00000E+00        -0.43832E+08
 
   -0.42929E+08         0.14815E+07         0.00000E+00
    0.14815E+07        -0.49980E+08         0.00000E+00
    0.00000E+00         0.00000E+00        -0.43838E+08
 
   -0.42968E+08         0.15500E+07         0.00000E+00
    0.15500E+07        -0.49977E+08         0.00000E+00
    0.00000E+00         0.00000E+00        -0.43845E+08
 
   -0.43007E+08         0.16187E+07         0.00000E+00
    0.16187E+07        -0.49974E+08         0.00000E+00
    0.00000E+00         0.00000E+00        -0.43852E+08
 
   -0.43045E+08         0.16875E+07         0.00000E+00
    0.16875E+07        -0.49971E+08         0.00000E+00
    0.00000E+00         0.00000E+00        -0.43858E+08
 
   -0.43083E+08         0.17564E+07         0.00000E+00
    0.17564E+07        -0.49967E+08         0.00000E+00
    0.00000E+00         0.00000E+00        -0.43865E+08
 
   -0.43120E+08         0.18256E+07         0.00000E+00
    0.18256E+07        -0.49963E+08         0.00000E+00
    0.00000E+00         0.00000E+00        -0.43871E+08
 
   -0.43158E+08         0.18950E+07         0.00000E+00
    0.18950E+07        -0.49959E+08         0.00000E+00
    0.00000E+00         0.00000E+00        -0.43877E+08
 
   -0.43195E+08         0.19645E+07         0.00000E+00
    0.19645E+07        -0.49954E+08         0.00000E+00
    0.00000E+00         0.00000E+00        -0.43883E+08
 
   -0.43232E+08         0.20343E+07         0.00000E+00
    0.20343E+07        -0.49949E+08         0.00000E+00
    0.00000E+00         0.00000E+00        -0.43889E+08
 
   -0.43268E+08         0.21043E+07         0.00000E+00
    0.21043E+07        -0.49943E+08         0.00000E+00
    0.00000E+00         0.00000E+00        -0.43894E+08
 
   -0.43305E+08         0.21746E+07         0.00000E+00
    0.21746E+07        -0.49937E+08         0.00000E+00
    0.00000E+00         0.00000E+00        -0.43900E+08
 
   -0.43341E+08         0.22452E+07         0.00000E+00
    0.22452E+07        -0.49931E+08         0.00000E+00
    0.00000E+00         0.00000E+00        -0.43905E+08
 
   -0.43377E+08         0.23160E+07         0.00000E+00
    0.23160E+07        -0.49924E+08         0.00000E+00
    0.00000E+00         0.00000E+00        -0.43911E+08
 
   -0.43413E+08         0.23871E+07         0.00000E+00
    0.23871E+07        -0.49916E+08         0.00000E+00
    0.00000E+00         0.00000E+00        -0.43916E+08
 
   -0.43450E+08         0.24584E+07         0.00000E+00
    0.24584E+07        -0.49909E+08         0.00000E+00
    0.00000E+00         0.00000E+00        -0.43922E+08
 
   -0.43486E+08         0.25301E+07         0.00000E+00
    0.25301E+07        -0.49900E+08         0.00000E+00
    0.00000E+00         0.00000E+00        -0.43927E+08
 
   -0.43522E+08         0.26021E+07         0.00000E+00
    0.26021E+07        -0.49891E+08         0.00000E+00
    0.00000E+00         0.00000E+00        -0.43932E+08
 
   -0.43558E+08         0.26744E+07         0.00000E+00
    0.26744E+07        -0.49882E+08         0.00000E+00
    0.00000E+00         0.00000E+00        -0.43937E+08
 
   -0.43595E+08         0.27470E+07         0.00000E+00
    0.27470E+07        -0.49872E+08         0.00000E+00
    0.00000E+00         0.00000E+00        -0.43942E+08
 
   -0.43631E+08         0.28199E+07         0.00000E+00
    0.28199E+07        -0.49861E+08         0.00000E+00
    0.00000E+00         0.00000E+00        -0.43947E+08
 
   -0.43668E+08         0.28931E+07         0.00000E+00
    0.28931E+07        -0.49850E+08         0.00000E+00
    0.00000E+00         0.00000E+00        -0.43951E+08
 
   -0.43705E+08         0.29667E+07         0.00000E+00
    0.29667E+07        -0.49838E+08         0.00000E+00
    0.00000E+00         0.00000E+00        -0.43956E+08
 
   -0.43742E+08         0.30405E+07         0.00000E+00
    0.30405E+07        -0.49826E+08         0.00000E+00
    0.00000E+00         0.00000E+00        -0.43961E+08
 
   -0.43779E+08         0.31148E+07         0.00000E+00
    0.31148E+07        -0.49813E+08         0.00000E+00
    0.00000E+00         0.00000E+00        -0.43965E+08
 
   -0.43817E+08         0.31893E+07         0.00000E+00
    0.31893E+07        -0.49799E+08         0.00000E+00
    0.00000E+00         0.00000E+00        -0.43970E+08
 
   -0.43855E+08         0.32642E+07         0.00000E+00
    0.32642E+07        -0.49784E+08         0.00000E+00
    0.00000E+00         0.00000E+00        -0.43975E+08
 
   -0.43893E+08         0.33394E+07         0.00000E+00
    0.33394E+07        -0.49769E+08         0.00000E+00
    0.00000E+00         0.00000E+00        -0.43979E+08
 
   -0.43931E+08         0.34150E+07         0.00000E+00
    0.34150E+07        -0.49753E+08         0.00000E+00
    0.00000E+00         0.00000E+00        -0.43983E+08
 
   -0.43970E+08         0.34908E+07         0.00000E+00
    0.34908E+07        -0.49737E+08         0.00000E+00
    0.00000E+00         0.00000E+00        -0.43988E+08
 
   -0.41621E+08         0.36016E+05         0.00000E+00
    0.36016E+05        -0.50000E+08         0.00000E+00
    0.00000E+00         0.00000E+00        -0.43268E+08
 
   -0.41675E+08         0.10702E+06         0.00000E+00
    0.10702E+06        -0.50000E+08         0.00000E+00
    0.00000E+00         0.00000E+00        -0.43279E+08
 
   -0.41729E+08         0.17765E+06         0.00000E+00
    0.17765E+06        -0.50000E+08         0.00000E+00
    0.00000E+00         0.00000E+00        -0.43290E+08
 
   -0.41782E+08         0.24793E+06         0.00000E+00
    0.24793E+06        -0.50000E+08         0.00000E+00
    0.00000E+00         0.00000E+00        -0.43300E+08
 
   -0.41833E+08         0.31790E+06         0.00000E+00
    0.31790E+06        -0.50000E+08         0.00000E+00
    0.00000E+00         0.00000E+00        -0.43311E+08
 
   -0.41884E+08         0.38760E+06         0.00000E+00
    0.38760E+06        -0.50000E+08         0.00000E+00
    0.00000E+00         0.00000E+00        -0.43321E+08
 
   -0.41934E+08         0.45706E+06         0.00000E+00
    0.45706E+06        -0.50000E+08         0.00000E+00
    0.00000E+00         0.00000E+00        -0.43330E+08
 
   -0.41983E+08         0.52633E+06         0.00000E+00
    0.52633E+06        -0.50000E+08         0.00000E+00
    0.00000E+00         0.00000E+00        -0.43340E+08
 
   -0.42031E+08         0.59544E+06         0.00000E+00
    0.59544E+06        -0.50000E+08         0.00000E+00
    0.00000E+00         0.00000E+00        -0.43349E+08
 
   -0.42078E+08         0.66441E+06         0.00000E+00
    0.66441E+06        -0.50000E+08         0.00000E+00
    0.00000E+00         0.00000E+00        -0.43358E+08
 
   -0.42124E+08         0.73328E+06         0.00000E+00
    0.73328E+06        -0.50000E+08         0.00000E+00
    0.00000E+00         0.00000E+00        -0.43367E+08
 
   -0.42170E+08         0.80209E+06         0.00000E+00
    0.80209E+06        -0.50000E+08         0.00000E+00
    0.00000E+00         0.00000E+00        -0.43376E+08
 
   -0.42214E+08         0.87085E+06         0.00000E+00
    0.87085E+06        -0.50000E+08         0.00000E+00
    0.00000E+00         0.00000E+00        -0.43384E+08
 
   -0.42258E+08         0.93961E+06         0.00000E+00
    0.93961E+06        -0.50000E+08         0.00000E+00
    0.00000E+00         0.00000E+00        -0.43392E+08
 
   -0.42301E+08         0.10084E+07         0.00000E+00
    0.10084E+07        -0.50000E+08         0.00000E+00
    0.00000E+00         0.00000E+00        -0.43400E+08
 
   -0.42343E+08         0.10772E+07         0.00000E+00
    0.10772E+07        -0.49999E+08         0.00000E+00
    0.00000E+00         0.00000E+00        -0.43408E+08
 
   -0.42385E+08         0.11461E+07         0.00000E+00
    0.11461E+07        -0.49999E+08         0.00000E+00
    0.00000E+00         0.00000E+00        -0.43416E+08
 
   -0.42426E+08         0.12151E+07         0.00000E+00
    0.12151E+07        -0.49998E+08         0.00000E+00
    0.00000E+00         0.00000E+00        -0.43424E+08
 
   -0.42466E+08         0.12842E+07         0.00000E+00
    0.12842E+07        -0.49997E+08         0.00000E+00
    0.00000E+00         0.00000E+00        -0.43431E+08
 
   -0.42506E+08         0.13535E+07         0.00000E+00
    0.13535E+07        -0.49996E+08         0.00000E+00
    0.00000E+00         0.00000E+00        -0.43438E+08
 
   -0.42545E+08         0.14229E+07         0.00000E+00
    0.14229E+07        -0.49995E+08         0.00000E+00
    0.00000E+00         0.00000E+00        -0.43445E+08
 
   -0.42584E+08         0.14925E+07         0.00000E+00
    0.14925E+07        -0.49993E+08         0.00000E+00
    0.00000E+00         0.00000E+00        -0.43452E+08
 
   -0.42622E+08         0.15623E+07         0.00000E+00
    0.15623E+07        -0.49991E+08         0.00000E+00
    0.00000E+00         0.00000E+00        -0.43459E+08
 
   -0.42659E+08         0.16323E+07         0.00000E+00
    0.16323E+07        -0.49989E+08         0.00000E+00
    0.00000E+00         0.00000E+00        -0.43465E+08
 
   -0.42697E+08         0.17026E+07         0.00000E+00
    0.17026E+07        -0.49987E+08         0.00000E+00
    0.00000E+00         0.00000E+00        -0.43471E+08
 
   -0.42733E+08         0.17732E+07         0.00000E+00
    0.17732E+07        -0.49984E+08         0.00000E+00
    0.00000E+00         0.00000E+00        -0.43478E+08
 
   -0.42770E+08         0.18440E+07         0.00000E+00
    0.18440E+07        -0.49981E+08         0.00000E+00
    0.00000E+00         0.00000E+00        -0.43484E+08
 
   -0.42806E+08         0.19151E+07         0.00000E+00
    0.19151E+07        -0.49978E+08         0.00000E+00
    0.00000E+00         0.00000E+00        -0.43490E+08
 
   -0.42841E+08         0.19865E+07         0.00000E+00
    0.19865E+07        -0.49975E+08         0.00000E+00
    0.00000E+00         0.00000E+00        -0.43496E+08
 
   -0.42877E+08         0.20583E+07         0.00000E+00
    0.20583E+07        -0.49971E+08         0.00000E+00
    0.00000E+00         0.00000E+00        -0.43501E+08
 
   -0.42912E+08         0.21304E+07         0.00000E+00
    0.21304E+07        -0.49966E+08         0.00000E+00
    0.00000E+00         0.00000E+00        -0.43507E+08
 
   -0.42947E+08         0.22028E+07         0.00000E+00
    0.22028E+07        -0.49961E+08         0.00000E+00
    0.00000E+00         0.00000E+00        -0.43512E+08
 
   -0.42982E+08         0.22756E+07         0.00000E+00
    0.22756E+07        -0.49956E+08         0.00000E+00
    0.00000E+00         0.00000E+00        -0.43518E+08
 
   -0.43017E+08         0.23487E+07         0.00000E+00
    0.23487E+07        -0.49950E+08         0.00000E+00
    0.00000E+00         0.00000E+00        -0.43523E+08
 
   -0.43051E+08         0.24222E+07         0.00000E+00
    0.24222E+07        -0.49944E+08         0.00000E+00
    0.00000E+00         0.00000E+00        -0.43528E+08
 
   -0.43086E+08         0.24962E+07         0.00000E+00
    0.24962E+07        -0.49937E+08         0.00000E+00
    0.00000E+00         0.00000E+00        -0.43533E+08
 
   -0.43120E+08         0.25705E+07         0.00000E+00
    0.25705E+07        -0.49930E+08         0.00000E+00
    0.00000E+00         0.00000E+00        -0.43538E+08
 
   -0.43154E+08         0.26452E+07         0.00000E+00
    0.26452E+07        -0.49923E+08         0.00000E+00
    0.00000E+00         0.00000E+00        -0.43543E+08
 
   -0.43189E+08         0.27203E+07         0.00000E+00
    0.27203E+07        -0.49914E+08         0.00000E+00
    0.00000E+00         0.00000E+00        -0.43548E+08
 
   -0.43223E+08         0.27958E+07         0.00000E+00
    0.27958E+07        -0.49905E+08         0.00000E+00
    0.00000E+00         0.00000E+00        -0.43553E+08
 
   -0.43258E+08         0.28717E+07         0.00000E+00
    0.28717E+07        -0.49896E+08         0.00000E+00
    0.00000E+00         0.00000E+00        -0.43557E+08
 
   -0.43293E+08         0.29481E+07         0.00000E+00
    0.29481E+07        -0.49886E+08         0.00000E+00
    0.00000E+00         0.00000E+00        -0.43562E+08
 
   -0.43328E+08         0.30249E+07         0.00000E+00
    0.30249E+07        -0.49875E+08         0.00000E+00
    0.00000E+00         0.00000E+00        -0.43566E+08
 
   -0.43363E+08         0.31021E+07         0.00000E+00
    0.31021E+07        -0.49864E+08         0.00000E+00
    0.00000E+00         0.00000E+00        -0.43571E+08
 
   -0.43398E+08         0.31797E+07         0.00000E+00
    0.31797E+07        -0.49851E+08         0.00000E+00
    0.00000E+00         0.00000E+00        -0.43575E+08
 
   -0.43434E+08         0.32578E+07         0.00000E+00
    0.32578E+07        -0.49839E+08         0.00000E+00
    0.00000E+00         0.00000E+00        -0.43580E+08
 
   -0.43470E+08         0.33363E+07         0.00000E+00
    0.33363E+07        -0.49825E+08         0.00000E+00
    0.00000E+00         0.00000E+00        -0.43584E+08
 
   -0.43506E+08         0.34153E+07         0.00000E+00
    0.34153E+07        -0.49811E+08         0.00000E+00
    0.00000E+00         0.00000E+00        -0.43588E+08
 
   -0.43543E+08         0.34946E+07         0.00000E+00
    0.34946E+07        -0.49796E+08         0.00000E+00
    0.00000E+00         0.00000E+00        -0.43593E+08
 
   -0.43580E+08         0.35745E+07         0.00000E+00
    0.35745E+07        -0.49780E+08         0.00000E+00
    0.00000E+00         0.00000E+00        -0.43597E+08
 
   -0.41265E+08         0.35787E+05         0.00000E+00
    0.35787E+05        -0.49999E+08         0.00000E+00
    0.00000E+00         0.00000E+00        -0.42860E+08
 
   -0.41322E+08         0.10642E+06         0.00000E+00
    0.10642E+06        -0.50000E+08         0.00000E+00
    0.00000E+00         0.00000E+00        -0.42872E+08
 
   -0.41377E+08         0.17670E+06         0.00000E+00
    0.17670E+06        -0.50000E+08         0.00000E+00
    0.00000E+00         0.00000E+00        -0.42883E+08
 
   -0.41432E+08         0.24669E+06         0.00000E+00
    0.24669E+06        -0.50000E+08         0.00000E+00
    0.00000E+00         0.00000E+00        -0.42894E+08
 
   -0.41485E+08         0.31641E+06         0.00000E+00
    0.31641E+06        -0.50001E+08         0.00000E+00
    0.00000E+00         0.00000E+00        -0.42904E+08
 
   -0.41537E+08         0.38593E+06         0.00000E+00
    0.38593E+06        -0.50001E+08         0.00000E+00
    0.00000E+00         0.00000E+00        -0.42914E+08
 
   -0.41587E+08         0.45526E+06         0.00000E+00
    0.45526E+06        -0.50002E+08         0.00000E+00
    0.00000E+00         0.00000E+00        -0.42924E+08
 
   -0.41637E+08         0.52446E+06         0.00000E+00
    0.52446E+06        -0.50002E+08         0.00000E+00
    0.00000E+00         0.00000E+00        -0.42934E+08
 
   -0.41685E+08         0.59355E+06         0.00000E+00
    0.59355E+06        -0.50003E+08         0.00000E+00
    0.00000E+00         0.00000E+00        -0.42943E+08
 
   -0.41733E+08         0.66259E+06         0.00000E+00
    0.66259E+06        -0.50004E+08         0.00000E+00
    0.00000E+00         0.00000E+00        -0.42953E+08
 
   -0.41779E+08         0.73160E+06         0.00000E+00
    0.73160E+06        -0.50005E+08         0.00000E+00
    0.00000E+00         0.00000E+00        -0.42962E+08
 
   -0.41825E+08         0.80061E+06         0.00000E+00
    0.80061E+06        -0.50005E+08         0.00000E+00
    0.00000E+00         0.00000E+00        -0.42970E+08
 
   -0.41869E+08         0.86967E+06         0.00000E+00
    0.86967E+06        -0.50006E+08         0.00000E+00
    0.00000E+00         0.00000E+00        -0.42979E+08
 
   -0.41913E+08         0.93879E+06         0.00000E+00
    0.93879E+06        -0.50007E+08         0.00000E+00
    0.00000E+00         0.00000E+00        -0.42987E+08
 
   -0.41956E+08         0.10080E+07         0.00000E+00
    0.10080E+07        -0.50007E+08         0.00000E+00
    0.00000E+00         0.00000E+00        -0.42995E+08
 
   -0.41998E+08         0.10774E+07         0.00000E+00
    0.10774E+07        -0.50008E+08         0.00000E+00
    0.00000E+00         0.00000E+00        -0.43003E+08
 
   -0.42039E+08         0.11469E+07         0.00000E+00
    0.11469E+07        -0.50008E+08         0.00000E+00
    0.00000E+00         0.00000E+00        -0.43011E+08
 
   -0.42079E+08         0.12166E+07         0.00000E+00
    0.12166E+07        -0.50009E+08         0.00000E+00
    0.00000E+00         0.00000E+00        -0.43018E+08
 
   -0.42118E+08         0.12865E+07         0.00000E+00
    0.12865E+07        -0.50009E+08         0.00000E+00
    0.00000E+00         0.00000E+00        -0.43026E+08
 
   -0.42157E+08         0.13567E+07         0.00000E+00
    0.13567E+07        -0.50009E+08         0.00000E+00
    0.00000E+00         0.00000E+00        -0.43033E+08
 
   -0.42195E+08         0.14271E+07         0.00000E+00
    0.14271E+07        -0.50009E+08         0.00000E+00
    0.00000E+00         0.00000E+00        -0.43040E+08
 
   -0.42232E+08         0.14978E+07         0.00000E+00
    0.14978E+07        -0.50008E+08         0.00000E+00
    0.00000E+00         0.00000E+00        -0.43046E+08
 
   -0.42269E+08         0.15688E+07         0.00000E+00
    0.15688E+07        -0.50008E+08         0.00000E+00
    0.00000E+00         0.00000E+00        -0.43053E+08
 
   -0.42305E+08         0.16402E+07         0.00000E+00
    0.16402E+07        -0.50007E+08         0.00000E+00
    0.00000E+00         0.00000E+00        -0.43059E+08
 
   -0.42341E+08         0.17118E+07         0.00000E+00
    0.17118E+07        -0.50006E+08         0.00000E+00
    0.00000E+00         0.00000E+00        -0.43066E+08
 
   -0.42376E+08         0.17839E+07         0.00000E+00
    0.17839E+07        -0.50005E+08         0.00000E+00
    0.00000E+00         0.00000E+00        -0.43072E+08
 
   -0.42411E+08         0.18563E+07         0.00000E+00
    0.18563E+07        -0.50003E+08         0.00000E+00
    0.00000E+00         0.00000E+00        -0.43078E+08
 
   -0.42445E+08         0.19291E+07         0.00000E+00
    0.19291E+07        -0.50001E+08         0.00000E+00
    0.00000E+00         0.00000E+00        -0.43083E+08
 
   -0.42479E+08         0.20024E+07         0.00000E+00
    0.20024E+07        -0.49999E+08         0.00000E+00
    0.00000E+00         0.00000E+00        -0.43089E+08
 
   -0.42512E+08         0.20760E+07         0.00000E+00
    0.20760E+07        -0.49996E+08         0.00000E+00
    0.00000E+00         0.00000E+00        -0.43095E+08
 
   -0.42546E+08         0.21501E+07         0.00000E+00
    0.21501E+07        -0.49993E+08         0.00000E+00
    0.00000E+00         0.00000E+00        -0.43100E+08
 
   -0.42579E+08         0.22247E+07         0.00000E+00
    0.22247E+07        -0.49990E+08         0.00000E+00
    0.00000E+00         0.00000E+00        -0.43105E+08
 
   -0.42611E+08         0.22997E+07         0.00000E+00
    0.22997E+07        -0.49986E+08         0.00000E+00
    0.00000E+00         0.00000E+00        -0.43110E+08
 
   -0.42644E+08         0.23752E+07         0.00000E+00
    0.23752E+07        -0.49981E+08         0.00000E+00
    0.00000E+00         0.00000E+00        -0.43116E+08
 
   -0.42676E+08         0.24512E+07         0.00000E+00
    0.24512E+07        -0.49977E+08         0.00000E+00
    0.00000E+00         0.00000E+00        -0.43120E+08
 
   -0.42708E+08         0.25276E+07         0.00000E+00
    0.25276E+07        -0.49971E+08         0.00000E+00
    0.00000E+00         0.00000E+00        -0.43125E+08
 
   -0.42741E+08         0.26046E+07         0.00000E+00
    0.26046E+07        -0.49965E+08         0.00000E+00
    0.00000E+00         0.00000E+00        -0.43130E+08
 
   -0.42773E+08         0.26821E+07         0.00000E+00
    0.26821E+07        -0.49959E+08         0.00000E+00
    0.00000E+00         0.00000E+00        -0.43135E+08
 
   -0.42805E+08         0.27601E+07         0.00000E+00
    0.27601E+07        -0.49952E+08         0.00000E+00
    0.00000E+00         0.00000E+00        -0.43139E+08
 
   -0.42837E+08         0.28386E+07         0.00000E+00
    0.28386E+07        -0.49944E+08         0.00000E+00
    0.00000E+00         0.00000E+00        -0.43144E+08
 
   -0.42869E+08         0.29176E+07         0.00000E+00
    0.29176E+07        -0.49936E+08         0.00000E+00
    0.00000E+00         0.00000E+00        -0.43148E+08
 
   -0.42902E+08         0.29972E+07         0.00000E+00
    0.29972E+07        -0.49927E+08         0.00000E+00
    0.00000E+00         0.00000E+00        -0.43153E+08
 
   -0.42934E+08         0.30773E+07         0.00000E+00
    0.30773E+07        -0.49918E+08         0.00000E+00
    0.00000E+00         0.00000E+00        -0.43157E+08
 
   -0.42967E+08         0.31579E+07         0.00000E+00
    0.31579E+07        -0.49908E+08         0.00000E+00
    0.00000E+00         0.00000E+00        -0.43161E+08
 
   -0.43000E+08         0.32391E+07         0.00000E+00
    0.32391E+07        -0.49897E+08         0.00000E+00
    0.00000E+00         0.00000E+00        -0.43165E+08
 
   -0.43033E+08         0.33208E+07         0.00000E+00
    0.33208E+07        -0.49885E+08         0.00000E+00
    0.00000E+00         0.00000E+00        -0.43169E+08
 
   -0.43067E+08         0.34031E+07         0.00000E+00
    0.34031E+07        -0.49873E+08         0.00000E+00
    0.00000E+00         0.00000E+00        -0.43173E+08
 
   -0.43101E+08         0.34859E+07         0.00000E+00
    0.34859E+07        -0.49860E+08         0.00000E+00
    0.00000E+00         0.00000E+00        -0.43177E+08
 
   -0.43135E+08         0.35693E+07         0.00000E+00
    0.35693E+07        -0.49846E+08         0.00000E+00
    0.00000E+00         0.00000E+00        -0.43181E+08
 
   -0.43170E+08         0.36532E+07         0.00000E+00
    0.36532E+07        -0.49831E+08         0.00000E+00
    0.00000E+00         0.00000E+00        -0.43185E+08
 
   -0.40913E+08         0.35323E+05         0.00000E+00
    0.35323E+05        -0.49999E+08         0.00000E+00
    0.00000E+00         0.00000E+00        -0.42434E+08
 
   -0.40971E+08         0.10513E+06         0.00000E+00
    0.10513E+06        -0.50000E+08         0.00000E+00
    0.00000E+00         0.00000E+00        -0.42446E+08
 
   -0.41028E+08         0.17465E+06         0.00000E+00
    0.17465E+06        -0.50000E+08         0.00000E+00
    0.00000E+00         0.00000E+00        -0.42457E+08
 
   -0.41084E+08         0.24393E+06         0.00000E+00
    0.24393E+06        -0.50001E+08         0.00000E+00
    0.00000E+00         0.00000E+00        -0.42468E+08
 
   -0.41138E+08         0.31301E+06         0.00000E+00
    0.31301E+06        -0.50002E+08         0.00000E+00
    0.00000E+00         0.00000E+00        -0.42479E+08
 
   -0.41191E+08         0.38194E+06         0.00000E+00
    0.38194E+06        -0.50003E+08         0.00000E+00
    0.00000E+00         0.00000E+00        -0.42489E+08
 
   -0.41242E+08         0.45077E+06         0.00000E+00
    0.45077E+06        -0.50004E+08         0.00000E+00
    0.00000E+00         0.00000E+00        -0.42500E+08
 
   -0.41292E+08         0.51954E+06         0.00000E+00
    0.51954E+06        -0.50005E+08         0.00000E+00
    0.00000E+00         0.00000E+00        -0.42509E+08
 
   -0.41341E+08         0.58828E+06         0.00000E+00
    0.58828E+06        -0.50006E+08         0.00000E+00
    0.00000E+00         0.00000E+00        -0.42519E+08
 
   -0.41388E+08         0.65705E+06         0.00000E+00
    0.65705E+06        -0.50008E+08         0.00000E+00
    0.00000E+00         0.00000E+00        -0.42528E+08
 
   -0.41435E+08         0.72588E+06         0.00000E+00
    0.72588E+06        -0.50009E+08         0.00000E+00
    0.00000E+00         0.00000E+00        -0.42537E+08
 
   -0.41480E+08         0.79480E+06         0.00000E+00
    0.79480E+06        -0.50011E+08         0.00000E+00
    0.00000E+00         0.00000E+00        -0.42546E+08
 
   -0.41524E+08         0.86385E+06         0.00000E+00
    0.86385E+06        -0.50013E+08         0.00000E+00
    0.00000E+00         0.00000E+00        -0.42555E+08
 
   -0.41567E+08         0.93308E+06         0.00000E+00
    0.93308E+06        -0.50014E+08         0.00000E+00
    0.00000E+00         0.00000E+00        -0.42563E+08
 
   -0.41609E+08         0.10025E+07         0.00000E+00
    0.10025E+07        -0.50016E+08         0.00000E+00
    0.00000E+00         0.00000E+00        -0.42571E+08
 
   -0.41649E+08         0.10722E+07         0.00000E+00
    0.10722E+07        -0.50018E+08         0.00000E+00
    0.00000E+00         0.00000E+00        -0.42579E+08
 
   -0.41689E+08         0.11421E+07         0.00000E+00
    0.11421E+07        -0.50019E+08         0.00000E+00
    0.00000E+00         0.00000E+00        -0.42587E+08
 
   -0.41728E+08         0.12123E+07         0.00000E+00
    0.12123E+07        -0.50021E+08         0.00000E+00
    0.00000E+00         0.00000E+00        -0.42594E+08
 
   -0.41766E+08         0.12828E+07         0.00000E+00
    0.12828E+07        -0.50022E+08         0.00000E+00
    0.00000E+00         0.00000E+00        -0.42601E+08
 
   -0.41803E+08         0.13537E+07         0.00000E+00
    0.13537E+07        -0.50024E+08         0.00000E+00
    0.00000E+00         0.00000E+00        -0.42608E+08
 
   -0.41840E+08         0.14249E+07         0.00000E+00
    0.14249E+07        -0.50025E+08         0.00000E+00
    0.00000E+00         0.00000E+00        -0.42615E+08
 
   -0.41875E+08         0.14966E+07         0.00000E+00
    0.14966E+07        -0.50026E+08         0.00000E+00
    0.00000E+00         0.00000E+00        -0.42622E+08
 
   -0.41910E+08         0.15687E+07         0.00000E+00
    0.15687E+07        -0.50027E+08         0.00000E+00
    0.00000E+00         0.00000E+00        -0.42628E+08
 
   -0.41945E+08         0.16412E+07         0.00000E+00
    0.16412E+07        -0.50028E+08         0.00000E+00
    0.00000E+00         0.00000E+00        -0.42634E+08
 
   -0.41978E+08         0.17141E+07         0.00000E+00
    0.17141E+07        -0.50028E+08         0.00000E+00
    0.00000E+00         0.00000E+00        -0.42640E+08
 
   -0.42011E+08         0.17876E+07         0.00000E+00
    0.17876E+07        -0.50028E+08         0.00000E+00
    0.00000E+00         0.00000E+00        -0.42646E+08
 
   -0.42044E+08         0.18615E+07         0.00000E+00
    0.18615E+07        -0.50028E+08         0.00000E+00
    0.00000E+00         0.00000E+00        -0.42652E+08
 
   -0.42076E+08         0.19360E+07         0.00000E+00
    0.19360E+07        -0.50028E+08         0.00000E+00
    0.00000E+00         0.00000E+00        -0.42657E+08
 
   -0.42107E+08         0.20109E+07         0.00000E+00
    0.20109E+07        -0.50027E+08         0.00000E+00
    0.00000E+00         0.00000E+00        -0.42663E+08
 
   -0.42138E+08         0.20865E+07         0.00000E+00
    0.20865E+07        -0.50026E+08         0.00000E+00
    0.00000E+00         0.00000E+00        -0.42668E+08
 
   -0.42169E+08         0.21626E+07         0.00000E+00
    0.21626E+07        -0.50024E+08         0.00000E+00
    0.00000E+00         0.00000E+00        -0.42673E+08
 
   -0.42199E+08         0.22392E+07         0.00000E+00
    0.22392E+07        -0.50023E+08         0.00000E+00
    0.00000E+00         0.00000E+00        -0.42678E+08
 
   -0.42229E+08         0.23165E+07         0.00000E+00
    0.23165E+07        -0.50020E+08         0.00000E+00
    0.00000E+00         0.00000E+00        -0.42683E+08
 
   -0.42259E+08         0.23943E+07         0.00000E+00
    0.23943E+07        -0.50017E+08         0.00000E+00
    0.00000E+00         0.00000E+00        -0.42688E+08
 
   -0.42289E+08         0.24727E+07         0.00000E+00
    0.24727E+07        -0.50014E+08         0.00000E+00
    0.00000E+00         0.00000E+00        -0.42692E+08
 
   -0.42318E+08         0.25518E+07         0.00000E+00
    0.25518E+07        -0.50010E+08         0.00000E+00
    0.00000E+00         0.00000E+00        -0.42697E+08
 
   -0.42348E+08         0.26314E+07         0.00000E+00
    0.26314E+07        -0.50006E+08         0.00000E+00
    0.00000E+00         0.00000E+00        -0.42701E+08
 
   -0.42377E+08         0.27117E+07         0.00000E+00
    0.27117E+07        -0.50001E+08         0.00000E+00
    0.00000E+00         0.00000E+00        -0.42706E+08
 
   -0.42406E+08         0.27927E+07         0.00000E+00
    0.27927E+07        -0.49996E+08         0.00000E+00
    0.00000E+00         0.00000E+00        -0.42710E+08
 
   -0.42436E+08         0.28742E+07         0.00000E+00
    0.28742E+07        -0.49990E+08         0.00000E+00
    0.00000E+00         0.00000E+00        -0.42714E+08
 
   -0.42465E+08         0.29564E+07         0.00000E+00
    0.29564E+07        -0.49983E+08         0.00000E+00
    0.00000E+00         0.00000E+00        -0.42718E+08
 
   -0.42494E+08         0.30393E+07         0.00000E+00
    0.30393E+07        -0.49976E+08         0.00000E+00
    0.00000E+00         0.00000E+00        -0.42722E+08
 
   -0.42524E+08         0.31228E+07         0.00000E+00
    0.31228E+07        -0.49968E+08         0.00000E+00
    0.00000E+00         0.00000E+00        -0.42726E+08
 
   -0.42554E+08         0.32069E+07         0.00000E+00
    0.32069E+07        -0.49959E+08         0.00000E+00
    0.00000E+00         0.00000E+00        -0.42730E+08
 
   -0.42584E+08         0.32918E+07         0.00000E+00
    0.32918E+07        -0.49950E+08         0.00000E+00
    0.00000E+00         0.00000E+00        -0.42734E+08
 
   -0.42614E+08         0.33772E+07         0.00000E+00
    0.33772E+07        -0.49940E+08         0.00000E+00
    0.00000E+00         0.00000E+00        -0.42738E+08
 
   -0.42644E+08         0.34634E+07         0.00000E+00
    0.34634E+07        -0.49929E+08         0.00000E+00
    0.00000E+00         0.00000E+00        -0.42741E+08
 
   -0.42675E+08         0.35502E+07         0.00000E+00
    0.35502E+07        -0.49917E+08         0.00000E+00
    0.00000E+00         0.00000E+00        -0.42745E+08
 
   -0.42707E+08         0.36376E+07         0.00000E+00
    0.36376E+07        -0.49905E+08         0.00000E+00
    0.00000E+00         0.00000E+00        -0.42749E+08
 
   -0.42738E+08         0.37257E+07         0.00000E+00
    0.37257E+07        -0.49891E+08         0.00000E+00
    0.00000E+00         0.00000E+00        -0.42752E+08
 
   -0.40566E+08         0.34585E+05         0.00000E+00
    0.34585E+05        -0.49999E+08         0.00000E+00
    0.00000E+00         0.00000E+00        -0.41990E+08
 
   -0.40626E+08         0.10306E+06         0.00000E+00
    0.10306E+06        -0.50000E+08         0.00000E+00
    0.00000E+00         0.00000E+00        -0.42002E+08
 
   -0.40684E+08         0.17132E+06         0.00000E+00
    0.17132E+06        -0.50000E+08         0.00000E+00
    0.00000E+00         0.00000E+00        -0.42013E+08
 
   -0.40741E+08         0.23941E+06         0.00000E+00
    0.23941E+06        -0.50001E+08         0.00000E+00
    0.00000E+00         0.00000E+00        -0.42024E+08
 
   -0.40795E+08         0.30738E+06         0.00000E+00
    0.30738E+06        -0.50003E+08         0.00000E+00
    0.00000E+00         0.00000E+00        -0.42035E+08
 
   -0.40849E+08         0.37529E+06         0.00000E+00
    0.37529E+06        -0.50004E+08         0.00000E+00
    0.00000E+00         0.00000E+00        -0.42046E+08
 
   -0.40900E+08         0.44318E+06         0.00000E+00
    0.44318E+06        -0.50006E+08         0.00000E+00
    0.00000E+00         0.00000E+00        -0.42056E+08
 
   -0.40950E+08         0.51110E+06         0.00000E+00
    0.51110E+06        -0.50008E+08         0.00000E+00
    0.00000E+00         0.00000E+00        -0.42066E+08
 
   -0.40999E+08         0.57910E+06         0.00000E+00
    0.57910E+06        -0.50010E+08         0.00000E+00
    0.00000E+00         0.00000E+00        -0.42076E+08
 
   -0.41046E+08         0.64722E+06         0.00000E+00
    0.64722E+06        -0.50012E+08         0.00000E+00
    0.00000E+00         0.00000E+00        -0.42085E+08
 
   -0.41091E+08         0.71550E+06         0.00000E+00
    0.71550E+06        -0.50015E+08         0.00000E+00
    0.00000E+00         0.00000E+00        -0.42094E+08
 
   -0.41136E+08         0.78398E+06         0.00000E+00
    0.78398E+06        -0.50018E+08         0.00000E+00
    0.00000E+00         0.00000E+00        -0.42103E+08
 
   -0.41179E+08         0.85271E+06         0.00000E+00
    0.85271E+06        -0.50020E+08         0.00000E+00
    0.00000E+00         0.00000E+00        -0.42111E+08
 
   -0.41220E+08         0.92172E+06         0.00000E+00
    0.92172E+06        -0.50023E+08         0.00000E+00
    0.00000E+00         0.00000E+00        -0.42120E+08
 
   -0.41261E+08         0.99104E+06         0.00000E+00
    0.99104E+06        -0.50026E+08         0.00000E+00
    0.00000E+00         0.00000E+00        -0.42128E+08
 
   -0.41300E+08         0.10607E+07         0.00000E+00
    0.10607E+07        -0.50029E+08         0.00000E+00
    0.00000E+00         0.00000E+00        -0.42135E+08
 
   -0.41338E+08         0.11308E+07         0.00000E+00
    0.11308E+07        -0.50032E+08         0.00000E+00
    0.00000E+00         0.00000E+00        -0.42143E+08
 
   -0.41375E+08         0.12012E+07         0.00000E+00
    0.12012E+07        -0.50035E+08         0.00000E+00
    0.00000E+00         0.00000E+00        -0.42150E+08
 
   -0.41411E+08         0.12722E+07         0.00000E+00
    0.12722E+07        -0.50038E+08         0.00000E+00
    0.00000E+00         0.00000E+00        -0.42157E+08
 
   -0.41447E+08         0.13436E+07         0.00000E+00
    0.13436E+07        -0.50041E+08         0.00000E+00
    0.00000E+00         0.00000E+00        -0.42164E+08
 
   -0.41481E+08         0.14154E+07         0.00000E+00
    0.14154E+07        -0.50044E+08         0.00000E+00
    0.00000E+00         0.00000E+00        -0.42170E+08
 
   -0.41514E+08         0.14878E+07         0.00000E+00
    0.14878E+07        -0.50046E+08         0.00000E+00
    0.00000E+00         0.00000E+00        -0.42177E+08
 
   -0.41546E+08         0.15608E+07         0.00000E+00
    0.15608E+07        -0.50049E+08         0.00000E+00
    0.00000E+00         0.00000E+00        -0.42183E+08
 
   -0.41578E+08         0.16343E+07         0.00000E+00
    0.16343E+07        -0.50051E+08         0.00000E+00
    0.00000E+00         0.00000E+00        -0.42189E+08
 
   -0.41609E+08         0.17084E+07         0.00000E+00
    0.17084E+07        -0.50053E+08         0.00000E+00
    0.00000E+00         0.00000E+00        -0.42195E+08
 
   -0.41639E+08         0.17832E+07         0.00000E+00
    0.17832E+07        -0.50055E+08         0.00000E+00
    0.00000E+00         0.00000E+00        -0.42200E+08
 
   -0.41669E+08         0.18585E+07         0.00000E+00
    0.18585E+07        -0.50057E+08         0.00000E+00
    0.00000E+00         0.00000E+00        -0.42206E+08
 
   -0.41698E+08         0.19345E+07         0.00000E+00
    0.19345E+07        -0.50058E+08         0.00000E+00
    0.00000E+00         0.00000E+00        -0.42211E+08
 
   -0.41726E+08         0.20112E+07         0.00000E+00
    0.20112E+07        -0.50059E+08         0.00000E+00
    0.00000E+00         0.00000E+00        -0.42216E+08
 
   -0.41754E+08         0.20885E+07         0.00000E+00
    0.20885E+07        -0.50060E+08         0.00000E+00
    0.00000E+00         0.00000E+00        -0.42221E+08
 
   -0.41782E+08         0.21666E+07         0.00000E+00
    0.21666E+07        -0.50060E+08         0.00000E+00
    0.00000E+00         0.00000E+00        -0.42226E+08
 
   -0.41809E+08         0.22453E+07         0.00000E+00
    0.22453E+07        -0.50060E+08         0.00000E+00
    0.00000E+00         0.00000E+00        -0.42230E+08
 
   -0.41836E+08         0.23247E+07         0.00000E+00
    0.23247E+07        -0.50060E+08         0.00000E+00
    0.00000E+00         0.00000E+00        -0.42235E+08
 
   -0.41862E+08         0.24049E+07         0.00000E+00
    0.24049E+07        -0.50059E+08         0.00000E+00
    0.00000E+00         0.00000E+00        -0.42239E+08
 
   -0.41889E+08         0.24858E+07         0.00000E+00
    0.24858E+07        -0.50057E+08         0.00000E+00
    0.00000E+00         0.00000E+00        -0.42244E+08
 
   -0.41915E+08         0.25674E+07         0.00000E+00
    0.25674E+07        -0.50055E+08         0.00000E+00
    0.00000E+00         0.00000E+00        -0.42248E+08
 
   -0.41941E+08         0.26498E+07         0.00000E+00
    0.26498E+07        -0.50053E+08         0.00000E+00
    0.00000E+00         0.00000E+00        -0.42252E+08
 
   -0.41967E+08         0.27329E+07         0.00000E+00
    0.27329E+07        -0.50050E+08         0.00000E+00
    0.00000E+00         0.00000E+00        -0.42256E+08
 
   -0.41992E+08         0.28168E+07         0.00000E+00
    0.28168E+07        -0.50046E+08         0.00000E+00
    0.00000E+00         0.00000E+00        -0.42260E+08
 
   -0.42018E+08         0.29015E+07         0.00000E+00
    0.29015E+07        -0.50042E+08         0.00000E+00
    0.00000E+00         0.00000E+00        -0.42263E+08
 
   -0.42044E+08         0.29869E+07         0.00000E+00
    0.29869E+07        -0.50037E+08         0.00000E+00
    0.00000E+00         0.00000E+00        -0.42267E+08
 
   -0.42070E+08         0.30731E+07         0.00000E+00
    0.30731E+07        -0.50032E+08         0.00000E+00
    0.00000E+00         0.00000E+00        -0.42271E+08
 
   -0.42096E+08         0.31601E+07         0.00000E+00
    0.31601E+07        -0.50026E+08         0.00000E+00
    0.00000E+00         0.00000E+00        -0.42274E+08
 
   -0.42122E+08         0.32479E+07         0.00000E+00
    0.32479E+07        -0.50019E+08         0.00000E+00
    0.00000E+00         0.00000E+00        -0.42278E+08
 
   -0.42148E+08         0.33364E+07         0.00000E+00
    0.33364E+07        -0.50011E+08         0.00000E+00
    0.00000E+00         0.00000E+00        -0.42281E+08
 
   -0.42175E+08         0.34258E+07         0.00000E+00
    0.34258E+07        -0.50003E+08         0.00000E+00
    0.00000E+00         0.00000E+00        -0.42284E+08
 
   -0.42202E+08         0.35159E+07         0.00000E+00
    0.35159E+07        -0.49993E+08         0.00000E+00
    0.00000E+00         0.00000E+00        -0.42288E+08
 
   -0.42229E+08         0.36068E+07         0.00000E+00
    0.36068E+07        -0.49983E+08         0.00000E+00
    0.00000E+00         0.00000E+00        -0.42291E+08
 
   -0.42257E+08         0.36984E+07         0.00000E+00
    0.36984E+07        -0.49972E+08         0.00000E+00
    0.00000E+00         0.00000E+00        -0.42294E+08
 
   -0.42285E+08         0.37909E+07         0.00000E+00
    0.37909E+07        -0.49961E+08         0.00000E+00
    0.00000E+00         0.00000E+00        -0.42298E+08
 
   -0.40228E+08         0.33531E+05         0.00000E+00
    0.33531E+05        -0.49999E+08         0.00000E+00
    0.00000E+00         0.00000E+00        -0.41526E+08
 
   -0.40289E+08         0.10009E+06         0.00000E+00
    0.10009E+06        -0.50000E+08         0.00000E+00
    0.00000E+00         0.00000E+00        -0.41539E+08
 
   -0.40348E+08         0.16651E+06         0.00000E+00
    0.16651E+06        -0.50001E+08         0.00000E+00
    0.00000E+00         0.00000E+00        -0.41550E+08
 
   -0.40405E+08         0.23286E+06         0.00000E+00
    0.23286E+06        -0.50002E+08         0.00000E+00
    0.00000E+00         0.00000E+00        -0.41562E+08
 
   -0.40459E+08         0.29919E+06         0.00000E+00
    0.29919E+06        -0.50004E+08         0.00000E+00
    0.00000E+00         0.00000E+00        -0.41573E+08
 
   -0.40513E+08         0.36555E+06         0.00000E+00
    0.36555E+06        -0.50006E+08         0.00000E+00
    0.00000E+00         0.00000E+00        -0.41584E+08
 
   -0.40564E+08         0.43201E+06         0.00000E+00
    0.43201E+06        -0.50008E+08         0.00000E+00
    0.00000E+00         0.00000E+00        -0.41594E+08
 
   -0.40613E+08         0.49862E+06         0.00000E+00
    0.49862E+06        -0.50011E+08         0.00000E+00
    0.00000E+00         0.00000E+00        -0.41604E+08
 
   -0.40661E+08         0.56541E+06         0.00000E+00
    0.56541E+06        -0.50014E+08         0.00000E+00
    0.00000E+00         0.00000E+00        -0.41613E+08
 
   -0.40707E+08         0.63245E+06         0.00000E+00
    0.63245E+06        -0.50018E+08         0.00000E+00
    0.00000E+00         0.00000E+00        -0.41623E+08
 
   -0.40751E+08         0.69977E+06         0.00000E+00
    0.69977E+06        -0.50021E+08         0.00000E+00
    0.00000E+00         0.00000E+00        -0.41632E+08
 
   -0.40794E+08         0.76743E+06         0.00000E+00
    0.76743E+06        -0.50025E+08         0.00000E+00
    0.00000E+00         0.00000E+00        -0.41640E+08
 
   -0.40836E+08         0.83546E+06         0.00000E+00
    0.83546E+06        -0.50029E+08         0.00000E+00
    0.00000E+00         0.00000E+00        -0.41649E+08
 
   -0.40876E+08         0.90390E+06         0.00000E+00
    0.90390E+06        -0.50033E+08         0.00000E+00
    0.00000E+00         0.00000E+00        -0.41657E+08
 
   -0.40914E+08         0.97280E+06         0.00000E+00
    0.97280E+06        -0.50038E+08         0.00000E+00
    0.00000E+00         0.00000E+00        -0.41665E+08
 
   -0.40951E+08         0.10422E+07         0.00000E+00
    0.10422E+07        -0.50042E+08         0.00000E+00
    0.00000E+00         0.00000E+00        -0.41672E+08
 
   -0.40987E+08         0.11121E+07         0.00000E+00
    0.11121E+07        -0.50047E+08         0.00000E+00
    0.00000E+00         0.00000E+00        -0.41679E+08
 
   -0.41022E+08         0.11825E+07         0.00000E+00
    0.11825E+07        -0.50051E+08         0.00000E+00
    0.00000E+00         0.00000E+00        -0.41686E+08
 
   -0.41055E+08         0.12536E+07         0.00000E+00
    0.12536E+07        -0.50056E+08         0.00000E+00
    0.00000E+00         0.00000E+00        -0.41693E+08
 
   -0.41087E+08         0.13253E+07         0.00000E+00
    0.13253E+07        -0.50060E+08         0.00000E+00
    0.00000E+00         0.00000E+00        -0.41699E+08
 
   -0.41119E+08         0.13976E+07         0.00000E+00
    0.13976E+07        -0.50065E+08         0.00000E+00
    0.00000E+00         0.00000E+00        -0.41706E+08
 
   -0.41149E+08         0.14705E+07         0.00000E+00
    0.14705E+07        -0.50069E+08         0.00000E+00
    0.00000E+00         0.00000E+00        -0.41712E+08
 
   -0.41178E+08         0.15442E+07         0.00000E+00
    0.15442E+07        -0.50074E+08         0.00000E+00
    0.00000E+00         0.00000E+00        -0.41718E+08
 
   -0.41207E+08         0.16186E+07         0.00000E+00
    0.16186E+07        -0.50078E+08         0.00000E+00
    0.00000E+00         0.00000E+00        -0.41723E+08
 
   -0.41234E+08         0.16937E+07         0.00000E+00
    0.16937E+07        -0.50082E+08         0.00000E+00
    0.00000E+00         0.00000E+00        -0.41729E+08
 
   -0.41261E+08         0.17696E+07         0.00000E+00
    0.17696E+07        -0.50086E+08         0.00000E+00
    0.00000E+00         0.00000E+00        -0.41734E+08
 
   -0.41287E+08         0.18462E+07         0.00000E+00
    0.18462E+07        -0.50090E+08         0.00000E+00
    0.00000E+00         0.00000E+00        -0.41739E+08
 
   -0.41312E+08         0.19237E+07         0.00000E+00
    0.19237E+07        -0.50093E+08         0.00000E+00
    0.00000E+00         0.00000E+00        -0.41744E+08
 
   -0.41337E+08         0.20019E+07         0.00000E+00
    0.20019E+07        -0.50096E+08         0.00000E+00
    0.00000E+00         0.00000E+00        -0.41748E+08
 
   -0.41361E+08         0.20810E+07         0.00000E+00
    0.20810E+07        -0.50099E+08         0.00000E+00
    0.00000E+00         0.00000E+00        -0.41753E+08
 
   -0.41385E+08         0.21609E+07         0.00000E+00
    0.21609E+07        -0.50101E+08         0.00000E+00
    0.00000E+00         0.00000E+00        -0.41757E+08
 
   -0.41408E+08         0.22417E+07         0.00000E+00
    0.22417E+07        -0.50103E+08         0.00000E+00
    0.00000E+00         0.00000E+00        -0.41761E+08
 
   -0.41431E+08         0.23233E+07         0.00000E+00
    0.23233E+07        -0.50105E+08         0.00000E+00
    0.00000E+00         0.00000E+00        -0.41765E+08
 
   -0.41454E+08         0.24058E+07         0.00000E+00
    0.24058E+07        -0.50106E+08         0.00000E+00
    0.00000E+00         0.00000E+00        -0.41769E+08
 
   -0.41476E+08         0.24891E+07         0.00000E+00
    0.24891E+07        -0.50106E+08         0.00000E+00
    0.00000E+00         0.00000E+00        -0.41773E+08
 
   -0.41498E+08         0.25733E+07         0.00000E+00
    0.25733E+07        -0.50107E+08         0.00000E+00
    0.00000E+00         0.00000E+00        -0.41777E+08
 
   -0.41520E+08         0.26585E+07         0.00000E+00
    0.26585E+07        -0.50106E+08         0.00000E+00
    0.00000E+00         0.00000E+00        -0.41781E+08
 
   -0.41542E+08         0.27445E+07         0.00000E+00
    0.27445E+07        -0.50105E+08         0.00000E+00
    0.00000E+00         0.00000E+00        -0.41784E+08
 
   -0.41563E+08         0.28314E+07         0.00000E+00
    0.28314E+07        -0.50104E+08         0.00000E+00
    0.00000E+00         0.00000E+00        -0.41787E+08
 
   -0.41585E+08         0.29192E+07         0.00000E+00
    0.29192E+07        -0.50101E+08         0.00000E+00
    0.00000E+00         0.00000E+00        -0.41791E+08
 
   -0.41606E+08         0.30079E+07         0.00000E+00
    0.30079E+07        -0.50099E+08         0.00000E+00
    0.00000E+00         0.00000E+00        -0.41794E+08
 
   -0.41628E+08         0.30975E+07         0.00000E+00
    0.30975E+07        -0.50095E+08         0.00000E+00
    0.00000E+00         0.00000E+00        -0.41797E+08
 
   -0.41650E+08         0.31881E+07         0.00000E+00
    0.31881E+07        -0.50091E+08         0.00000E+00
    0.00000E+00         0.00000E+00        -0.41800E+08
 
   -0.41672E+08         0.32795E+07         0.00000E+00
    0.32795E+07        -0.50086E+08         0.00000E+00
    0.00000E+00         0.00000E+00        -0.41803E+08
 
   -0.41694E+08         0.33719E+07         0.00000E+00
    0.33719E+07        -0.50080E+08         0.00000E+00
    0.00000E+00         0.00000E+00        -0.41806E+08
 
   -0.41716E+08         0.34651E+07         0.00000E+00
    0.34651E+07        -0.50074E+08         0.00000E+00
    0.00000E+00         0.00000E+00        -0.41809E+08
 
   -0.41739E+08         0.35593E+07         0.00000E+00
    0.35593E+07        -0.50067E+08         0.00000E+00
    0.00000E+00         0.00000E+00        -0.41812E+08
 
   -0.41762E+08         0.36544E+07         0.00000E+00
    0.36544E+07        -0.50059E+08         0.00000E+00
    0.00000E+00         0.00000E+00        -0.41815E+08
 
   -0.41786E+08         0.37504E+07         0.00000E+00
    0.37504E+07        -0.50050E+08         0.00000E+00
    0.00000E+00         0.00000E+00        -0.41817E+08
 
   -0.41809E+08         0.38473E+07         0.00000E+00
    0.38473E+07        -0.50040E+08         0.00000E+00
    0.00000E+00         0.00000E+00        -0.41820E+08
 
   -0.39901E+08         0.32113E+05         0.00000E+00
    0.32113E+05        -0.49999E+08         0.00000E+00
    0.00000E+00         0.00000E+00        -0.41045E+08
 
   -0.39963E+08         0.96071E+05         0.00000E+00
    0.96071E+05        -0.50000E+08         0.00000E+00
    0.00000E+00         0.00000E+00        -0.41057E+08
 
   -0.40022E+08         0.16000E+06         0.00000E+00
    0.16000E+06        -0.50001E+08         0.00000E+00
    0.00000E+00         0.00000E+00        -0.41069E+08
 
   -0.40078E+08         0.22398E+06         0.00000E+00
    0.22398E+06        -0.50003E+08         0.00000E+00
    0.00000E+00         0.00000E+00        -0.41081E+08
 
   -0.40133E+08         0.28806E+06         0.00000E+00
    0.28806E+06        -0.50005E+08         0.00000E+00
    0.00000E+00         0.00000E+00        -0.41092E+08
 
   -0.40185E+08         0.35230E+06         0.00000E+00
    0.35230E+06        -0.50008E+08         0.00000E+00
    0.00000E+00         0.00000E+00        -0.41102E+08
 
   -0.40236E+08         0.41677E+06         0.00000E+00
    0.41677E+06        -0.50011E+08         0.00000E+00
    0.00000E+00         0.00000E+00        -0.41112E+08
 
   -0.40284E+08         0.48152E+06         0.00000E+00
    0.48152E+06        -0.50015E+08         0.00000E+00
    0.00000E+00         0.00000E+00        -0.41122E+08
 
   -0.40330E+08         0.54660E+06         0.00000E+00
    0.54660E+06        -0.50019E+08         0.00000E+00
    0.00000E+00         0.00000E+00        -0.41132E+08
 
   -0.40375E+08         0.61207E+06         0.00000E+00
    0.61207E+06        -0.50024E+08         0.00000E+00
    0.00000E+00         0.00000E+00        -0.41141E+08
 
   -0.40417E+08         0.67797E+06         0.00000E+00
    0.67797E+06        -0.50029E+08         0.00000E+00
    0.00000E+00         0.00000E+00        -0.41150E+08
 
   -0.40458E+08         0.74436E+06         0.00000E+00
    0.74436E+06        -0.50034E+08         0.00000E+00
    0.00000E+00         0.00000E+00        -0.41158E+08
 
   -0.40497E+08         0.81127E+06         0.00000E+00
    0.81127E+06        -0.50039E+08         0.00000E+00
    0.00000E+00         0.00000E+00        -0.41166E+08
 
   -0.40534E+08         0.87876E+06         0.00000E+00
    0.87876E+06        -0.50045E+08         0.00000E+00
    0.00000E+00         0.00000E+00        -0.41174E+08
 
   -0.40570E+08         0.94685E+06         0.00000E+00
    0.94685E+06        -0.50051E+08         0.00000E+00
    0.00000E+00         0.00000E+00        -0.41182E+08
 
   -0.40604E+08         0.10156E+07         0.00000E+00
    0.10156E+07        -0.50057E+08         0.00000E+00
    0.00000E+00         0.00000E+00        -0.41189E+08
 
   -0.40637E+08         0.10850E+07         0.00000E+00
    0.10850E+07        -0.50063E+08         0.00000E+00
    0.00000E+00         0.00000E+00        -0.41196E+08
 
   -0.40668E+08         0.11552E+07         0.00000E+00
    0.11552E+07        -0.50070E+08         0.00000E+00
    0.00000E+00         0.00000E+00        -0.41202E+08
 
   -0.40698E+08         0.12261E+07         0.00000E+00
    0.12261E+07        -0.50076E+08         0.00000E+00
    0.00000E+00         0.00000E+00        -0.41209E+08
 
   -0.40727E+08         0.12977E+07         0.00000E+00
    0.12977E+07        -0.50083E+08         0.00000E+00
    0.00000E+00         0.00000E+00        -0.41215E+08
 
   -0.40755E+08         0.13702E+07         0.00000E+00
    0.13702E+07        -0.50089E+08         0.00000E+00
    0.00000E+00         0.00000E+00        -0.41220E+08
 
   -0.40781E+08         0.14435E+07         0.00000E+00
    0.14435E+07        -0.50096E+08         0.00000E+00
    0.00000E+00         0.00000E+00        -0.41226E+08
 
   -0.40806E+08         0.15177E+07         0.00000E+00
    0.15177E+07        -0.50102E+08         0.00000E+00
    0.00000E+00         0.00000E+00        -0.41231E+08
 
   -0.40831E+08         0.15928E+07         0.00000E+00
    0.15928E+07        -0.50108E+08         0.00000E+00
    0.00000E+00         0.00000E+00        -0.41237E+08
 
   -0.40854E+08         0.16687E+07         0.00000E+00
    0.16687E+07        -0.50115E+08         0.00000E+00
    0.00000E+00         0.00000E+00        -0.41242E+08
 
   -0.40877E+08         0.17456E+07         0.00000E+00
    0.17456E+07        -0.50121E+08         0.00000E+00
    0.00000E+00         0.00000E+00        -0.41246E+08
 
   -0.40899E+08         0.18234E+07         0.00000E+00
    0.18234E+07        -0.50126E+08         0.00000E+00
    0.00000E+00         0.00000E+00        -0.41251E+08
 
   -0.40920E+08         0.19022E+07         0.00000E+00
    0.19022E+07        -0.50132E+08         0.00000E+00
    0.00000E+00         0.00000E+00        -0.41255E+08
 
   -0.40940E+08         0.19820E+07         0.00000E+00
    0.19820E+07        -0.50137E+08         0.00000E+00
    0.00000E+00         0.00000E+00        -0.41259E+08
 
   -0.40960E+08         0.20627E+07         0.00000E+00
    0.20627E+07        -0.50142E+08         0.00000E+00
    0.00000E+00         0.00000E+00        -0.41263E+08
 
   -0.40979E+08         0.21444E+07         0.00000E+00
    0.21444E+07        -0.50147E+08         0.00000E+00
    0.00000E+00         0.00000E+00        -0.41267E+08
 
   -0.40997E+08         0.22272E+07         0.00000E+00
    0.22272E+07        -0.50151E+08         0.00000E+00
    0.00000E+00         0.00000E+00        -0.41271E+08
 
   -0.41015E+08         0.23109E+07         0.00000E+00
    0.23109E+07        -0.50155E+08         0.00000E+00
    0.00000E+00         0.00000E+00        -0.41274E+08
 
   -0.41033E+08         0.23957E+07         0.00000E+00
    0.23957E+07        -0.50159E+08         0.00000E+00
    0.00000E+00         0.00000E+00        -0.41278E+08
 
   -0.41051E+08         0.24815E+07         0.00000E+00
    0.24815E+07        -0.50162E+08         0.00000E+00
    0.00000E+00         0.00000E+00        -0.41281E+08
 
   -0.41068E+08         0.25683E+07         0.00000E+00
    0.25683E+07        -0.50164E+08         0.00000E+00
    0.00000E+00         0.00000E+00        -0.41284E+08
 
   -0.41085E+08         0.26561E+07         0.00000E+00
    0.26561E+07        -0.50166E+08         0.00000E+00
    0.00000E+00         0.00000E+00        -0.41287E+08
 
   -0.41102E+08         0.27451E+07         0.00000E+00
    0.27451E+07        -0.50167E+08         0.00000E+00
    0.00000E+00         0.00000E+00        -0.41290E+08
 
   -0.41119E+08         0.28350E+07         0.00000E+00
    0.28350E+07        -0.50168E+08         0.00000E+00
    0.00000E+00         0.00000E+00        -0.41293E+08
 
   -0.41135E+08         0.29260E+07         0.00000E+00
    0.29260E+07        -0.50168E+08         0.00000E+00
    0.00000E+00         0.00000E+00        -0.41296E+08
 
   -0.41152E+08         0.30181E+07         0.00000E+00
    0.30181E+07        -0.50168E+08         0.00000E+00
    0.00000E+00         0.00000E+00        -0.41298E+08
 
   -0.41169E+08         0.31111E+07         0.00000E+00
    0.31111E+07        -0.50167E+08         0.00000E+00
    0.00000E+00         0.00000E+00        -0.41301E+08
 
   -0.41186E+08         0.32053E+07         0.00000E+00
    0.32053E+07        -0.50165E+08         0.00000E+00
    0.00000E+00         0.00000E+00        -0.41303E+08
 
   -0.41203E+08         0.33005E+07         0.00000E+00
    0.33005E+07        -0.50162E+08         0.00000E+00
    0.00000E+00         0.00000E+00        -0.41306E+08
 
   -0.41220E+08         0.33967E+07         0.00000E+00
    0.33967E+07        -0.50159E+08         0.00000E+00
    0.00000E+00         0.00000E+00        -0.41308E+08
 
   -0.41238E+08         0.34940E+07         0.00000E+00
    0.34940E+07        -0.50154E+08         0.00000E+00
    0.00000E+00         0.00000E+00        -0.41311E+08
 
   -0.41255E+08         0.35924E+07         0.00000E+00
    0.35924E+07        -0.50149E+08         0.00000E+00
    0.00000E+00         0.00000E+00        -0.41313E+08
 
   -0.41274E+08         0.36917E+07         0.00000E+00
    0.36917E+07        -0.50144E+08         0.00000E+00
    0.00000E+00         0.00000E+00        -0.41315E+08
 
   -0.41292E+08         0.37921E+07         0.00000E+00
    0.37921E+07        -0.50137E+08         0.00000E+00
    0.00000E+00         0.00000E+00        -0.41317E+08
 
   -0.41311E+08         0.38936E+07         0.00000E+00
    0.38936E+07        -0.50129E+08         0.00000E+00
    0.00000E+00         0.00000E+00        -0.41320E+08
 
   -0.39589E+08         0.30275E+05         0.00000E+00
    0.30275E+05        -0.49999E+08         0.00000E+00
    0.00000E+00         0.00000E+00        -0.40545E+08
 
   -0.39651E+08         0.90861E+05         0.00000E+00
    0.90861E+05        -0.50000E+08         0.00000E+00
    0.00000E+00         0.00000E+00        -0.40557E+08
 
   -0.39709E+08         0.15156E+06         0.00000E+00
    0.15156E+06        -0.50002E+08         0.00000E+00
    0.00000E+00         0.00000E+00        -0.40569E+08
 
   -0.39766E+08         0.21245E+06         0.00000E+00
    0.21245E+06        -0.50004E+08         0.00000E+00
    0.00000E+00         0.00000E+00        -0.40581E+08
 
   -0.39819E+08         0.27359E+06         0.00000E+00
    0.27359E+06        -0.50007E+08         0.00000E+00
    0.00000E+00         0.00000E+00        -0.40592E+08
 
   -0.39870E+08         0.33505E+06         0.00000E+00
    0.33505E+06        -0.50010E+08         0.00000E+00
    0.00000E+00         0.00000E+00        -0.40602E+08
 
   -0.39919E+08         0.39689E+06         0.00000E+00
    0.39689E+06        -0.50015E+08         0.00000E+00
    0.00000E+00         0.00000E+00        -0.40612E+08
 
   -0.39965E+08         0.45919E+06         0.00000E+00
    0.45919E+06        -0.50019E+08         0.00000E+00
    0.00000E+00         0.00000E+00        -0.40622E+08
 
   -0.40009E+08         0.52198E+06         0.00000E+00
    0.52198E+06        -0.50025E+08         0.00000E+00
    0.00000E+00         0.00000E+00        -0.40631E+08
 
   -0.40051E+08         0.58533E+06         0.00000E+00
    0.58533E+06        -0.50030E+08         0.00000E+00
    0.00000E+00         0.00000E+00        -0.40640E+08
 
   -0.40091E+08         0.64930E+06         0.00000E+00
    0.64930E+06        -0.50037E+08         0.00000E+00
    0.00000E+00         0.00000E+00        -0.40648E+08
 
   -0.40129E+08         0.71393E+06         0.00000E+00
    0.71393E+06        -0.50043E+08         0.00000E+00
    0.00000E+00         0.00000E+00        -0.40656E+08
 
   -0.40165E+08         0.77926E+06         0.00000E+00
    0.77926E+06        -0.50051E+08         0.00000E+00
    0.00000E+00         0.00000E+00        -0.40664E+08
 
   -0.40198E+08         0.84535E+06         0.00000E+00
    0.84535E+06        -0.50058E+08         0.00000E+00
    0.00000E+00         0.00000E+00        -0.40672E+08
 
   -0.40231E+08         0.91223E+06         0.00000E+00
    0.91223E+06        -0.50066E+08         0.00000E+00
    0.00000E+00         0.00000E+00        -0.40679E+08
 
   -0.40261E+08         0.97995E+06         0.00000E+00
    0.97995E+06        -0.50074E+08         0.00000E+00
    0.00000E+00         0.00000E+00        -0.40685E+08
 
   -0.40290E+08         0.10485E+07         0.00000E+00
    0.10485E+07        -0.50082E+08         0.00000E+00
    0.00000E+00         0.00000E+00        -0.40692E+08
 
   -0.40317E+08         0.11180E+07         0.00000E+00
    0.11180E+07        -0.50090E+08         0.00000E+00
    0.00000E+00         0.00000E+00        -0.40698E+08
 
   -0.40343E+08         0.11885E+07         0.00000E+00
    0.11885E+07        -0.50099E+08         0.00000E+00
    0.00000E+00         0.00000E+00        -0.40704E+08
 
   -0.40367E+08         0.12599E+07         0.00000E+00
    0.12599E+07        -0.50108E+08         0.00000E+00
    0.00000E+00         0.00000E+00        -0.40709E+08
 
   -0.40390E+08         0.13323E+07         0.00000E+00
    0.13323E+07        -0.50116E+08         0.00000E+00
    0.00000E+00         0.00000E+00        -0.40715E+08
 
   -0.40412E+08         0.14057E+07         0.00000E+00
    0.14057E+07        -0.50125E+08         0.00000E+00
    0.00000E+00         0.00000E+00        -0.40720E+08
 
   -0.40432E+08         0.14802E+07         0.00000E+00
    0.14802E+07        -0.50134E+08         0.00000E+00
    0.00000E+00         0.00000E+00        -0.40724E+08
 
   -0.40452E+08         0.15557E+07         0.00000E+00
    0.15557E+07        -0.50142E+08         0.00000E+00
    0.00000E+00         0.00000E+00        -0.40729E+08
 
   -0.40470E+08         0.16323E+07         0.00000E+00
    0.16323E+07        -0.50151E+08         0.00000E+00
    0.00000E+00         0.00000E+00        -0.40733E+08
 
   -0.40488E+08         0.17101E+07         0.00000E+00
    0.17101E+07        -0.50160E+08         0.00000E+00
    0.00000E+00         0.00000E+00        -0.40737E+08
 
   -0.40504E+08         0.17889E+07         0.00000E+00
    0.17889E+07        -0.50168E+08         0.00000E+00
    0.00000E+00         0.00000E+00        -0.40741E+08
 
   -0.40520E+08         0.18689E+07         0.00000E+00
    0.18689E+07        -0.50176E+08         0.00000E+00
    0.00000E+00         0.00000E+00        -0.40745E+08
 
   -0.40535E+08         0.19500E+07         0.00000E+00
    0.19500E+07        -0.50184E+08         0.00000E+00
    0.00000E+00         0.00000E+00        -0.40749E+08
 
   -0.40549E+08         0.20323E+07         0.00000E+00
    0.20323E+07        -0.50191E+08         0.00000E+00
    0.00000E+00         0.00000E+00        -0.40752E+08
 
   -0.40563E+08         0.21158E+07         0.00000E+00
    0.21158E+07        -0.50198E+08         0.00000E+00
    0.00000E+00         0.00000E+00        -0.40755E+08
 
   -0.40576E+08         0.22005E+07         0.00000E+00
    0.22005E+07        -0.50205E+08         0.00000E+00
    0.00000E+00         0.00000E+00        -0.40758E+08
 
   -0.40589E+08         0.22863E+07         0.00000E+00
    0.22863E+07        -0.50212E+08         0.00000E+00
    0.00000E+00         0.00000E+00        -0.40761E+08
 
   -0.40601E+08         0.23733E+07         0.00000E+00
    0.23733E+07        -0.50218E+08         0.00000E+00
    0.00000E+00         0.00000E+00        -0.40764E+08
 
   -0.40613E+08         0.24615E+07         0.00000E+00
    0.24615E+07        -0.50223E+08         0.00000E+00
    0.00000E+00         0.00000E+00        -0.40767E+08
 
   -0.40625E+08         0.25510E+07         0.00000E+00
    0.25510E+07        -0.50228E+08         0.00000E+00
    0.00000E+00         0.00000E+00        -0.40769E+08
 
   -0.40636E+08         0.26416E+07         0.00000E+00
    0.26416E+07        -0.50233E+08         0.00000E+00
    0.00000E+00         0.00000E+00        -0.40771E+08
 
   -0.40647E+08         0.27334E+07         0.00000E+00
    0.27334E+07        -0.50237E+08         0.00000E+00
    0.00000E+00         0.00000E+00        -0.40774E+08
 
   -0.40658E+08         0.28264E+07         0.00000E+00
    0.28264E+07        -0.50240E+08         0.00000E+00
    0.00000E+00         0.00000E+00        -0.40776E+08
 
   -0.40670E+08         0.29206E+07         0.00000E+00
    0.29206E+07        -0.50243E+08         0.00000E+00
    0.00000E+00         0.00000E+00        -0.40778E+08
 
   -0.40681E+08         0.30161E+07         0.00000E+00
    0.30161E+07        -0.50245E+08         0.00000E+00
    0.00000E+00         0.00000E+00        -0.40780E+08
 
   -0.40692E+08         0.31127E+07         0.00000E+00
    0.31127E+07        -0.50246E+08         0.00000E+00
    0.00000E+00         0.00000E+00        -0.40782E+08
 
   -0.40703E+08         0.32105E+07         0.00000E+00
    0.32105E+07        -0.50247E+08         0.00000E+00
    0.00000E+00         0.00000E+00        -0.40784E+08
 
   -0.40715E+08         0.33095E+07         0.00000E+00
    0.33095E+07        -0.50247E+08         0.00000E+00
    0.00000E+00         0.00000E+00        -0.40786E+08
 
   -0.40726E+08         0.34097E+07         0.00000E+00
    0.34097E+07        -0.50246E+08         0.00000E+00
    0.00000E+00         0.00000E+00        -0.40787E+08
 
   -0.40738E+08         0.35111E+07         0.00000E+00
    0.35111E+07        -0.50244E+08         0.00000E+00
    0.00000E+00         0.00000E+00        -0.40789E+08
 
   -0.40750E+08         0.36137E+07         0.00000E+00
    0.36137E+07        -0.50242E+08         0.00000E+00
    0.00000E+00         0.00000E+00        -0.40791E+08
 
   -0.40763E+08         0.37174E+07         0.00000E+00
    0.37174E+07        -0.50238E+08         0.00000E+00
    0.00000E+00         0.00000E+00        -0.40792E+08
 
   -0.40776E+08         0.38223E+07         0.00000E+00
    0.38223E+07        -0.50234E+08         0.00000E+00
    0.00000E+00         0.00000E+00        -0.40794E+08
 
   -0.40790E+08         0.39284E+07         0.00000E+00
    0.39284E+07        -0.50229E+08         0.00000E+00
    0.00000E+00         0.00000E+00        -0.40796E+08
 
   -0.39297E+08         0.27960E+05         0.00000E+00
    0.27960E+05        -0.49999E+08         0.00000E+00
    0.00000E+00         0.00000E+00        -0.40027E+08
 
   -0.39358E+08         0.84298E+05         0.00000E+00
    0.84298E+05        -0.50000E+08         0.00000E+00
    0.00000E+00         0.00000E+00        -0.40040E+08
 
   -0.39415E+08         0.14092E+06         0.00000E+00
    0.14092E+06        -0.50002E+08         0.00000E+00
    0.00000E+00         0.00000E+00        -0.40051E+08
 
   -0.39470E+08         0.19791E+06         0.00000E+00
    0.19791E+06        -0.50005E+08         0.00000E+00
    0.00000E+00         0.00000E+00        -0.40062E+08
 
   -0.39521E+08         0.25534E+06         0.00000E+00
    0.25534E+06        -0.50009E+08         0.00000E+00
    0.00000E+00         0.00000E+00        -0.40073E+08
 
   -0.39570E+08         0.31328E+06         0.00000E+00
    0.31328E+06        -0.50013E+08         0.00000E+00
    0.00000E+00         0.00000E+00        -0.40083E+08
 
   -0.39616E+08         0.37180E+06         0.00000E+00
    0.37180E+06        -0.50018E+08         0.00000E+00
    0.00000E+00         0.00000E+00        -0.40093E+08
 
   -0.39660E+08         0.43097E+06         0.00000E+00
    0.43097E+06        -0.50024E+08         0.00000E+00
    0.00000E+00         0.00000E+00        -0.40102E+08
 
   -0.39701E+08         0.49084E+06         0.00000E+00
    0.49084E+06        -0.50031E+08         0.00000E+00
    0.00000E+00         0.00000E+00        -0.40111E+08
 
   -0.39739E+08         0.55147E+06         0.00000E+00
    0.55147E+06        -0.50038E+08         0.00000E+00
    0.00000E+00         0.00000E+00        -0.40120E+08
 
   -0.39775E+08         0.61293E+06         0.00000E+00
    0.61293E+06        -0.50046E+08         0.00000E+00
    0.00000E+00         0.00000E+00        -0.40128E+08
 
   -0.39809E+08         0.67526E+06         0.00000E+00
    0.67526E+06        -0.50054E+08         0.00000E+00
    0.00000E+00         0.00000E+00        -0.40135E+08
 
   -0.39841E+08         0.73850E+06         0.00000E+00
    0.73850E+06        -0.50063E+08         0.00000E+00
    0.00000E+00         0.00000E+00        -0.40142E+08
 
   -0.39870E+08         0.80272E+06         0.00000E+00
    0.80272E+06        -0.50073E+08         0.00000E+00
    0.00000E+00         0.00000E+00        -0.40149E+08
 
   -0.39898E+08         0.86794E+06         0.00000E+00
    0.86794E+06        -0.50082E+08         0.00000E+00
    0.00000E+00         0.00000E+00        -0.40156E+08
 
   -0.39923E+08         0.93422E+06         0.00000E+00
    0.93422E+06        -0.50092E+08         0.00000E+00
    0.00000E+00         0.00000E+00        -0.40162E+08
 
   -0.39947E+08         0.10016E+07         0.00000E+00
    0.10016E+07        -0.50103E+08         0.00000E+00
    0.00000E+00         0.00000E+00        -0.40168E+08
 
   -0.39969E+08         0.10701E+07         0.00000E+00
    0.10701E+07        -0.50113E+08         0.00000E+00
    0.00000E+00         0.00000E+00        -0.40173E+08
 
   -0.39990E+08         0.11397E+07         0.00000E+00
    0.11397E+07        -0.50124E+08         0.00000E+00
    0.00000E+00         0.00000E+00        -0.40178E+08
 
   -0.40009E+08         0.12105E+07         0.00000E+00
    0.12105E+07        -0.50135E+08         0.00000E+00
    0.00000E+00         0.00000E+00        -0.40183E+08
 
   -0.40026E+08         0.12826E+07         0.00000E+00
    0.12826E+07        -0.50147E+08         0.00000E+00
    0.00000E+00         0.00000E+00        -0.40188E+08
 
   -0.40042E+08         0.13558E+07         0.00000E+00
    0.13558E+07        -0.50158E+08         0.00000E+00
    0.00000E+00         0.00000E+00        -0.40192E+08
 
   -0.40057E+08         0.14304E+07         0.00000E+00
    0.14304E+07        -0.50169E+08         0.00000E+00
    0.00000E+00         0.00000E+00        -0.40196E+08
 
   -0.40070E+08         0.15062E+07         0.00000E+00
    0.15062E+07        -0.50180E+08         0.00000E+00
    0.00000E+00         0.00000E+00        -0.40200E+08
 
   -0.40083E+08         0.15833E+07         0.00000E+00
    0.15833E+07        -0.50192E+08         0.00000E+00
    0.00000E+00         0.00000E+00        -0.40204E+08
 
   -0.40094E+08         0.16617E+07         0.00000E+00
    0.16617E+07        -0.50203E+08         0.00000E+00
    0.00000E+00         0.00000E+00        -0.40207E+08
 
   -0.40105E+08         0.17414E+07         0.00000E+00
    0.17414E+07        -0.50214E+08         0.00000E+00
    0.00000E+00         0.00000E+00        -0.40210E+08
 
   -0.40114E+08         0.18225E+07         0.00000E+00
    0.18225E+07        -0.50224E+08         0.00000E+00
    0.00000E+00         0.00000E+00        -0.40213E+08
 
   -0.40123E+08         0.19049E+07         0.00000E+00
    0.19049E+07        -0.50235E+08         0.00000E+00
    0.00000E+00         0.00000E+00        -0.40216E+08
 
   -0.40131E+08         0.19887E+07         0.00000E+00
    0.19887E+07        -0.50245E+08         0.00000E+00
    0.00000E+00         0.00000E+00        -0.40219E+08
 
   -0.40138E+08         0.20738E+07         0.00000E+00
    0.20738E+07        -0.50255E+08         0.00000E+00
    0.00000E+00         0.00000E+00        -0.40221E+08
 
   -0.40145E+08         0.21603E+07         0.00000E+00
    0.21603E+07        -0.50265E+08         0.00000E+00
    0.00000E+00         0.00000E+00        -0.40224E+08
 
   -0.40151E+08         0.22482E+07         0.00000E+00
    0.22482E+07        -0.50274E+08         0.00000E+00
    0.00000E+00         0.00000E+00        -0.40226E+08
 
   -0.40157E+08         0.23375E+07         0.00000E+00
    0.23375E+07        -0.50283E+08         0.00000E+00
    0.00000E+00         0.00000E+00        -0.40228E+08
 
   -0.40163E+08         0.24281E+07         0.00000E+00
    0.24281E+07        -0.50292E+08         0.00000E+00
    0.00000E+00         0.00000E+00        -0.40230E+08
 
   -0.40168E+08         0.25201E+07         0.00000E+00
    0.25201E+07        -0.50299E+08         0.00000E+00
    0.00000E+00         0.00000E+00        -0.40231E+08
 
   -0.40173E+08         0.26135E+07         0.00000E+00
    0.26135E+07        -0.50307E+08         0.00000E+00
    0.00000E+00         0.00000E+00        -0.40233E+08
 
   -0.40178E+08         0.27082E+07         0.00000E+00
    0.27082E+07        -0.50314E+08         0.00000E+00
    0.00000E+00         0.00000E+00        -0.40235E+08
 
   -0.40182E+08         0.28043E+07         0.00000E+00
    0.28043E+07        -0.50320E+08         0.00000E+00
    0.00000E+00         0.00000E+00        -0.40236E+08
 
   -0.40187E+08         0.29018E+07         0.00000E+00
    0.29018E+07        -0.50325E+08         0.00000E+00
    0.00000E+00         0.00000E+00        -0.40237E+08
 
   -0.40192E+08         0.30007E+07         0.00000E+00
    0.30007E+07        -0.50330E+08         0.00000E+00
    0.00000E+00         0.00000E+00        -0.40239E+08
 
   -0.40197E+08         0.31008E+07         0.00000E+00
    0.31008E+07        -0.50334E+08         0.00000E+00
    0.00000E+00         0.00000E+00        -0.40240E+08
 
   -0.40202E+08         0.32024E+07         0.00000E+00
    0.32024E+07        -0.50338E+08         0.00000E+00
    0.00000E+00         0.00000E+00        -0.40241E+08
 
   -0.40207E+08         0.33053E+07         0.00000E+00
    0.33053E+07        -0.50340E+08         0.00000E+00
    0.00000E+00         0.00000E+00        -0.40242E+08
 
   -0.40212E+08         0.34095E+07         0.00000E+00
    0.34095E+07        -0.50342E+08         0.00000E+00
    0.00000E+00         0.00000E+00        -0.40243E+08
 
   -0.40218E+08         0.35150E+07         0.00000E+00
    0.35150E+07        -0.50343E+08         0.00000E+00
    0.00000E+00         0.00000E+00        -0.40244E+08
 
   -0.40224E+08         0.36219E+07         0.00000E+00
    0.36219E+07        -0.50344E+08         0.00000E+00
    0.00000E+00         0.00000E+00        -0.40245E+08
 
   -0.40230E+08         0.37300E+07         0.00000E+00
    0.37300E+07        -0.50343E+08         0.00000E+00
    0.00000E+00         0.00000E+00        -0.40246E+08
 
   -0.40237E+08         0.38395E+07         0.00000E+00
    0.38395E+07        -0.50341E+08         0.00000E+00
    0.00000E+00         0.00000E+00        -0.40247E+08
 
   -0.40244E+08         0.39502E+07         0.00000E+00
    0.39502E+07        -0.50339E+08         0.00000E+00
    0.00000E+00         0.00000E+00        -0.40248E+08
 
   -0.39029E+08         0.25103E+05         0.00000E+00
    0.25103E+05        -0.49999E+08         0.00000E+00
    0.00000E+00         0.00000E+00        -0.39493E+08
 
   -0.39088E+08         0.76210E+05         0.00000E+00
    0.76210E+05        -0.50000E+08         0.00000E+00
    0.00000E+00         0.00000E+00        -0.39505E+08
 
   -0.39143E+08         0.12782E+06         0.00000E+00
    0.12782E+06        -0.50003E+08         0.00000E+00
    0.00000E+00         0.00000E+00        -0.39516E+08
 
   -0.39195E+08         0.18001E+06         0.00000E+00
    0.18001E+06        -0.50006E+08         0.00000E+00
    0.00000E+00         0.00000E+00        -0.39527E+08
 
   -0.39244E+08         0.23287E+06         0.00000E+00
    0.23287E+06        -0.50011E+08         0.00000E+00
    0.00000E+00         0.00000E+00        -0.39537E+08
 
   -0.39289E+08         0.28647E+06         0.00000E+00
    0.28647E+06        -0.50016E+08         0.00000E+00
    0.00000E+00         0.00000E+00        -0.39547E+08
 
   -0.39332E+08         0.34089E+06         0.00000E+00
    0.34089E+06        -0.50022E+08         0.00000E+00
    0.00000E+00         0.00000E+00        -0.39556E+08
 
   -0.39371E+08         0.39619E+06         0.00000E+00
    0.39619E+06        -0.50030E+08         0.00000E+00
    0.00000E+00         0.00000E+00        -0.39565E+08
 
   -0.39408E+08         0.45244E+06         0.00000E+00
    0.45244E+06        -0.50038E+08         0.00000E+00
    0.00000E+00         0.00000E+00        -0.39573E+08
 
   -0.39442E+08         0.50969E+06         0.00000E+00
    0.50969E+06        -0.50047E+08         0.00000E+00
    0.00000E+00         0.00000E+00        -0.39581E+08
 
   -0.39473E+08         0.56802E+06         0.00000E+00
    0.56802E+06        -0.50056E+08         0.00000E+00
    0.00000E+00         0.00000E+00        -0.39588E+08
 
   -0.39502E+08         0.62746E+06         0.00000E+00
    0.62746E+06        -0.50066E+08         0.00000E+00
    0.00000E+00         0.00000E+00        -0.39595E+08
 
   -0.39528E+08         0.68807E+06         0.00000E+00
    0.68807E+06        -0.50077E+08         0.00000E+00
    0.00000E+00         0.00000E+00        -0.39601E+08
 
   -0.39552E+08         0.74989E+06         0.00000E+00
    0.74989E+06        -0.50089E+08         0.00000E+00
    0.00000E+00         0.00000E+00        -0.39607E+08
 
   -0.39574E+08         0.81298E+06         0.00000E+00
    0.81298E+06        -0.50101E+08         0.00000E+00
    0.00000E+00         0.00000E+00        -0.39613E+08
 
   -0.39594E+08         0.87736E+06         0.00000E+00
    0.87736E+06        -0.50113E+08         0.00000E+00
    0.00000E+00         0.00000E+00        -0.39619E+08
 
   -0.39611E+08         0.94308E+06         0.00000E+00
    0.94308E+06        -0.50126E+08         0.00000E+00
    0.00000E+00         0.00000E+00        -0.39624E+08
 
   -0.39627E+08         0.10102E+07         0.00000E+00
    0.10102E+07        -0.50139E+08         0.00000E+00
    0.00000E+00         0.00000E+00        -0.39628E+08
 
   -0.39641E+08         0.10787E+07         0.00000E+00
    0.10787E+07        -0.50152E+08         0.00000E+00
    0.00000E+00         0.00000E+00        -0.39633E+08
 
   -0.39653E+08         0.11486E+07         0.00000E+00
    0.11486E+07        -0.50166E+08         0.00000E+00
    0.00000E+00         0.00000E+00        -0.39637E+08
 
   -0.39664E+08         0.12199E+07         0.00000E+00
    0.12199E+07        -0.50180E+08         0.00000E+00
    0.00000E+00         0.00000E+00        -0.39641E+08
 
   -0.39673E+08         0.12928E+07         0.00000E+00
    0.12928E+07        -0.50194E+08         0.00000E+00
    0.00000E+00         0.00000E+00        -0.39644E+08
 
   -0.39681E+08         0.13671E+07         0.00000E+00
    0.13671E+07        -0.50208E+08         0.00000E+00
    0.00000E+00         0.00000E+00        -0.39647E+08
 
   -0.39688E+08         0.14430E+07         0.00000E+00
    0.14430E+07        -0.50222E+08         0.00000E+00
    0.00000E+00         0.00000E+00        -0.39650E+08
 
   -0.39693E+08         0.15203E+07         0.00000E+00
    0.15203E+07        -0.50236E+08         0.00000E+00
    0.00000E+00         0.00000E+00        -0.39653E+08
 
   -0.39697E+08         0.15993E+07         0.00000E+00
    0.15993E+07        -0.50250E+08         0.00000E+00
    0.00000E+00         0.00000E+00        -0.39656E+08
 
   -0.39700E+08         0.16797E+07         0.00000E+00
    0.16797E+07        -0.50264E+08         0.00000E+00
    0.00000E+00         0.00000E+00        -0.39658E+08
 
   -0.39703E+08         0.17617E+07         0.00000E+00
    0.17617E+07        -0.50278E+08         0.00000E+00
    0.00000E+00         0.00000E+00        -0.39660E+08
 
   -0.39704E+08         0.18453E+07         0.00000E+00
    0.18453E+07        -0.50291E+08         0.00000E+00
    0.00000E+00         0.00000E+00        -0.39662E+08
 
   -0.39705E+08         0.19305E+07         0.00000E+00
    0.19305E+07        -0.50305E+08         0.00000E+00
    0.00000E+00         0.00000E+00        -0.39664E+08
 
   -0.39705E+08         0.20172E+07         0.00000E+00
    0.20172E+07        -0.50318E+08         0.00000E+00
    0.00000E+00         0.00000E+00        -0.39665E+08
 
   -0.39704E+08         0.21055E+07         0.00000E+00
    0.21055E+07        -0.50330E+08         0.00000E+00
    0.00000E+00         0.00000E+00        -0.39667E+08
 
   -0.39703E+08         0.21954E+07         0.00000E+00
    0.21954E+07        -0.50343E+08         0.00000E+00
    0.00000E+00         0.00000E+00        -0.39668E+08
 
   -0.39702E+08         0.22869E+07         0.00000E+00
    0.22869E+07        -0.50355E+08         0.00000E+00
    0.00000E+00         0.00000E+00        -0.39669E+08
 
   -0.39700E+08         0.23799E+07         0.00000E+00
    0.23799E+07        -0.50366E+08         0.00000E+00
    0.00000E+00         0.00000E+00        -0.39670E+08
 
   -0.39698E+08         0.24744E+07         0.00000E+00
    0.24744E+07        -0.50377E+08         0.00000E+00
    0.00000E+00         0.00000E+00        -0.39671E+08
 
   -0.39695E+08         0.25706E+07         0.00000E+00
    0.25706E+07        -0.50388E+08         0.00000E+00
    0.00000E+00         0.00000E+00        -0.39672E+08
 
   -0.39693E+08         0.26683E+07         0.00000E+00
    0.26683E+07        -0.50397E+08         0.00000E+00
    0.00000E+00         0.00000E+00        -0.39672E+08
 
   -0.39690E+08         0.27675E+07         0.00000E+00
    0.27675E+07        -0.50407E+08         0.00000E+00
    0.00000E+00         0.00000E+00        -0.39673E+08
 
   -0.39688E+08         0.28683E+07         0.00000E+00
    0.28683E+07        -0.50415E+08         0.00000E+00
    0.00000E+00         0.00000E+00        -0.39673E+08
 
   -0.39685E+08         0.29706E+07         0.00000E+00
    0.29706E+07        -0.50423E+08         0.00000E+00
    0.00000E+00         0.00000E+00        -0.39674E+08
 
   -0.39683E+08         0.30744E+07         0.00000E+00
    0.30744E+07        -0.50430E+08         0.00000E+00
    0.00000E+00         0.00000E+00        -0.39674E+08
 
   -0.39681E+08         0.31797E+07         0.00000E+00
    0.31797E+07        -0.50437E+08         0.00000E+00
    0.00000E+00         0.00000E+00        -0.39675E+08
 
   -0.39679E+08         0.32865E+07         0.00000E+00
    0.32865E+07        -0.50443E+08         0.00000E+00
    0.00000E+00         0.00000E+00        -0.39675E+08
 
   -0.39677E+08         0.33947E+07         0.00000E+00
    0.33947E+07        -0.50448E+08         0.00000E+00
    0.00000E+00         0.00000E+00        -0.39675E+08
 
   -0.39676E+08         0.35045E+07         0.00000E+00
    0.35045E+07        -0.50452E+08         0.00000E+00
    0.00000E+00         0.00000E+00        -0.39675E+08
 
   -0.39675E+08         0.36157E+07         0.00000E+00
    0.36157E+07        -0.50455E+08         0.00000E+00
    0.00000E+00         0.00000E+00        -0.39675E+08
 
   -0.39675E+08         0.37283E+07         0.00000E+00
    0.37283E+07        -0.50457E+08         0.00000E+00
    0.00000E+00         0.00000E+00        -0.39676E+08
 
   -0.39675E+08         0.38424E+07         0.00000E+00
    0.38424E+07        -0.50459E+08         0.00000E+00
    0.00000E+00         0.00000E+00        -0.39676E+08
 
   -0.39676E+08         0.39578E+07         0.00000E+00
    0.39578E+07        -0.50459E+08         0.00000E+00
    0.00000E+00         0.00000E+00        -0.39676E+08
 
   -0.38790E+08         0.21639E+05         0.00000E+00
    0.21639E+05        -0.49999E+08         0.00000E+00
    0.00000E+00         0.00000E+00        -0.38942E+08
 
   -0.38846E+08         0.66419E+05         0.00000E+00
    0.66419E+05        -0.50000E+08         0.00000E+00
    0.00000E+00         0.00000E+00        -0.38953E+08
 
   -0.38898E+08         0.11197E+06         0.00000E+00
    0.11197E+06        -0.50003E+08         0.00000E+00
    0.00000E+00         0.00000E+00        -0.38964E+08
 
   -0.38946E+08         0.15837E+06         0.00000E+00
    0.15837E+06        -0.50007E+08         0.00000E+00
    0.00000E+00         0.00000E+00        -0.38974E+08
 
   -0.38991E+08         0.20572E+06         0.00000E+00
    0.20572E+06        -0.50013E+08         0.00000E+00
    0.00000E+00         0.00000E+00        -0.38984E+08
 
   -0.39032E+08         0.25408E+06         0.00000E+00
    0.25408E+06        -0.50019E+08         0.00000E+00
    0.00000E+00         0.00000E+00        -0.38993E+08
 
   -0.39069E+08         0.30355E+06         0.00000E+00
    0.30355E+06        -0.50027E+08         0.00000E+00
    0.00000E+00         0.00000E+00        -0.39001E+08
 
   -0.39104E+08         0.35418E+06         0.00000E+00
    0.35418E+06        -0.50036E+08         0.00000E+00
    0.00000E+00         0.00000E+00        -0.39009E+08
 
   -0.39135E+08         0.40605E+06         0.00000E+00
    0.40605E+06        -0.50045E+08         0.00000E+00
    0.00000E+00         0.00000E+00        -0.39017E+08
 
   -0.39163E+08         0.45922E+06         0.00000E+00
    0.45922E+06        -0.50056E+08         0.00000E+00
    0.00000E+00         0.00000E+00        -0.39023E+08
 
   -0.39188E+08         0.51374E+06         0.00000E+00
    0.51374E+06        -0.50067E+08         0.00000E+00
    0.00000E+00         0.00000E+00        -0.39030E+08
 
   -0.39210E+08         0.56967E+06         0.00000E+00
    0.56967E+06        -0.50080E+08         0.00000E+00
    0.00000E+00         0.00000E+00        -0.39036E+08
 
   -0.39230E+08         0.62705E+06         0.00000E+00
    0.62705E+06        -0.50093E+08         0.00000E+00
    0.00000E+00         0.00000E+00        -0.39042E+08
 
   -0.39247E+08         0.68594E+06         0.00000E+00
    0.68594E+06        -0.50106E+08         0.00000E+00
    0.00000E+00         0.00000E+00        -0.39047E+08
 
   -0.39261E+08         0.74638E+06         0.00000E+00
    0.74638E+06        -0.50121E+08         0.00000E+00
    0.00000E+00         0.00000E+00        -0.39051E+08
 
   -0.39274E+08         0.80840E+06         0.00000E+00
    0.80840E+06        -0.50136E+08         0.00000E+00
    0.00000E+00         0.00000E+00        -0.39056E+08
 
   -0.39284E+08         0.87203E+06         0.00000E+00
    0.87203E+06        -0.50151E+08         0.00000E+00
    0.00000E+00         0.00000E+00        -0.39060E+08
 
   -0.39292E+08         0.93732E+06         0.00000E+00
    0.93732E+06        -0.50167E+08         0.00000E+00
    0.00000E+00         0.00000E+00        -0.39064E+08
 
   -0.39298E+08         0.10043E+07         0.00000E+00
    0.10043E+07        -0.50183E+08         0.00000E+00
    0.00000E+00         0.00000E+00        -0.39067E+08
 
   -0.39303E+08         0.10729E+07         0.00000E+00
    0.10729E+07        -0.50199E+08         0.00000E+00
    0.00000E+00         0.00000E+00        -0.39070E+08
 
   -0.39306E+08         0.11433E+07         0.00000E+00
    0.11433E+07        -0.50216E+08         0.00000E+00
    0.00000E+00         0.00000E+00        -0.39073E+08
 
   -0.39307E+08         0.12155E+07         0.00000E+00
    0.12155E+07        -0.50233E+08         0.00000E+00
    0.00000E+00         0.00000E+00        -0.39075E+08
 
   -0.39306E+08         0.12894E+07         0.00000E+00
    0.12894E+07        -0.50250E+08         0.00000E+00
    0.00000E+00         0.00000E+00        -0.39077E+08
 
   -0.39305E+08         0.13650E+07         0.00000E+00
    0.13650E+07        -0.50267E+08         0.00000E+00
    0.00000E+00         0.00000E+00        -0.39079E+08
 
   -0.39302E+08         0.14425E+07         0.00000E+00
    0.14425E+07        -0.50284E+08         0.00000E+00
    0.00000E+00         0.00000E+00        -0.39081E+08
 
   -0.39298E+08         0.15217E+07         0.00000E+00
    0.15217E+07        -0.50301E+08         0.00000E+00
    0.00000E+00         0.00000E+00        -0.39083E+08
 
   -0.39292E+08         0.16027E+07         0.00000E+00
    0.16027E+07        -0.50318E+08         0.00000E+00
    0.00000E+00         0.00000E+00        -0.39084E+08
 
   -0.39286E+08         0.16856E+07         0.00000E+00
    0.16856E+07        -0.50335E+08         0.00000E+00
    0.00000E+00         0.00000E+00        -0.39085E+08
 
   -0.39279E+08         0.17702E+07         0.00000E+00
    0.17702E+07        -0.50352E+08         0.00000E+00
    0.00000E+00         0.00000E+00        -0.39086E+08
 
   -0.39272E+08         0.18566E+07         0.00000E+00
    0.18566E+07        -0.50369E+08         0.00000E+00
    0.00000E+00         0.00000E+00        -0.39086E+08
 
   -0.39263E+08         0.19449E+07         0.00000E+00
    0.19449E+07        -0.50385E+08         0.00000E+00
    0.00000E+00         0.00000E+00        -0.39087E+08
 
   -0.39254E+08         0.20349E+07         0.00000E+00
    0.20349E+07        -0.50401E+08         0.00000E+00
    0.00000E+00         0.00000E+00        -0.39087E+08
 
   -0.39245E+08         0.21267E+07         0.00000E+00
    0.21267E+07        -0.50417E+08         0.00000E+00
    0.00000E+00         0.00000E+00        -0.39088E+08
 
   -0.39235E+08         0.22203E+07         0.00000E+00
    0.22203E+07        -0.50432E+08         0.00000E+00
    0.00000E+00         0.00000E+00        -0.39088E+08
 
   -0.39225E+08         0.23157E+07         0.00000E+00
    0.23157E+07        -0.50447E+08         0.00000E+00
    0.00000E+00         0.00000E+00        -0.39088E+08
 
   -0.39214E+08         0.24128E+07         0.00000E+00
    0.24128E+07        -0.50461E+08         0.00000E+00
    0.00000E+00         0.00000E+00        -0.39087E+08
 
   -0.39204E+08         0.25117E+07         0.00000E+00
    0.25117E+07        -0.50475E+08         0.00000E+00
    0.00000E+00         0.00000E+00        -0.39087E+08
 
   -0.39193E+08         0.26124E+07         0.00000E+00
    0.26124E+07        -0.50488E+08         0.00000E+00
    0.00000E+00         0.00000E+00        -0.39087E+08
 
   -0.39182E+08         0.27147E+07         0.00000E+00
    0.27147E+07        -0.50500E+08         0.00000E+00
    0.00000E+00         0.00000E+00        -0.39087E+08
 
   -0.39172E+08         0.28188E+07         0.00000E+00
    0.28188E+07        -0.50512E+08         0.00000E+00
    0.00000E+00         0.00000E+00        -0.39086E+08
 
   -0.39161E+08         0.29246E+07         0.00000E+00
    0.29246E+07        -0.50523E+08         0.00000E+00
    0.00000E+00         0.00000E+00        -0.39086E+08
 
   -0.39151E+08         0.30320E+07         0.00000E+00
    0.30320E+07        -0.50534E+08         0.00000E+00
    0.00000E+00         0.00000E+00        -0.39085E+08
 
   -0.39141E+08         0.31411E+07         0.00000E+00
    0.31411E+07        -0.50544E+08         0.00000E+00
    0.00000E+00         0.00000E+00        -0.39084E+08
 
   -0.39131E+08         0.32519E+07         0.00000E+00
    0.32519E+07        -0.50553E+08         0.00000E+00
    0.00000E+00         0.00000E+00        -0.39084E+08
 
   -0.39122E+08         0.33642E+07         0.00000E+00
    0.33642E+07        -0.50561E+08         0.00000E+00
    0.00000E+00         0.00000E+00        -0.39083E+08
 
   -0.39113E+08         0.34782E+07         0.00000E+00
    0.34782E+07        -0.50568E+08         0.00000E+00
    0.00000E+00         0.00000E+00        -0.39083E+08
 
   -0.39105E+08         0.35938E+07         0.00000E+00
    0.35938E+07        -0.50575E+08         0.00000E+00
    0.00000E+00         0.00000E+00        -0.39082E+08
 
   -0.39097E+08         0.37110E+07         0.00000E+00
    0.37110E+07        -0.50580E+08         0.00000E+00
    0.00000E+00         0.00000E+00        -0.39081E+08
 
   -0.39089E+08         0.38297E+07         0.00000E+00
    0.38297E+07        -0.50585E+08         0.00000E+00
    0.00000E+00         0.00000E+00        -0.39080E+08
 
   -0.39083E+08         0.39499E+07         0.00000E+00
    0.39499E+07        -0.50589E+08         0.00000E+00
    0.00000E+00         0.00000E+00        -0.39080E+08
 
   -0.38587E+08         0.17499E+05         0.00000E+00
    0.17499E+05        -0.49999E+08         0.00000E+00
    0.00000E+00         0.00000E+00        -0.38376E+08
 
   -0.38638E+08         0.54751E+05         0.00000E+00
    0.54751E+05        -0.50001E+08         0.00000E+00
    0.00000E+00         0.00000E+00        -0.38387E+08
 
   -0.38685E+08         0.93095E+05         0.00000E+00
    0.93095E+05        -0.50004E+08         0.00000E+00
    0.00000E+00         0.00000E+00        -0.38397E+08
 
   -0.38728E+08         0.13263E+06         0.00000E+00
    0.13263E+06        -0.50009E+08         0.00000E+00
    0.00000E+00         0.00000E+00        -0.38406E+08
 
   -0.38767E+08         0.17344E+06         0.00000E+00
    0.17344E+06        -0.50015E+08         0.00000E+00
    0.00000E+00         0.00000E+00        -0.38414E+08
 
   -0.38802E+08         0.21561E+06         0.00000E+00
    0.21561E+06        -0.50023E+08         0.00000E+00
    0.00000E+00         0.00000E+00        -0.38423E+08
 
   -0.38833E+08         0.25921E+06         0.00000E+00
    0.25921E+06        -0.50032E+08         0.00000E+00
    0.00000E+00         0.00000E+00        -0.38430E+08
 
   -0.38860E+08         0.30432E+06         0.00000E+00
    0.30432E+06        -0.50042E+08         0.00000E+00
    0.00000E+00         0.00000E+00        -0.38437E+08
 
   -0.38884E+08         0.35101E+06         0.00000E+00
    0.35101E+06        -0.50054E+08         0.00000E+00
    0.00000E+00         0.00000E+00        -0.38443E+08
 
   -0.38905E+08         0.39933E+06         0.00000E+00
    0.39933E+06        -0.50066E+08         0.00000E+00
    0.00000E+00         0.00000E+00        -0.38449E+08
 
   -0.38922E+08         0.44935E+06         0.00000E+00
    0.44935E+06        -0.50080E+08         0.00000E+00
    0.00000E+00         0.00000E+00        -0.38454E+08
 
   -0.38937E+08         0.50111E+06         0.00000E+00
    0.50111E+06        -0.50094E+08         0.00000E+00
    0.00000E+00         0.00000E+00        -0.38459E+08
 
   -0.38948E+08         0.55466E+06         0.00000E+00
    0.55466E+06        -0.50109E+08         0.00000E+00
    0.00000E+00         0.00000E+00        -0.38464E+08
 
   -0.38957E+08         0.61004E+06         0.00000E+00
    0.61004E+06        -0.50125E+08         0.00000E+00
    0.00000E+00         0.00000E+00        -0.38468E+08
 
   -0.38963E+08         0.66730E+06         0.00000E+00
    0.66730E+06        -0.50142E+08         0.00000E+00
    0.00000E+00         0.00000E+00        -0.38471E+08
 
   -0.38966E+08         0.72647E+06         0.00000E+00
    0.72647E+06        -0.50160E+08         0.00000E+00
    0.00000E+00         0.00000E+00        -0.38474E+08
 
   -0.38968E+08         0.78757E+06         0.00000E+00
    0.78757E+06        -0.50178E+08         0.00000E+00
    0.00000E+00         0.00000E+00        -0.38477E+08
 
   -0.38967E+08         0.85064E+06         0.00000E+00
    0.85064E+06        -0.50196E+08         0.00000E+00
    0.00000E+00         0.00000E+00        -0.38480E+08
 
   -0.38964E+08         0.91569E+06         0.00000E+00
    0.91569E+06        -0.50215E+08         0.00000E+00
    0.00000E+00         0.00000E+00        -0.38482E+08
 
   -0.38959E+08         0.98275E+06         0.00000E+00
    0.98275E+06        -0.50235E+08         0.00000E+00
    0.00000E+00         0.00000E+00        -0.38483E+08
 
   -0.38952E+08         0.10518E+07         0.00000E+00
    0.10518E+07        -0.50254E+08         0.00000E+00
    0.00000E+00         0.00000E+00        -0.38485E+08
 
   -0.38944E+08         0.11230E+07         0.00000E+00
    0.11230E+07        -0.50274E+08         0.00000E+00
    0.00000E+00         0.00000E+00        -0.38486E+08
 
   -0.38934E+08         0.11961E+07         0.00000E+00
    0.11961E+07        -0.50295E+08         0.00000E+00
    0.00000E+00         0.00000E+00        -0.38487E+08
 
   -0.38923E+08         0.12714E+07         0.00000E+00
    0.12714E+07        -0.50315E+08         0.00000E+00
    0.00000E+00         0.00000E+00        -0.38488E+08
 
   -0.38910E+08         0.13487E+07         0.00000E+00
    0.13487E+07        -0.50335E+08         0.00000E+00
    0.00000E+00         0.00000E+00        -0.38488E+08
 
   -0.38896E+08         0.14280E+07         0.00000E+00
    0.14280E+07        -0.50356E+08         0.00000E+00
    0.00000E+00         0.00000E+00        -0.38488E+08
 
   -0.38881E+08         0.15095E+07         0.00000E+00
    0.15095E+07        -0.50376E+08         0.00000E+00
    0.00000E+00         0.00000E+00        -0.38488E+08
 
   -0.38866E+08         0.15929E+07         0.00000E+00
    0.15929E+07        -0.50396E+08         0.00000E+00
    0.00000E+00         0.00000E+00        -0.38488E+08
 
   -0.38849E+08         0.16785E+07         0.00000E+00
    0.16785E+07        -0.50417E+08         0.00000E+00
    0.00000E+00         0.00000E+00        -0.38488E+08
 
   -0.38832E+08         0.17661E+07         0.00000E+00
    0.17661E+07        -0.50437E+08         0.00000E+00
    0.00000E+00         0.00000E+00        -0.38487E+08
 
   -0.38814E+08         0.18557E+07         0.00000E+00
    0.18557E+07        -0.50456E+08         0.00000E+00
    0.00000E+00         0.00000E+00        -0.38487E+08
 
   -0.38795E+08         0.19474E+07         0.00000E+00
    0.19474E+07        -0.50476E+08         0.00000E+00
    0.00000E+00         0.00000E+00        -0.38486E+08
 
   -0.38776E+08         0.20411E+07         0.00000E+00
    0.20411E+07        -0.50495E+08         0.00000E+00
    0.00000E+00         0.00000E+00        -0.38485E+08
 
   -0.38757E+08         0.21368E+07         0.00000E+00
    0.21368E+07        -0.50513E+08         0.00000E+00
    0.00000E+00         0.00000E+00        -0.38484E+08
 
   -0.38737E+08         0.22345E+07         0.00000E+00
    0.22345E+07        -0.50532E+08         0.00000E+00
    0.00000E+00         0.00000E+00        -0.38483E+08
 
   -0.38718E+08         0.23342E+07         0.00000E+00
    0.23342E+07        -0.50549E+08         0.00000E+00
    0.00000E+00         0.00000E+00        -0.38481E+08
 
   -0.38698E+08         0.24358E+07         0.00000E+00
    0.24358E+07        -0.50567E+08         0.00000E+00
    0.00000E+00         0.00000E+00        -0.38480E+08
 
   -0.38678E+08         0.25394E+07         0.00000E+00
    0.25394E+07        -0.50583E+08         0.00000E+00
    0.00000E+00         0.00000E+00        -0.38478E+08
 
   -0.38658E+08         0.26449E+07         0.00000E+00
    0.26449E+07        -0.50599E+08         0.00000E+00
    0.00000E+00         0.00000E+00        -0.38477E+08
 
   -0.38639E+08         0.27523E+07         0.00000E+00
    0.27523E+07        -0.50615E+08         0.00000E+00
    0.00000E+00         0.00000E+00        -0.38475E+08
 
   -0.38619E+08         0.28616E+07         0.00000E+00
    0.28616E+07        -0.50630E+08         0.00000E+00
    0.00000E+00         0.00000E+00        -0.38474E+08
 
   -0.38600E+08         0.29727E+07         0.00000E+00
    0.29727E+07        -0.50644E+08         0.00000E+00
    0.00000E+00         0.00000E+00        -0.38472E+08
 
   -0.38582E+08         0.30856E+07         0.00000E+00
    0.30856E+07        -0.50657E+08         0.00000E+00
    0.00000E+00         0.00000E+00        -0.38471E+08
 
   -0.38563E+08         0.32004E+07         0.00000E+00
    0.32004E+07        -0.50669E+08         0.00000E+00
    0.00000E+00         0.00000E+00        -0.38469E+08
 
   -0.38546E+08         0.33169E+07         0.00000E+00
    0.33169E+07        -0.50681E+08         0.00000E+00
    0.00000E+00         0.00000E+00        -0.38467E+08
 
   -0.38528E+08         0.34352E+07         0.00000E+00
    0.34352E+07        -0.50692E+08         0.00000E+00
    0.00000E+00         0.00000E+00        -0.38466E+08
 
   -0.38512E+08         0.35552E+07         0.00000E+00
    0.35552E+07        -0.50702E+08         0.00000E+00
    0.00000E+00         0.00000E+00        -0.38464E+08
 
   -0.38496E+08         0.36769E+07         0.00000E+00
    0.36769E+07        -0.50711E+08         0.00000E+00
    0.00000E+00         0.00000E+00        -0.38462E+08
 
   -0.38480E+08         0.38002E+07         0.00000E+00
    0.38002E+07        -0.50719E+08         0.00000E+00
    0.00000E+00         0.00000E+00        -0.38461E+08
 
   -0.38466E+08         0.39252E+07         0.00000E+00
    0.39252E+07        -0.50726E+08         0.00000E+00
    0.00000E+00         0.00000E+00        -0.38459E+08
 
   -0.38425E+08         0.12620E+05         0.00000E+00
    0.12620E+05        -0.49999E+08         0.00000E+00
    0.00000E+00         0.00000E+00        -0.37797E+08
 
   -0.38470E+08         0.41043E+05         0.00000E+00
    0.41043E+05        -0.50001E+08         0.00000E+00
    0.00000E+00         0.00000E+00        -0.37807E+08
 
   -0.38511E+08         0.70960E+05         0.00000E+00
    0.70960E+05        -0.50005E+08         0.00000E+00
    0.00000E+00         0.00000E+00        -0.37815E+08
 
   -0.38547E+08         0.10247E+06         0.00000E+00
    0.10247E+06        -0.50011E+08         0.00000E+00
    0.00000E+00         0.00000E+00        -0.37823E+08
 
   -0.38578E+08         0.13566E+06         0.00000E+00
    0.13566E+06        -0.50018E+08         0.00000E+00
    0.00000E+00         0.00000E+00        -0.37831E+08
 
   -0.38605E+08         0.17061E+06         0.00000E+00
    0.17061E+06        -0.50027E+08         0.00000E+00
    0.00000E+00         0.00000E+00        -0.37837E+08
 
   -0.38627E+08         0.20740E+06         0.00000E+00
    0.20740E+06        -0.50037E+08         0.00000E+00
    0.00000E+00         0.00000E+00        -0.37843E+08
 
   -0.38646E+08         0.24610E+06         0.00000E+00
    0.24610E+06        -0.50049E+08         0.00000E+00
    0.00000E+00         0.00000E+00        -0.37849E+08
 
   -0.38661E+08         0.28677E+06         0.00000E+00
    0.28677E+06        -0.50062E+08         0.00000E+00
    0.00000E+00         0.00000E+00        -0.37854E+08
 
   -0.38672E+08         0.32948E+06         0.00000E+00
    0.32948E+06        -0.50077E+08         0.00000E+00
    0.00000E+00         0.00000E+00        -0.37858E+08
 
   -0.38680E+08         0.37426E+06         0.00000E+00
    0.37426E+06        -0.50092E+08         0.00000E+00
    0.00000E+00         0.00000E+00        -0.37862E+08
 
   -0.38685E+08         0.42118E+06         0.00000E+00
    0.42118E+06        -0.50109E+08         0.00000E+00
    0.00000E+00         0.00000E+00        -0.37865E+08
 
   -0.38686E+08         0.47027E+06         0.00000E+00
    0.47027E+06        -0.50127E+08         0.00000E+00
    0.00000E+00         0.00000E+00        -0.37868E+08
 
   -0.38685E+08         0.52158E+06         0.00000E+00
    0.52158E+06        -0.50145E+08         0.00000E+00
    0.00000E+00         0.00000E+00        -0.37871E+08
 
   -0.38680E+08         0.57513E+06         0.00000E+00
    0.57513E+06        -0.50165E+08         0.00000E+00
    0.00000E+00         0.00000E+00        -0.37873E+08
 
   -0.38673E+08         0.63094E+06         0.00000E+00
    0.63094E+06        -0.50185E+08         0.00000E+00
    0.00000E+00         0.00000E+00        -0.37874E+08
 
   -0.38664E+08         0.68906E+06         0.00000E+00
    0.68906E+06        -0.50206E+08         0.00000E+00
    0.00000E+00         0.00000E+00        -0.37876E+08
 
   -0.38652E+08         0.74949E+06         0.00000E+00
    0.74949E+06        -0.50227E+08         0.00000E+00
    0.00000E+00         0.00000E+00        -0.37877E+08
 
   -0.38639E+08         0.81226E+06         0.00000E+00
    0.81226E+06        -0.50249E+08         0.00000E+00
    0.00000E+00         0.00000E+00        -0.37877E+08
 
   -0.38623E+08         0.87737E+06         0.00000E+00
    0.87737E+06        -0.50272E+08         0.00000E+00
    0.00000E+00         0.00000E+00        -0.37877E+08
 
   -0.38605E+08         0.94483E+06         0.00000E+00
    0.94483E+06        -0.50295E+08         0.00000E+00
    0.00000E+00         0.00000E+00        -0.37877E+08
 
   -0.38586E+08         0.10147E+07         0.00000E+00
    0.10147E+07        -0.50318E+08         0.00000E+00
    0.00000E+00         0.00000E+00        -0.37877E+08
 
   -0.38565E+08         0.10869E+07         0.00000E+00
    0.10869E+07        -0.50341E+08         0.00000E+00
    0.00000E+00         0.00000E+00        -0.37876E+08
 
   -0.38543E+08         0.11614E+07         0.00000E+00
    0.11614E+07        -0.50365E+08         0.00000E+00
    0.00000E+00         0.00000E+00        -0.37876E+08
 
   -0.38519E+08         0.12383E+07         0.00000E+00
    0.12383E+07        -0.50388E+08         0.00000E+00
    0.00000E+00         0.00000E+00        -0.37875E+08
 
   -0.38494E+08         0.13176E+07         0.00000E+00
    0.13176E+07        -0.50412E+08         0.00000E+00
    0.00000E+00         0.00000E+00        -0.37873E+08
 
   -0.38468E+08         0.13993E+07         0.00000E+00
    0.13993E+07        -0.50436E+08         0.00000E+00
    0.00000E+00         0.00000E+00        -0.37872E+08
 
   -0.38442E+08         0.14833E+07         0.00000E+00
    0.14833E+07        -0.50460E+08         0.00000E+00
    0.00000E+00         0.00000E+00        -0.37870E+08
 
   -0.38414E+08         0.15696E+07         0.00000E+00
    0.15696E+07        -0.50483E+08         0.00000E+00
    0.00000E+00         0.00000E+00        -0.37868E+08
 
   -0.38386E+08         0.16582E+07         0.00000E+00
    0.16582E+07        -0.50507E+08         0.00000E+00
    0.00000E+00         0.00000E+00        -0.37866E+08
 
   -0.38357E+08         0.17491E+07         0.00000E+00
    0.17491E+07        -0.50530E+08         0.00000E+00
    0.00000E+00         0.00000E+00        -0.37864E+08
 
   -0.38328E+08         0.18424E+07         0.00000E+00
    0.18424E+07        -0.50553E+08         0.00000E+00
    0.00000E+00         0.00000E+00        -0.37862E+08
 
   -0.38298E+08         0.19379E+07         0.00000E+00
    0.19379E+07        -0.50576E+08         0.00000E+00
    0.00000E+00         0.00000E+00        -0.37860E+08
 
   -0.38268E+08         0.20356E+07         0.00000E+00
    0.20356E+07        -0.50598E+08         0.00000E+00
    0.00000E+00         0.00000E+00        -0.37857E+08
 
   -0.38238E+08         0.21356E+07         0.00000E+00
    0.21356E+07        -0.50620E+08         0.00000E+00
    0.00000E+00         0.00000E+00        -0.37855E+08
 
   -0.38208E+08         0.22377E+07         0.00000E+00
    0.22377E+07        -0.50641E+08         0.00000E+00
    0.00000E+00         0.00000E+00        -0.37852E+08
 
   -0.38178E+08         0.23421E+07         0.00000E+00
    0.23421E+07        -0.50662E+08         0.00000E+00
    0.00000E+00         0.00000E+00        -0.37850E+08
 
   -0.38148E+08         0.24486E+07         0.00000E+00
    0.24486E+07        -0.50683E+08         0.00000E+00
    0.00000E+00         0.00000E+00        -0.37847E+08
 
   -0.38118E+08         0.25572E+07         0.00000E+00
    0.25572E+07        -0.50702E+08         0.00000E+00
    0.00000E+00         0.00000E+00        -0.37844E+08
 
   -0.38089E+08         0.26679E+07         0.00000E+00
    0.26679E+07        -0.50721E+08         0.00000E+00
    0.00000E+00         0.00000E+00        -0.37841E+08
 
   -0.38060E+08         0.27806E+07         0.00000E+00
    0.27806E+07        -0.50740E+08         0.00000E+00
    0.00000E+00         0.00000E+00        -0.37839E+08
 
   -0.38031E+08         0.28954E+07         0.00000E+00
    0.28954E+07        -0.50757E+08         0.00000E+00
    0.00000E+00         0.00000E+00        -0.37836E+08
 
   -0.38003E+08         0.30122E+07         0.00000E+00
    0.30122E+07        -0.50774E+08         0.00000E+00
    0.00000E+00         0.00000E+00        -0.37833E+08
 
   -0.37975E+08         0.31310E+07         0.00000E+00
    0.31310E+07        -0.50791E+08         0.00000E+00
    0.00000E+00         0.00000E+00        -0.37830E+08
 
   -0.37948E+08         0.32516E+07         0.00000E+00
    0.32516E+07        -0.50806E+08         0.00000E+00
    0.00000E+00         0.00000E+00        -0.37828E+08
 
   -0.37922E+08         0.33742E+07         0.00000E+00
    0.33742E+07        -0.50820E+08         0.00000E+00
    0.00000E+00         0.00000E+00        -0.37825E+08
 
   -0.37896E+08         0.34987E+07         0.00000E+00
    0.34987E+07        -0.50834E+08         0.00000E+00
    0.00000E+00         0.00000E+00        -0.37822E+08
 
   -0.37872E+08         0.36249E+07         0.00000E+00
    0.36249E+07        -0.50847E+08         0.00000E+00
    0.00000E+00         0.00000E+00        -0.37820E+08
 
   -0.37848E+08         0.37529E+07         0.00000E+00
    0.37529E+07        -0.50858E+08         0.00000E+00
    0.00000E+00         0.00000E+00        -0.37817E+08
 
   -0.37825E+08         0.38827E+07         0.00000E+00
    0.38827E+07        -0.50869E+08         0.00000E+00
    0.00000E+00         0.00000E+00        -0.37815E+08
 
   -0.38312E+08         0.69462E+04         0.00000E+00
    0.69462E+04        -0.49999E+08         0.00000E+00
    0.00000E+00         0.00000E+00        -0.37207E+08
 
   -0.38349E+08         0.25165E+05         0.00000E+00
    0.25165E+05        -0.50001E+08         0.00000E+00
    0.00000E+00         0.00000E+00        -0.37215E+08
 
   -0.38381E+08         0.45368E+05         0.00000E+00
    0.45368E+05        -0.50006E+08         0.00000E+00
    0.00000E+00         0.00000E+00        -0.37222E+08
 
   -0.38407E+08         0.67649E+05         0.00000E+00
    0.67649E+05        -0.50012E+08         0.00000E+00
    0.00000E+00         0.00000E+00        -0.37228E+08
 
   -0.38428E+08         0.92096E+05         0.00000E+00
    0.92096E+05        -0.50021E+08         0.00000E+00
    0.00000E+00         0.00000E+00        -0.37234E+08
 
   -0.38445E+08         0.11879E+06         0.00000E+00
    0.11879E+06        -0.50031E+08         0.00000E+00
    0.00000E+00         0.00000E+00        -0.37239E+08
 
   -0.38457E+08         0.14779E+06         0.00000E+00
    0.14779E+06        -0.50043E+08         0.00000E+00
    0.00000E+00         0.00000E+00        -0.37243E+08
 
   -0.38465E+08         0.17918E+06         0.00000E+00
    0.17918E+06        -0.50056E+08         0.00000E+00
    0.00000E+00         0.00000E+00        -0.37247E+08
 
   -0.38469E+08         0.21301E+06         0.00000E+00
    0.21301E+06        -0.50071E+08         0.00000E+00
    0.00000E+00         0.00000E+00        -0.37250E+08
 
   -0.38469E+08         0.24932E+06         0.00000E+00
    0.24932E+06        -0.50088E+08         0.00000E+00
    0.00000E+00         0.00000E+00        -0.37252E+08
 
   -0.38465E+08         0.28817E+06         0.00000E+00
    0.28817E+06        -0.50106E+08         0.00000E+00
    0.00000E+00         0.00000E+00        -0.37254E+08
 
   -0.38458E+08         0.32959E+06         0.00000E+00
    0.32959E+06        -0.50125E+08         0.00000E+00
    0.00000E+00         0.00000E+00        -0.37256E+08
 
   -0.38447E+08         0.37362E+06         0.00000E+00
    0.37362E+06        -0.50145E+08         0.00000E+00
    0.00000E+00         0.00000E+00        -0.37257E+08
 
   -0.38433E+08         0.42028E+06         0.00000E+00
    0.42028E+06        -0.50166E+08         0.00000E+00
    0.00000E+00         0.00000E+00        -0.37257E+08
 
   -0.38417E+08         0.46960E+06         0.00000E+00
    0.46960E+06        -0.50188E+08         0.00000E+00
    0.00000E+00         0.00000E+00        -0.37258E+08
 
   -0.38398E+08         0.52160E+06         0.00000E+00
    0.52160E+06        -0.50211E+08         0.00000E+00
    0.00000E+00         0.00000E+00        -0.37257E+08
 
   -0.38376E+08         0.57629E+06         0.00000E+00
    0.57629E+06        -0.50234E+08         0.00000E+00
    0.00000E+00         0.00000E+00        -0.37257E+08
 
   -0.38351E+08         0.63369E+06         0.00000E+00
    0.63369E+06        -0.50259E+08         0.00000E+00
    0.00000E+00         0.00000E+00        -0.37256E+08
 
   -0.38325E+08         0.69379E+06         0.00000E+00
    0.69379E+06        -0.50284E+08         0.00000E+00
    0.00000E+00         0.00000E+00        -0.37254E+08
 
   -0.38297E+08         0.75661E+06         0.00000E+00
    0.75661E+06        -0.50309E+08         0.00000E+00
    0.00000E+00         0.00000E+00        -0.37253E+08
 
   -0.38266E+08         0.82214E+06         0.00000E+00
    0.82214E+06        -0.50335E+08         0.00000E+00
    0.00000E+00         0.00000E+00        -0.37251E+08
 
   -0.38234E+08         0.89038E+06         0.00000E+00
    0.89038E+06        -0.50361E+08         0.00000E+00
    0.00000E+00         0.00000E+00        -0.37249E+08
 
   -0.38201E+08         0.96132E+06         0.00000E+00
    0.96132E+06        -0.50388E+08         0.00000E+00
    0.00000E+00         0.00000E+00        -0.37246E+08
 
   -0.38166E+08         0.10350E+07         0.00000E+00
    0.10350E+07        -0.50415E+08         0.00000E+00
    0.00000E+00         0.00000E+00        -0.37244E+08
 
   -0.38130E+08         0.11113E+07         0.00000E+00
    0.11113E+07        -0.50442E+08         0.00000E+00
    0.00000E+00         0.00000E+00        -0.37241E+08
 
   -0.38092E+08         0.11903E+07         0.00000E+00
    0.11903E+07        -0.50469E+08         0.00000E+00
    0.00000E+00         0.00000E+00        -0.37238E+08
 
   -0.38054E+08         0.12719E+07         0.00000E+00
    0.12719E+07        -0.50496E+08         0.00000E+00
    0.00000E+00         0.00000E+00        -0.37235E+08
 
   -0.38015E+08         0.13562E+07         0.00000E+00
    0.13562E+07        -0.50523E+08         0.00000E+00
    0.00000E+00         0.00000E+00        -0.37231E+08
 
   -0.37975E+08         0.14431E+07         0.00000E+00
    0.14431E+07        -0.50550E+08         0.00000E+00
    0.00000E+00         0.00000E+00        -0.37228E+08
 
   -0.37934E+08         0.15326E+07         0.00000E+00
    0.15326E+07        -0.50577E+08         0.00000E+00
    0.00000E+00         0.00000E+00        -0.37224E+08
 
   -0.37893E+08         0.16247E+07         0.00000E+00
    0.16247E+07        -0.50604E+08         0.00000E+00
    0.00000E+00         0.00000E+00        -0.37220E+08
 
   -0.37852E+08         0.17193E+07         0.00000E+00
    0.17193E+07        -0.50631E+08         0.00000E+00
    0.00000E+00         0.00000E+00        -0.37217E+08
 
   -0.37811E+08         0.18165E+07         0.00000E+00
    0.18165E+07        -0.50657E+08         0.00000E+00
    0.00000E+00         0.00000E+00        -0.37213E+08
 
   -0.37769E+08         0.19161E+07         0.00000E+00
    0.19161E+07        -0.50683E+08         0.00000E+00
    0.00000E+00         0.00000E+00        -0.37209E+08
 
   -0.37727E+08         0.20183E+07         0.00000E+00
    0.20183E+07        -0.50708E+08         0.00000E+00
    0.00000E+00         0.00000E+00        -0.37205E+08
 
   -0.37686E+08         0.21228E+07         0.00000E+00
    0.21228E+07        -0.50734E+08         0.00000E+00
    0.00000E+00         0.00000E+00        -0.37201E+08
 
   -0.37644E+08         0.22298E+07         0.00000E+00
    0.22298E+07        -0.50758E+08         0.00000E+00
    0.00000E+00         0.00000E+00        -0.37196E+08
 
   -0.37603E+08         0.23391E+07         0.00000E+00
    0.23391E+07        -0.50782E+08         0.00000E+00
    0.00000E+00         0.00000E+00        -0.37192E+08
 
   -0.37562E+08         0.24508E+07         0.00000E+00
    0.24508E+07        -0.50806E+08         0.00000E+00
    0.00000E+00         0.00000E+00        -0.37188E+08
 
   -0.37522E+08         0.25647E+07         0.00000E+00
    0.25647E+07        -0.50829E+08         0.00000E+00
    0.00000E+00         0.00000E+00        -0.37184E+08
 
   -0.37482E+08         0.26809E+07         0.00000E+00
    0.26809E+07        -0.50851E+08         0.00000E+00
    0.00000E+00         0.00000E+00        -0.37180E+08
 
   -0.37443E+08         0.27994E+07         0.00000E+00
    0.27994E+07        -0.50872E+08         0.00000E+00
    0.00000E+00         0.00000E+00        -0.37176E+08
 
   -0.37404E+08         0.29200E+07         0.00000E+00
    0.29200E+07        -0.50893E+08         0.00000E+00
    0.00000E+00         0.00000E+00        -0.37172E+08
 
   -0.37367E+08         0.30427E+07         0.00000E+00
    0.30427E+07        -0.50913E+08         0.00000E+00
    0.00000E+00         0.00000E+00        -0.37168E+08
 
   -0.37330E+08         0.31676E+07         0.00000E+00
    0.31676E+07        -0.50932E+08         0.00000E+00
    0.00000E+00         0.00000E+00        -0.37164E+08
 
   -0.37294E+08         0.32944E+07         0.00000E+00
    0.32944E+07        -0.50951E+08         0.00000E+00
    0.00000E+00         0.00000E+00        -0.37160E+08
 
   -0.37259E+08         0.34233E+07         0.00000E+00
    0.34233E+07        -0.50968E+08         0.00000E+00
    0.00000E+00         0.00000E+00        -0.37156E+08
 
   -0.37224E+08         0.35541E+07         0.00000E+00
    0.35541E+07        -0.50985E+08         0.00000E+00
    0.00000E+00         0.00000E+00        -0.37153E+08
 
   -0.37191E+08         0.36869E+07         0.00000E+00
    0.36869E+07        -0.51000E+08         0.00000E+00
    0.00000E+00         0.00000E+00        -0.37149E+08
 
   -0.37160E+08         0.38214E+07         0.00000E+00
    0.38214E+07        -0.51015E+08         0.00000E+00
    0.00000E+00         0.00000E+00        -0.37146E+08
 
   -0.38255E+08         0.43776E+03         0.00000E+00
    0.43776E+03        -0.49999E+08         0.00000E+00
    0.00000E+00         0.00000E+00        -0.36608E+08
 
   -0.38281E+08         0.70417E+04         0.00000E+00
    0.70417E+04        -0.50001E+08         0.00000E+00
    0.00000E+00         0.00000E+00        -0.36613E+08
 
   -0.38301E+08         0.16222E+05         0.00000E+00
    0.16222E+05        -0.50007E+08         0.00000E+00
    0.00000E+00         0.00000E+00        -0.36618E+08
 
   -0.38315E+08         0.28067E+05         0.00000E+00
    0.28067E+05        -0.50014E+08         0.00000E+00
    0.00000E+00         0.00000E+00        -0.36622E+08
 
   -0.38324E+08         0.42656E+05         0.00000E+00
    0.42656E+05        -0.50023E+08         0.00000E+00
    0.00000E+00         0.00000E+00        -0.36625E+08
 
   -0.38328E+08         0.60059E+05         0.00000E+00
    0.60059E+05        -0.50035E+08         0.00000E+00
    0.00000E+00         0.00000E+00        -0.36628E+08
 
   -0.38327E+08         0.80338E+05         0.00000E+00
    0.80338E+05        -0.50048E+08         0.00000E+00
    0.00000E+00         0.00000E+00        -0.36630E+08
 
   -0.38322E+08         0.10355E+06         0.00000E+00
    0.10355E+06        -0.50064E+08         0.00000E+00
    0.00000E+00         0.00000E+00        -0.36631E+08
 
   -0.38312E+08         0.12973E+06         0.00000E+00
    0.12973E+06        -0.50080E+08         0.00000E+00
    0.00000E+00         0.00000E+00        -0.36632E+08
 
   -0.38298E+08         0.15893E+06         0.00000E+00
    0.15893E+06        -0.50099E+08         0.00000E+00
    0.00000E+00         0.00000E+00        -0.36632E+08
 
   -0.38280E+08         0.19118E+06         0.00000E+00
    0.19118E+06        -0.50119E+08         0.00000E+00
    0.00000E+00         0.00000E+00        -0.36632E+08
 
   -0.38259E+08         0.22649E+06         0.00000E+00
    0.22649E+06        -0.50140E+08         0.00000E+00
    0.00000E+00         0.00000E+00        -0.36631E+08
 
   -0.38234E+08         0.26491E+06         0.00000E+00
    0.26491E+06        -0.50162E+08         0.00000E+00
    0.00000E+00         0.00000E+00        -0.36630E+08
 
   -0.38206E+08         0.30642E+06         0.00000E+00
    0.30642E+06        -0.50186E+08         0.00000E+00
    0.00000E+00         0.00000E+00        -0.36628E+08
 
   -0.38175E+08         0.35105E+06         0.00000E+00
    0.35105E+06        -0.50210E+08         0.00000E+00
    0.00000E+00         0.00000E+00        -0.36626E+08
 
   -0.38141E+08         0.39881E+06         0.00000E+00
    0.39881E+06        -0.50236E+08         0.00000E+00
    0.00000E+00         0.00000E+00        -0.36624E+08
 
   -0.38104E+08         0.44968E+06         0.00000E+00
    0.44968E+06        -0.50262E+08         0.00000E+00
    0.00000E+00         0.00000E+00        -0.36621E+08
 
   -0.38066E+08         0.50367E+06         0.00000E+00
    0.50367E+06        -0.50289E+08         0.00000E+00
    0.00000E+00         0.00000E+00        -0.36618E+08
 
   -0.38025E+08         0.56078E+06         0.00000E+00
    0.56078E+06        -0.50317E+08         0.00000E+00
    0.00000E+00         0.00000E+00        -0.36614E+08
 
   -0.37982E+08         0.62098E+06         0.00000E+00
    0.62098E+06        -0.50345E+08         0.00000E+00
    0.00000E+00         0.00000E+00        -0.36610E+08
 
   -0.37937E+08         0.68427E+06         0.00000E+00
    0.68427E+06        -0.50374E+08         0.00000E+00
    0.00000E+00         0.00000E+00        -0.36606E+08
 
   -0.37891E+08         0.75063E+06         0.00000E+00
    0.75063E+06        -0.50403E+08         0.00000E+00
    0.00000E+00         0.00000E+00        -0.36602E+08
 
   -0.37843E+08         0.82005E+06         0.00000E+00
    0.82005E+06        -0.50433E+08         0.00000E+00
    0.00000E+00         0.00000E+00        -0.36597E+08
 
   -0.37793E+08         0.89250E+06         0.00000E+00
    0.89250E+06        -0.50462E+08         0.00000E+00
    0.00000E+00         0.00000E+00        -0.36593E+08
 
   -0.37743E+08         0.96797E+06         0.00000E+00
    0.96797E+06        -0.50493E+08         0.00000E+00
    0.00000E+00         0.00000E+00        -0.36588E+08
 
   -0.37692E+08         0.10464E+07         0.00000E+00
    0.10464E+07        -0.50523E+08         0.00000E+00
    0.00000E+00         0.00000E+00        -0.36583E+08
 
   -0.37639E+08         0.11278E+07         0.00000E+00
    0.11278E+07        -0.50553E+08         0.00000E+00
    0.00000E+00         0.00000E+00        -0.36577E+08
 
   -0.37586E+08         0.12122E+07         0.00000E+00
    0.12122E+07        -0.50584E+08         0.00000E+00
    0.00000E+00         0.00000E+00        -0.36572E+08
 
   -0.37533E+08         0.12995E+07         0.00000E+00
    0.12995E+07        -0.50614E+08         0.00000E+00
    0.00000E+00         0.00000E+00        -0.36566E+08
 
   -0.37479E+08         0.13896E+07         0.00000E+00
    0.13896E+07        -0.50645E+08         0.00000E+00
    0.00000E+00         0.00000E+00        -0.36561E+08
 
   -0.37424E+08         0.14826E+07         0.00000E+00
    0.14826E+07        -0.50675E+08         0.00000E+00
    0.00000E+00         0.00000E+00        -0.36555E+08
 
   -0.37369E+08         0.15785E+07         0.00000E+00
    0.15785E+07        -0.50705E+08         0.00000E+00
    0.00000E+00         0.00000E+00        -0.36549E+08
 
   -0.37315E+08         0.16771E+07         0.00000E+00
    0.16771E+07        -0.50735E+08         0.00000E+00
    0.00000E+00         0.00000E+00        -0.36544E+08
 
   -0.37260E+08         0.17784E+07         0.00000E+00
    0.17784E+07        -0.50764E+08         0.00000E+00
    0.00000E+00         0.00000E+00        -0.36538E+08
 
   -0.37205E+08         0.18825E+07         0.00000E+00
    0.18825E+07        -0.50793E+08         0.00000E+00
    0.00000E+00         0.00000E+00        -0.36532E+08
 
   -0.37151E+08         0.19893E+07         0.00000E+00
    0.19893E+07        -0.50822E+08         0.00000E+00
    0.00000E+00         0.00000E+00        -0.36526E+08
 
   -0.37097E+08         0.20987E+07         0.00000E+00
    0.20987E+07        -0.50851E+08         0.00000E+00
    0.00000E+00         0.00000E+00        -0.36521E+08
 
   -0.37044E+08         0.22107E+07         0.00000E+00
    0.22107E+07        -0.50878E+08         0.00000E+00
    0.00000E+00         0.00000E+00        -0.36515E+08
 
   -0.36991E+08         0.23252E+07         0.00000E+00
    0.23252E+07        -0.50906E+08         0.00000E+00
    0.00000E+00         0.00000E+00        -0.36509E+08
 
   -0.36938E+08         0.24423E+07         0.00000E+00
    0.24423E+07        -0.50933E+08         0.00000E+00
    0.00000E+00         0.00000E+00        -0.36504E+08
 
   -0.36887E+08         0.25619E+07         0.00000E+00
    0.25619E+07        -0.50959E+08         0.00000E+00
    0.00000E+00         0.00000E+00        -0.36498E+08
 
   -0.36836E+08         0.26838E+07         0.00000E+00
    0.26838E+07        -0.50984E+08         0.00000E+00
    0.00000E+00         0.00000E+00        -0.36492E+08
 
   -0.36786E+08         0.28082E+07         0.00000E+00
    0.28082E+07        -0.51009E+08         0.00000E+00
    0.00000E+00         0.00000E+00        -0.36487E+08
 
   -0.36738E+08         0.29348E+07         0.00000E+00
    0.29348E+07        -0.51033E+08         0.00000E+00
    0.00000E+00         0.00000E+00        -0.36482E+08
 
   -0.36690E+08         0.30638E+07         0.00000E+00
    0.30638E+07        -0.51056E+08         0.00000E+00
    0.00000E+00         0.00000E+00        -0.36476E+08
 
   -0.36644E+08         0.31949E+07         0.00000E+00
    0.31949E+07        -0.51079E+08         0.00000E+00
    0.00000E+00         0.00000E+00        -0.36471E+08
 
   -0.36598E+08         0.33282E+07         0.00000E+00
    0.33282E+07        -0.51100E+08         0.00000E+00
    0.00000E+00         0.00000E+00        -0.36466E+08
 
   -0.36554E+08         0.34636E+07         0.00000E+00
    0.34636E+07        -0.51121E+08         0.00000E+00
    0.00000E+00         0.00000E+00        -0.36461E+08
 
   -0.36512E+08         0.36010E+07         0.00000E+00
    0.36010E+07        -0.51140E+08         0.00000E+00
    0.00000E+00         0.00000E+00        -0.36457E+08
 
   -0.36470E+08         0.37404E+07         0.00000E+00
    0.37404E+07        -0.51159E+08         0.00000E+00
    0.00000E+00         0.00000E+00        -0.36452E+08
 
   -0.38261E+08        -0.69189E+04         0.00000E+00
   -0.69189E+04        -0.49999E+08         0.00000E+00
    0.00000E+00         0.00000E+00        -0.36001E+08
 
   -0.38273E+08        -0.13323E+05         0.00000E+00
   -0.13323E+05        -0.50002E+08         0.00000E+00
    0.00000E+00         0.00000E+00        -0.36004E+08
 
   -0.38278E+08        -0.16437E+05         0.00000E+00
   -0.16437E+05        -0.50007E+08         0.00000E+00
    0.00000E+00         0.00000E+00        -0.36006E+08
 
   -0.38277E+08        -0.16186E+05         0.00000E+00
   -0.16186E+05        -0.50016E+08         0.00000E+00
    0.00000E+00         0.00000E+00        -0.36007E+08
 
   -0.38270E+08        -0.12504E+05         0.00000E+00
   -0.12504E+05        -0.50026E+08         0.00000E+00
    0.00000E+00         0.00000E+00        -0.36008E+08
 
   -0.38259E+08        -0.53369E+04         0.00000E+00
   -0.53369E+04        -0.50039E+08         0.00000E+00
    0.00000E+00         0.00000E+00        -0.36008E+08
 
   -0.38242E+08         0.53601E+04         0.00000E+00
    0.53601E+04        -0.50054E+08         0.00000E+00
    0.00000E+00         0.00000E+00        -0.36007E+08
 
   -0.38220E+08         0.19623E+05         0.00000E+00
    0.19623E+05        -0.50070E+08         0.00000E+00
    0.00000E+00         0.00000E+00        -0.36005E+08
 
   -0.38193E+08         0.37478E+05         0.00000E+00
    0.37478E+05        -0.50089E+08         0.00000E+00
    0.00000E+00         0.00000E+00        -0.36003E+08
 
   -0.38163E+08         0.58944E+05         0.00000E+00
    0.58944E+05        -0.50109E+08         0.00000E+00
    0.00000E+00         0.00000E+00        -0.36001E+08
 
   -0.38128E+08         0.84035E+05         0.00000E+00
    0.84035E+05        -0.50131E+08         0.00000E+00
    0.00000E+00         0.00000E+00        -0.35998E+08
 
   -0.38090E+08         0.11275E+06         0.00000E+00
    0.11275E+06        -0.50154E+08         0.00000E+00
    0.00000E+00         0.00000E+00        -0.35994E+08
 
   -0.38048E+08         0.14510E+06         0.00000E+00
    0.14510E+06        -0.50178E+08         0.00000E+00
    0.00000E+00         0.00000E+00        -0.35990E+08
 
   -0.38004E+08         0.18107E+06         0.00000E+00
    0.18107E+06        -0.50204E+08         0.00000E+00
    0.00000E+00         0.00000E+00        -0.35985E+08
 
   -0.37956E+08         0.22064E+06         0.00000E+00
    0.22064E+06        -0.50230E+08         0.00000E+00
    0.00000E+00         0.00000E+00        -0.35980E+08
 
   -0.37905E+08         0.26381E+06         0.00000E+00
    0.26381E+06        -0.50258E+08         0.00000E+00
    0.00000E+00         0.00000E+00        -0.35975E+08
 
   -0.37852E+08         0.31056E+06         0.00000E+00
    0.31056E+06        -0.50287E+08         0.00000E+00
    0.00000E+00         0.00000E+00        -0.35969E+08
 
   -0.37797E+08         0.36085E+06         0.00000E+00
    0.36085E+06        -0.50316E+08         0.00000E+00
    0.00000E+00         0.00000E+00        -0.35963E+08
 
   -0.37739E+08         0.41467E+06         0.00000E+00
    0.41467E+06        -0.50346E+08         0.00000E+00
    0.00000E+00         0.00000E+00        -0.35957E+08
 
   -0.37680E+08         0.47199E+06         0.00000E+00
    0.47199E+06        -0.50377E+08         0.00000E+00
    0.00000E+00         0.00000E+00        -0.35951E+08
 
   -0.37619E+08         0.53277E+06         0.00000E+00
    0.53277E+06        -0.50408E+08         0.00000E+00
    0.00000E+00         0.00000E+00        -0.35944E+08
 
   -0.37556E+08         0.59698E+06         0.00000E+00
    0.59698E+06        -0.50440E+08         0.00000E+00
    0.00000E+00         0.00000E+00        -0.35937E+08
 
   -0.37492E+08         0.66460E+06         0.00000E+00
    0.66460E+06        -0.50472E+08         0.00000E+00
    0.00000E+00         0.00000E+00        -0.35930E+08
 
   -0.37427E+08         0.73559E+06         0.00000E+00
    0.73559E+06        -0.50504E+08         0.00000E+00
    0.00000E+00         0.00000E+00        -0.35923E+08
 
   -0.37361E+08         0.80991E+06         0.00000E+00
    0.80991E+06        -0.50537E+08         0.00000E+00
    0.00000E+00         0.00000E+00        -0.35915E+08
 
   -0.37294E+08         0.88753E+06         0.00000E+00
    0.88753E+06        -0.50570E+08         0.00000E+00
    0.00000E+00         0.00000E+00        -0.35908E+08
 
   -0.37226E+08         0.96842E+06         0.00000E+00
    0.96842E+06        -0.50604E+08         0.00000E+00
    0.00000E+00         0.00000E+00        -0.35900E+08
 
   -0.37158E+08         0.10525E+07         0.00000E+00
    0.10525E+07        -0.50637E+08         0.00000E+00
    0.00000E+00         0.00000E+00        -0.35892E+08
 
   -0.37089E+08         0.11398E+07         0.00000E+00
    0.11398E+07        -0.50670E+08         0.00000E+00
    0.00000E+00         0.00000E+00        -0.35885E+08
 
   -0.37020E+08         0.12303E+07         0.00000E+00
    0.12303E+07        -0.50704E+08         0.00000E+00
    0.00000E+00         0.00000E+00        -0.35877E+08
 
   -0.36950E+08         0.13239E+07         0.00000E+00
    0.13239E+07        -0.50737E+08         0.00000E+00
    0.00000E+00         0.00000E+00        -0.35869E+08
 
   -0.36881E+08         0.14206E+07         0.00000E+00
    0.14206E+07        -0.50770E+08         0.00000E+00
    0.00000E+00         0.00000E+00        -0.35861E+08
 
   -0.36812E+08         0.15203E+07         0.00000E+00
    0.15203E+07        -0.50803E+08         0.00000E+00
    0.00000E+00         0.00000E+00        -0.35853E+08
 
   -0.36743E+08         0.16230E+07         0.00000E+00
    0.16230E+07        -0.50836E+08         0.00000E+00
    0.00000E+00         0.00000E+00        -0.35845E+08
 
   -0.36674E+08         0.17287E+07         0.00000E+00
    0.17287E+07        -0.50869E+08         0.00000E+00
    0.00000E+00         0.00000E+00        -0.35838E+08
 
   -0.36606E+08         0.18373E+07         0.00000E+00
    0.18373E+07        -0.50901E+08         0.00000E+00
    0.00000E+00         0.00000E+00        -0.35830E+08
 
   -0.36538E+08         0.19489E+07         0.00000E+00
    0.19489E+07        -0.50933E+08         0.00000E+00
    0.00000E+00         0.00000E+00        -0.35822E+08
 
   -0.36471E+08         0.20632E+07         0.00000E+00
    0.20632E+07        -0.50965E+08         0.00000E+00
    0.00000E+00         0.00000E+00        -0.35815E+08
 
   -0.36405E+08         0.21804E+07         0.00000E+00
    0.21804E+07        -0.50996E+08         0.00000E+00
    0.00000E+00         0.00000E+00        -0.35807E+08
 
   -0.36340E+08         0.23003E+07         0.00000E+00
    0.23003E+07        -0.51027E+08         0.00000E+00
    0.00000E+00         0.00000E+00        -0.35800E+08
 
   -0.36275E+08         0.24229E+07         0.00000E+00
    0.24229E+07        -0.51057E+08         0.00000E+00
    0.00000E+00         0.00000E+00        -0.35792E+08
 
   -0.36212E+08         0.25482E+07         0.00000E+00
    0.25482E+07        -0.51086E+08         0.00000E+00
    0.00000E+00         0.00000E+00        -0.35785E+08
 
   -0.36150E+08         0.26761E+07         0.00000E+00
    0.26761E+07        -0.51115E+08         0.00000E+00
    0.00000E+00         0.00000E+00        -0.35778E+08
 
   -0.36089E+08         0.28065E+07         0.00000E+00
    0.28065E+07        -0.51143E+08         0.00000E+00
    0.00000E+00         0.00000E+00        -0.35771E+08
 
   -0.36030E+08         0.29394E+07         0.00000E+00
    0.29394E+07        -0.51171E+08         0.00000E+00
    0.00000E+00         0.00000E+00        -0.35765E+08
 
   -0.35972E+08         0.30747E+07         0.00000E+00
    0.30747E+07        -0.51197E+08         0.00000E+00
    0.00000E+00         0.00000E+00        -0.35758E+08
 
   -0.35916E+08         0.32123E+07         0.00000E+00
    0.32123E+07        -0.51223E+08         0.00000E+00
    0.00000E+00         0.00000E+00        -0.35752E+08
 
   -0.35861E+08         0.33522E+07         0.00000E+00
    0.33522E+07        -0.51248E+08         0.00000E+00
    0.00000E+00         0.00000E+00        -0.35746E+08
 
   -0.35808E+08         0.34943E+07         0.00000E+00
    0.34943E+07        -0.51272E+08         0.00000E+00
    0.00000E+00         0.00000E+00        -0.35740E+08
 
   -0.35757E+08         0.36385E+07         0.00000E+00
    0.36385E+07        -0.51295E+08         0.00000E+00
    0.00000E+00         0.00000E+00        -0.35734E+08
 
   -0.38338E+08        -0.15103E+05         0.00000E+00
   -0.15103E+05        -0.49999E+08         0.00000E+00
    0.00000E+00         0.00000E+00        -0.35391E+08
 
   -0.38331E+08        -0.35813E+05         0.00000E+00
   -0.35813E+05        -0.50002E+08         0.00000E+00
    0.00000E+00         0.00000E+00        -0.35391E+08
 
   -0.38317E+08        -0.52377E+05         0.00000E+00
   -0.52377E+05        -0.50008E+08         0.00000E+00
    0.00000E+00         0.00000E+00        -0.35389E+08
 
   -0.38298E+08        -0.64741E+05         0.00000E+00
   -0.64741E+05        -0.50017E+08         0.00000E+00
    0.00000E+00         0.00000E+00        -0.35387E+08
 
   -0.38272E+08        -0.72863E+05         0.00000E+00
   -0.72863E+05        -0.50029E+08         0.00000E+00
    0.00000E+00         0.00000E+00        -0.35384E+08
 
   -0.38240E+08        -0.76714E+05         0.00000E+00
   -0.76714E+05        -0.50042E+08         0.00000E+00
    0.00000E+00         0.00000E+00        -0.35380E+08
 
   -0.38204E+08        -0.76276E+05         0.00000E+00
   -0.76276E+05        -0.50058E+08         0.00000E+00
    0.00000E+00         0.00000E+00        -0.35375E+08
 
   -0.38162E+08        -0.71540E+05         0.00000E+00
   -0.71540E+05        -0.50076E+08         0.00000E+00
    0.00000E+00         0.00000E+00        -0.35370E+08
 
   -0.38116E+08        -0.62509E+05         0.00000E+00
   -0.62509E+05        -0.50096E+08         0.00000E+00
    0.00000E+00         0.00000E+00        -0.35365E+08
 
   -0.38066E+08        -0.49195E+05         0.00000E+00
   -0.49195E+05        -0.50118E+08         0.00000E+00
    0.00000E+00         0.00000E+00        -0.35358E+08
 
   -0.38012E+08        -0.31615E+05         0.00000E+00
   -0.31615E+05        -0.50141E+08         0.00000E+00
    0.00000E+00         0.00000E+00        -0.35352E+08
 
   -0.37954E+08        -0.97966E+04         0.00000E+00
   -0.97966E+04        -0.50165E+08         0.00000E+00
    0.00000E+00         0.00000E+00        -0.35345E+08
 
   -0.37893E+08         0.16229E+05         0.00000E+00
    0.16229E+05        -0.50191E+08         0.00000E+00
    0.00000E+00         0.00000E+00        -0.35337E+08
 
   -0.37829E+08         0.46423E+05         0.00000E+00
    0.46423E+05        -0.50218E+08         0.00000E+00
    0.00000E+00         0.00000E+00        -0.35329E+08
 
   -0.37762E+08         0.80744E+05         0.00000E+00
    0.80744E+05        -0.50246E+08         0.00000E+00
    0.00000E+00         0.00000E+00        -0.35321E+08
 
   -0.37692E+08         0.11915E+06         0.00000E+00
    0.11915E+06        -0.50276E+08         0.00000E+00
    0.00000E+00         0.00000E+00        -0.35312E+08
 
   -0.37620E+08         0.16158E+06         0.00000E+00
    0.16158E+06        -0.50306E+08         0.00000E+00
    0.00000E+00         0.00000E+00        -0.35303E+08
 
   -0.37546E+08         0.20800E+06         0.00000E+00
    0.20800E+06        -0.50337E+08         0.00000E+00
    0.00000E+00         0.00000E+00        -0.35294E+08
 
   -0.37470E+08         0.25834E+06         0.00000E+00
    0.25834E+06        -0.50368E+08         0.00000E+00
    0.00000E+00         0.00000E+00        -0.35285E+08
 
   -0.37392E+08         0.31257E+06         0.00000E+00
    0.31257E+06        -0.50401E+08         0.00000E+00
    0.00000E+00         0.00000E+00        -0.35275E+08
 
   -0.37313E+08         0.37062E+06         0.00000E+00
    0.37062E+06        -0.50434E+08         0.00000E+00
    0.00000E+00         0.00000E+00        -0.35265E+08
 
   -0.37232E+08         0.43243E+06         0.00000E+00
    0.43243E+06        -0.50467E+08         0.00000E+00
    0.00000E+00         0.00000E+00        -0.35255E+08
 
   -0.37151E+08         0.49797E+06         0.00000E+00
    0.49797E+06        -0.50501E+08         0.00000E+00
    0.00000E+00         0.00000E+00        -0.35245E+08
 
   -0.37068E+08         0.56718E+06         0.00000E+00
    0.56718E+06        -0.50536E+08         0.00000E+00
    0.00000E+00         0.00000E+00        -0.35235E+08
 
   -0.36984E+08         0.64002E+06         0.00000E+00
    0.64002E+06        -0.50570E+08         0.00000E+00
    0.00000E+00         0.00000E+00        -0.35225E+08
 
   -0.36900E+08         0.71642E+06         0.00000E+00
    0.71642E+06        -0.50605E+08         0.00000E+00
    0.00000E+00         0.00000E+00        -0.35214E+08
 
   -0.36816E+08         0.79635E+06         0.00000E+00
    0.79635E+06        -0.50641E+08         0.00000E+00
    0.00000E+00         0.00000E+00        -0.35204E+08
 
   -0.36731E+08         0.87977E+06         0.00000E+00
    0.87977E+06        -0.50676E+08         0.00000E+00
    0.00000E+00         0.00000E+00        -0.35193E+08
 
   -0.36645E+08         0.96664E+06         0.00000E+00
    0.96664E+06        -0.50712E+08         0.00000E+00
    0.00000E+00         0.00000E+00        -0.35183E+08
 
   -0.36560E+08         0.10569E+07         0.00000E+00
    0.10569E+07        -0.50748E+08         0.00000E+00
    0.00000E+00         0.00000E+00        -0.35172E+08
 
   -0.36474E+08         0.11505E+07         0.00000E+00
    0.11505E+07        -0.50784E+08         0.00000E+00
    0.00000E+00         0.00000E+00        -0.35162E+08
 
   -0.36389E+08         0.12475E+07         0.00000E+00
    0.12475E+07        -0.50820E+08         0.00000E+00
    0.00000E+00         0.00000E+00        -0.35152E+08
 
   -0.36304E+08         0.13477E+07         0.00000E+00
    0.13477E+07        -0.50856E+08         0.00000E+00
    0.00000E+00         0.00000E+00        -0.35141E+08
 
   -0.36219E+08         0.14513E+07         0.00000E+00
    0.14513E+07        -0.50891E+08         0.00000E+00
    0.00000E+00         0.00000E+00        -0.35131E+08
 
   -0.36135E+08         0.15580E+07         0.00000E+00
    0.15580E+07        -0.50927E+08         0.00000E+00
    0.00000E+00         0.00000E+00        -0.35121E+08
 
   -0.36052E+08         0.16679E+07         0.00000E+00
    0.16679E+07        -0.50963E+08         0.00000E+00
    0.00000E+00         0.00000E+00        -0.35111E+08
 
   -0.35969E+08         0.17809E+07         0.00000E+00
    0.17809E+07        -0.50998E+08         0.00000E+00
    0.00000E+00         0.00000E+00        -0.35101E+08
 
   -0.35888E+08         0.18971E+07         0.00000E+00
    0.18971E+07        -0.51034E+08         0.00000E+00
    0.00000E+00         0.00000E+00        -0.35092E+08
 
   -0.35807E+08         0.20163E+07         0.00000E+00
    0.20163E+07        -0.51068E+08         0.00000E+00
    0.00000E+00         0.00000E+00        -0.35082E+08
 
   -0.35727E+08         0.21386E+07         0.00000E+00
    0.21386E+07        -0.51103E+08         0.00000E+00
    0.00000E+00         0.00000E+00        -0.35073E+08
 
   -0.35649E+08         0.22638E+07         0.00000E+00
    0.22638E+07        -0.51137E+08         0.00000E+00
    0.00000E+00         0.00000E+00        -0.35063E+08
 
   -0.35572E+08         0.23920E+07         0.00000E+00
    0.23920E+07        -0.51171E+08         0.00000E+00
    0.00000E+00         0.00000E+00        -0.35055E+08
 
   -0.35496E+08         0.25230E+07         0.00000E+00
    0.25230E+07        -0.51204E+08         0.00000E+00
    0.00000E+00         0.00000E+00        -0.35046E+08
 
   -0.35422E+08         0.26568E+07         0.00000E+00
    0.26568E+07        -0.51236E+08         0.00000E+00
    0.00000E+00         0.00000E+00        -0.35037E+08
 
   -0.35350E+08         0.27933E+07         0.00000E+00
    0.27933E+07        -0.51268E+08         0.00000E+00
    0.00000E+00         0.00000E+00        -0.35029E+08
 
   -0.35280E+08         0.29326E+07         0.00000E+00
    0.29326E+07        -0.51299E+08         0.00000E+00
    0.00000E+00         0.00000E+00        -0.35021E+08
 
   -0.35211E+08         0.30744E+07         0.00000E+00
    0.30744E+07        -0.51330E+08         0.00000E+00
    0.00000E+00         0.00000E+00        -0.35013E+08
 
   -0.35145E+08         0.32187E+07         0.00000E+00
    0.32187E+07        -0.51359E+08         0.00000E+00
    0.00000E+00         0.00000E+00        -0.35006E+08
 
   -0.35081E+08         0.33655E+07         0.00000E+00
    0.33655E+07        -0.51388E+08         0.00000E+00
    0.00000E+00         0.00000E+00        -0.34998E+08
 
   -0.35019E+08         0.35145E+07         0.00000E+00
    0.35145E+07        -0.51416E+08         0.00000E+00
    0.00000E+00         0.00000E+00        -0.34991E+08
 
   -0.38491E+08        -0.24051E+05         0.00000E+00
   -0.24051E+05        -0.49999E+08         0.00000E+00
    0.00000E+00         0.00000E+00        -0.34780E+08
 
   -0.38461E+08        -0.60171E+05         0.00000E+00
   -0.60171E+05        -0.50002E+08         0.00000E+00
    0.00000E+00         0.00000E+00        -0.34775E+08
 
   -0.38424E+08        -0.91118E+05         0.00000E+00
   -0.91118E+05        -0.50009E+08         0.00000E+00
    0.00000E+00         0.00000E+00        -0.34769E+08
 
   -0.38381E+08        -0.11687E+06         0.00000E+00
   -0.11687E+06        -0.50018E+08         0.00000E+00
    0.00000E+00         0.00000E+00        -0.34762E+08
 
   -0.38332E+08        -0.13743E+06         0.00000E+00
   -0.13743E+06        -0.50030E+08         0.00000E+00
    0.00000E+00         0.00000E+00        -0.34754E+08
 
   -0.38277E+08        -0.15279E+06         0.00000E+00
   -0.15279E+06        -0.50045E+08         0.00000E+00
    0.00000E+00         0.00000E+00        -0.34746E+08
 
   -0.38216E+08        -0.16298E+06         0.00000E+00
   -0.16298E+06        -0.50062E+08         0.00000E+00
    0.00000E+00         0.00000E+00        -0.34737E+08
 
   -0.38151E+08        -0.16803E+06         0.00000E+00
   -0.16803E+06        -0.50080E+08         0.00000E+00
    0.00000E+00         0.00000E+00        -0.34728E+08
 
   -0.38082E+08        -0.16799E+06         0.00000E+00
   -0.16799E+06        -0.50101E+08         0.00000E+00
    0.00000E+00         0.00000E+00        -0.34718E+08
 
   -0.38009E+08        -0.16292E+06         0.00000E+00
   -0.16292E+06        -0.50123E+08         0.00000E+00
    0.00000E+00         0.00000E+00        -0.34707E+08
 
   -0.37932E+08        -0.15288E+06         0.00000E+00
   -0.15288E+06        -0.50147E+08         0.00000E+00
    0.00000E+00         0.00000E+00        -0.34696E+08
 
   -0.37851E+08        -0.13795E+06         0.00000E+00
   -0.13795E+06        -0.50173E+08         0.00000E+00
    0.00000E+00         0.00000E+00        -0.34685E+08
 
   -0.37767E+08        -0.11820E+06         0.00000E+00
   -0.11820E+06        -0.50199E+08         0.00000E+00
    0.00000E+00         0.00000E+00        -0.34673E+08
 
   -0.37681E+08        -0.93709E+05         0.00000E+00
   -0.93709E+05        -0.50227E+08         0.00000E+00
    0.00000E+00         0.00000E+00        -0.34661E+08
 
   -0.37592E+08        -0.64574E+05         0.00000E+00
   -0.64574E+05        -0.50256E+08         0.00000E+00
    0.00000E+00         0.00000E+00        -0.34649E+08
 
   -0.37501E+08        -0.30881E+05         0.00000E+00
   -0.30881E+05        -0.50285E+08         0.00000E+00
    0.00000E+00         0.00000E+00        -0.34636E+08
 
   -0.37408E+08         0.72805E+04         0.00000E+00
    0.72805E+04        -0.50316E+08         0.00000E+00
    0.00000E+00         0.00000E+00        -0.34623E+08
 
   -0.37313E+08         0.49821E+05         0.00000E+00
    0.49821E+05        -0.50347E+08         0.00000E+00
    0.00000E+00         0.00000E+00        -0.34610E+08
 
   -0.37217E+08         0.96651E+05         0.00000E+00
    0.96651E+05        -0.50379E+08         0.00000E+00
    0.00000E+00         0.00000E+00        -0.34597E+08
 
   -0.37119E+08         0.14769E+06         0.00000E+00
    0.14769E+06        -0.50412E+08         0.00000E+00
    0.00000E+00         0.00000E+00        -0.34584E+08
 
   -0.37020E+08         0.20284E+06         0.00000E+00
    0.20284E+06        -0.50446E+08         0.00000E+00
    0.00000E+00         0.00000E+00        -0.34570E+08
 
   -0.36920E+08         0.26204E+06         0.00000E+00
    0.26204E+06        -0.50479E+08         0.00000E+00
    0.00000E+00         0.00000E+00        -0.34557E+08
 
   -0.36820E+08         0.32520E+06         0.00000E+00
    0.32520E+06        -0.50514E+08         0.00000E+00
    0.00000E+00         0.00000E+00        -0.34543E+08
 
   -0.36718E+08         0.39226E+06         0.00000E+00
    0.39226E+06        -0.50549E+08         0.00000E+00
    0.00000E+00         0.00000E+00        -0.34530E+08
 
   -0.36616E+08         0.46316E+06         0.00000E+00
    0.46316E+06        -0.50584E+08         0.00000E+00
    0.00000E+00         0.00000E+00        -0.34516E+08
 
   -0.36514E+08         0.53782E+06         0.00000E+00
    0.53782E+06        -0.50620E+08         0.00000E+00
    0.00000E+00         0.00000E+00        -0.34502E+08
 
   -0.36411E+08         0.61620E+06         0.00000E+00
    0.61620E+06        -0.50656E+08         0.00000E+00
    0.00000E+00         0.00000E+00        -0.34489E+08
 
   -0.36308E+08         0.69826E+06         0.00000E+00
    0.69826E+06        -0.50693E+08         0.00000E+00
    0.00000E+00         0.00000E+00        -0.34475E+08
 
   -0.36205E+08         0.78394E+06         0.00000E+00
    0.78394E+06        -0.50730E+08         0.00000E+00
    0.00000E+00         0.00000E+00        -0.34461E+08
 
   -0.36102E+08         0.87321E+06         0.00000E+00
    0.87321E+06        -0.50767E+08         0.00000E+00
    0.00000E+00         0.00000E+00        -0.34448E+08
 
   -0.36000E+08         0.96603E+06         0.00000E+00
    0.96603E+06        -0.50805E+08         0.00000E+00
    0.00000E+00         0.00000E+00        -0.34435E+08
 
   -0.35897E+08         0.10624E+07         0.00000E+00
    0.10624E+07        -0.50843E+08         0.00000E+00
    0.00000E+00         0.00000E+00        -0.34421E+08
 
   -0.35795E+08         0.11622E+07         0.00000E+00
    0.11622E+07        -0.50881E+08         0.00000E+00
    0.00000E+00         0.00000E+00        -0.34408E+08
 
   -0.35694E+08         0.12655E+07         0.00000E+00
    0.12655E+07        -0.50919E+08         0.00000E+00
    0.00000E+00         0.00000E+00        -0.34396E+08
 
   -0.35593E+08         0.13723E+07         0.00000E+00
    0.13723E+07        -0.50957E+08         0.00000E+00
    0.00000E+00         0.00000E+00        -0.34383E+08
 
   -0.35494E+08         0.14825E+07         0.00000E+00
    0.14825E+07        -0.50996E+08         0.00000E+00
    0.00000E+00         0.00000E+00        -0.34370E+08
 
   -0.35395E+08         0.15961E+07         0.00000E+00
    0.15961E+07        -0.51034E+08         0.00000E+00
    0.00000E+00         0.00000E+00        -0.34358E+08
 
   -0.35297E+08         0.17131E+07         0.00000E+00
    0.17131E+07        -0.51073E+08         0.00000E+00
    0.00000E+00         0.00000E+00        -0.34346E+08
 
   -0.35200E+08         0.18334E+07         0.00000E+00
    0.18334E+07        -0.51111E+08         0.00000E+00
    0.00000E+00         0.00000E+00        -0.34334E+08
 
   -0.35105E+08         0.19571E+07         0.00000E+00
    0.19571E+07        -0.51150E+08         0.00000E+00
    0.00000E+00         0.00000E+00        -0.34322E+08
 
   -0.35011E+08         0.20841E+07         0.00000E+00
    0.20841E+07        -0.51188E+08         0.00000E+00
    0.00000E+00         0.00000E+00        -0.34311E+08
 
   -0.34919E+08         0.22143E+07         0.00000E+00
    0.22143E+07        -0.51226E+08         0.00000E+00
    0.00000E+00         0.00000E+00        -0.34300E+08
 
   -0.34828E+08         0.23477E+07         0.00000E+00
    0.23477E+07        -0.51264E+08         0.00000E+00
    0.00000E+00         0.00000E+00        -0.34289E+08
 
   -0.34739E+08         0.24843E+07         0.00000E+00
    0.24843E+07        -0.51301E+08         0.00000E+00
    0.00000E+00         0.00000E+00        -0.34279E+08
 
   -0.34653E+08         0.26240E+07         0.00000E+00
    0.26240E+07        -0.51337E+08         0.00000E+00
    0.00000E+00         0.00000E+00        -0.34269E+08
 
   -0.34568E+08         0.27667E+07         0.00000E+00
    0.27667E+07        -0.51374E+08         0.00000E+00
    0.00000E+00         0.00000E+00        -0.34259E+08
 
   -0.34486E+08         0.29124E+07         0.00000E+00
    0.29124E+07        -0.51409E+08         0.00000E+00
    0.00000E+00         0.00000E+00        -0.34249E+08
 
   -0.34407E+08         0.30610E+07         0.00000E+00
    0.30610E+07        -0.51444E+08         0.00000E+00
    0.00000E+00         0.00000E+00        -0.34240E+08
 
   -0.34330E+08         0.32123E+07         0.00000E+00
    0.32123E+07        -0.51477E+08         0.00000E+00
    0.00000E+00         0.00000E+00        -0.34232E+08
 
   -0.34256E+08         0.33662E+07         0.00000E+00
    0.33662E+07        -0.51510E+08         0.00000E+00
    0.00000E+00         0.00000E+00        -0.34223E+08
 
   -0.38727E+08        -0.33659E+05         0.00000E+00
   -0.33659E+05        -0.49999E+08         0.00000E+00
    0.00000E+00         0.00000E+00        -0.34171E+08
 
   -0.38668E+08        -0.85977E+05         0.00000E+00
   -0.85977E+05        -0.50003E+08         0.00000E+00
    0.00000E+00         0.00000E+00        -0.34160E+08
 
   -0.38602E+08        -0.13189E+06         0.00000E+00
   -0.13189E+06        -0.50009E+08         0.00000E+00
    0.00000E+00         0.00000E+00        -0.34149E+08
 
   -0.38530E+08        -0.17141E+06         0.00000E+00
   -0.17141E+06        -0.50019E+08         0.00000E+00
    0.00000E+00         0.00000E+00        -0.34136E+08
 
   -0.38452E+08        -0.20458E+06         0.00000E+00
   -0.20458E+06        -0.50032E+08         0.00000E+00
    0.00000E+00         0.00000E+00        -0.34123E+08
 
   -0.38368E+08        -0.23148E+06         0.00000E+00
   -0.23148E+06        -0.50046E+08         0.00000E+00
    0.00000E+00         0.00000E+00        -0.34109E+08
 
   -0.38280E+08        -0.25218E+06         0.00000E+00
   -0.25218E+06        -0.50063E+08         0.00000E+00
    0.00000E+00         0.00000E+00        -0.34095E+08
 
   -0.38187E+08        -0.26678E+06         0.00000E+00
   -0.26678E+06        -0.50082E+08         0.00000E+00
    0.00000E+00         0.00000E+00        -0.34080E+08
 
   -0.38090E+08        -0.27539E+06         0.00000E+00
   -0.27539E+06        -0.50103E+08         0.00000E+00
    0.00000E+00         0.00000E+00        -0.34064E+08
 
   -0.37990E+08        -0.27814E+06         0.00000E+00
   -0.27814E+06        -0.50125E+08         0.00000E+00
    0.00000E+00         0.00000E+00        -0.34049E+08
 
   -0.37886E+08        -0.27516E+06         0.00000E+00
   -0.27516E+06        -0.50149E+08         0.00000E+00
    0.00000E+00         0.00000E+00        -0.34033E+08
 
   -0.37780E+08        -0.26659E+06         0.00000E+00
   -0.26659E+06        -0.50173E+08         0.00000E+00
    0.00000E+00         0.00000E+00        -0.34016E+08
 
   -0.37671E+08        -0.25258E+06         0.00000E+00
   -0.25258E+06        -0.50199E+08         0.00000E+00
    0.00000E+00         0.00000E+00        -0.33999E+08
 
   -0.37560E+08        -0.23329E+06         0.00000E+00
   -0.23329E+06        -0.50226E+08         0.00000E+00
    0.00000E+00         0.00000E+00        -0.33982E+08
 
   -0.37447E+08        -0.20887E+06         0.00000E+00
   -0.20887E+06        -0.50254E+08         0.00000E+00
    0.00000E+00         0.00000E+00        -0.33965E+08
 
   -0.37332E+08        -0.17946E+06         0.00000E+00
   -0.17946E+06        -0.50283E+08         0.00000E+00
    0.00000E+00         0.00000E+00        -0.33948E+08
 
   -0.37216E+08        -0.14522E+06         0.00000E+00
   -0.14522E+06        -0.50312E+08         0.00000E+00
    0.00000E+00         0.00000E+00        -0.33931E+08
 
   -0.37099E+08        -0.10629E+06         0.00000E+00
   -0.10629E+06        -0.50342E+08         0.00000E+00
    0.00000E+00         0.00000E+00        -0.33913E+08
 
   -0.36981E+08        -0.62821E+05         0.00000E+00
   -0.62821E+05        -0.50373E+08         0.00000E+00
    0.00000E+00         0.00000E+00        -0.33895E+08
 
   -0.36862E+08        -0.14931E+05         0.00000E+00
   -0.14931E+05        -0.50404E+08         0.00000E+00
    0.00000E+00         0.00000E+00        -0.33878E+08
 
   -0.36742E+08         0.37253E+05         0.00000E+00
    0.37253E+05        -0.50436E+08         0.00000E+00
    0.00000E+00         0.00000E+00        -0.33860E+08
 
   -0.36622E+08         0.93619E+05         0.00000E+00
    0.93619E+05        -0.50468E+08         0.00000E+00
    0.00000E+00         0.00000E+00        -0.33842E+08
 
   -0.36501E+08         0.15406E+06         0.00000E+00
    0.15406E+06        -0.50501E+08         0.00000E+00
    0.00000E+00         0.00000E+00        -0.33825E+08
 
   -0.36380E+08         0.21849E+06         0.00000E+00
    0.21849E+06        -0.50535E+08         0.00000E+00
    0.00000E+00         0.00000E+00        -0.33807E+08
 
   -0.36259E+08         0.28682E+06         0.00000E+00
    0.28682E+06        -0.50569E+08         0.00000E+00
    0.00000E+00         0.00000E+00        -0.33790E+08
 
   -0.36137E+08         0.35899E+06         0.00000E+00
    0.35899E+06        -0.50604E+08         0.00000E+00
    0.00000E+00         0.00000E+00        -0.33772E+08
 
   -0.36016E+08         0.43494E+06         0.00000E+00
    0.43494E+06        -0.50640E+08         0.00000E+00
    0.00000E+00         0.00000E+00        -0.33755E+08
 
   -0.35895E+08         0.51461E+06         0.00000E+00
    0.51461E+06        -0.50676E+08         0.00000E+00
    0.00000E+00         0.00000E+00        -0.33738E+08
 
   -0.35774E+08         0.59797E+06         0.00000E+00
    0.59797E+06        -0.50712E+08         0.00000E+00
    0.00000E+00         0.00000E+00        -0.33721E+08
 
   -0.35653E+08         0.68500E+06         0.00000E+00
    0.68500E+06        -0.50749E+08         0.00000E+00
    0.00000E+00         0.00000E+00        -0.33704E+08
 
   -0.35532E+08         0.77567E+06         0.00000E+00
    0.77567E+06        -0.50787E+08         0.00000E+00
    0.00000E+00         0.00000E+00        -0.33687E+08
 
   -0.35412E+08         0.86997E+06         0.00000E+00
    0.86997E+06        -0.50826E+08         0.00000E+00
    0.00000E+00         0.00000E+00        -0.33671E+08
 
   -0.35292E+08         0.96791E+06         0.00000E+00
    0.96791E+06        -0.50865E+08         0.00000E+00
    0.00000E+00         0.00000E+00        -0.33654E+08
 
   -0.35173E+08         0.10695E+07         0.00000E+00
    0.10695E+07        -0.50905E+08         0.00000E+00
    0.00000E+00         0.00000E+00        -0.33639E+08
 
   -0.35055E+08         0.11747E+07         0.00000E+00
    0.11747E+07        -0.50945E+08         0.00000E+00
    0.00000E+00         0.00000E+00        -0.33623E+08
 
   -0.34937E+08         0.12835E+07         0.00000E+00
    0.12835E+07        -0.50986E+08         0.00000E+00
    0.00000E+00         0.00000E+00        -0.33607E+08
 
   -0.34820E+08         0.13961E+07         0.00000E+00
    0.13961E+07        -0.51027E+08         0.00000E+00
    0.00000E+00         0.00000E+00        -0.33592E+08
 
   -0.34705E+08         0.15123E+07         0.00000E+00
    0.15123E+07        -0.51068E+08         0.00000E+00
    0.00000E+00         0.00000E+00        -0.33577E+08
 
   -0.34591E+08         0.16321E+07         0.00000E+00
    0.16321E+07        -0.51110E+08         0.00000E+00
    0.00000E+00         0.00000E+00        -0.33563E+08
 
   -0.34478E+08         0.17557E+07         0.00000E+00
    0.17557E+07        -0.51153E+08         0.00000E+00
    0.00000E+00         0.00000E+00        -0.33548E+08
 
   -0.34367E+08         0.18830E+07         0.00000E+00
    0.18830E+07        -0.51195E+08         0.00000E+00
    0.00000E+00         0.00000E+00        -0.33535E+08
 
   -0.34257E+08         0.20139E+07         0.00000E+00
    0.20139E+07        -0.51237E+08         0.00000E+00
    0.00000E+00         0.00000E+00        -0.33521E+08
 
   -0.34149E+08         0.21486E+07         0.00000E+00
    0.21486E+07        -0.51280E+08         0.00000E+00
    0.00000E+00         0.00000E+00        -0.33508E+08
 
   -0.34044E+08         0.22869E+07         0.00000E+00
    0.22869E+07        -0.51322E+08         0.00000E+00
    0.00000E+00         0.00000E+00        -0.33495E+08
 
   -0.33941E+08         0.24288E+07         0.00000E+00
    0.24288E+07        -0.51364E+08         0.00000E+00
    0.00000E+00         0.00000E+00        -0.33483E+08
 
   -0.33840E+08         0.25742E+07         0.00000E+00
    0.25742E+07        -0.51406E+08         0.00000E+00
    0.00000E+00         0.00000E+00        -0.33471E+08
 
   -0.33742E+08         0.27232E+07         0.00000E+00
    0.27232E+07        -0.51447E+08         0.00000E+00
    0.00000E+00         0.00000E+00        -0.33460E+08
 
   -0.33647E+08         0.28755E+07         0.00000E+00
    0.28755E+07        -0.51488E+08         0.00000E+00
    0.00000E+00         0.00000E+00        -0.33449E+08
 
   -0.33555E+08         0.30312E+07         0.00000E+00
    0.30312E+07        -0.51528E+08         0.00000E+00
    0.00000E+00         0.00000E+00        -0.33439E+08
 
   -0.33467E+08         0.31901E+07         0.00000E+00
    0.31901E+07        -0.51567E+08         0.00000E+00
    0.00000E+00         0.00000E+00        -0.33429E+08
 
   -0.39048E+08        -0.43794E+05         0.00000E+00
   -0.43794E+05        -0.49999E+08         0.00000E+00
    0.00000E+00         0.00000E+00        -0.33567E+08
 
   -0.38953E+08        -0.11266E+06         0.00000E+00
   -0.11266E+06        -0.50003E+08         0.00000E+00
    0.00000E+00         0.00000E+00        -0.33549E+08
 
   -0.38851E+08        -0.17356E+06         0.00000E+00
   -0.17356E+06        -0.50010E+08         0.00000E+00
    0.00000E+00         0.00000E+00        -0.33530E+08
 
   -0.38744E+08        -0.22663E+06         0.00000E+00
   -0.22663E+06        -0.50020E+08         0.00000E+00
    0.00000E+00         0.00000E+00        -0.33511E+08
 
   -0.38631E+08        -0.27197E+06         0.00000E+00
   -0.27197E+06        -0.50032E+08         0.00000E+00
    0.00000E+00         0.00000E+00        -0.33491E+08
 
   -0.38513E+08        -0.30971E+06         0.00000E+00
   -0.30971E+06        -0.50046E+08         0.00000E+00
    0.00000E+00         0.00000E+00        -0.33470E+08
 
   -0.38391E+08        -0.34003E+06         0.00000E+00
   -0.34003E+06        -0.50063E+08         0.00000E+00
    0.00000E+00         0.00000E+00        -0.33449E+08
 
   -0.38266E+08        -0.36312E+06         0.00000E+00
   -0.36312E+06        -0.50081E+08         0.00000E+00
    0.00000E+00         0.00000E+00        -0.33428E+08
 
   -0.38137E+08        -0.37922E+06         0.00000E+00
   -0.37922E+06        -0.50100E+08         0.00000E+00
    0.00000E+00         0.00000E+00        -0.33406E+08
 
   -0.38005E+08        -0.38855E+06         0.00000E+00
   -0.38855E+06        -0.50121E+08         0.00000E+00
    0.00000E+00         0.00000E+00        -0.33384E+08
 
   -0.37872E+08        -0.39135E+06         0.00000E+00
   -0.39135E+06        -0.50142E+08         0.00000E+00
    0.00000E+00         0.00000E+00        -0.33361E+08
 
   -0.37736E+08        -0.38787E+06         0.00000E+00
   -0.38787E+06        -0.50165E+08         0.00000E+00
    0.00000E+00         0.00000E+00        -0.33339E+08
 
   -0.37599E+08        -0.37837E+06         0.00000E+00
   -0.37837E+06        -0.50188E+08         0.00000E+00
    0.00000E+00         0.00000E+00        -0.33316E+08
 
   -0.37461E+08        -0.36311E+06         0.00000E+00
   -0.36311E+06        -0.50212E+08         0.00000E+00
    0.00000E+00         0.00000E+00        -0.33293E+08
 
   -0.37322E+08        -0.34234E+06         0.00000E+00
   -0.34234E+06        -0.50236E+08         0.00000E+00
    0.00000E+00         0.00000E+00        -0.33271E+08
 
   -0.37182E+08        -0.31629E+06         0.00000E+00
   -0.31629E+06        -0.50261E+08         0.00000E+00
    0.00000E+00         0.00000E+00        -0.33248E+08
 
   -0.37042E+08        -0.28521E+06         0.00000E+00
   -0.28521E+06        -0.50287E+08         0.00000E+00
    0.00000E+00         0.00000E+00        -0.33225E+08
 
   -0.36901E+08        -0.24931E+06         0.00000E+00
   -0.24931E+06        -0.50313E+08         0.00000E+00
    0.00000E+00         0.00000E+00        -0.33202E+08
 
   -0.36760E+08        -0.20880E+06         0.00000E+00
   -0.20880E+06        -0.50339E+08         0.00000E+00
    0.00000E+00         0.00000E+00        -0.33179E+08
 
   -0.36619E+08        -0.16387E+06         0.00000E+00
   -0.16387E+06        -0.50366E+08         0.00000E+00
    0.00000E+00         0.00000E+00        -0.33157E+08
 
   -0.36479E+08        -0.11469E+06         0.00000E+00
   -0.11469E+06        -0.50394E+08         0.00000E+00
    0.00000E+00         0.00000E+00        -0.33134E+08
 
   -0.36338E+08        -0.61409E+05         0.00000E+00
   -0.61409E+05        -0.50422E+08         0.00000E+00
    0.00000E+00         0.00000E+00        -0.33112E+08
 
   -0.36197E+08        -0.41638E+04         0.00000E+00
   -0.41638E+04        -0.50451E+08         0.00000E+00
    0.00000E+00         0.00000E+00        -0.33090E+08
 
   -0.36057E+08         0.56934E+05         0.00000E+00
    0.56934E+05        -0.50481E+08         0.00000E+00
    0.00000E+00         0.00000E+00        -0.33068E+08
 
   -0.35917E+08         0.12179E+06         0.00000E+00
    0.12179E+06        -0.50512E+08         0.00000E+00
    0.00000E+00         0.00000E+00        -0.33046E+08
 
   -0.35776E+08         0.19033E+06         0.00000E+00
    0.19033E+06        -0.50543E+08         0.00000E+00
    0.00000E+00         0.00000E+00        -0.33024E+08
 
   -0.35637E+08         0.26250E+06         0.00000E+00
    0.26250E+06        -0.50575E+08         0.00000E+00
    0.00000E+00         0.00000E+00        -0.33003E+08
 
   -0.35497E+08         0.33826E+06         0.00000E+00
    0.33826E+06        -0.50608E+08         0.00000E+00
    0.00000E+00         0.00000E+00        -0.32982E+08
 
   -0.35358E+08         0.41758E+06         0.00000E+00
    0.41758E+06        -0.50643E+08         0.00000E+00
    0.00000E+00         0.00000E+00        -0.32961E+08
 
   -0.35219E+08         0.50048E+06         0.00000E+00
    0.50048E+06        -0.50678E+08         0.00000E+00
    0.00000E+00         0.00000E+00        -0.32940E+08
 
   -0.35080E+08         0.58694E+06         0.00000E+00
    0.58694E+06        -0.50714E+08         0.00000E+00
    0.00000E+00         0.00000E+00        -0.32920E+08
 
   -0.34942E+08         0.67701E+06         0.00000E+00
    0.67701E+06        -0.50752E+08         0.00000E+00
    0.00000E+00         0.00000E+00        -0.32900E+08
 
   -0.34804E+08         0.77073E+06         0.00000E+00
    0.77073E+06        -0.50790E+08         0.00000E+00
    0.00000E+00         0.00000E+00        -0.32880E+08
 
   -0.34666E+08         0.86813E+06         0.00000E+00
    0.86813E+06        -0.50830E+08         0.00000E+00
    0.00000E+00         0.00000E+00        -0.32860E+08
 
   -0.34529E+08         0.96929E+06         0.00000E+00
    0.96929E+06        -0.50871E+08         0.00000E+00
    0.00000E+00         0.00000E+00        -0.32841E+08
 
   -0.34393E+08         0.10743E+07         0.00000E+00
    0.10743E+07        -0.50913E+08         0.00000E+00
    0.00000E+00         0.00000E+00        -0.32822E+08
 
   -0.34257E+08         0.11832E+07         0.00000E+00
    0.11832E+07        -0.50956E+08         0.00000E+00
    0.00000E+00         0.00000E+00        -0.32804E+08
 
   -0.34122E+08         0.12960E+07         0.00000E+00
    0.12960E+07        -0.51001E+08         0.00000E+00
    0.00000E+00         0.00000E+00        -0.32786E+08
 
   -0.33989E+08         0.14129E+07         0.00000E+00
    0.14129E+07        -0.51046E+08         0.00000E+00
    0.00000E+00         0.00000E+00        -0.32768E+08
 
   -0.33856E+08         0.15340E+07         0.00000E+00
    0.15340E+07        -0.51092E+08         0.00000E+00
    0.00000E+00         0.00000E+00        -0.32751E+08
 
   -0.33725E+08         0.16592E+07         0.00000E+00
    0.16592E+07        -0.51139E+08         0.00000E+00
    0.00000E+00         0.00000E+00        -0.32734E+08
 
   -0.33596E+08         0.17887E+07         0.00000E+00
    0.17887E+07        -0.51186E+08         0.00000E+00
    0.00000E+00         0.00000E+00        -0.32718E+08
 
   -0.33468E+08         0.19225E+07         0.00000E+00
    0.19225E+07        -0.51234E+08         0.00000E+00
    0.00000E+00         0.00000E+00        -0.32702E+08
 
   -0.33343E+08         0.20606E+07         0.00000E+00
    0.20606E+07        -0.51283E+08         0.00000E+00
    0.00000E+00         0.00000E+00        -0.32687E+08
 
   -0.33220E+08         0.22032E+07         0.00000E+00
    0.22032E+07        -0.51332E+08         0.00000E+00
    0.00000E+00         0.00000E+00        -0.32672E+08
 
   -0.33100E+08         0.23500E+07         0.00000E+00
    0.23500E+07        -0.51380E+08         0.00000E+00
    0.00000E+00         0.00000E+00        -0.32658E+08
 
   -0.32982E+08         0.25012E+07         0.00000E+00
    0.25012E+07        -0.51429E+08         0.00000E+00
    0.00000E+00         0.00000E+00        -0.32644E+08
 
   -0.32869E+08         0.26567E+07         0.00000E+00
    0.26567E+07        -0.51477E+08         0.00000E+00
    0.00000E+00         0.00000E+00        -0.32631E+08
 
   -0.32759E+08         0.28163E+07         0.00000E+00
    0.28163E+07        -0.51524E+08         0.00000E+00
    0.00000E+00         0.00000E+00        -0.32618E+08
 
   -0.32653E+08         0.29800E+07         0.00000E+00
    0.29800E+07        -0.51571E+08         0.00000E+00
    0.00000E+00         0.00000E+00        -0.32606E+08
 
   -0.39455E+08        -0.54336E+05         0.00000E+00
   -0.54336E+05        -0.49999E+08         0.00000E+00
    0.00000E+00         0.00000E+00        -0.32971E+08
 
   -0.39316E+08        -0.13944E+06         0.00000E+00
   -0.13944E+06        -0.50003E+08         0.00000E+00
    0.00000E+00         0.00000E+00        -0.32944E+08
 
   -0.39170E+08        -0.21471E+06         0.00000E+00
   -0.21471E+06        -0.50010E+08         0.00000E+00
    0.00000E+00         0.00000E+00        -0.32917E+08
 
   -0.39019E+08        -0.28016E+06         0.00000E+00
   -0.28016E+06        -0.50019E+08         0.00000E+00
    0.00000E+00         0.00000E+00        -0.32888E+08
 
   -0.38864E+08        -0.33607E+06         0.00000E+00
   -0.33607E+06        -0.50031E+08         0.00000E+00
    0.00000E+00         0.00000E+00        -0.32860E+08
 
   -0.38705E+08        -0.38277E+06         0.00000E+00
   -0.38277E+06        -0.50044E+08         0.00000E+00
    0.00000E+00         0.00000E+00        -0.32831E+08
 
   -0.38543E+08        -0.42058E+06         0.00000E+00
   -0.42058E+06        -0.50058E+08         0.00000E+00
    0.00000E+00         0.00000E+00        -0.32802E+08
 
   -0.38379E+08        -0.44988E+06         0.00000E+00
   -0.44988E+06        -0.50074E+08         0.00000E+00
    0.00000E+00         0.00000E+00        -0.32772E+08
 
   -0.38213E+08        -0.47103E+06         0.00000E+00
   -0.47103E+06        -0.50090E+08         0.00000E+00
    0.00000E+00         0.00000E+00        -0.32742E+08
 
   -0.38046E+08        -0.48444E+06         0.00000E+00
   -0.48444E+06        -0.50107E+08         0.00000E+00
    0.00000E+00         0.00000E+00        -0.32713E+08
 
   -0.37879E+08        -0.49054E+06         0.00000E+00
   -0.49054E+06        -0.50124E+08         0.00000E+00
    0.00000E+00         0.00000E+00        -0.32683E+08
 
   -0.37711E+08        -0.48977E+06         0.00000E+00
   -0.48977E+06        -0.50141E+08         0.00000E+00
    0.00000E+00         0.00000E+00        -0.32653E+08
 
   -0.37544E+08        -0.48254E+06         0.00000E+00
   -0.48254E+06        -0.50158E+08         0.00000E+00
    0.00000E+00         0.00000E+00        -0.32623E+08
 
   -0.37377E+08        -0.46927E+06         0.00000E+00
   -0.46927E+06        -0.50176E+08         0.00000E+00
    0.00000E+00         0.00000E+00        -0.32594E+08
 
   -0.37211E+08        -0.45037E+06         0.00000E+00
   -0.45037E+06        -0.50193E+08         0.00000E+00
    0.00000E+00         0.00000E+00        -0.32564E+08
 
   -0.37045E+08        -0.42619E+06         0.00000E+00
   -0.42619E+06        -0.50211E+08         0.00000E+00
    0.00000E+00         0.00000E+00        -0.32535E+08
 
   -0.36880E+08        -0.39709E+06         0.00000E+00
   -0.39709E+06        -0.50229E+08         0.00000E+00
    0.00000E+00         0.00000E+00        -0.32506E+08
 
   -0.36717E+08        -0.36337E+06         0.00000E+00
   -0.36337E+06        -0.50247E+08         0.00000E+00
    0.00000E+00         0.00000E+00        -0.32477E+08
 
   -0.36554E+08        -0.32532E+06         0.00000E+00
   -0.32532E+06        -0.50266E+08         0.00000E+00
    0.00000E+00         0.00000E+00        -0.32449E+08
 
   -0.36392E+08        -0.28319E+06         0.00000E+00
   -0.28319E+06        -0.50285E+08         0.00000E+00
    0.00000E+00         0.00000E+00        -0.32421E+08
 
   -0.36231E+08        -0.23718E+06         0.00000E+00
   -0.23718E+06        -0.50305E+08         0.00000E+00
    0.00000E+00         0.00000E+00        -0.32393E+08
 
   -0.36071E+08        -0.18748E+06         0.00000E+00
   -0.18748E+06        -0.50326E+08         0.00000E+00
    0.00000E+00         0.00000E+00        -0.32365E+08
 
   -0.35912E+08        -0.13425E+06         0.00000E+00
   -0.13425E+06        -0.50347E+08         0.00000E+00
    0.00000E+00         0.00000E+00        -0.32338E+08
 
   -0.35754E+08        -0.77607E+05         0.00000E+00
   -0.77607E+05        -0.50370E+08         0.00000E+00
    0.00000E+00         0.00000E+00        -0.32311E+08
 
   -0.35596E+08        -0.17648E+05         0.00000E+00
   -0.17648E+05        -0.50393E+08         0.00000E+00
    0.00000E+00         0.00000E+00        -0.32285E+08
 
   -0.35439E+08         0.45558E+05         0.00000E+00
    0.45558E+05        -0.50418E+08         0.00000E+00
    0.00000E+00         0.00000E+00        -0.32258E+08
 
   -0.35282E+08         0.11197E+06         0.00000E+00
    0.11197E+06        -0.50444E+08         0.00000E+00
    0.00000E+00         0.00000E+00        -0.32233E+08
 
   -0.35125E+08         0.18157E+06         0.00000E+00
    0.18157E+06        -0.50472E+08         0.00000E+00
    0.00000E+00         0.00000E+00        -0.32207E+08
 
   -0.34969E+08         0.25437E+06         0.00000E+00
    0.25437E+06        -0.50501E+08         0.00000E+00
    0.00000E+00         0.00000E+00        -0.32182E+08
 
   -0.34813E+08         0.33040E+06         0.00000E+00
    0.33040E+06        -0.50532E+08         0.00000E+00
    0.00000E+00         0.00000E+00        -0.32157E+08
 
   -0.34656E+08         0.40972E+06         0.00000E+00
    0.40972E+06        -0.50564E+08         0.00000E+00
    0.00000E+00         0.00000E+00        -0.32133E+08
 
   -0.34500E+08         0.49240E+06         0.00000E+00
    0.49240E+06        -0.50599E+08         0.00000E+00
    0.00000E+00         0.00000E+00        -0.32109E+08
 
   -0.34344E+08         0.57854E+06         0.00000E+00
    0.57854E+06        -0.50635E+08         0.00000E+00
    0.00000E+00         0.00000E+00        -0.32085E+08
 
   -0.34188E+08         0.66826E+06         0.00000E+00
    0.66826E+06        -0.50673E+08         0.00000E+00
    0.00000E+00         0.00000E+00        -0.32062E+08
 
   -0.34032E+08         0.76171E+06         0.00000E+00
    0.76171E+06        -0.50714E+08         0.00000E+00
    0.00000E+00         0.00000E+00        -0.32039E+08
 
   -0.33876E+08         0.85904E+06         0.00000E+00
    0.85904E+06        -0.50756E+08         0.00000E+00
    0.00000E+00         0.00000E+00        -0.32016E+08
 
   -0.33721E+08         0.96042E+06         0.00000E+00
    0.96042E+06        -0.50800E+08         0.00000E+00
    0.00000E+00         0.00000E+00        -0.31994E+08
 
   -0.33565E+08         0.10660E+07         0.00000E+00
    0.10660E+07        -0.50846E+08         0.00000E+00
    0.00000E+00         0.00000E+00        -0.31973E+08
 
   -0.33410E+08         0.11761E+07         0.00000E+00
    0.11761E+07        -0.50895E+08         0.00000E+00
    0.00000E+00         0.00000E+00        -0.31951E+08
 
   -0.33255E+08         0.12907E+07         0.00000E+00
    0.12907E+07        -0.50945E+08         0.00000E+00
    0.00000E+00         0.00000E+00        -0.31931E+08
 
   -0.33101E+08         0.14102E+07         0.00000E+00
    0.14102E+07        -0.50996E+08         0.00000E+00
    0.00000E+00         0.00000E+00        -0.31910E+08
 
   -0.32948E+08         0.15347E+07         0.00000E+00
    0.15347E+07        -0.51050E+08         0.00000E+00
    0.00000E+00         0.00000E+00        -0.31891E+08
 
   -0.32797E+08         0.16644E+07         0.00000E+00
    0.16644E+07        -0.51105E+08         0.00000E+00
    0.00000E+00         0.00000E+00        -0.31871E+08
 
   -0.32647E+08         0.17994E+07         0.00000E+00
    0.17994E+07        -0.51161E+08         0.00000E+00
    0.00000E+00         0.00000E+00        -0.31853E+08
 
   -0.32500E+08         0.19399E+07         0.00000E+00
    0.19399E+07        -0.51217E+08         0.00000E+00
    0.00000E+00         0.00000E+00        -0.31835E+08
 
   -0.32355E+08         0.20858E+07         0.00000E+00
    0.20858E+07        -0.51275E+08         0.00000E+00
    0.00000E+00         0.00000E+00        -0.31817E+08
 
   -0.32213E+08         0.22374E+07         0.00000E+00
    0.22374E+07        -0.51333E+08         0.00000E+00
    0.00000E+00         0.00000E+00        -0.31801E+08
 
   -0.32075E+08         0.23947E+07         0.00000E+00
    0.23947E+07        -0.51391E+08         0.00000E+00
    0.00000E+00         0.00000E+00        -0.31785E+08
 
   -0.31941E+08         0.25576E+07         0.00000E+00
    0.25576E+07        -0.51449E+08         0.00000E+00
    0.00000E+00         0.00000E+00        -0.31769E+08
 
   -0.31811E+08         0.27259E+07         0.00000E+00
    0.27259E+07        -0.51505E+08         0.00000E+00
    0.00000E+00         0.00000E+00        -0.31755E+08
 
   -0.39948E+08        -0.65339E+05         0.00000E+00
   -0.65339E+05        -0.49999E+08         0.00000E+00
    0.00000E+00         0.00000E+00        -0.32386E+08
 
   -0.39752E+08        -0.16578E+06         0.00000E+00
   -0.16578E+06        -0.50004E+08         0.00000E+00
    0.00000E+00         0.00000E+00        -0.32347E+08
 
   -0.39550E+08        -0.25299E+06         0.00000E+00
   -0.25299E+06        -0.50010E+08         0.00000E+00
    0.00000E+00         0.00000E+00        -0.32309E+08
 
   -0.39345E+08        -0.32803E+06         0.00000E+00
   -0.32803E+06        -0.50018E+08         0.00000E+00
    0.00000E+00         0.00000E+00        -0.32269E+08
 
   -0.39138E+08        -0.39131E+06         0.00000E+00
   -0.39131E+06        -0.50027E+08         0.00000E+00
    0.00000E+00         0.00000E+00        -0.32230E+08
 
   -0.38929E+08        -0.44324E+06         0.00000E+00
   -0.44324E+06        -0.50038E+08         0.00000E+00
    0.00000E+00         0.00000E+00        -0.32190E+08
 
   -0.38719E+08        -0.48434E+06         0.00000E+00
   -0.48434E+06        -0.50048E+08         0.00000E+00
    0.00000E+00         0.00000E+00        -0.32151E+08
 
   -0.38510E+08        -0.51530E+06         0.00000E+00
   -0.51530E+06        -0.50058E+08         0.00000E+00
    0.00000E+00         0.00000E+00        -0.32111E+08
 
   -0.38302E+08        -0.53687E+06         0.00000E+00
   -0.53687E+06        -0.50068E+08         0.00000E+00
    0.00000E+00         0.00000E+00        -0.32072E+08
 
   -0.38095E+08        -0.54983E+06         0.00000E+00
   -0.54983E+06        -0.50076E+08         0.00000E+00
    0.00000E+00         0.00000E+00        -0.32033E+08
 
   -0.37892E+08        -0.55498E+06         0.00000E+00
   -0.55498E+06        -0.50084E+08         0.00000E+00
    0.00000E+00         0.00000E+00        -0.31994E+08
 
   -0.37690E+08        -0.55305E+06         0.00000E+00
   -0.55305E+06        -0.50092E+08         0.00000E+00
    0.00000E+00         0.00000E+00        -0.31956E+08
 
   -0.37492E+08        -0.54473E+06         0.00000E+00
   -0.54473E+06        -0.50098E+08         0.00000E+00
    0.00000E+00         0.00000E+00        -0.31918E+08
 
   -0.37297E+08        -0.53066E+06         0.00000E+00
   -0.53066E+06        -0.50104E+08         0.00000E+00
    0.00000E+00         0.00000E+00        -0.31881E+08
 
   -0.37104E+08        -0.51140E+06         0.00000E+00
   -0.51140E+06        -0.50110E+08         0.00000E+00
    0.00000E+00         0.00000E+00        -0.31844E+08
 
   -0.36914E+08        -0.48744E+06         0.00000E+00
   -0.48744E+06        -0.50115E+08         0.00000E+00
    0.00000E+00         0.00000E+00        -0.31807E+08
 
   -0.36728E+08        -0.45922E+06         0.00000E+00
   -0.45922E+06        -0.50121E+08         0.00000E+00
    0.00000E+00         0.00000E+00        -0.31772E+08
 
   -0.36543E+08        -0.42711E+06         0.00000E+00
   -0.42711E+06        -0.50126E+08         0.00000E+00
    0.00000E+00         0.00000E+00        -0.31736E+08
 
   -0.36361E+08        -0.39144E+06         0.00000E+00
   -0.39144E+06        -0.50132E+08         0.00000E+00
    0.00000E+00         0.00000E+00        -0.31702E+08
 
   -0.36181E+08        -0.35248E+06         0.00000E+00
   -0.35248E+06        -0.50139E+08         0.00000E+00
    0.00000E+00         0.00000E+00        -0.31668E+08
 
   -0.36004E+08        -0.31045E+06         0.00000E+00
   -0.31045E+06        -0.50147E+08         0.00000E+00
    0.00000E+00         0.00000E+00        -0.31634E+08
 
   -0.35827E+08        -0.26553E+06         0.00000E+00
   -0.26553E+06        -0.50156E+08         0.00000E+00
    0.00000E+00         0.00000E+00        -0.31601E+08
 
   -0.35653E+08        -0.21787E+06         0.00000E+00
   -0.21787E+06        -0.50166E+08         0.00000E+00
    0.00000E+00         0.00000E+00        -0.31569E+08
 
   -0.35479E+08        -0.16758E+06         0.00000E+00
   -0.16758E+06        -0.50177E+08         0.00000E+00
    0.00000E+00         0.00000E+00        -0.31537E+08
 
   -0.35307E+08        -0.11474E+06         0.00000E+00
   -0.11474E+06        -0.50190E+08         0.00000E+00
    0.00000E+00         0.00000E+00        -0.31505E+08
 
   -0.35135E+08        -0.59374E+05         0.00000E+00
   -0.59374E+05        -0.50205E+08         0.00000E+00
    0.00000E+00         0.00000E+00        -0.31475E+08
 
   -0.34964E+08        -0.15112E+04         0.00000E+00
   -0.15112E+04        -0.50222E+08         0.00000E+00
    0.00000E+00         0.00000E+00        -0.31444E+08
 
   -0.34793E+08         0.58867E+05         0.00000E+00
    0.58867E+05        -0.50241E+08         0.00000E+00
    0.00000E+00         0.00000E+00        -0.31414E+08
 
   -0.34622E+08         0.12180E+06         0.00000E+00
    0.12180E+06        -0.50262E+08         0.00000E+00
    0.00000E+00         0.00000E+00        -0.31385E+08
 
   -0.34451E+08         0.18737E+06         0.00000E+00
    0.18737E+06        -0.50286E+08         0.00000E+00
    0.00000E+00         0.00000E+00        -0.31356E+08
 
   -0.34279E+08         0.25567E+06         0.00000E+00
    0.25567E+06        -0.50312E+08         0.00000E+00
    0.00000E+00         0.00000E+00        -0.31327E+08
 
   -0.34107E+08         0.32683E+06         0.00000E+00
    0.32683E+06        -0.50341E+08         0.00000E+00
    0.00000E+00         0.00000E+00        -0.31299E+08
 
   -0.33934E+08         0.40100E+06         0.00000E+00
    0.40100E+06        -0.50373E+08         0.00000E+00
    0.00000E+00         0.00000E+00        -0.31271E+08
 
   -0.33761E+08         0.47839E+06         0.00000E+00
    0.47839E+06        -0.50408E+08         0.00000E+00
    0.00000E+00         0.00000E+00        -0.31244E+08
 
   -0.33586E+08         0.55920E+06         0.00000E+00
    0.55920E+06        -0.50446E+08         0.00000E+00
    0.00000E+00         0.00000E+00        -0.31217E+08
 
   -0.33411E+08         0.64369E+06         0.00000E+00
    0.64369E+06        -0.50486E+08         0.00000E+00
    0.00000E+00         0.00000E+00        -0.31190E+08
 
   -0.33234E+08         0.73215E+06         0.00000E+00
    0.73215E+06        -0.50531E+08         0.00000E+00
    0.00000E+00         0.00000E+00        -0.31164E+08
 
   -0.33056E+08         0.82491E+06         0.00000E+00
    0.82491E+06        -0.50578E+08         0.00000E+00
    0.00000E+00         0.00000E+00        -0.31138E+08
 
   -0.32878E+08         0.92231E+06         0.00000E+00
    0.92231E+06        -0.50629E+08         0.00000E+00
    0.00000E+00         0.00000E+00        -0.31113E+08
 
   -0.32698E+08         0.10248E+07         0.00000E+00
    0.10248E+07        -0.50683E+08         0.00000E+00
    0.00000E+00         0.00000E+00        -0.31088E+08
 
   -0.32518E+08         0.11326E+07         0.00000E+00
    0.11326E+07        -0.50740E+08         0.00000E+00
    0.00000E+00         0.00000E+00        -0.31063E+08
 
   -0.32337E+08         0.12464E+07         0.00000E+00
    0.12464E+07        -0.50800E+08         0.00000E+00
    0.00000E+00         0.00000E+00        -0.31040E+08
 
   -0.32156E+08         0.13665E+07         0.00000E+00
    0.13665E+07        -0.50863E+08         0.00000E+00
    0.00000E+00         0.00000E+00        -0.31016E+08
 
   -0.31976E+08         0.14933E+07         0.00000E+00
    0.14933E+07        -0.50929E+08         0.00000E+00
    0.00000E+00         0.00000E+00        -0.30994E+08
 
   -0.31797E+08         0.16272E+07         0.00000E+00
    0.16272E+07        -0.50997E+08         0.00000E+00
    0.00000E+00         0.00000E+00        -0.30972E+08
 
   -0.31620E+08         0.17684E+07         0.00000E+00
    0.17684E+07        -0.51066E+08         0.00000E+00
    0.00000E+00         0.00000E+00        -0.30950E+08
 
   -0.31445E+08         0.19172E+07         0.00000E+00
    0.19172E+07        -0.51137E+08         0.00000E+00
    0.00000E+00         0.00000E+00        -0.30929E+08
 
   -0.31273E+08         0.20736E+07         0.00000E+00
    0.20736E+07        -0.51209E+08         0.00000E+00
    0.00000E+00         0.00000E+00        -0.30910E+08
 
   -0.31106E+08         0.22379E+07         0.00000E+00
    0.22379E+07        -0.51280E+08         0.00000E+00
    0.00000E+00         0.00000E+00        -0.30890E+08
 
   -0.30943E+08         0.24106E+07         0.00000E+00
    0.24106E+07        -0.51353E+08         0.00000E+00
    0.00000E+00         0.00000E+00        -0.30872E+08
 
   -0.40519E+08        -0.77126E+05         0.00000E+00
   -0.77126E+05        -0.50000E+08         0.00000E+00
    0.00000E+00         0.00000E+00        -0.31813E+08
 
   -0.40248E+08        -0.18883E+06         0.00000E+00
   -0.18883E+06        -0.50002E+08         0.00000E+00
    0.00000E+00         0.00000E+00        -0.31759E+08
 
   -0.39975E+08        -0.28541E+06         0.00000E+00
   -0.28541E+06        -0.50009E+08         0.00000E+00
    0.00000E+00         0.00000E+00        -0.31706E+08
 
   -0.39700E+08        -0.36507E+06         0.00000E+00
   -0.36507E+06        -0.50016E+08         0.00000E+00
    0.00000E+00         0.00000E+00        -0.31652E+08
 
   -0.39425E+08        -0.42829E+06         0.00000E+00
   -0.42829E+06        -0.50022E+08         0.00000E+00
    0.00000E+00         0.00000E+00        -0.31599E+08
 
   -0.39154E+08        -0.47653E+06         0.00000E+00
   -0.47653E+06        -0.50025E+08         0.00000E+00
    0.00000E+00         0.00000E+00        -0.31546E+08
 
   -0.38887E+08        -0.51160E+06         0.00000E+00
   -0.51160E+06        -0.50026E+08         0.00000E+00
    0.00000E+00         0.00000E+00        -0.31493E+08
 
   -0.38627E+08        -0.53528E+06         0.00000E+00
   -0.53528E+06        -0.50023E+08         0.00000E+00
    0.00000E+00         0.00000E+00        -0.31441E+08
 
   -0.38373E+08        -0.54922E+06         0.00000E+00
   -0.54922E+06        -0.50018E+08         0.00000E+00
    0.00000E+00         0.00000E+00        -0.31390E+08
 
   -0.38127E+08        -0.55486E+06         0.00000E+00
   -0.55486E+06        -0.50011E+08         0.00000E+00
    0.00000E+00         0.00000E+00        -0.31339E+08
 
   -0.37888E+08        -0.55346E+06         0.00000E+00
   -0.55346E+06        -0.50001E+08         0.00000E+00
    0.00000E+00         0.00000E+00        -0.31290E+08
 
   -0.37655E+08        -0.54606E+06         0.00000E+00
   -0.54606E+06        -0.49990E+08         0.00000E+00
    0.00000E+00         0.00000E+00        -0.31242E+08
 
   -0.37429E+08        -0.53354E+06         0.00000E+00
   -0.53354E+06        -0.49978E+08         0.00000E+00
    0.00000E+00         0.00000E+00        -0.31195E+08
 
   -0.37210E+08        -0.51663E+06         0.00000E+00
   -0.51663E+06        -0.49965E+08         0.00000E+00
    0.00000E+00         0.00000E+00        -0.31149E+08
 
   -0.36996E+08        -0.49592E+06         0.00000E+00
   -0.49592E+06        -0.49952E+08         0.00000E+00
    0.00000E+00         0.00000E+00        -0.31104E+08
 
   -0.36787E+08        -0.47192E+06         0.00000E+00
   -0.47192E+06        -0.49939E+08         0.00000E+00
    0.00000E+00         0.00000E+00        -0.31060E+08
 
   -0.36583E+08        -0.44503E+06         0.00000E+00
   -0.44503E+06        -0.49926E+08         0.00000E+00
    0.00000E+00         0.00000E+00        -0.31018E+08
 
   -0.36383E+08        -0.41557E+06         0.00000E+00
   -0.41557E+06        -0.49914E+08         0.00000E+00
    0.00000E+00         0.00000E+00        -0.30976E+08
 
   -0.36187E+08        -0.38382E+06         0.00000E+00
   -0.38382E+06        -0.49903E+08         0.00000E+00
    0.00000E+00         0.00000E+00        -0.30935E+08
 
   -0.35994E+08        -0.34999E+06         0.00000E+00
   -0.34999E+06        -0.49894E+08         0.00000E+00
    0.00000E+00         0.00000E+00        -0.30895E+08
 
   -0.35804E+08        -0.31423E+06         0.00000E+00
   -0.31423E+06        -0.49885E+08         0.00000E+00
    0.00000E+00         0.00000E+00        -0.30856E+08
 
   -0.35616E+08        -0.27669E+06         0.00000E+00
   -0.27669E+06        -0.49879E+08         0.00000E+00
    0.00000E+00         0.00000E+00        -0.30818E+08
 
   -0.35430E+08        -0.23744E+06         0.00000E+00
   -0.23744E+06        -0.49874E+08         0.00000E+00
    0.00000E+00         0.00000E+00        -0.30780E+08
 
   -0.35246E+08        -0.19656E+06         0.00000E+00
   -0.19656E+06        -0.49872E+08         0.00000E+00
    0.00000E+00         0.00000E+00        -0.30743E+08
 
   -0.35063E+08        -0.15406E+06         0.00000E+00
   -0.15406E+06        -0.49872E+08         0.00000E+00
    0.00000E+00         0.00000E+00        -0.30707E+08
 
   -0.34881E+08        -0.10996E+06         0.00000E+00
   -0.10996E+06        -0.49875E+08         0.00000E+00
    0.00000E+00         0.00000E+00        -0.30672E+08
 
   -0.34699E+08        -0.64235E+05         0.00000E+00
   -0.64235E+05        -0.49880E+08         0.00000E+00
    0.00000E+00         0.00000E+00        -0.30637E+08
 
   -0.34517E+08        -0.16841E+05         0.00000E+00
   -0.16841E+05        -0.49888E+08         0.00000E+00
    0.00000E+00         0.00000E+00        -0.30603E+08
 
   -0.34335E+08         0.32289E+05         0.00000E+00
    0.32289E+05        -0.49900E+08         0.00000E+00
    0.00000E+00         0.00000E+00        -0.30569E+08
 
   -0.34153E+08         0.83251E+05         0.00000E+00
    0.83251E+05        -0.49914E+08         0.00000E+00
    0.00000E+00         0.00000E+00        -0.30536E+08
 
   -0.33969E+08         0.13616E+06         0.00000E+00
    0.13616E+06        -0.49932E+08         0.00000E+00
    0.00000E+00         0.00000E+00        -0.30504E+08
 
   -0.33784E+08         0.19118E+06         0.00000E+00
    0.19118E+06        -0.49954E+08         0.00000E+00
    0.00000E+00         0.00000E+00        -0.30471E+08
 
   -0.33598E+08         0.24847E+06         0.00000E+00
    0.24847E+06        -0.49979E+08         0.00000E+00
    0.00000E+00         0.00000E+00        -0.30440E+08
 
   -0.33409E+08         0.30827E+06         0.00000E+00
    0.30827E+06        -0.50009E+08         0.00000E+00
    0.00000E+00         0.00000E+00        -0.30408E+08
 
   -0.33218E+08         0.37082E+06         0.00000E+00
    0.37082E+06        -0.50042E+08         0.00000E+00
    0.00000E+00         0.00000E+00        -0.30377E+08
 
   -0.33025E+08         0.43642E+06         0.00000E+00
    0.43642E+06        -0.50080E+08         0.00000E+00
    0.00000E+00         0.00000E+00        -0.30346E+08
 
   -0.32829E+08         0.50544E+06         0.00000E+00
    0.50544E+06        -0.50122E+08         0.00000E+00
    0.00000E+00         0.00000E+00        -0.30316E+08
 
   -0.32629E+08         0.57828E+06         0.00000E+00
    0.57828E+06        -0.50168E+08         0.00000E+00
    0.00000E+00         0.00000E+00        -0.30286E+08
 
   -0.32427E+08         0.65544E+06         0.00000E+00
    0.65544E+06        -0.50220E+08         0.00000E+00
    0.00000E+00         0.00000E+00        -0.30256E+08
 
   -0.32221E+08         0.73746E+06         0.00000E+00
    0.73746E+06        -0.50277E+08         0.00000E+00
    0.00000E+00         0.00000E+00        -0.30226E+08
 
   -0.32011E+08         0.82502E+06         0.00000E+00
    0.82502E+06        -0.50338E+08         0.00000E+00
    0.00000E+00         0.00000E+00        -0.30197E+08
 
   -0.31799E+08         0.91886E+06         0.00000E+00
    0.91886E+06        -0.50405E+08         0.00000E+00
    0.00000E+00         0.00000E+00        -0.30168E+08
 
   -0.31582E+08         0.10198E+07         0.00000E+00
    0.10198E+07        -0.50477E+08         0.00000E+00
    0.00000E+00         0.00000E+00        -0.30139E+08
 
   -0.31363E+08         0.11289E+07         0.00000E+00
    0.11289E+07        -0.50554E+08         0.00000E+00
    0.00000E+00         0.00000E+00        -0.30111E+08
 
   -0.31142E+08         0.12472E+07         0.00000E+00
    0.12472E+07        -0.50636E+08         0.00000E+00
    0.00000E+00         0.00000E+00        -0.30084E+08
 
   -0.30920E+08         0.13758E+07         0.00000E+00
    0.13758E+07        -0.50723E+08         0.00000E+00
    0.00000E+00         0.00000E+00        -0.30057E+08
 
   -0.30698E+08         0.15155E+07         0.00000E+00
    0.15155E+07        -0.50813E+08         0.00000E+00
    0.00000E+00         0.00000E+00        -0.30031E+08
 
   -0.30479E+08         0.16672E+07         0.00000E+00
    0.16672E+07        -0.50906E+08         0.00000E+00
    0.00000E+00         0.00000E+00        -0.30005E+08
 
   -0.30263E+08         0.18306E+07         0.00000E+00
    0.18306E+07        -0.51000E+08         0.00000E+00
    0.00000E+00         0.00000E+00        -0.29981E+08
 
   -0.30051E+08         0.20037E+07         0.00000E+00
    0.20037E+07        -0.51091E+08         0.00000E+00
    0.00000E+00         0.00000E+00        -0.29957E+08
 
   -0.41161E+08        -0.91979E+05         0.00000E+00
   -0.91979E+05        -0.49999E+08         0.00000E+00
    0.00000E+00         0.00000E+00        -0.31254E+08
 
   -0.40779E+08        -0.21759E+06         0.00000E+00
   -0.21759E+06        -0.50016E+08         0.00000E+00
    0.00000E+00         0.00000E+00        -0.31181E+08
 
   -0.40393E+08        -0.30600E+06         0.00000E+00
   -0.30600E+06        -0.50021E+08         0.00000E+00
    0.00000E+00         0.00000E+00        -0.31105E+08
 
   -0.40017E+08        -0.36689E+06         0.00000E+00
   -0.36689E+06        -0.50015E+08         0.00000E+00
    0.00000E+00         0.00000E+00        -0.31029E+08
 
   -0.39658E+08        -0.40749E+06         0.00000E+00
   -0.40749E+06        -0.50000E+08         0.00000E+00
    0.00000E+00         0.00000E+00        -0.30954E+08
 
   -0.39317E+08        -0.43306E+06         0.00000E+00
   -0.43306E+06        -0.49978E+08         0.00000E+00
    0.00000E+00         0.00000E+00        -0.30882E+08
 
   -0.38993E+08        -0.44740E+06         0.00000E+00
   -0.44740E+06        -0.49951E+08         0.00000E+00
    0.00000E+00         0.00000E+00        -0.30812E+08
 
   -0.38686E+08        -0.45327E+06         0.00000E+00
   -0.45327E+06        -0.49919E+08         0.00000E+00
    0.00000E+00         0.00000E+00        -0.30745E+08
 
   -0.38395E+08        -0.45266E+06         0.00000E+00
   -0.45266E+06        -0.49884E+08         0.00000E+00
    0.00000E+00         0.00000E+00        -0.30680E+08
 
   -0.38117E+08        -0.44706E+06         0.00000E+00
   -0.44706E+06        -0.49847E+08         0.00000E+00
    0.00000E+00         0.00000E+00        -0.30618E+08
 
   -0.37852E+08        -0.43755E+06         0.00000E+00
   -0.43755E+06        -0.49809E+08         0.00000E+00
    0.00000E+00         0.00000E+00        -0.30558E+08
 
   -0.37598E+08        -0.42494E+06         0.00000E+00
   -0.42494E+06        -0.49771E+08         0.00000E+00
    0.00000E+00         0.00000E+00        -0.30500E+08
 
   -0.37354E+08        -0.40983E+06         0.00000E+00
   -0.40983E+06        -0.49732E+08         0.00000E+00
    0.00000E+00         0.00000E+00        -0.30444E+08
 
   -0.37119E+08        -0.39269E+06         0.00000E+00
   -0.39269E+06        -0.49694E+08         0.00000E+00
    0.00000E+00         0.00000E+00        -0.30389E+08
 
   -0.36892E+08        -0.37388E+06         0.00000E+00
   -0.37388E+06        -0.49657E+08         0.00000E+00
    0.00000E+00         0.00000E+00        -0.30337E+08
 
   -0.36672E+08        -0.35364E+06         0.00000E+00
   -0.35364E+06        -0.49621E+08         0.00000E+00
    0.00000E+00         0.00000E+00        -0.30287E+08
 
   -0.36458E+08        -0.33220E+06         0.00000E+00
   -0.33220E+06        -0.49588E+08         0.00000E+00
    0.00000E+00         0.00000E+00        -0.30237E+08
 
   -0.36249E+08        -0.30970E+06         0.00000E+00
   -0.30970E+06        -0.49556E+08         0.00000E+00
    0.00000E+00         0.00000E+00        -0.30190E+08
 
   -0.36045E+08        -0.28626E+06         0.00000E+00
   -0.28626E+06        -0.49526E+08         0.00000E+00
    0.00000E+00         0.00000E+00        -0.30144E+08
 
   -0.35845E+08        -0.26196E+06         0.00000E+00
   -0.26196E+06        -0.49498E+08         0.00000E+00
    0.00000E+00         0.00000E+00        -0.30099E+08
 
   -0.35648E+08        -0.23686E+06         0.00000E+00
   -0.23686E+06        -0.49474E+08         0.00000E+00
    0.00000E+00         0.00000E+00        -0.30055E+08
 
   -0.35454E+08        -0.21100E+06         0.00000E+00
   -0.21100E+06        -0.49451E+08         0.00000E+00
    0.00000E+00         0.00000E+00        -0.30012E+08
 
   -0.35263E+08        -0.18440E+06         0.00000E+00
   -0.18440E+06        -0.49432E+08         0.00000E+00
    0.00000E+00         0.00000E+00        -0.29970E+08
 
   -0.35072E+08        -0.15707E+06         0.00000E+00
   -0.15707E+06        -0.49416E+08         0.00000E+00
    0.00000E+00         0.00000E+00        -0.29929E+08
 
   -0.34883E+08        -0.12899E+06         0.00000E+00
   -0.12899E+06        -0.49404E+08         0.00000E+00
    0.00000E+00         0.00000E+00        -0.29890E+08
 
   -0.34695E+08        -0.10014E+06         0.00000E+00
   -0.10014E+06        -0.49394E+08         0.00000E+00
    0.00000E+00         0.00000E+00        -0.29850E+08
 
   -0.34507E+08        -0.70487E+05         0.00000E+00
   -0.70487E+05        -0.49388E+08         0.00000E+00
    0.00000E+00         0.00000E+00        -0.29812E+08
 
   -0.34319E+08        -0.39975E+05         0.00000E+00
   -0.39975E+05        -0.49386E+08         0.00000E+00
    0.00000E+00         0.00000E+00        -0.29774E+08
 
   -0.34130E+08        -0.85393E+04         0.00000E+00
   -0.85393E+04        -0.49388E+08         0.00000E+00
    0.00000E+00         0.00000E+00        -0.29737E+08
 
   -0.33940E+08         0.23900E+05         0.00000E+00
    0.23900E+05        -0.49393E+08         0.00000E+00
    0.00000E+00         0.00000E+00        -0.29701E+08
 
   -0.33748E+08         0.57441E+05         0.00000E+00
    0.57441E+05        -0.49403E+08         0.00000E+00
    0.00000E+00         0.00000E+00        -0.29665E+08
 
   -0.33554E+08         0.92202E+05         0.00000E+00
    0.92202E+05        -0.49416E+08         0.00000E+00
    0.00000E+00         0.00000E+00        -0.29629E+08
 
   -0.33358E+08         0.12832E+06         0.00000E+00
    0.12832E+06        -0.49435E+08         0.00000E+00
    0.00000E+00         0.00000E+00        -0.29594E+08
 
   -0.33159E+08         0.16598E+06         0.00000E+00
    0.16598E+06        -0.49458E+08         0.00000E+00
    0.00000E+00         0.00000E+00        -0.29559E+08
 
   -0.32956E+08         0.20536E+06         0.00000E+00
    0.20536E+06        -0.49486E+08         0.00000E+00
    0.00000E+00         0.00000E+00        -0.29524E+08
 
   -0.32749E+08         0.24672E+06         0.00000E+00
    0.24672E+06        -0.49519E+08         0.00000E+00
    0.00000E+00         0.00000E+00        -0.29490E+08
 
   -0.32537E+08         0.29034E+06         0.00000E+00
    0.29034E+06        -0.49557E+08         0.00000E+00
    0.00000E+00         0.00000E+00        -0.29456E+08
 
   -0.32320E+08         0.33659E+06         0.00000E+00
    0.33659E+06        -0.49601E+08         0.00000E+00
    0.00000E+00         0.00000E+00        -0.29421E+08
 
   -0.32098E+08         0.38588E+06         0.00000E+00
    0.38588E+06        -0.49651E+08         0.00000E+00
    0.00000E+00         0.00000E+00        -0.29387E+08
 
   -0.31869E+08         0.43874E+06         0.00000E+00
    0.43874E+06        -0.49707E+08         0.00000E+00
    0.00000E+00         0.00000E+00        -0.29353E+08
 
   -0.31632E+08         0.49584E+06         0.00000E+00
    0.49584E+06        -0.49770E+08         0.00000E+00
    0.00000E+00         0.00000E+00        -0.29318E+08
 
   -0.31388E+08         0.55800E+06         0.00000E+00
    0.55800E+06        -0.49840E+08         0.00000E+00
    0.00000E+00         0.00000E+00        -0.29284E+08
 
   -0.31135E+08         0.62625E+06         0.00000E+00
    0.62625E+06        -0.49918E+08         0.00000E+00
    0.00000E+00         0.00000E+00        -0.29249E+08
 
   -0.30872E+08         0.70192E+06         0.00000E+00
    0.70192E+06        -0.50003E+08         0.00000E+00
    0.00000E+00         0.00000E+00        -0.29214E+08
 
   -0.30600E+08         0.78673E+06         0.00000E+00
    0.78673E+06        -0.50098E+08         0.00000E+00
    0.00000E+00         0.00000E+00        -0.29178E+08
 
   -0.30318E+08         0.88292E+06         0.00000E+00
    0.88292E+06        -0.50202E+08         0.00000E+00
    0.00000E+00         0.00000E+00        -0.29143E+08
 
   -0.30027E+08         0.99344E+06         0.00000E+00
    0.99344E+06        -0.50315E+08         0.00000E+00
    0.00000E+00         0.00000E+00        -0.29107E+08
 
   -0.29728E+08         0.11222E+07         0.00000E+00
    0.11222E+07        -0.50439E+08         0.00000E+00
    0.00000E+00         0.00000E+00        -0.29073E+08
 
   -0.29427E+08         0.12742E+07         0.00000E+00
    0.12742E+07        -0.50572E+08         0.00000E+00
    0.00000E+00         0.00000E+00        -0.29039E+08
 
   -0.29137E+08         0.14560E+07         0.00000E+00
    0.14560E+07        -0.50715E+08         0.00000E+00
    0.00000E+00         0.00000E+00        -0.29010E+08
 
   -0.41788E+08        -0.13186E+06         0.00000E+00
   -0.13186E+06        -0.50025E+08         0.00000E+00
    0.00000E+00         0.00000E+00        -0.30702E+08
 
   -0.41177E+08        -0.17139E+06         0.00000E+00
   -0.17139E+06        -0.49979E+08         0.00000E+00
    0.00000E+00         0.00000E+00        -0.30571E+08
 
   -0.40647E+08        -0.19087E+06         0.00000E+00
   -0.19087E+06        -0.49922E+08         0.00000E+00
    0.00000E+00         0.00000E+00        -0.30453E+08
 
   -0.40177E+08        -0.19951E+06         0.00000E+00
   -0.19951E+06        -0.49857E+08         0.00000E+00
    0.00000E+00         0.00000E+00        -0.30347E+08
 
   -0.39754E+08        -0.20202E+06         0.00000E+00
   -0.20202E+06        -0.49788E+08         0.00000E+00
    0.00000E+00         0.00000E+00        -0.30248E+08
 
   -0.39368E+08        -0.20090E+06         0.00000E+00
   -0.20090E+06        -0.49717E+08         0.00000E+00
    0.00000E+00         0.00000E+00        -0.30157E+08
 
   -0.39013E+08        -0.19753E+06         0.00000E+00
   -0.19753E+06        -0.49645E+08         0.00000E+00
    0.00000E+00         0.00000E+00        -0.30072E+08
 
   -0.38682E+08        -0.19269E+06         0.00000E+00
   -0.19269E+06        -0.49574E+08         0.00000E+00
    0.00000E+00         0.00000E+00        -0.29992E+08
 
   -0.38373E+08        -0.18686E+06         0.00000E+00
   -0.18686E+06        -0.49504E+08         0.00000E+00
    0.00000E+00         0.00000E+00        -0.29916E+08
 
   -0.38082E+08        -0.18033E+06         0.00000E+00
   -0.18033E+06        -0.49435E+08         0.00000E+00
    0.00000E+00         0.00000E+00        -0.29844E+08
 
   -0.37807E+08        -0.17329E+06         0.00000E+00
   -0.17329E+06        -0.49368E+08         0.00000E+00
    0.00000E+00         0.00000E+00        -0.29776E+08
 
   -0.37545E+08        -0.16584E+06         0.00000E+00
   -0.16584E+06        -0.49304E+08         0.00000E+00
    0.00000E+00         0.00000E+00        -0.29711E+08
 
   -0.37294E+08        -0.15809E+06         0.00000E+00
   -0.15809E+06        -0.49242E+08         0.00000E+00
    0.00000E+00         0.00000E+00        -0.29649E+08
 
   -0.37054E+08        -0.15007E+06         0.00000E+00
   -0.15007E+06        -0.49183E+08         0.00000E+00
    0.00000E+00         0.00000E+00        -0.29589E+08
 
   -0.36822E+08        -0.14184E+06         0.00000E+00
   -0.14184E+06        -0.49127E+08         0.00000E+00
    0.00000E+00         0.00000E+00        -0.29532E+08
 
   -0.36598E+08        -0.13342E+06         0.00000E+00
   -0.13342E+06        -0.49074E+08         0.00000E+00
    0.00000E+00         0.00000E+00        -0.29477E+08
 
   -0.36381E+08        -0.12482E+06         0.00000E+00
   -0.12482E+06        -0.49024E+08         0.00000E+00
    0.00000E+00         0.00000E+00        -0.29423E+08
 
   -0.36170E+08        -0.11606E+06         0.00000E+00
   -0.11606E+06        -0.48978E+08         0.00000E+00
    0.00000E+00         0.00000E+00        -0.29372E+08
 
   -0.35963E+08        -0.10715E+06         0.00000E+00
   -0.10715E+06        -0.48934E+08         0.00000E+00
    0.00000E+00         0.00000E+00        -0.29322E+08
 
   -0.35760E+08        -0.98083E+05         0.00000E+00
   -0.98083E+05        -0.48895E+08         0.00000E+00
    0.00000E+00         0.00000E+00        -0.29274E+08
 
   -0.35561E+08        -0.88867E+05         0.00000E+00
   -0.88867E+05        -0.48859E+08         0.00000E+00
    0.00000E+00         0.00000E+00        -0.29227E+08
 
   -0.35365E+08        -0.79493E+05         0.00000E+00
   -0.79493E+05        -0.48826E+08         0.00000E+00
    0.00000E+00         0.00000E+00        -0.29182E+08
 
   -0.35171E+08        -0.69956E+05         0.00000E+00
   -0.69956E+05        -0.48797E+08         0.00000E+00
    0.00000E+00         0.00000E+00        -0.29137E+08
 
   -0.34978E+08        -0.60244E+05         0.00000E+00
   -0.60244E+05        -0.48772E+08         0.00000E+00
    0.00000E+00         0.00000E+00        -0.29094E+08
 
   -0.34787E+08        -0.50346E+05         0.00000E+00
   -0.50346E+05        -0.48751E+08         0.00000E+00
    0.00000E+00         0.00000E+00        -0.29051E+08
 
   -0.34596E+08        -0.40244E+05         0.00000E+00
   -0.40244E+05        -0.48734E+08         0.00000E+00
    0.00000E+00         0.00000E+00        -0.29010E+08
 
   -0.34406E+08        -0.29920E+05         0.00000E+00
   -0.29920E+05        -0.48720E+08         0.00000E+00
    0.00000E+00         0.00000E+00        -0.28969E+08
 
   -0.34214E+08        -0.19350E+05         0.00000E+00
   -0.19350E+05        -0.48711E+08         0.00000E+00
    0.00000E+00         0.00000E+00        -0.28930E+08
 
   -0.34022E+08        -0.85070E+04         0.00000E+00
   -0.85070E+04        -0.48706E+08         0.00000E+00
    0.00000E+00         0.00000E+00        -0.28890E+08
 
   -0.33829E+08         0.26407E+04         0.00000E+00
    0.26407E+04        -0.48706E+08         0.00000E+00
    0.00000E+00         0.00000E+00        -0.28852E+08
 
   -0.33633E+08         0.14131E+05         0.00000E+00
    0.14131E+05        -0.48710E+08         0.00000E+00
    0.00000E+00         0.00000E+00        -0.28813E+08
 
   -0.33435E+08         0.26008E+05         0.00000E+00
    0.26008E+05        -0.48718E+08         0.00000E+00
    0.00000E+00         0.00000E+00        -0.28776E+08
 
   -0.33234E+08         0.38324E+05         0.00000E+00
    0.38324E+05        -0.48732E+08         0.00000E+00
    0.00000E+00         0.00000E+00        -0.28738E+08
 
   -0.33029E+08         0.51141E+05         0.00000E+00
    0.51141E+05        -0.48750E+08         0.00000E+00
    0.00000E+00         0.00000E+00        -0.28701E+08
 
   -0.32820E+08         0.64535E+05         0.00000E+00
    0.64535E+05        -0.48773E+08         0.00000E+00
    0.00000E+00         0.00000E+00        -0.28664E+08
 
   -0.32606E+08         0.78595E+05         0.00000E+00
    0.78595E+05        -0.48802E+08         0.00000E+00
    0.00000E+00         0.00000E+00        -0.28627E+08
 
   -0.32386E+08         0.93431E+05         0.00000E+00
    0.93431E+05        -0.48837E+08         0.00000E+00
    0.00000E+00         0.00000E+00        -0.28590E+08
 
   -0.32159E+08         0.10918E+06         0.00000E+00
    0.10918E+06        -0.48878E+08         0.00000E+00
    0.00000E+00         0.00000E+00        -0.28553E+08
 
   -0.31925E+08         0.12601E+06         0.00000E+00
    0.12601E+06        -0.48925E+08         0.00000E+00
    0.00000E+00         0.00000E+00        -0.28516E+08
 
   -0.31682E+08         0.14413E+06         0.00000E+00
    0.14413E+06        -0.48979E+08         0.00000E+00
    0.00000E+00         0.00000E+00        -0.28478E+08
 
   -0.31429E+08         0.16383E+06         0.00000E+00
    0.16383E+06        -0.49041E+08         0.00000E+00
    0.00000E+00         0.00000E+00        -0.28440E+08
 
   -0.31164E+08         0.18546E+06         0.00000E+00
    0.18546E+06        -0.49110E+08         0.00000E+00
    0.00000E+00         0.00000E+00        -0.28401E+08
 
   -0.30886E+08         0.20950E+06         0.00000E+00
    0.20950E+06        -0.49189E+08         0.00000E+00
    0.00000E+00         0.00000E+00        -0.28361E+08
 
   -0.30593E+08         0.23662E+06         0.00000E+00
    0.23662E+06        -0.49277E+08         0.00000E+00
    0.00000E+00         0.00000E+00        -0.28320E+08
 
   -0.30280E+08         0.26776E+06         0.00000E+00
    0.26776E+06        -0.49377E+08         0.00000E+00
    0.00000E+00         0.00000E+00        -0.28278E+08
 
   -0.29946E+08         0.30428E+06         0.00000E+00
    0.30428E+06        -0.49489E+08         0.00000E+00
    0.00000E+00         0.00000E+00        -0.28234E+08
 
   -0.29585E+08         0.34822E+06         0.00000E+00
    0.34822E+06        -0.49616E+08         0.00000E+00
    0.00000E+00         0.00000E+00        -0.28187E+08
 
   -0.29190E+08         0.40283E+06         0.00000E+00
    0.40283E+06        -0.49761E+08         0.00000E+00
    0.00000E+00         0.00000E+00        -0.28137E+08
 
   -0.28751E+08         0.47351E+06         0.00000E+00
    0.47351E+06        -0.49926E+08         0.00000E+00
    0.00000E+00         0.00000E+00        -0.28082E+08
 
   -0.28254E+08         0.56974E+06         0.00000E+00
    0.56974E+06        -0.50118E+08         0.00000E+00
    0.00000E+00         0.00000E+00        -0.28021E+08
 
SCALARS stresss double 
LOOKUP_TABLE default
  -55302679.2020952     
  -55531745.6281197     
  -55768065.2706084     
  -56000654.1760617     
  -56221567.6878413     
  -56407618.2653632     
  -56548216.0234142     
  -56693448.2136291     
  -56839978.6725801     
  -56977879.0293819     
  -57107829.7216674     
  -57229562.6132345     
  -57344158.6698785     
  -57451966.9371585     
  -57550465.1180286     
  -57643698.0084461     
  -57732885.3965921     
  -57817927.0689127     
  -57896494.3421939     
  -57969974.2288176     
  -58042099.5829823     
  -58112913.2064200     
  -58182515.7828006     
  -58251039.4606953     
  -58318635.4037972     
  -58385468.3552928     
  -58451715.1517378     
  -58517565.9452024     
  -58583227.9326177     
  -58648932.2845943     
  -58714946.2252902     
  -58781594.6287707     
  -58849300.7832967     
  -58902016.9319197     
  -58934398.7276269     
  -58953897.5573083     
  -58963826.3402244     
  -58966480.5604586     
  -58962333.8582501     
  -58951600.8839802     
  -58935799.2966450     
  -58914087.5298215     
  -58885853.0679345     
  -58850575.5340993     
  -58807731.3859034     
  -58757168.3163419     
  -58697479.2403298     
  -58626924.2230472     
  -58544029.5748164     
  -58448519.3613043     
  -56110344.6421390     
  -56136058.2378969     
  -56193190.7231583     
  -56269814.4774809     
  -56353468.9109220     
  -56421022.9409035     
  -56499857.6488071     
  -56587082.0599538     
  -56678346.8580898     
  -56772886.3553295     
  -56867897.5812884     
  -56962374.7533337     
  -57055721.3907047     
  -57147080.0046419     
  -57232789.4851301     
  -57316440.7292261     
  -57397781.0095386     
  -57475093.9488370     
  -57547917.4028189     
  -57618949.0104946     
  -57687838.8635929     
  -57754972.1443547     
  -57820620.0377844     
  -57884994.0149533     
  -57948271.8518960     
  -58010610.5873329     
  -58072152.8484589     
  -58133029.1089845     
  -58193356.3942831     
  -58253232.2468552     
  -58312720.2561876     
  -58371818.3100904     
  -58430388.7873188     
  -58488643.1962742     
  -58534477.2106669     
  -58574166.4214298     
  -58598867.7302026     
  -58605784.2039517     
  -58599289.6358693     
  -58587049.0096587     
  -58566905.0682001     
  -58539186.2097185     
  -58505522.6848635     
  -58465324.7314300     
  -58417529.2991728     
  -58360791.5915555     
  -58294690.9712492     
  -58218338.5780146     
  -58129943.6175528     
  -58024909.2514669     
  -56117285.2868039     
  -56173028.1143726     
  -56225232.1257184     
  -56277950.8371854     
  -56332991.3151878     
  -56394931.4745960     
  -56457526.3536984     
  -56521389.9178283     
  -56586939.9789593     
  -56653749.7605945     
  -56721757.4668635     
  -56790418.1345509     
  -56859090.3803485     
  -56927138.4116418     
  -56994599.2828191     
  -57060711.1407820     
  -57125426.3072532     
  -57189056.4521805     
  -57251734.0019586     
  -57312897.6309799     
  -57372790.2245528     
  -57431445.4765362     
  -57488938.0788664     
  -57545351.8028535     
  -57600768.2315621     
  -57655262.8972503     
  -57708903.8977999     
  -57761751.2279914     
  -57813856.4247748     
  -57865263.1328103     
  -57916010.9168216     
  -57966148.8980846     
  -58015777.0830669     
  -58064795.6479996     
  -58115759.4083075     
  -58162900.4115534     
  -58199254.1926242     
  -58226376.3493380     
  -58242612.2778320     
  -58229001.9487017     
  -58199793.7452870     
  -58163181.9346995     
  -58117170.9283647     
  -58063359.3536314     
  -58002625.0700661     
  -57937806.3489529     
  -57867229.0922355     
  -57790279.0731383     
  -57709306.2731425     
  -57631706.7533578     
  -56070586.5980043     
  -56123425.8498585     
  -56175241.7828215     
  -56226000.1657141     
  -56276357.0809697     
  -56325754.5858260     
  -56375881.6445174     
  -56426504.4836773     
  -56477496.6562902     
  -56528868.8058389     
  -56580477.6274358     
  -56632258.4473954     
  -56684134.8516440     
  -56736044.6697120     
  -56787762.7191069     
  -56839275.3465182     
  -56890437.9084588     
  -56941080.9094439     
  -56991086.3873487     
  -57040516.5843809     
  -57089256.8983332     
  -57137278.8245101     
  -57184556.0625522     
  -57231071.7042994     
  -57276816.8828537     
  -57321788.0160650     
  -57365984.5863586     
  -57409407.8933975     
  -57452060.8610668     
  -57493948.8571667     
  -57535080.9922394     
  -57575469.3321205     
  -57615116.5057594     
  -57654127.0188119     
  -57691804.3157150     
  -57729374.9670187     
  -57767920.5726163     
  -57804964.1161377     
  -57830680.8000674     
  -57836835.6202945     
  -57832115.3989684     
  -57799808.0731531     
  -57748825.7702111     
  -57684062.5575557     
  -57615809.9532312     
  -57539711.9601889     
  -57462733.4983540     
  -57387829.9557776     
  -57315141.2014740     
  -57240623.9900414     
  -56057051.8434894     
  -56092443.5125401     
  -56128933.9593386     
  -56166186.7307090     
  -56203826.1081443     
  -56241959.6159589     
  -56280230.3889020     
  -56318755.1152394     
  -56357548.5931763     
  -56396571.5014159     
  -56435807.2920137     
  -56475206.9410157     
  -56514717.8613251     
  -56554269.3971722     
  -56593826.0840483     
  -56633299.6919969     
  -56672630.3911598     
  -56711759.2012254     
  -56750627.5228607     
  -56789144.4720097     
  -56827269.1237515     
  -56864941.9809116     
  -56902110.7498665     
  -56938726.2823239     
  -56974741.8156601     
  -57010112.4604099     
  -57044794.4415143     
  -57078744.1111492     
  -57111916.7283540     
  -57144264.8712781     
  -57175736.3251465     
  -57206271.9158006     
  -57235807.0055434     
  -57264223.5485685     
  -57291631.0780053     
  -57317706.5796155     
  -57342039.3413822     
  -57364748.5476170     
  -57387573.9441618     
  -57411723.5422128     
  -57419249.3739973     
  -57406127.8803660     
  -57380996.8692220     
  -57347777.6412146     
  -57281890.0637974     
  -57208975.7739614     
  -57124641.0651446     
  -57037940.6982962     
  -56954999.4438593     
  -56875903.9933472     
  -56030009.0166172     
  -56052876.5970459     
  -56076517.4510166     
  -56100980.8779250     
  -56126274.2645524     
  -56152257.7008559     
  -56178906.7589911     
  -56206098.0889077     
  -56233759.2420180     
  -56261833.7178099     
  -56290259.3415159     
  -56318980.7558300     
  -56347940.4515756     
  -56377085.2004461     
  -56406351.3030443     
  -56435685.8448273     
  -56465028.7157363     
  -56494321.1928619     
  -56523502.4062826     
  -56552518.7738907     
  -56581305.8369998     
  -56609805.7638898     
  -56637959.2237217     
  -56665706.6151416     
  -56692987.7522040     
  -56719741.2949335     
  -56745904.0571023     
  -56771410.1469084     
  -56796189.9179478     
  -56820168.7661239     
  -56843265.8603592     
  -56865392.7477498     
  -56886450.4648940     
  -56906345.2631099     
  -56924898.8021783     
  -56941995.2913662     
  -56957534.8429629     
  -56971354.4951669     
  -56982842.2687262     
  -56990962.7502996     
  -56999330.1821373     
  -57006873.7081900     
  -57005390.2656085     
  -56992291.7149141     
  -56952483.9108956     
  -56910122.0000498     
  -56856322.0711593     
  -56790647.2523429     
  -56695013.4038789     
  -56597754.6127827     
  -55984181.8737595     
  -55995769.2678956     
  -56008585.4743705     
  -56022479.2485553     
  -56037337.2441998     
  -56053093.2144169     
  -56069656.0504036     
  -56086960.4319400     
  -56104929.2044627     
  -56123487.5044651     
  -56142566.6390325     
  -56162099.7573918     
  -56182023.5124142     
  -56202274.9698953     
  -56222795.1641812     
  -56243523.7285135     
  -56264402.6532584     
  -56285373.5452302     
  -56306379.3250925     
  -56327361.4326864     
  -56348263.7205254     
  -56369027.9606340     
  -56389596.0750643     
  -56409909.3483013     
  -56429908.1393011     
  -56449531.5618017     
  -56468717.0907631     
  -56487400.1099190     
  -56505513.4073466     
  -56522986.6086676     
  -56539745.5091890     
  -56555711.2816477     
  -56570800.0110756     
  -56584915.0027588     
  -56597971.6918569     
  -56609865.0754109     
  -56620469.9079809     
  -56629631.5353359     
  -56637279.1392819     
  -56643582.9191841     
  -56647589.1983498     
  -56649168.8681049     
  -56649558.1268576     
  -56648553.8650358     
  -56647454.1043866     
  -56641995.1697970     
  -56616755.4854618     
  -56584474.6146997     
  -56529323.9003959     
  -56479036.8429544     
  -55914548.7485893     
  -55917549.6332473     
  -55921772.8143610     
  -55927151.0086781     
  -55933605.7620563     
  -55941051.4569603     
  -55949413.6825538     
  -55958616.1376391     
  -55968589.4442220     
  -55979266.0772157     
  -55990579.7945341     
  -56002466.7134327     
  -56014864.5896214     
  -56027713.5103217     
  -56040954.6167260     
  -56054531.0692476     
  -56068386.9449484     
  -56082467.7931051     
  -56096719.7666112     
  -56111090.2095356     
  -56125526.6098246     
  -56139977.5159304     
  -56154391.7216978     
  -56168718.3753282     
  -56182906.8940573     
  -56196906.8916329     
  -56210668.1317926     
  -56224140.5083366     
  -56237274.0591637     
  -56250019.0295798     
  -56262326.0156404     
  -56274146.2298229     
  -56285431.7735013     
  -56296138.7740819     
  -56306221.0389687     
  -56315637.2179606     
  -56324353.9228944     
  -56332358.7957397     
  -56339635.4131013     
  -56346077.9390066     
  -56351849.2514800     
  -56357008.3178664     
  -56361410.5658489     
  -56365350.2713106     
  -56368424.3487911     
  -56371132.9766102     
  -56377411.1180632     
  -56383527.2147136     
  -56395217.7058423     
  -56416221.8692451     
  -55820901.8398732     
  -55817385.2856730     
  -55815098.1732493     
  -55813962.9424184     
  -55813909.2898659     
  -55814871.0049606     
  -55816781.4938580     
  -55819577.1926684     
  -55823195.3475817     
  -55827575.4184562     
  -55832658.8720248     
  -55838388.7596670     
  -55844709.8334547     
  -55851568.2353652     
  -55858911.7425179     
  -55866689.4485856     
  -55874851.9188070     
  -55883350.9274109     
  -55892139.6427427     
  -55901172.3865413     
  -55910404.8215028     
  -55919793.7018567     
  -55929297.0870140     
  -55938874.3108703     
  -55948486.0574256     
  -55958094.4713984     
  -55967663.3101294     
  -55977158.1483559     
  -55986546.6484757     
  -55995798.9115897     
  -56004887.9257499     
  -56013790.1293541     
  -56022486.1736330     
  -56030960.8892822     
  -56039206.2295241     
  -56047221.6408235     
  -56055015.0966766     
  -56062599.6056683     
  -56070000.2034933     
  -56077292.4297614     
  -56084518.7494513     
  -56091760.3202939     
  -56099158.4141698     
  -56106763.7394304     
  -56114928.0783381     
  -56124015.9214112     
  -56133521.1472675     
  -56144870.5912702     
  -56156601.7536079     
  -56166492.3029740     
  -55704897.7392122     
  -55696663.6243014     
  -55689587.5495408     
  -55683613.4229845     
  -55678684.5043634     
  -55674744.8533426     
  -55671740.3324241     
  -55669617.6993721     
  -55668325.1774199     
  -55667812.0735875     
  -55668028.8994631     
  -55668927.4680541     
  -55670460.8339629     
  -55672583.3645369     
  -55675250.6615053     
  -55678419.6278897     
  -55682048.4305644     
  -55686096.5772915     
  -55690524.8712326     
  -55695295.5012651     
  -55700372.0370999     
  -55705719.5441165     
  -55711304.6038458     
  -55717095.4303141     
  -55723061.9815060     
  -55729176.0972162     
  -55735411.6660296     
  -55741744.8237761     
  -55748154.1860803     
  -55754621.1166818     
  -55761130.0319866     
  -55767668.7401521     
  -55774228.7844728     
  -55780806.1449711     
  -55787401.1982073     
  -55794019.2051918     
  -55800670.7468782     
  -55807374.0661079     
  -55814155.2944271     
  -55821036.1492299     
  -55828053.4636033     
  -55835246.7739629     
  -55842654.6336370     
  -55850354.6661947     
  -55858341.0868067     
  -55866546.8210409     
  -55875098.4974295     
  -55883554.2011490     
  -55892192.1876612     
  -55901790.9957630     
  -55569419.2273855     
  -55557865.2504320     
  -55547379.4856956     
  -55537916.9180819     
  -55529433.4398642     
  -55521885.4324294     
  -55515229.6747838     
  -55509423.6706891     
  -55504425.5694272     
  -55500194.3290999     
  -55496689.7252451     
  -55493872.3820255     
  -55491703.8404393     
  -55490146.5830902     
  -55489164.0975610     
  -55488720.9039041     
  -55488782.6088842     
  -55489315.9341126     
  -55490288.7843871     
  -55491670.2843744     
  -55493430.8481266     
  -55495542.2294740     
  -55497977.6064580     
  -55500711.6517908     
  -55503720.6199696     
  -55506982.4412624     
  -55510476.8226495     
  -55514185.3549166     
  -55518091.6239839     
  -55522181.3236572     
  -55526442.3659398     
  -55530864.9841467     
  -55535441.8335327     
  -55540167.9562523     
  -55545040.9013944     
  -55550060.7048722     
  -55555229.8132422     
  -55560552.1929524     
  -55566032.4267725     
  -55571678.8567110     
  -55577498.4366447     
  -55583497.4118075     
  -55589679.8318186     
  -55596032.2423025     
  -55602553.6775352     
  -55609260.3158340     
  -55616113.0263124     
  -55623234.0545698     
  -55630585.2825551     
  -55637924.1507695     
  -55417810.7322829     
  -55403995.2128654     
  -55391148.7594553     
  -55379237.6019523     
  -55368227.8183959     
  -55358085.6032092     
  -55348777.3781955     
  -55340269.8096647     
  -55332529.9256066     
  -55325525.1599025     
  -55319223.4334514     
  -55313593.2184816     
  -55308603.5898235     
  -55304224.2858612     
  -55300425.7566032     
  -55297179.2188066     
  -55294456.7034873     
  -55292231.1100056     
  -55290476.2494597     
  -55289166.8979027     
  -55288278.8423141     
  -55287788.9326848     
  -55287675.1273173     
  -55287916.5434075     
  -55288493.5036416     
  -55289387.5811066     
  -55290581.6408359     
  -55292059.8761122     
  -55293807.8372834     
  -55295812.4502538     
  -55298062.0210719     
  -55300546.2219312     
  -55303256.0481224     
  -55306183.7807267     
  -55309322.8676954     
  -55312667.7721594     
  -55316213.7520247     
  -55319956.8159219     
  -55323893.7579147     
  -55328020.8453726     
  -55332334.4425635     
  -55336830.5467254     
  -55341504.8311435     
  -55346357.5145419     
  -55351386.8043598     
  -55356585.7563362     
  -55361963.6509554     
  -55367484.0424815     
  -55373139.0264185     
  -55378987.8307093     
  -55253416.5974212     
  -55238114.4172126     
  -55223685.5578655     
  -55210104.2960663     
  -55197344.7718160     
  -55185381.0178481     
  -55174187.0396927     
  -55163736.9058838     
  -55154004.8062195     
  -55144965.1247671     
  -55136592.4977634     
  -55128861.8726834     
  -55121748.5661114     
  -55115228.3150136     
  -55109277.3281746     
  -55103872.3329796     
  -55098990.6214413     
  -55094610.0919772     
  -55090709.2916985     
  -55087267.4536556     
  -55084264.5335615     
  -55081681.2423448     
  -55079499.0773156     
  -55077700.3483277     
  -55076268.2007539     
  -55075186.6335140     
  -55074440.5114829     
  -55074015.5713612     
  -55073898.4199583     
  -55074076.5238030     
  -55074538.1890798     
  -55075272.5312568     
  -55076269.4363414     
  -55077519.5013237     
  -55079013.9759050     
  -55080744.6988845     
  -55082704.0473910     
  -55084884.8301056     
  -55087280.1130269     
  -55089883.4529760     
  -55092688.7222808     
  -55095690.1923979     
  -55098882.6140909     
  -55102259.7308052     
  -55105815.4711865     
  -55109545.0260576     
  -55113438.1445382     
  -55117496.3548304     
  -55121717.3482356     
  -55126078.2023002     
  -55079304.1128912     
  -55063075.5038922     
  -55047632.1800099     
  -55032954.4623677     
  -55019022.4265534     
  -55005815.9805583     
  -54993314.9222452     
  -54981498.9934096     
  -54970347.9386341     
  -54959841.5566050     
  -54949959.7522149     
  -54940682.5848473     
  -54931990.3139706     
  -54923863.4433851     
  -54916282.7622960     
  -54909229.3845071     
  -54902684.7847570     
  -54896630.8330937     
  -54891049.8259354     
  -54885924.5151809     
  -54881238.1339768     
  -54876974.4198507     
  -54873117.6342325     
  -54869652.5789262     
  -54866564.6086236     
  -54863839.6395267     
  -54861464.1537597     
  -54859425.1993481     
  -54857710.3856254     
  -54856307.8740388     
  -54855206.3644736     
  -54854395.0773571     
  -54853863.7311363     
  -54853602.5197340     
  -54853602.0859239     
  -54853853.4929989     
  -54854348.1895026     
  -54855077.9881380     
  -54856035.0792904     
  -54857211.9359395     
  -54858601.3070900     
  -54860196.1457965     
  -54861989.4822233     
  -54863974.7680678     
  -54866145.6348298     
  -54868495.4967292     
  -54871019.6512456     
  -54873710.6553746     
  -54876561.1699733     
  -54879569.9046592     
  -54898144.6225459     
  -54881393.9239849     
  -54865349.6755318     
  -54849996.5188891     
  -54835318.8721458     
  -54821300.9686443     
  -54807926.9009230     
  -54795180.6633322     
  -54783046.1918628     
  -54771507.4042131     
  -54760548.2376335     
  -54750152.6857333     
  -54740304.8337419     
  -54730988.8918321     
  -54722189.2269088     
  -54713890.3924254     
  -54706077.1563827     
  -54698734.5271726     
  -54691847.7775168     
  -54685402.4660231     
  -54679384.4566038     
  -54673779.9354370     
  -54668575.4255812     
  -54663757.7989713     
  -54659314.2859161     
  -54655232.4819667     
  -54651500.3521800     
  -54648106.2328200     
  -54645038.8305772     
  -54642287.2194422     
  -54639840.8354092     
  -54637689.4692454     
  -54635823.2579288     
  -54634232.6738921     
  -54632908.5134080     
  -54631841.8840582     
  -54631024.1938031     
  -54630447.1366153     
  -54630102.6643284     
  -54629982.9852961     
  -54630080.5429725     
  -54630388.0111917     
  -54630898.3248250     
  -54631604.5826249     
  -54632500.0764710     
  -54633578.4186927     
  -54634832.8759363     
  -54636257.5427009     
  -54637846.9493869     
  -54639594.1572815     
  -54712191.9139771     
  -54695213.7170367     
  -54678871.8689522     
  -54663154.1466458     
  -54648048.1287546     
  -54633541.2260946     
  -54619620.7103391     
  -54606273.7427908     
  -54593487.4031533     
  -54581248.7173511     
  -54569544.6849093     
  -54558362.3053975     
  -54547688.6039495     
  -54537510.6558116     
  -54527815.6096909     
  -54518590.7099088     
  -54509823.3172120     
  -54501500.9282355     
  -54493611.1934582     
  -54486141.9336940     
  -54479081.1549806     
  -54472417.0618884     
  -54466138.0691722     
  -54460232.8118023     
  -54454690.1533307     
  -54449499.1926380     
  -54444649.2690880     
  -54440129.9661429     
  -54435931.1135088     
  -54432042.7878970     
  -54428455.3124989     
  -54425159.2552804     
  -54422145.4260752     
  -54419404.8728923     
  -54416928.8773228     
  -54414708.9492343     
  -54412736.8200266     
  -54411004.4356593     
  -54409503.9538213     
  -54408227.7347078     
  -54407168.3371566     
  -54406318.5120649     
  -54405671.1818685     
  -54405219.4537193     
  -54404956.6071324     
  -54404876.0387426     
  -54404971.4561889     
  -54405236.5873335     
  -54405665.1806158     
  -54406251.5727679     
  -54523312.1044453     
  -54506324.4884051     
  -54489910.7440064     
  -54474060.9622292     
  -54458765.0685935     
  -54444012.8421384     
  -54429793.9351071     
  -54416097.8925610     
  -54402914.1718507     
  -54390232.1620176     
  -54378041.2028316     
  -54366330.6034653     
  -54355089.6606642     
  -54344307.6763142     
  -54333973.9743539     
  -54324077.9169320     
  -54314608.9197585     
  -54305556.4665719     
  -54296910.1226954     
  -54288659.5476119     
  -54280794.5065474     
  -54273304.8810209     
  -54266180.6783579     
  -54259412.0401467     
  -54252989.2496553     
  -54246902.7382088     
  -54241143.0905543     
  -54235701.0492400     
  -54230567.5180435     
  -54225733.5644936     
  -54221190.4215297     
  -54216929.4883513     
  -54212942.3305576     
  -54209220.6795630     
  -54205756.4314044     
  -54202541.6449827     
  -54199568.5401133     
  -54196829.4953449     
  -54194317.0441844     
  -54192023.8725307     
  -54189942.8144087     
  -54188066.8476149     
  -54186389.0940231     
  -54184902.8113904     
  -54183601.3901415     
  -54182478.3674031     
  -54181527.3652989     
  -54180742.1523813     
  -54180116.6633993     
  -54179644.8307687     
  -54333033.4840092     
  -54316200.9230979     
  -54299886.1649994     
  -54284081.0667281     
  -54268777.3458144     
  -54253966.5933335     
  -54239640.2870319     
  -54225789.8046581     
  -54212406.4373740     
  -54199481.4031213     
  -54187005.8599104     
  -54174970.9189284     
  -54163367.6574057     
  -54152187.1311763     
  -54141420.3868622     
  -54131058.4736322     
  -54121092.4544812     
  -54111513.4169869     
  -54102312.4835020     
  -54093480.8207517     
  -54085009.6488060     
  -54076890.2494085     
  -54069113.9736427     
  -54061672.2489307     
  -54054556.5853557     
  -54047758.5813131     
  -54041269.9284950     
  -54035082.4162204     
  -54029187.9351262     
  -54023578.4802397     
  -54018246.1534569     
  -54013183.1654560     
  -54008381.8370632     
  -54003834.6001231     
  -53999533.9978995     
  -53995472.6850555     
  -53991643.4271536     
  -53988039.0996728     
  -53984652.6870038     
  -53981477.2807470     
  -53978506.0781011     
  -53975732.3801775     
  -53973149.5886110     
  -53970751.2040354     
  -53968530.8235263     
  -53966482.1314022     
  -53964598.9121530     
  -53962875.0332361     
  -53961304.4291408     
  -53959881.1435642     
  -54142599.1385434     
  -54126047.8805741     
  -54109963.7058062     
  -54094339.8678827     
  -54079169.4999668     
  -54064445.6236392     
  -54050161.1580397     
  -54036308.9291398     
  -54022881.6791080     
  -54009872.0757203     
  -53997272.7217535     
  -53985076.1643169     
  -53973274.9040706     
  -53961861.4042863     
  -53950828.0997068     
  -53940167.4051648     
  -53929871.7239246     
  -53919933.4557119     
  -53910345.0044046     
  -53901098.7853562     
  -53892187.2323314     
  -53883602.8040342     
  -53875337.9902140     
  -53867385.3173384     
  -53859737.3538242     
  -53852386.7148232     
  -53845326.0665603     
  -53838548.1302261     
  -53832045.6854275     
  -53825811.5732047     
  -53819838.6986213     
  -53814120.0329381     
  -53808648.6153869     
  -53803417.5545509     
  -53798420.0293670     
  -53793649.2897553     
  -53789098.6569138     
  -53784761.5233201     
  -53780631.3523322     
  -53776701.6775856     
  -53772966.1020110     
  -53769418.2964587     
  -53766051.9984687     
  -53762861.0102548     
  -53759839.1964815     
  -53756980.4840546     
  -53754278.8553021     
  -53751728.3478266     
  -53749323.0562132     
  -53747057.1162438     
  -53953014.6272802     
  -53936842.9432121     
  -53921092.1339378     
  -53905756.5959369     
  -53890830.6175900     
  -53876308.3856415     
  -53862183.9917967     
  -53848451.4394353     
  -53835104.6504007     
  -53822137.4718318     
  -53809543.6830069     
  -53797317.0021645     
  -53785451.0932706     
  -53773939.5727023     
  -53762776.0158184     
  -53751953.9633898     
  -53741466.9278642     
  -53731308.3994414     
  -53721471.8519378     
  -53711950.7484199     
  -53702738.5465906     
  -53693828.7039114     
  -53685214.6824493     
  -53676889.9534355     
  -53668848.0015292     
  -53661082.3287769     
  -53653586.4582656     
  -53646353.9374630     
  -53639378.3412468     
  -53632653.2746203     
  -53626172.3751170     
  -53619929.3148968     
  -53613917.8025365     
  -53608131.5845194     
  -53602564.4464297     
  -53597210.2138615     
  -53592062.7530425     
  -53587115.9711680     
  -53582363.8164853     
  -53577800.2780843     
  -53573419.3854473     
  -53569215.2077875     
  -53565181.8530257     
  -53561313.4666547     
  -53557604.2304094     
  -53554048.3599445     
  -53550640.1040314     
  -53547373.7420268     
  -53544243.5799298     
  -53541243.9511444     
  -53765088.3363665     
  -53749373.3918289     
  -53734036.9954027     
  -53719074.5053598     
  -53704481.1793123     
  -53690252.1791589     
  -53676382.5761230     
  -53662867.3558581     
  -53649701.4236018     
  -53636879.6093577     
  -53624396.6730860     
  -53612247.3098797     
  -53600426.1551092     
  -53588927.7895142     
  -53577746.7442240     
  -53566877.5056884     
  -53556314.5205022     
  -53546052.2001058     
  -53536084.9253476     
  -53526407.0508943     
  -53517012.9094747     
  -53507896.8159465     
  -53499053.0711758     
  -53490475.9657184     
  -53482159.7832967     
  -53474098.8040638     
  -53466287.3076504     
  -53458719.5759885     
  -53451389.8959099     
  -53444292.5615155     
  -53437421.8763142     
  -53430772.1551319     
  -53424337.7257874     
  -53418112.9305398     
  -53412092.1273053     
  -53406269.6906458     
  -53400640.0125310     
  -53395197.5028803     
  -53389936.5898786     
  -53384851.7200814     
  -53379937.3583024     
  -53375187.9872742     
  -53370598.1071305     
  -53366162.2346509     
  -53361874.9022676     
  -53357730.6571165     
  -53353724.0594206     
  -53349849.6809754     
  -53346102.1039053     
  -53342475.9178542     
  -53579464.6000657     
  -53564267.1385591     
  -53549409.3188353     
  -53534887.3256784     
  -53520697.2472418     
  -53506835.0790707     
  -53493296.7281680     
  -53480078.0170933     
  -53467174.6880809     
  -53454582.4071681     
  -53442296.7683170     
  -53430313.2975215     
  -53418627.4568838     
  -53407234.6486503     
  -53396130.2191926     
  -53385309.4629239     
  -53374767.6261384     
  -53364499.9107614     
  -53354501.4780028     
  -53344767.4519007     
  -53335292.9227479     
  -53326072.9503927     
  -53317102.5674047     
  -53308376.7821003     
  -53299890.5814192     
  -53291638.9336484     
  -53283616.7909871     
  -53275819.0919485     
  -53268240.7635951     
  -53260876.7236040     
  -53253721.8821597     
  -53246771.1436736     
  -53240019.4083269     
  -53233461.5734381     
  -53227092.5346529     
  -53220907.1869585     
  -53214900.4255215     
  -53209067.1463497     
  -53203402.2467809     
  -53197900.6257982     
  -53192557.1841724     
  -53187366.8244409     
  -53182324.4507111     
  -53177424.9683060     
  -53172663.2832630     
  -53168034.3015991     
  -53163532.9285392     
  -53159154.0675427     
  -53154892.6190189     
  -53150743.4792745     
  -53396650.5771551     
  -53382018.1900859     
  -53367689.6229051     
  -53353661.7805265     
  -53339931.4731460     
  -53326495.4196872     
  -53313350.2512582     
  -53300492.5146120     
  -53287918.6756054     
  -53275625.1226484     
  -53263608.1701356     
  -53251864.0618545     
  -53240388.9743612     
  -53229179.0203166     
  -53218230.2517746     
  -53207538.6634169     
  -53197100.1957240     
  -53186910.7380782     
  -53176966.1317900     
  -53167262.1730408     
  -53157794.6157377     
  -53148559.1742722     
  -53139551.5261783     
  -53130767.3146852     
  -53122202.1511587     
  -53113851.6174279     
  -53105711.2679924     
  -53097776.6321080     
  -53090043.2157458     
  -53082506.5034239     
  -53075161.9599082     
  -53068005.0317817     
  -53061031.1488794     
  -53054235.7255888     
  -53047614.1620161     
  -53041161.8450154     
  -53034874.1490834     
  -53028746.4371187     
  -53022774.0610461     
  -53016952.3623088     
  -53011276.6722274     
  -53005742.3122282     
  -53000344.5939440     
  -52995078.8191877     
  -52989940.2797952     
  -52984924.2573684     
  -52980026.0228705     
  -52975240.8361108     
  -52970563.9451670     
  -52965990.5855996     
  -53217038.0292142     
  -53203007.5101822     
  -53189247.8266916     
  -53175756.5159045     
  -53162531.0210330     
  -53149568.6944145     
  -53136866.8005756     
  -53124422.5192803     
  -53112232.9485592     
  -53100295.1077162     
  -53088605.9403073     
  -53077162.3170881     
  -53065961.0389255     
  -53054998.8396678     
  -53044272.3889711     
  -53033778.2950738     
  -53023513.1075184     
  -53013473.3198137     
  -53003655.3720333     
  -52994055.6533467     
  -52984670.5044796     
  -52975496.2200969     
  -52966529.0511081     
  -52957765.2068883     
  -52949200.8574147     
  -52940832.1353125     
  -52932655.1378103     
  -52924665.9286005     
  -52916860.5396037     
  -52909234.9726345     
  -52901785.2009675     
  -52894507.1708025     
  -52887396.8026268     
  -52880449.9924751     
  -52873662.6130861     
  -52867030.5149549     
  -52860549.5272826     
  -52854215.4588230     
  -52848024.0986265     
  -52841971.2166831     
  -52836052.5644647     
  -52830263.8753700     
  -52824600.8650706     
  -52819059.2317639     
  -52813634.6563350     
  -52808322.8024223     
  -52803119.3164034     
  -52798019.8272983     
  -52793019.9465756     
  -52788115.2679107     
  -53040921.0297908     
  -53027520.1319424     
  -53014359.7366348     
  -53001437.9375070     
  -52988752.7345666     
  -52976302.0370150     
  -52964083.6660452     
  -52952095.3576119     
  -52940334.7651714     
  -52928799.4623894     
  -52917486.9458143     
  -52906394.6375139     
  -52895519.8876726     
  -52884859.9771472     
  -52874412.1199776     
  -52864173.4658509     
  -52854141.1025154     
  -52844312.0581418     
  -52834683.3036301     
  -52825251.7548582     
  -52816014.2748698     
  -52806967.6760011     
  -52798108.7219414     
  -52789434.1297267     
  -52780940.5716650     
  -52772624.6771903     
  -52764483.0346432     
  -52756512.1929786     
  -52748708.6633970     
  -52741068.9208999     
  -52733589.4057667     
  -52726266.5249542     
  -52719096.6534166     
  -52712076.1353474     
  -52705201.2853405     
  -52698468.3894737     
  -52691873.7063130     
  -52685413.4678383     
  -52679083.8802925     
  -52672881.1249536     
  -52666801.3588327     
  -52660840.7152972     
  -52654995.3046237     
  -52649261.2144799     
  -52643634.5103384     
  -52638111.2358279     
  -52632687.4130188     
  -52627359.0426495     
  -52622122.1043006     
  -52616972.5565078     
  -52868510.4476082     
  -52855759.2495779     
  -52843220.7258394     
  -52830893.4589515     
  -52818775.9381877     
  -52806866.5621760     
  -52795163.6415035     
  -52783665.4012850     
  -52772369.9836952     
  -52761275.4504643     
  -52750379.7853331     
  -52739680.8964713     
  -52729176.6188522     
  -52718864.7165876     
  -52708742.8852173     
  -52698808.7539554     
  -52689059.8878885     
  -52679493.7901280     
  -52670107.9039116     
  -52660899.6146551     
  -52651866.2519518     
  -52643005.0915189     
  -52634313.3570887     
  -52625788.2222452     
  -52617426.8122023     
  -52609226.2055254     
  -52601183.4357934     
  -52593295.4932017     
  -52585559.3261048     
  -52577971.8424980     
  -52570529.9114380     
  -52563230.3644026     
  -52556069.9965886     
  -52549045.5681483     
  -52542153.8053652     
  -52535391.4017688     
  -52528755.0191891     
  -52522241.2887523     
  -52515846.8118176     
  -52509568.1608565     
  -52503401.8802767     
  -52497344.4871909     
  -52491392.4721327     
  -52485542.2997214     
  -52479790.4092785     
  -52474133.2153961     
  -52468567.1084615     
  -52463088.4551409     
  -52457693.5988220     
  -52452378.8600225     
  -52699945.8718057     
  -52687857.8853784     
  -52675957.1275268     
  -52664242.6080594     
  -52652713.2441793     
  -52641367.8629722     
  -52630205.2038550     
  -52619223.9209850     
  -52608422.5856293     
  -52597799.6884953     
  -52587353.6420212     
  -52577082.7826257     
  -52566985.3729175     
  -52557059.6038632     
  -52547303.5969140     
  -52537715.4060889     
  -52528293.0200159     
  -52519034.3639288     
  -52509937.3016206     
  -52500999.6373504     
  -52492219.1177062     
  -52483593.4334209     
  -52475120.2211414     
  -52466797.0651507     
  -52458621.4990421     
  -52450591.0073459     
  -52442703.0271063     
  -52434954.9494114     
  -52427344.1208728     
  -52419867.8450574     
  -52412523.3838697     
  -52405307.9588853     
  -52398218.7526369     
  -52391252.9098507     
  -52384407.5386362     
  -52377679.7116288     
  -52371066.4670856     
  -52364564.8099365     
  -52358171.7127900     
  -52351884.1168965     
  -52345698.9330688     
  -52339613.0425622     
  -52333623.2979159     
  -52327726.5237562     
  -52321919.5175645     
  -52316199.0504116     
  -52310561.8676610     
  -52305004.6896414     
  -52299524.2122942     
  -52294117.1077956     
  -52535305.5033628     
  -52523888.6089444     
  -52512635.7713564     
  -52501546.3705327     
  -52490619.6949975     
  -52479854.9442139     
  -52469251.2308936     
  -52458807.5832654     
  -52448522.9473055     
  -52438396.1889274     
  -52428426.0961332     
  -52418611.3811252     
  -52408950.6823788     
  -52399442.5666758     
  -52390085.5310979     
  -52380878.0049818     
  -52371818.3518336     
  -52362904.8712045     
  -52354135.8005252     
  -52345509.3169018     
  -52337023.5388703     
  -52328676.5281118     
  -52320466.2911259     
  -52312390.7808652     
  -52304447.8983279     
  -52296635.4941109     
  -52288951.3699218     
  -52281393.2800505     
  -52273958.9328012     
  -52266645.9918839     
  -52259452.0777661     
  -52252374.7689861     
  -52245411.6034261     
  -52238560.0795487     
  -52231817.6575937     
  -52225181.7607401     
  -52218649.7762300     
  -52212219.0564588     
  -52205886.9200298     
  -52199650.6527769     
  -52193507.5087544     
  -52187454.7111961     
  -52181489.4534461     
  -52175608.8998605     
  -52169810.1866841     
  -52164090.4229016     
  -52158446.6910669     
  -52152876.0481114     
  -52147375.5261332     
  -52141942.1331703     
  -52374614.4238153     
  -52363871.6887071     
  -52353272.0104440     
  -52342815.0857881     
  -52332500.5218892     
  -52322327.8384977     
  -52312296.4701384     
  -52302405.7682468     
  -52292655.0032675     
  -52283043.3667149     
  -52273569.9731970     
  -52264233.8624023     
  -52255034.0010503     
  -52245969.2848054     
  -52237038.5401542     
  -52228240.5262474     
  -52219573.9367055     
  -52211037.4013884     
  -52202629.4881293     
  -52194348.7044340     
  -52186193.4991432     
  -52178162.2640613     
  -52170253.3355486     
  -52162464.9960796     
  -52154795.4757662     
  -52147242.9538463     
  -52139805.5601389     
  -52132481.3764647     
  -52125268.4380331     
  -52118164.7347971     
  -52111168.2127745     
  -52104276.7753375     
  -52097488.2844707     
  -52090800.5619978     
  -52084211.3907788     
  -52077718.5158768     
  -52071319.6456969     
  -52065012.4530963     
  -52058794.5764688     
  -52052663.6208022     
  -52046617.1587116     
  -52040652.7314491     
  -52034767.8498905     
  -52028959.9955019     
  -52023226.6212857     
  -52017565.1527087     
  -52011972.9886133     
  -52006447.5021138     
  -52000986.0414791     
  -51995585.9310031     
  -52217851.5641210     
  -52207781.9778480     
  -52197836.5196015     
  -52188015.1531581     
  -52178317.7551019     
  -52168744.1168970     
  -52159293.9469262     
  -52149966.8724928     
  -52140762.4417894     
  -52131680.1258310     
  -52122719.3203558     
  -52113879.3476911     
  -52105159.4585866     
  -52096558.8340147     
  -52088076.5869385     
  -52079711.7640461     
  -52071463.3474548     
  -52063330.2563819     
  -52055311.3487845     
  -52047405.4229682     
  -52039611.2191645     
  -52031927.4210774     
  -52024352.6574003     
  -52016885.5033017     
  -52009524.4818822     
  -52002268.0656015     
  -51995114.6776764     
  -51988062.6934507     
  -51981110.4417365     
  -51974256.2061280     
  -51967498.2262880     
  -51960834.6992082     
  -51954263.7804429     
  -51947783.5853179     
  -51941392.1901145     
  -51935087.6332291     
  -51928867.9163105     
  -51922731.0053739     
  -51916674.8318938     
  -51910697.2938761     
  -51904796.2569109     
  -51898969.5552062     
  -51893214.9926038     
  -51887530.3435799     
  -51881913.3542285     
  -51876361.7432324     
  -51870873.2028198     
  -51865445.3997108     
  -51860075.9760519     
  -51854762.5503432     
  -52064955.6271786     
  -52055554.7743272     
  -52046261.0900532     
  -52037074.7586921     
  -52027995.8804005     
  -52019024.4730844     
  -52010160.4742968     
  -52001403.7431036     
  -51992754.0619195     
  -51984211.1383133     
  -51975774.6067827     
  -51967444.0305010     
  -51959218.9030323     
  -51951098.6500191     
  -51943082.6308414     
  -51935170.1402458     
  -51927360.4099478     
  -51919652.6102059     
  -51912045.8513682     
  -51904539.1853911     
  -51897131.6073323     
  -51889822.0568168     
  -51882609.4194755     
  -51875492.5283602     
  -51868470.1653310     
  -51861541.0624201     
  -51854703.9031699     
  -51847957.3239478     
  -51841299.9152364     
  -51834730.2229007     
  -51828246.7494333     
  -51821847.9551758     
  -51815532.2595199     
  -51809298.0420867     
  -51803143.6438858     
  -51797067.3684549     
  -51791067.4829793     
  -51785142.2193943     
  -51779289.7754690     
  -51773508.3158734     
  -51767795.9732302     
  -51762150.8491505     
  -51756571.0152555     
  -51751054.5141852     
  -51745599.3605942     
  -51740203.5421360     
  -51734865.0204374     
  -51729581.7320629     
  -51724351.5894708     
  -51719172.4819625     
  -51915830.1625558     
  -51907090.8445801     
  -51898443.6006819     
  -51889888.7926408     
  -51881426.7016059     
  -51873057.5298755     
  -51864781.4026496     
  -51856598.3697562     
  -51848508.4073517     
  -51840511.4195943     
  -51832607.2402930     
  -51824795.6345297     
  -51817076.3002573     
  -51809448.8698716     
  -51801912.9117597     
  -51794467.9318228     
  -51787113.3749752     
  -51779848.6266197     
  -51772673.0140992     
  -51765585.8081241     
  -51758586.2241782     
  -51751673.4239005     
  -51744846.5164452     
  -51738104.5598196     
  -51731446.5622004     
  -51724871.4832286     
  -51718378.2352829     
  -51711965.6847334     
  -51705632.6531753     
  -51699377.9186416     
  -51693200.2167982     
  -51687098.2421192     
  -51681070.6490447     
  -51675116.0531202     
  -51669233.0321195     
  -51663420.1271508     
  -51657675.8437467     
  -51651998.6529390     
  -51646386.9923186     
  -51640839.2670816     
  -51635353.8510620     
  -51629929.0877511     
  -51624563.2913060     
  -51619254.7475460     
  -51614001.7149386     
  -51608802.4255764     
  -51603655.0861448     
  -51598557.8788812     
  -51593508.9625275     
  -51588506.4732758     
  -51770347.9483240     
  -51762260.7601379     
  -51754252.3090129     
  -51746323.0944195     
  -51738473.5392031     
  -51730703.9912119     
  -51723014.7249026     
  -51715405.9429241     
  -51707877.7776800     
  -51700430.2928685     
  -51693063.4850021     
  -51685777.2849051     
  -51678571.5591903     
  -51671446.1117145     
  -51664400.6850138     
  -51657434.9617173     
  -51650548.5659415     
  -51643741.0646636     
  -51637011.9690756     
  -51630360.7359180     
  -51623786.7687946     
  -51617289.4194675     
  -51610867.9891341     
  -51604521.7296843     
  -51598249.8449402     
  -51592051.4918777     
  -51585925.7818298     
  -51579871.7816735     
  -51573888.5149989     
  -51567974.9632621     
  -51562130.0669217     
  -51556352.7265600     
  -51550641.8039880     
  -51544996.1233361     
  -51539414.4721303     
  -51533895.6023540     
  -51528438.2314966     
  -51523041.0435890     
  -51517702.6902268     
  -51512421.7915812     
  -51507196.9373986     
  -51502026.6879896     
  -51496909.5752076     
  -51491844.1034174     
  -51486828.7504550     
  -51481861.9685794     
  -51476942.1854152     
  -51472067.8048893     
  -51467237.2081605     
  -51462448.7545427     
  -51628354.8003064     
  -51620908.6641797     
  -51613529.5753231     
  -51606218.1345211     
  -51598974.8703088     
  -51591800.2404473     
  -51584694.6333824     
  -51577658.3696853     
  -51570691.7034761     
  -51563794.8238297     
  -51556967.8561657     
  -51550210.8636192     
  -51543523.8483960     
  -51536906.7531099     
  -51530359.4621032     
  -51523881.8027503     
  -51517473.5467442     
  -51511134.4113674     
  -51504864.0607447     
  -51498662.1070808     
  -51492528.1118816     
  -51486461.5871594     
  -51480461.9966220     
  -51474528.7568466     
  -51468661.2384384     
  -51462858.7671742     
  -51457120.6251305     
  -51451446.0517983     
  -51445834.2451822     
  -51440284.3628865     
  -51434795.5231875     
  -51429366.8060924     
  -51423997.2543849     
  -51418685.8746583     
  -51413431.6383371     
  -51408233.4826855     
  -51403090.3118051     
  -51398000.9976212     
  -51392964.3808588     
  -51387979.2720078     
  -51383044.4522784     
  -51378158.6745477     
  -51373320.6642964     
  -51368529.1205378     
  -51363782.7167378     
  -51359080.1017285     
  -51354419.9006134     
  -51349800.7156670     
  -51345221.1272272     
  -51340679.6945829     
  -51489672.9018895     
  -51482855.5594663     
  -51476095.1093733     
  -51469392.2206922     
  -51462747.4949127     
  -51456161.4672584     
  -51449634.6079992     
  -51443167.3237510     
  -51436759.9587621     
  -51430412.7961865     
  -51424126.0593434     
  -51417899.9129637     
  -51411734.4644226     
  -51405629.7649593     
  -51399585.8108824     
  -51393602.5447627     
  -51387679.8566117     
  -51381817.5850474     
  -51376015.5184464     
  -51370273.3960827     
  -51364590.9092534     
  -51358967.7023919     
  -51353403.3741668     
  -51347897.4785698     
  -51342449.5259896     
  -51337058.9842735     
  -51331725.2797777     
  -51326447.7984040     
  -51321225.8866264     
  -51316058.8525039     
  -51310945.9666839     
  -51305886.4633932     
  -51300879.5414180     
  -51295924.3650742     
  -51291020.0651662     
  -51286165.7399359     
  -51281360.4560026     
  -51276603.2492917     
  -51271893.1259562     
  -51267229.0632876     
  -51262610.0106192     
  -51258034.8902207     
  -51253502.5981847     
  -51249012.0053060     
  -51244561.9579539     
  -51240151.2789365     
  -51235778.7683592     
  -51231443.2044774     
  -51227143.3445420     
  -51222877.9256405     
  -51354103.7265014     
  -51347902.1891195     
  -51341748.8103913     
  -51335644.2979800     
  -51329589.2968120     
  -51323584.3902565     
  -51317630.1012977     
  -51311726.8936963     
  -51305875.1731429     
  -51300075.2884010     
  -51294327.5324400     
  -51288632.1435585     
  -51282989.3064971     
  -51277399.1535417     
  -51271861.7656157     
  -51266377.1733622     
  -51260945.3582153     
  -51255566.2534617     
  -51250239.7452909     
  -51244965.6738357     
  -51239743.8342019     
  -51234573.9774871     
  -51229455.8117902     
  -51224389.0032093     
  -51219373.1768304     
  -51214407.9177051     
  -51209492.7718191     
  -51204627.2470501     
  -51199810.8141159     
  -51195042.9075133     
  -51190322.9264472     
  -51185650.2357504     
  -51181024.1667933     
  -51176444.0183871     
  -51171909.0576750     
  -51167418.5210171     
  -51162971.6148658     
  -51158567.5166336     
  -51154205.3755523     
  -51149884.3135248     
  -51145603.4259697     
  -51141361.7826580     
  -51137158.4285427     
  -51132992.3845823     
  -51128862.6485574     
  -51124768.1958806     
  -51120707.9804008     
  -51116680.9352012     
  -51112685.9733926     
  -51108721.9889003     
  -51221430.6088318     
  -51215831.5663365     
  -51210273.2562626     
  -51204756.3983362     
  -51199281.6545211     
  -51193849.6300614     
  -51188460.8745176     
  -51183115.8827979     
  -51177815.0961826     
  -51172558.9033421     
  -51167347.6413477     
  -51162181.5966761     
  -51157061.0062061     
  -51151986.0582083     
  -51146956.8933269     
  -51141973.6055538     
  -51137036.2431953     
  -51132144.8098302     
  -51127299.2652609     
  -51122499.5264551     
  -51117745.4684805     
  -51113036.9254310     
  -51108373.6913445     
  -51103755.5211125     
  -51099182.1313822     
  -51094653.2014495     
  -51090168.3741446     
  -51085727.2567092     
  -51081329.4216661     
  -51076974.4076799     
  -51072661.7204111     
  -51068390.8333619     
  -51064161.1887136     
  -51059972.1981580     
  -51055823.2437200     
  -51051713.6785738     
  -51047642.8278509     
  -51043609.9894425     
  -51039614.4347938     
  -51035655.4096921     
  -51031732.1350482     
  -51027843.8076716     
  -51023989.6010386     
  -51020168.6660560     
  -51016380.1318168     
  -51012623.1063518     
  -51008896.6773746     
  -51005199.9130218     
  -51001531.8625873     
  -50997891.5572523     
  -51091421.0089075     
  -51086411.1975337     
  -51081435.8866948     
  -51076495.7847105     
  -51071591.5471673     
  -51066723.7778310     
  -51061893.0295572     
  -51057099.8051979     
  -51052344.5585048     
  -51047627.6950284     
  -51042949.5730129     
  -51038310.5042871     
  -51033710.7551501     
  -51029150.5472520     
  -51024630.0584694     
  -51020149.4237757     
  -51015708.7361058     
  -51011308.0472145     
  -51006947.3685303     
  -51002626.6720013     
  -50998345.8909370     
  -50994104.9208424     
  -50989903.6202466     
  -50985741.8115250     
  -50981619.2817146     
  -50977535.7833235     
  -50973491.0351340     
  -50969484.7229982     
  -50965516.5006289     
  -50961585.9903824     
  -50957692.7840359     
  -50953836.4435581     
  -50950016.5018738     
  -50946232.4636217     
  -50942483.8059065     
  -50938769.9790449     
  -50935090.4073045     
  -50931444.4896382     
  -50927831.6004115     
  -50924251.0901246     
  -50920702.2861284     
  -50917184.4933350     
  -50913696.9949229     
  -50910239.0530363     
  -50906809.9094794     
  -50903408.7864051     
  -50900034.8869994     
  -50896687.3961599     
  -50893365.4811692     
  -50890068.2923653     
  -50963828.5044107     
  -50959395.0348482     
  -50954990.9167493     
  -50950616.8264265     
  -50946273.3924876     
  -50941961.1966288     
  -50937680.7744270     
  -50933432.6161314     
  -50929217.1674537     
  -50925034.8303557     
  -50920885.9638360     
  -50916770.8847132     
  -50912689.8684067     
  -50908643.1497150     
  -50904630.9235895     
  -50900653.3459060     
  -50896710.5342318     
  -50892802.5685891     
  -50888929.4922140     
  -50885091.3123116     
  -50881288.0008064     
  -50877519.4950883     
  -50873785.6987537     
  -50870086.4823420     
  -50866421.6840672     
  -50862791.1105446     
  -50859194.5375119     
  -50855631.7105463     
  -50852102.3457756     
  -50848606.1305844     
  -50845142.7243149     
  -50841711.7589633     
  -50838312.8398699     
  -50834945.5464047     
  -50831609.4326479     
  -50828304.0280644     
  -50825028.8381747     
  -50821783.3452185     
  -50818567.0088155     
  -50815379.2666195     
  -50812219.5349687     
  -50809087.2095296     
  -50805981.6659380     
  -50802902.2604333     
  -50799848.3304890     
  -50796819.1954385     
  -50793814.1570957     
  -50790832.5003717     
  -50787873.4938864     
  -50784936.3905759     
  -50838394.5404349     
  -50834525.1877597     
  -50830681.0110212     
  -50826862.6365871     
  -50823070.6481051     
  -50819305.5871877     
  -50815567.9540965     
  -50811858.2084279     
  -50808176.7697989     
  -50804524.0185323     
  -50800900.2963417     
  -50797305.9070158     
  -50793741.1171008     
  -50790206.1565821     
  -50786701.2195637     
  -50783226.4649455     
  -50779782.0170990     
  -50776367.9665393     
  -50772984.3705961     
  -50769631.2540795     
  -50766308.6099451     
  -50763016.3999540     
  -50759754.5553306     
  -50756522.9774160     
  -50753321.5383183     
  -50750150.0815590     
  -50747008.4227154     
  -50743896.3500592     
  -50740813.6251908     
  -50737759.9836698     
  -50734735.1356411     
  -50731738.7664573     
  -50728770.5372957     
  -50725830.0857726     
  -50722917.0265519     
  -50720030.9519501     
  -50717171.4325369     
  -50714338.0177312     
  -50711530.2363930     
  -50708747.5974110     
  -50705989.5902854     
  -50703255.6857073     
  -50700545.3361330     
  -50697857.9763538     
  -50695193.0240631     
  -50692549.8804174     
  -50689927.9305940     
  -50687326.5443449     
  -50684745.0765456     
  -50682182.8677407     
  -50714849.9616240     
  -50711533.4192770     
  -50708238.7443880     
  -50704966.4978813     
  -50701717.2028734     
  -50698491.3452584     
  -50695289.3742958     
  -50692111.7031991     
  -50688958.7097272     
  -50685830.7367749     
  -50682728.0929658     
  -50679651.0532440     
  -50676599.8594667     
  -50673574.7209958     
  -50670575.8152890     
  -50667603.2884903     
  -50664657.2560183     
  -50661737.8031543     
  -50658844.9856282     
  -50655978.8302017     
  -50653139.3352512     
  -50650326.4713469     
  -50647540.1818302     
  -50644780.3833883     
  -50642046.9666260     
  -50639339.7966354     
  -50636658.7135616     
  -50634003.5331659     
  -50631374.0473854     
  -50628770.0248905     
  -50626191.2116375     
  -50623637.3314185     
  -50621108.0864082     
  -50618603.1577069     
  -50616122.2058792     
  -50613664.8714903     
  -50611230.7756375     
  -50608819.5204794     
  -50606430.6897594     
  -50604063.8493276     
  -50601718.5476574     
  -50599394.3163590     
  -50597090.6706892     
  -50594807.1100572     
  -50592543.1185263     
  -50590298.1653131     
  -50588071.7052811     
  -50585863.1794321     
  -50583672.0153933     
  -50581497.6279002     
  -50592916.3488365     
  -50590142.4492251     
  -50587387.8722373     
  -50584653.1000677     
  -50581938.5819229     
  -50579244.7345182     
  -50576571.9425786     
  -50573920.5593405     
  -50571290.9070574     
  -50568683.2775048     
  -50566097.9324890     
  -50563535.1043545     
  -50560994.9964934     
  -50558477.7838547     
  -50555983.6134540     
  -50553512.6048819     
  -50551064.8508136     
  -50548640.4175164     
  -50546239.3453568     
  -50543861.6493062     
  -50541507.3194460     
  -50539176.3214701     
  -50536868.5971867     
  -50534584.0650171     
  -50532322.6204937     
  -50530084.1367551     
  -50527868.4650394     
  -50525675.4351744     
  -50523504.8560655     
  -50521356.5161820     
  -50519230.1840394     
  -50517125.6086791     
  -50515042.5201462     
  -50512980.6299629     
  -50510939.6316005     
  -50508919.2009468     
  -50506918.9967714     
  -50504938.6611878     
  -50502977.8201118     
  -50501036.0837167     
  -50499113.0468858     
  -50497208.2896613     
  -50495321.3776896     
  -50493451.8626640     
  -50491599.2827631     
  -50489763.1630865     
  -50487943.0160873     
  -50486138.3420003     
  -50484348.6292683     
  -50482573.3549630     
  -50472307.1807297     
  -50470067.0852782     
  -50467844.4310778     
  -50465639.6102931     
  -50463452.9868191     
  -50461284.8967012     
  -50459135.6485575     
  -50457005.5240043     
  -50454894.7780830     
  -50452803.6396899     
  -50450732.3120066     
  -50448680.9729326     
  -50446649.7755181     
  -50444638.8483977     
  -50442648.2962249     
  -50440678.2001061     
  -50438728.6180355     
  -50436799.5853286     
  -50434891.1150561     
  -50433003.1984764     
  -50431135.8054677     
  -50429288.8849589     
  -50427462.3653591     
  -50425656.1549859     
  -50423870.1424919     
  -50422104.1972899     
  -50420358.1699760     
  -50418631.8927505     
  -50416925.1798375     
  -50415237.8279019     
  -50413569.6164637     
  -50411920.3083109     
  -50410289.6499096     
  -50408677.3718108     
  -50407083.1890562     
  -50405506.8015802     
  -50403947.8946093     
  -50402406.1390594     
  -50400881.1919298     
  -50399372.6966944     
  -50397880.2836901     
  -50396403.5705028     
  -50394942.1623495     
  -50393495.6524581     
  -50392063.6224443     
  -50390645.6426851     
  -50389241.2726896     
  -50387850.0614666     
  -50386471.5478893     
  -50385105.2610566     
  -50352728.8396697     
  -50351015.2012591     
  -50349317.6891720     
  -50347636.5960119     
  -50345972.1907330     
  -50344324.7189918     
  -50342694.4035009     
  -50341081.4443845     
  -50339486.0195376     
  -50337908.2849856     
  -50336348.3752459     
  -50334806.4036913     
  -50333282.4629137     
  -50331776.6250883     
  -50330288.9423397     
  -50328819.4471064     
  -50327368.1525069     
  -50325935.0527049     
  -50324520.1232744     
  -50323123.3215637     
  -50321744.5870601     
  -50320383.8417519     
  -50319040.9904910     
  -50317715.9213533     
  -50316408.5059985     
  -50315118.6000277     
  -50313846.0433402     
  -50312590.6604884     
  -50311352.2610307     
  -50310130.6398830     
  -50308925.5776675     
  -50307736.8410604     
  -50306564.1831370     
  -50305407.3437141     
  -50304266.0496915     
  -50303140.0153899     
  -50302028.9428868     
  -50300932.5223505     
  -50299850.4323707     
  -50298782.3402876     
  -50297727.9025177     
  -50296686.7648773     
  -50295658.5629033     
  -50294642.9221714     
  -50293639.4586118     
  -50292647.7788219     
  -50291667.4803766     
  -50290698.1521352     
  -50289739.3745468     
  -50288790.7199517     
  -50233881.4809017     
  -50232688.5816140     
  -50231510.9660895     
  -50230348.8194107     
  -50229202.3075437     
  -50228071.5776283     
  -50226956.7582713     
  -50225857.9598409     
  -50224775.2747632     
  -50223708.7778204     
  -50222658.5264494     
  -50221624.5610422     
  -50220606.9052465     
  -50219605.5662670     
  -50218620.5351671     
  -50217651.7871706     
  -50216699.2819631     
  -50215762.9639939     
  -50214842.7627765     
  -50213938.5931896     
  -50213050.3557760     
  -50212177.9370426     
  -50211321.2097571     
  -50210480.0332460     
  -50209654.2536889     
  -50208843.7044140     
  -50208048.2061899     
  -50207267.5675171     
  -50206501.5849179     
  -50205750.0432241     
  -50205012.7158629     
  -50204289.3651413     
  -50203579.7425287     
  -50202883.5889365     
  -50202200.6349970     
  -50201530.6013390     
  -50200873.1988622     
  -50200228.1290086     
  -50199595.0840323     
  -50198973.7472663     
  -50198363.7933879     
  -50197764.8886807     
  -50197176.6912955     
  -50196598.8515071     
  -50196031.0119705     
  -50195472.8079735     
  -50194923.8676868     
  -50194383.8124125     
  -50193852.2568293     
  -50193328.8092353     
  -50115459.7837836     
  -50114783.6507215     
  -50114122.3397139     
  -50113475.9217580     
  -50112844.4531966     
  -50112227.9759551     
  -50111626.5177794     
  -50111040.0924759     
  -50110468.7001525     
  -50109912.3274596     
  -50109370.9478324     
  -50108844.5217330     
  -50108332.9968941     
  -50107836.3085606     
  -50107354.3797332     
  -50106887.1214099     
  -50106434.4328291     
  -50105996.2017104     
  -50105572.3044953     
  -50105162.6065880     
  -50104766.9625937     
  -50104385.2165570     
  -50104017.2021988     
  -50103662.7431526     
  -50103321.6531978     
  -50102993.7364938     
  -50102678.7878108     
  -50102376.5927601     
  -50102086.9280224     
  -50101809.5615744     
  -50101544.2529136     
  -50101290.7532813     
  -50101048.8058841     
  -50100818.1461128     
  -50100598.5017596     
  -50100389.5932339     
  -50100191.1337750     
  -50100002.8296637     
  -50099824.3804310     
  -50099655.4790651     
  -50099495.8122163     
  -50099345.0603992     
  -50099202.8981938     
  -50099068.9944428     
  -50098943.0124482     
  -50098824.6101644     
  -50098713.4403902     
  -50098609.1509573     
  -50098511.3849178     
  -50098419.7807283     
  -49997153.6039972     
  -49996992.1056956     
  -49996845.2591268     
  -49996713.0158847     
  -49996595.3173243     
  -49996492.0947508     
  -49996403.2696085     
  -49996328.7536708     
  -49996268.4492302     
  -49996222.2492872     
  -49996190.0377405     
  -49996171.6895756     
  -49996167.0710542     
  -49996176.0399013     
  -49996198.4454935     
  -49996234.1290451     
  -49996282.9237937     
  -49996344.6551858     
  -49996419.1410590     
  -49996506.1918257     
  -49996605.6106534     
  -49996717.1936450     
  -49996840.7300171     
  -49996976.0022769     
  -49997122.7863975     
  -49997280.8519918     
  -49997449.9624849     
  -49997629.8752841     
  -49997820.3419477     
  -49998021.1083527     
  -49998231.9148584     
  -49998452.4964711     
  -49998682.5830044     
  -49998921.8992393     
  -49999170.1650810     
  -49999427.0957151     
  -49999692.4017603     
  -49999965.7894206     
  -50000246.9606341     
  -50000535.6132206     
  -50000831.4410272     
  -50001134.1340710     
  -50001443.3786805     
  -50001758.8576351     
  -50002080.2503011     
  -50002407.2327677     
  -50002739.4779790     
  -50003076.6558649     
  -50003418.4334702     
  -50003764.4750803     
  -49878648.5458950     
  -49879001.4714965     
  -49879369.0818594     
  -49879751.2049837     
  -49880147.6630289     
  -49880558.2724591     
  -49880982.8441869     
  -49881421.1837169     
  -49881873.0912875     
  -49882338.3620120     
  -49882816.7860190     
  -49883308.1485907     
  -49883812.2303005     
  -49884328.8071491     
  -49884857.6506991     
  -49885398.5282083     
  -49885951.2027607     
  -49886515.4333978     
  -49887090.9752456     
  -49887677.5796421     
  -49888274.9942621     
  -49888882.9632403     
  -49889501.2272931     
  -49890129.5238375     
  -49890767.5871098     
  -49891415.1482803     
  -49892071.9355685     
  -49892737.6743541     
  -49893412.0872879     
  -49894094.8943992     
  -49894785.8132025     
  -49895484.5588017     
  -49896190.8439919     
  -49896904.3793601     
  -49897624.8733828     
  -49898352.0325230     
  -49899085.5613235     
  -49899825.1624998     
  -49900570.5370298     
  -49901321.3842423     
  -49902077.4019030     
  -49902838.2862983     
  -49903603.7323184     
  -49904373.4335363     
  -49905147.0822871     
  -49905924.3697432     
  -49906704.9859896     
  -49907488.6200952     
  -49908274.9601841     
  -49909063.6935032     
  -49759626.4744778     
  -49760495.5974273     
  -49761379.5541899     
  -49762278.0460241     
  -49763190.7727628     
  -49764117.4329161     
  -49765057.7237725     
  -49766011.3414975     
  -49766977.9812300     
  -49767957.3371767     
  -49768949.1027045     
  -49769952.9704300     
  -49770968.6323074     
  -49771995.7797139     
  -49773034.1035328     
  -49774083.2942345     
  -49775143.0419550     
  -49776213.0365723     
  -49777292.9677808     
  -49778382.5251624     
  -49779481.3982569     
  -49780589.2766288     
  -49781705.8499325     
  -49782830.8079751     
  -49783963.8407771     
  -49785104.6386305     
  -49786252.8921552     
  -49787408.2923530     
  -49788570.5306589     
  -49789739.2989911     
  -49790914.2897987     
  -49792095.1961061     
  -49793281.7115568     
  -49794473.5304548     
  -49795670.3478026     
  -49796871.8593388     
  -49798077.7615729     
  -49799287.7518179     
  -49800501.5282210     
  -49801718.7897928     
  -49802939.2364338     
  -49804162.5689596     
  -49805388.4891234     
  -49806616.6996374     
  -49807846.9041920     
  -49809078.8074727     
  -49810312.1151758     
  -49811546.5340222     
  -49812781.7717688     
  -49814017.5372188     
  -49639765.9869022     
  -49641155.1144339     
  -49642559.2534447     
  -49643977.9762993     
  -49645410.8584029     
  -49646857.4782640     
  -49648317.4175517     
  -49649790.2611509     
  -49651275.5972130     
  -49652773.0172040     
  -49654282.1159492     
  -49655802.4916738     
  -49657333.7460415     
  -49658875.4841888     
  -49660427.3147569     
  -49661988.8499202     
  -49663559.7054117     
  -49665139.5005458     
  -49666727.8582374     
  -49668324.4050190     
  -49669928.7710546     
  -49671540.5901502     
  -49673159.4997628     
  -49674785.1410057     
  -49676417.1586516     
  -49678055.2011328     
  -49679698.9205393     
  -49681347.9726139     
  -49683002.0167454     
  -49684660.7159587     
  -49686323.7369034     
  -49687990.7498392     
  -49689661.4286194     
  -49691335.4506726     
  -49693012.4969816     
  -49694692.2520601     
  -49696374.4039280     
  -49698058.6440841     
  -49699744.6674764     
  -49701432.1724716     
  -49703120.8608214     
  -49704810.4376278     
  -49706500.6113057     
  -49708191.0935448     
  -49709881.5992684     
  -49711571.8465913     
  -49713261.5567758     
  -49714950.4541857     
  -49716638.2662394     
  -49718324.7233600     
  -49518742.8638572     
  -49520657.8730218     
  -49522588.0116097     
  -49524532.7219230     
  -49526491.4538610     
  -49528463.6649397     
  -49530448.8203060     
  -49532446.3927465     
  -49534455.8626923     
  -49536476.7182190     
  -49538508.4550418     
  -49540550.5765069     
  -49542602.5935785     
  -49544664.0248212     
  -49546734.3963786     
  -49548813.2419486     
  -49550900.1027537     
  -49552994.5275089     
  -49555096.0723845     
  -49557204.3009674     
  -49559318.7842167     
  -49561439.1004174     
  -49563564.8351309     
  -49565695.5811419     
  -49567830.9384022     
  -49569970.5139717     
  -49572113.9219570     
  -49574260.7834460     
  -49576410.7264415     
  -49578563.3857903     
  -49580718.4031113     
  -49582875.4267202     
  -49585034.1115520     
  -49587194.1190815     
  -49589355.1172411     
  -49591516.7803365     
  -49593678.7889602     
  -49595840.8299036     
  -49598002.5960658     
  -49600163.7863614     
  -49602324.1056264     
  -49604483.2645217     
  -49606640.9794353     
  -49608796.9723824     
  -49610950.9709040     
  -49613102.7079640     
  -49615251.9218442     
  -49617398.3560384     
  -49619541.7591446     
  -49621681.8847554     
  -49396230.5216303     
  -49398679.3820453     
  -49401143.3399598     
  -49403621.7074576     
  -49406113.8089044     
  -49408618.9809216     
  -49411136.5723523     
  -49413665.9442231     
  -49416206.4696981     
  -49418757.5340284     
  -49421318.5344955     
  -49423888.8803488     
  -49426467.9927393     
  -49429055.3046468     
  -49431650.2608029     
  -49434252.3176095     
  -49436860.9430518     
  -49439475.6166083     
  -49442095.8291552     
  -49444721.0828679     
  -49447350.8911174     
  -49449984.7783637     
  -49452622.2800454     
  -49455262.9424656     
  -49457906.3226744     
  -49460551.9883482     
  -49463199.5176659     
  -49465848.4991819     
  -49468498.5316963     
  -49471149.2241224     
  -49473800.1953508     
  -49476451.0741123     
  -49479101.4988369     
  -49481751.1175105     
  -49484399.5875310     
  -49487046.5755595     
  -49489691.7573718     
  -49492334.8177063     
  -49494975.4501104     
  -49497613.3567853     
  -49500248.2484287     
  -49502879.8440757     
  -49505507.8709379     
  -49508132.0642415     
  -49510752.1670633     
  -49513367.9301650     
  -49515979.1118269     
  -49518585.4776796     
  -49521186.8005344     
  -49523782.8602125     
  -49271900.4862034     
  -49274893.2691174     
  -49277900.8748835     
  -49280922.4862934     
  -49283957.3032717     
  -49287004.5427977     
  -49290063.4388204     
  -49293133.2421661     
  -49296213.2204385     
  -49299302.6579120     
  -49302400.8554190     
  -49305507.1302297     
  -49308620.8159270     
  -49311741.2622747     
  -49314867.8350807     
  -49317999.9160539     
  -49321136.9026568     
  -49324278.2079528     
  -49327423.2604483     
  -49330571.5039308     
  -49333722.3973024     
  -49336875.4144090     
  -49340030.0438654     
  -49343185.7888769     
  -49346342.1670568     
  -49349498.7102409     
  -49352654.9642979     
  -49355810.4889375     
  -49358964.8575143     
  -49362117.6568303     
  -49365268.4869331     
  -49368416.9609123     
  -49371562.7046935     
  -49374705.3568292     
  -49377844.5682879     
  -49380980.0022414     
  -49384111.3338489     
  -49387238.2500405     
  -49390360.4492979     
  -49393477.6414334     
  -49396589.5473679     
  -49399695.8989067     
  -49402796.4385140     
  -49405890.9190857     
  -49408979.1037215     
  -49412060.7654951     
  -49415135.6872235     
  -49418203.6612351     
  -49421264.4891366     
  -49424317.9815792     
  -49145422.9112833     
  -49148971.7839357     
  -49152534.8656049     
  -49156111.2119095     
  -49159699.9006536     
  -49163300.0316907     
  -49166910.7267801     
  -49170531.1294338     
  -49174160.4047563     
  -49177797.7392755     
  -49181442.3407670     
  -49185093.4380707     
  -49188750.2809006     
  -49192412.1396486     
  -49196078.3051811     
  -49199748.0886302     
  -49203420.8211792     
  -49207095.8538423     
  -49210772.5572397     
  -49214450.3213669     
  -49218128.5553596     
  -49221806.6872548     
  -49225484.1637470     
  -49229160.4499399     
  -49232835.0290953     
  -49236507.4023780     
  -49240177.0885964     
  -49243843.6239414     
  -49247506.5617211     
  -49251165.4720926     
  -49254819.9417919     
  -49258469.5738602     
  -49262113.9873687     
  -49265752.8171404     
  -49269385.7134697     
  -49273012.3418414     
  -49276632.3826454     
  -49280245.5308919     
  -49283851.4959238     
  -49287450.0011277     
  -49291040.7836435     
  -49294623.5940730     
  -49298198.1961866     
  -49301764.3666297     
  -49305321.8946274     
  -49308870.5816880     
  -49312410.2413070     
  -49315940.6986679     
  -49319461.7903449     
  -49322973.3640027     
  -49016467.1627923     
  -49020586.3664240     
  -49024718.7250988     
  -49028863.1707257     
  -49033018.6626870     
  -49037184.1876361     
  -49041358.7592855     
  -49045541.4181862     
  -49049731.2314972     
  -49053927.2927472     
  -49058128.7215874     
  -49062334.6635373     
  -49066544.2897222     
  -49070756.7966044     
  -49074971.4057071     
  -49079187.3633325     
  -49083403.9402732     
  -49087620.4315183     
  -49091836.1559539     
  -49096050.4560587     
  -49100262.6975939     
  -49104472.2692899     
  -49108678.5825274     
  -49112881.0710152     
  -49117079.1904637     
  -49121272.4182552     
  -49125460.2531106     
  -49129642.2147529     
  -49133817.8435681     
  -49137986.7002631     
  -49142148.3655207     
  -49146302.4396533     
  -49150448.5422529     
  -49154586.3118408     
  -49158715.4055138     
  -49162835.4985895     
  -49166946.2842504     
  -49171047.4731856     
  -49175138.7932318     
  -49179219.9890132     
  -49183290.8215797     
  -49187351.0680449     
  -49191400.5212225     
  -49195438.9892629     
  -49199466.2952880     
  -49203482.2770259     
  -49207486.7864456     
  -49211479.6893905     
  -49215460.8652117     
  -49219430.2064016     
  -48884702.4930254     
  -48889408.3022704     
  -48894125.6661721     
  -48898853.3979316     
  -48903590.3437760     
  -48908335.3826789     
  -48913087.4260701     
  -48917845.4175367     
  -48922608.3325129     
  -48927375.1779620     
  -48932144.9920489     
  -48936916.8438054     
  -48941689.8327864     
  -48946463.0887203     
  -48951235.7711510     
  -48956007.0690749     
  -48960776.2005699     
  -48965542.4124205     
  -48970304.9797359     
  -48975063.2055641     
  -48979816.4205006     
  -48984563.9822924     
  -48989305.2754389     
  -48994039.7107875     
  -48998766.7251270     
  -49003485.7807764     
  -49008196.3651714     
  -49012897.9904479     
  -49017590.1930227     
  -49022272.5331720     
  -49026944.5946078     
  -49031605.9840518     
  -49036256.3308084     
  -49040895.2863351     
  -49045522.5238124     
  -49050137.7377117     
  -49054740.6433627     
  -49059330.9765190     
  -49063908.4929242     
  -49068472.9678756     
  -49073024.1957891     
  -49077561.9897620     
  -49082086.1811367     
  -49086596.6190637     
  -49091093.1700636     
  -49095575.7175911     
  -49100044.1615965     
  -49104498.4180894     
  -49108938.4187009     
  -49113364.1102474     
  -48749798.8284454     
  -48755109.4892089     
  -48760429.4454547     
  -48765757.3984519     
  -48771092.0883364     
  -48776432.2937418     
  -48781776.8314197     
  -48787124.5558484     
  -48792474.3588330     
  -48797825.1690959     
  -48803175.9518575     
  -48808525.7084106     
  -48813873.4756854     
  -48819218.3258075     
  -48824559.3656499     
  -48829895.7363776     
  -48835226.6129865     
  -48840551.2038372     
  -48845868.7501832     
  -48851178.5256938     
  -48856479.8359738     
  -48861772.0180780     
  -48867054.4400225     
  -48872326.5002922     
  -48877587.6273458     
  -48882837.2791168     
  -48888074.9425133     
  -48893300.1329146     
  -48898512.3936658     
  -48903711.2955714     
  -48908896.4363859     
  -48914067.4403045     
  -48919223.9574515     
  -48924365.6633688     
  -48929492.2585024     
  -48934603.4676895     
  -48939699.0396440     
  -48944778.7464430     
  -48949842.3830117     
  -48954889.7666094     
  -48959920.7363150     
  -48964935.1525131     
  -48969932.8963800     
  -48974913.8693703     
  -48979877.9927040     
  -48984825.2068544     
  -48989755.4710364     
  -48994668.7626950     
  -48999565.0769960     
  -49004444.4263159     
  -48611427.6959659     
  -48617363.3382776     
  -48623305.2389397     
  -48629251.9961144     
  -48635202.2529778     
  -48641154.6972463     
  -48647108.0606923     
  -48653061.1186491     
  -48659012.6895063     
  -48664961.6341960     
  -48670906.8556704     
  -48676847.2983719     
  -48682781.9476950     
  -48688709.8294420     
  -48694630.0092717     
  -48700541.5921427     
  -48706443.7217509     
  -48712335.5799620     
  -48718216.3862395     
  -48724085.3970688     
  -48729941.9053767     
  -48735785.2399487     
  -48741614.7648419     
  -48747429.8787966     
  -48753230.0146442     
  -48759014.6387141     
  -48764783.2502382     
  -48770535.3807544     
  -48776270.5935083     
  -48781988.4828547     
  -48787688.6736574     
  -48793370.8206897     
  -48799034.6080335     
  -48804679.7484794     
  -48810305.9829254     
  -48815913.0797776     
  -48821500.8343505     
  -48827069.0682672     
  -48832617.6288618     
  -48838146.3885814     
  -48843655.2443897     
  -48849144.1171717     
  -48854612.9511391     
  -48860061.7132371     
  -48865490.3925529     
  -48870898.9997256     
  -48876287.5663568     
  -48881656.1444232     
  -48887004.8056913     
  -48892333.6411330     
  -48469263.3135781     
  -48475845.8353117     
  -48482430.6737527     
  -48489016.3351474     
  -48495601.3772176     
  -48502184.4085665     
  -48508764.0880742     
  -48515339.1242833     
  -48521908.2747745     
  -48528470.3455354     
  -48535024.1903196     
  -48541568.7099997     
  -48548102.8519135     
  -48554625.6092035     
  -48561136.0201513     
  -48567633.1675071     
  -48574116.1778141     
  -48580584.2207294     
  -48587036.5083411     
  -48593472.2944819     
  -48599890.8740406     
  -48606291.5822706     
  -48612673.7940969     
  -48619036.9234217     
  -48625380.4224279     
  -48631703.7808826     
  -48638006.5254393     
  -48644288.2189402     
  -48650548.4597186     
  -48656786.8809006     
  -48663003.1497086     
  -48669196.9667643     
  -48675368.0653932     
  -48681516.2109303     
  -48687641.2000264     
  -48693742.8599566     
  -48699821.0479298     
  -48705875.6504004     
  -48711906.5823813     
  -48717913.7867596     
  -48723897.2336134     
  -48729856.9195319     
  -48735792.8669367     
  -48741705.1234059     
  -48747593.7610004     
  -48753458.8755932     
  -48759300.5861998     
  -48765119.0343126     
  -48770914.3832367     
  -48776686.8174286     
  -48322983.8723683     
  -48330236.7891424     
  -48337487.0420708     
  -48344733.0593935     
  -48351973.3276016     
  -48359206.3907046     
  -48366430.8494888     
  -48373645.3607663     
  -48380848.6366158     
  -48388039.4436168     
  -48395216.6020760     
  -48402378.9852489     
  -48409525.5185544     
  -48416655.1787863     
  -48423766.9933187     
  -48430860.0393099     
  -48437933.4429005     
  -48444986.3784112     
  -48452018.0675376     
  -48459027.7785421     
  -48466014.8254468     
  -48472978.5672235     
  -48479918.4069841     
  -48486833.7911716     
  -48493724.2087498     
  -48500589.1903954     
  -48507428.3076891     
  -48514241.1723092     
  -48521027.4352270     
  -48527786.7859026     
  -48534518.9514840     
  -48541223.6960072     
  -48547900.8195998     
  -48554550.1576866     
  -48561171.5801981     
  -48567764.9907816     
  -48574330.3260161     
  -48580867.5546294     
  -48587376.6767191     
  -48593857.7229771     
  -48600310.7539165     
  -48606735.8591036     
  -48613133.1563917     
  -48619502.7911599     
  -48625844.9355549     
  -48632159.7877360     
  -48638447.5711249     
  -48644708.5336580     
  -48650942.9470426     
  -48657151.1060172     
  -48172273.0384202     
  -48180221.2944464     
  -48188160.7246054     
  -48196089.6961482     
  -48204006.6416543     
  -48211910.0581409     
  -48219798.5061663     
  -48227670.6089238     
  -48235525.0513307     
  -48243360.5791107     
  -48251175.9978715     
  -48258970.1721785     
  -48266742.0246242     
  -48274490.5348950     
  -48282214.7388354     
  -48289913.7275105     
  -48297586.6462669     
  -48305232.6937936     
  -48312851.1211818     
  -48320441.2309850     
  -48328002.3762807     
  -48335533.9597320     
  -48343035.4326516     
  -48350506.2940675     
  -48357946.0897903     
  -48365354.4114839     
  -48372730.8957391     
  -48380075.2231494     
  -48387387.1173918     
  -48394666.3443096     
  -48401912.7110003     
  -48409126.0649074     
  -48416306.2929162     
  -48423453.3204542     
  -48430567.1105962     
  -48437647.6631742     
  -48444695.0138917     
  -48451709.2334438     
  -48458690.4266411     
  -48465638.7315400     
  -48472554.3185769     
  -48479437.3897083     
  -48486288.1775557     
  -48493106.9445562     
  -48499893.9821168     
  -48506649.6097756     
  -48513374.1743670     
  -48520068.0491917     
  -48526731.6331926     
  -48533365.3501344     
  -48016821.7048629     
  -48025491.4389817     
  -48034144.8528825     
  -48042780.2733729     
  -48051396.0999432     
  -48059990.8036988     
  -48068562.9262873     
  -48077111.0788190     
  -48085633.9407846     
  -48094130.2589689     
  -48102598.8463620     
  -48111038.5810682     
  -48119448.4052139     
  -48127827.3238550     
  -48136174.4038841     
  -48144488.7729381     
  -48152769.6183074     
  -48161016.1858468     
  -48169227.7788881     
  -48177403.7571562     
  -48185543.5356877     
  -48193646.5837535     
  -48201712.4237854     
  -48209740.6303066     
  -48217730.8288682     
  -48225682.6949886     
  -48233595.9531010     
  -48241470.3755039     
  -48249305.7813197     
  -48257102.0354578     
  -48264859.0475848     
  -48272576.7711012     
  -48280255.2021243     
  -48287894.3784786     
  -48295494.3786922     
  -48303055.3210013     
  -48310577.3623602     
  -48318060.6974604     
  -48325505.5577547     
  -48332912.2104906     
  -48340280.9577485     
  -48347612.1354893     
  -48354906.1126073     
  -48362163.2899910     
  -48369384.0995911     
  -48376569.0034938     
  -48383718.4930027     
  -48390833.0877264     
  -48397913.3346725     
  -48404959.8073483     
  -47856330.0265425     
  -47865748.2871868     
  -47875141.2418091     
  -47884507.2012979     
  -47893844.5568188     
  -47903151.7785479     
  -47912427.4144013     
  -47921670.0887629     
  -47930878.5012114     
  -47940051.4252459     
  -47949187.7070123     
  -47958286.2640312     
  -47967346.0839262     
  -47976366.2231565     
  -47985345.8057507     
  -47994284.0220455     
  -48003180.1274285     
  -48012033.4410854     
  -48020843.3447528     
  -48029609.2814767     
  -48038330.7543778     
  -48047007.3254225     
  -48055638.6142020     
  -48064224.2967185     
  -48072764.1041790     
  -48081257.8217976     
  -48089705.2876059     
  -48098106.3912720     
  -48106461.0729293     
  -48114769.3220130     
  -48123031.1761067     
  -48131246.7197981     
  -48139416.0835450     
  -48147539.4425490     
  -48155617.0156416     
  -48163649.0641773     
  -48171635.8909386     
  -48179577.8390488     
  -48187475.2908968     
  -48195328.6670689     
  -48203138.4252924     
  -48210905.0593877     
  -48218629.0982295     
  -48226311.1047178     
  -48233951.6747582     
  -48241551.4362499     
  -48249111.0480841     
  -48256631.1991495     
  -48264112.6073469     
  -48271556.0186120     
  -47690509.7726161     
  -47700704.1749345     
  -47710862.6268249     
  -47720983.4522379     
  -47731065.0631831     
  -47741105.9582403     
  -47751104.7210708     
  -47761060.0189308     
  -47770970.6011872     
  -47780835.2978358     
  -47790653.0180248     
  -47800422.7485811     
  -47810143.5525448     
  -47819814.5677071     
  -47829435.0051572     
  -47839004.1478349     
  -47848521.3490930     
  -47857986.0312667     
  -47867397.6842532     
  -47876755.8641002     
  -47886060.1916050     
  -47895310.3509240     
  -47904506.0881924     
  -47913647.2101562     
  -47922733.5828149     
  -47931765.1300763     
  -47940741.8324237     
  -47949663.7255950     
  -47958530.8992741     
  -47967343.4957958     
  -47976101.7088628     
  -47984805.7822761     
  -47993456.0086777     
  -48002052.7283070     
  -48010596.3277701     
  -48019087.2388216     
  -48027525.9371599     
  -48035912.9412355     
  -48044248.8110714     
  -48052534.1470970     
  -48060769.5889938     
  -48068955.8145540     
  -48077093.5385507     
  -48085183.5116206     
  -48093226.5191581     
  -48101223.3802205     
  -48109174.9464448     
  -48117082.1009753     
  -48124945.7574011     
  -48132766.8587046     
  -47519087.0359501     
  -47530085.3537905     
  -47541035.2434585     
  -47551935.0759078     
  -47562783.3180528     
  -47573578.5310348     
  -47584319.3684922     
  -47595004.5748378     
  -47605632.9835421     
  -47616203.5154240     
  -47626715.1769511     
  -47637167.0585478     
  -47647558.3329141     
  -47657888.2533553     
  -47668156.1521225     
  -47678361.4387653     
  -47688503.5984970     
  -47698582.1905729     
  -47708596.8466825     
  -47718547.2693551     
  -47728433.2303814     
  -47738254.5692481     
  -47748011.1915899     
  -47757703.0676556     
  -47767330.2307912     
  -47776892.7759391     
  -47786390.8581532     
  -47795824.6911317     
  -47805194.5457656     
  -47814500.7487054     
  -47823743.6809441     
  -47832923.7764174     
  -47842041.5206214     
  -47851097.4492466     
  -47860092.1468306     
  -47869026.2454253     
  -47877900.4232836     
  -47886715.4035610     
  -47895471.9530343     
  -47904170.8808367     
  -47912813.0372089     
  -47921399.3122659     
  -47929930.6347790     
  -47938407.9709740     
  -47946832.3233425     
  -47955204.7294693     
  -47963526.2608725     
  -47971798.0218581     
  -47980021.1483864     
  -47988196.8069531     
  -47341805.3428099     
  -47353635.0276328     
  -47365401.7915097     
  -47377104.0918266     
  -47388740.4898697     
  -47400309.6488224     
  -47411810.3317712     
  -47423241.3997236     
  -47434601.8096376     
  -47445890.6124640     
  -47457106.9512019     
  -47468250.0589699     
  -47479319.2570910     
  -47490313.9531945     
  -47501233.6393339     
  -47512077.8901226     
  -47522846.3608870     
  -47533538.7858381     
  -47544154.9762624     
  -47554694.8187323     
  -47565158.2733358     
  -47575545.3719269     
  -47585856.2163972     
  -47596090.9769678     
  -47606249.8905025     
  -47616333.2588436     
  -47626341.4471677     
  -47636274.8823658     
  -47646134.0514422     
  -47655919.4999393     
  -47665631.8303820     
  -47675271.7007446     
  -47684839.8229406     
  -47694336.9613341     
  -47703763.9312733     
  -47713121.5976451     
  -47722410.8734524     
  -47731632.7184117     
  -47740788.1375717     
  -47749878.1799538     
  -47758903.9372113     
  -47767866.5423099     
  -47776767.1682267     
  -47785607.0266689     
  -47794387.3668105     
  -47803109.4740479     
  -47811774.6687717     
  -47820384.3051565     
  -47828939.7699662     
  -47837442.4813754     
  -47158429.2121762     
  -47171116.8301672     
  -47183724.8315731     
  -47196251.8056875     
  -47208696.4535856     
  -47221057.5858250     
  -47233334.1201641     
  -47245525.0792966     
  -47257629.5886041     
  -47269646.8739276     
  -47281576.2593580     
  -47293417.1650479     
  -47305169.1050438     
  -47316831.6851412     
  -47328404.6007619     
  -47339887.6348545     
  -47351280.6558197     
  -47362583.6154598     
  -47373796.5469528     
  -47384919.5628537     
  -47395952.8531211     
  -47406896.6831695     
  -47417751.3919506     
  -47428517.3900601     
  -47439195.1578735     
  -47449785.2437083     
  -47460288.2620150     
  -47470704.8915969     
  -47481035.8738563     
  -47491282.0110709     
  -47501444.1646975     
  -47511523.2537036     
  -47521520.2529279     
  -47531436.1914680     
  -47541272.1510969     
  -47551029.2647057     
  -47560708.7147741     
  -47570311.7318681     
  -47579839.5931636     
  -47589293.6209964     
  -47598675.1814371     
  -47607985.6828919     
  -47617226.5747273     
  -47626399.3459179     
  -47635505.5237195     
  -47644546.6723616     
  -47653524.3917646     
  -47662440.3162755     
  -47671296.1134251     
  -47680093.4827045     
  -46968748.2214359     
  -46982318.7989689     
  -46995790.6683849     
  -47009162.6030040     
  -47022433.4956387     
  -47035602.3559746     
  -47048668.3079735     
  -47061630.5873004     
  -47074488.5387739     
  -47087241.6138438     
  -47099889.3680928     
  -47112431.4587674     
  -47124867.6423362     
  -47137197.7720773     
  -47149421.7956947     
  -47161539.7529667     
  -47173551.7734242     
  -47185458.0740612     
  -47197258.9570778     
  -47208954.8076564     
  -47220546.0917708     
  -47232033.3540294     
  -47243417.2155537     
  -47254698.3718894     
  -47265877.5909548     
  -47276955.7110227     
  -47287933.6387380     
  -47298812.3471717     
  -47309592.8739095     
  -47320276.3191760     
  -47330863.8439959     
  -47341356.6683877     
  -47351756.0695959     
  -47362063.3803561     
  -47372279.9871957     
  -47382407.3287693     
  -47392446.8942265     
  -47402400.2216161     
  -47412268.8963209     
  -47422054.5495259     
  -47431758.8567183     
  -47441383.5362189     
  -47450930.3477439     
  -47460401.0909955     
  -47469797.6042828     
  -47479121.7631695     
  -47488375.4791488     
  -47497560.6983443     
  -47506679.4002356     
  -47515733.5964089     
  -46772581.6444278     
  -46787057.9104244     
  -46801413.7837151     
  -46815648.2810571     
  -46829760.5461215     
  -46843749.8465233     
  -46857615.5708817     
  -46871357.2259111     
  -46884974.4335437     
  -46898466.9280857     
  -46911834.5534058     
  -46925077.2601607     
  -46938195.1030546     
  -46951188.2381369     
  -46964056.9201367     
  -46976801.4998364     
  -46989422.4214844     
  -47001920.2202482     
  -47014295.5197070     
  -47026549.0293879     
  -47038681.5423415     
  -47050693.9327622     
  -47062587.1536499     
  -47074362.2345155     
  -47086020.2791303     
  -47097562.4633189     
  -47108990.0327962     
  -47120304.3010490     
  -47131506.6472616     
  -47142598.5142857     
  -47153581.4066549     
  -47164456.8886426     
  -47175226.5823645     
  -47185892.1659241     
  -47196455.3716025     
  -47206917.9840895     
  -47217281.8387580     
  -47227548.8199806     
  -47237720.8594862     
  -47247799.9347583     
  -47257788.0674712     
  -47267687.3219674     
  -47277499.8037707     
  -47287227.6581374     
  -47296873.0686431     
  -47306438.2558042     
  -47315925.4757329     
  -47325337.0188241     
  -47334675.2084742     
  -47343942.3998287     
  -46569783.7391363     
  -46585185.2505141     
  -46600441.8913256     
  -46615552.9892038     
  -46630518.0056943     
  -46645336.5329041     
  -46660008.2901871     
  -46674533.1208675     
  -46688910.9890045     
  -46703141.9761962     
  -46717226.2784274     
  -46731164.2029591     
  -46744956.1652646     
  -46758602.6860094     
  -46772104.3880785     
  -46785461.9936519     
  -46798676.3213282     
  -46811748.2832974     
  -46824678.8825649     
  -46837469.2102257     
  -46850120.4427910     
  -46862633.8395669     
  -46875010.7400860     
  -46887252.5615926     
  -46899360.7965819     
  -46911337.0103927     
  -46923182.8388554     
  -46934899.9859939     
  -46946490.2217829     
  -46957955.3799589     
  -46969297.3558874     
  -46980518.1044827     
  -46991619.6381839     
  -47002604.0249835     
  -47013473.3865100     
  -47024229.8961640     
  -47034875.7773060     
  -47045413.3014966     
  -47055844.7867877     
  -47066172.5960633     
  -47076399.1354309     
  -47086526.8526598     
  -47096558.2356672     
  -47106495.8110505     
  -47116342.1426635     
  -47126099.8302367     
  -47135771.5080391     
  -47145359.8435805     
  -47154867.5363517     
  -47164297.3166030     
  -46360249.7758820     
  -46376591.9088427     
  -46392761.6979006     
  -46408758.8578834     
  -46424583.2439727     
  -46440234.8479324     
  -46455713.7943820     
  -46471020.3371165     
  -46486154.8554755     
  -46501117.8507612     
  -46515909.9427085     
  -46530531.8660078     
  -46544984.4668814     
  -46559268.6997166     
  -46573385.6237549     
  -46587336.3998393     
  -46601122.2872212     
  -46614744.6404275     
  -46628204.9061886     
  -46641504.6204300     
  -46654645.4053255     
  -46667628.9664156     
  -46680457.0897902     
  -46693131.6393363     
  -46705654.5540523     
  -46718027.8454282     
  -46730253.5948924     
  -46742333.9513259     
  -46754271.1286432     
  -46766067.4034406     
  -46777725.1127121     
  -46789246.6516315     
  -46800634.4714020     
  -46811891.0771725     
  -46823019.0260192     
  -46834020.9249935     
  -46844899.4292343     
  -46855657.2401449     
  -46866297.1036327     
  -46876821.8084115     
  -46887234.1843651     
  -46897537.1009706     
  -46907733.4657809     
  -46917826.2229638     
  -46927818.3518982     
  -46937712.8658226     
  -46947512.8105379     
  -46957221.2631596     
  -46966841.3309189     
  -46976376.1500107     
  -46143922.9125861     
  -46161215.6975467     
  -46178305.4665440     
  -46195192.4078402     
  -46211876.8557929     
  -46228359.2866173     
  -46244640.3142012     
  -46260720.6859767     
  -46276601.2788487     
  -46292283.0951840     
  -46307767.2588605     
  -46323055.0113813     
  -46338147.7080523     
  -46353046.8142279     
  -46367753.9016244     
  -46382270.6447032     
  -46396598.8171261     
  -46410740.2882828     
  -46424697.0198931     
  -46438471.0626840     
  -46452064.5531440     
  -46465479.7103544     
  -46478718.8328992     
  -46491784.2958552     
  -46504678.5478612     
  -46517404.1082684     
  -46529963.5643724     
  -46542359.5687265     
  -46554594.8365371     
  -46566672.1431421     
  -46578594.3215701     
  -46590364.2601830     
  -46601984.9004006     
  -46613459.2345063     
  -46624790.3035346     
  -46635981.1952398     
  -46647035.0421434     
  -46657955.0196628     
  -46668744.3443162     
  -46679406.2720067     
  -46689944.0963809     
  -46700361.1472633     
  -46710660.7891633     
  -46720846.4198539     
  -46730921.4690206     
  -46740889.3969776     
  -46750753.6934509     
  -46760517.8764238     
  -46770185.4910450     
  -46779760.1085953     
  -45920802.0412320     
  -45939048.8121853     
  -45957058.4928867     
  -45974831.8424960     
  -45992369.7711658     
  -46009673.3352793     
  -46026743.7327503     
  -46043582.2983887     
  -46060190.4993325     
  -46076569.9305535     
  -46092722.3104308     
  -46108649.4764040     
  -46124353.3807006     
  -46139836.0861445     
  -46155099.7620450     
  -46170146.6801710     
  -46184979.2108086     
  -46199599.8189077     
  -46214011.0603182     
  -46228215.5781145     
  -46242216.0990148     
  -46256015.4298923     
  -46269616.4543827     
  -46283022.1295864     
  -46296235.4828685     
  -46309259.6087570     
  -46322097.6659392     
  -46334752.8743579     
  -46347228.5124069     
  -46359527.9142278     
  -46371654.4671059     
  -46383611.6089681     
  -46395402.8259801     
  -46407031.6502443     
  -46418501.6575980     
  -46429816.4655104     
  -46440979.7310784     
  -46451995.1491202     
  -46462866.4503668     
  -46473597.3997473     
  -46484191.7947708     
  -46494653.4639993     
  -46504986.2656137     
  -46515194.0860677     
  -46525280.8388304     
  -46535250.4632141     
  -46545106.9232844     
  -46554854.2068521     
  -46564496.3245422     
  -46574037.3089381     
  -45690950.7480707     
  -45710146.5674335     
  -45729067.6168693     
  -45747715.3367976     
  -45766091.3225360     
  -45784197.3189383     
  -45802035.2151050     
  -45819607.0391696     
  -45836914.9531633     
  -45853961.2479636     
  -45870748.3383264     
  -45887278.7580079     
  -45903555.1549776     
  -45919580.2867248     
  -45935357.0156627     
  -45950888.3046326     
  -45966177.2125089     
  -45981226.8899095     
  -45996040.5750123     
  -46010621.5894810     
  -46024973.3345012     
  -46039099.2869298     
  -46053002.9955575     
  -46066688.0774883     
  -46080158.2146361     
  -46093417.1503384     
  -46106468.6860924     
  -46119316.6784081     
  -46131965.0357857     
  -46144417.7158132     
  -46156678.7223868     
  -46168752.1030542     
  -46180641.9464797     
  -46192352.3800336     
  -46203887.5675024     
  -46215251.7069216     
  -46226449.0285305     
  -46237483.7928464     
  -46248360.2888595     
  -46259082.8323458     
  -46269655.7642975     
  -46280083.4494685     
  -46290370.2750341     
  -46300520.6493622     
  -46310539.0008956     
  -46320429.7771397     
  -46330197.4437561     
  -46339846.4837597     
  -46349381.3968120     
  -46358806.6986128     
  -45454507.5477132     
  -45474637.3544985     
  -45494450.9039591     
  -45513950.4432242     
  -45533138.3770752     
  -45552017.2618860     
  -45570589.7996484     
  -45588858.8320840     
  -45606827.3348486     
  -45624498.4118322     
  -45641875.2895607     
  -45658961.3116995     
  -45675759.9336678     
  -45692274.7173615     
  -45708509.3259935     
  -45724467.5190512     
  -45740153.1473765     
  -45755570.1483698     
  -45770722.5413212     
  -45785614.4228734     
  -45800249.9626157     
  -45814633.3988147     
  -45828769.0342811     
  -45842661.2323768     
  -45856314.4131633     
  -45869733.0496918     
  -45882921.6644399     
  -45895884.8258918     
  -45908627.1452670     
  -45921153.2733961     
  -45933467.8977452     
  -45945575.7395895     
  -45957481.5513364     
  -45969190.1139982     
  -45980706.2348146     
  -45992034.7450237     
  -46003180.4977839     
  -46014148.3662412     
  -46024943.2417462     
  -46035570.0322169     
  -46046033.6606455     
  -46056339.0637507     
  -46066491.1907687     
  -46076495.0023866     
  -46086355.4698131     
  -46096077.5739818     
  -46105666.3048894     
  -46115126.6610630     
  -46124463.6491511     
  -46133682.2836408     
  -45211697.5650871     
  -45232733.9766648     
  -45253408.6348291     
  -45273724.7368268     
  -45293685.6389768     
  -45313294.8497873     
  -45332556.0231692     
  -45351472.9517521     
  -45370049.5603072     
  -45388289.8992835     
  -45406198.1384625     
  -45423778.5607352     
  -45441035.5560076     
  -45457973.6152388     
  -45474597.3246150     
  -45490911.3598661     
  -45506920.4807264     
  -45522629.5255446     
  -45538043.4060463     
  -45553167.1022527     
  -45568005.6575578     
  -45582564.1739686     
  -45596847.8075096     
  -45610861.7637953     
  -45624611.2937724     
  -45638101.6896335     
  -45651338.2809062     
  -45664326.4307165     
  -45677071.5322301     
  -45689579.0052732     
  -45701854.2931314     
  -45713902.8595305     
  -45725730.1857983     
  -45737341.7682085     
  -45748743.1155058     
  -45759939.7466146     
  -45770937.1885284     
  -45781740.9743814     
  -45792356.6417002     
  -45802789.7308368     
  -45813045.7835791     
  -45823130.3419395     
  -45833048.9471193     
  -45842807.1386460     
  -45852410.4536847     
  -45861864.4265154     
  -45871174.5881797     
  -45880346.4662892     
  -45889385.5849946     
  -45898297.4651118     
  -44962845.8447162     
  -44984746.5196087     
  -45006235.7377235     
  -45027317.8115422     
  -45047997.2124756     
  -45068278.5629923     
  -45088166.6288605     
  -45107666.3115098     
  -45126782.6405213     
  -45145520.7662498     
  -45163885.9525890     
  -45181883.5698813     
  -45199519.0879814     
  -45216798.0694776     
  -45233726.1630767     
  -45250309.0971591     
  -45266552.6735057     
  -45282462.7612043     
  -45298045.2907390     
  -45313306.2482654     
  -45328251.6700779     
  -45342887.6372704     
  -45357220.2705949     
  -45371255.7255220     
  -45385000.1875033     
  -45398459.8674431     
  -45411640.9973762     
  -45424549.8263589     
  -45437192.6165726     
  -45449575.6396422     
  -45461705.1731711     
  -45473587.4974944     
  -45485228.8926507     
  -45496635.6355736     
  -45507813.9975042     
  -45518770.2416243     
  -45529510.6209097     
  -45540041.3762065     
  -45550368.7345261     
  -45560498.9075611     
  -45570438.0904213     
  -45580192.4605862     
  -45589768.1770760     
  -45599171.3798371     
  -45608408.1893406     
  -45617484.7063930     
  -45626407.0121534     
  -45635181.1683590     
  -45643813.2177510     
  -45652309.1846995     
  -44708392.4570336     
  -44731096.8972833     
  -44753335.7761253     
  -44775114.7129576     
  -44796439.4840827     
  -44817316.0136390     
  -44837750.3646669     
  -44857748.7303200     
  -44877317.4252299     
  -44896462.8770325     
  -44915191.6180628     
  -44933510.2772280     
  -44951425.5720634     
  -44968944.3009796     
  -44986073.3357065     
  -45002819.6139407     
  -45019190.1322019     
  -45035191.9389030     
  -45050832.1276407     
  -45066117.8307089     
  -45081056.2128422     
  -45095654.4651911     
  -45109919.7995346     
  -45123859.4427331     
  -45137480.6314253     
  -45150790.6069715     
  -45163796.6106475     
  -45176505.8790910     
  -45188925.6400018     
  -45201063.1081013     
  -45212925.4813491     
  -45224519.9374216     
  -45235853.6304531     
  -45246933.6880406     
  -45257767.2085131     
  -45268361.2584672     
  -45278722.8705696     
  -45288859.0416254     
  -45298776.7309145     
  -45308482.8587953     
  -45317984.3055741     
  -45327287.9106425     
  -45336400.4718783     
  -45345328.7453135     
  -45354079.4450622     
  -45362659.2435126     
  -45371074.7717766     
  -45379332.6203975     
  -45387439.3403107     
  -45395401.4440568     
  -44448909.5364959     
  -44472335.1725222     
  -44495236.5564338     
  -44517620.8389715     
  -44539495.3234052     
  -44560867.4550069     
  -44581744.8106906     
  -44602135.0888309     
  -44622046.0992702     
  -44641485.7535248     
  -44660462.0551979     
  -44678983.0906095     
  -44697057.0196498     
  -44714692.0668659     
  -44731896.5127864     
  -44748678.6854932     
  -44765046.9524444     
  -44781009.7125572     
  -44796575.3885532     
  -44811752.4195734     
  -44826549.2540672     
  -44840974.3429599     
  -44855036.1331028     
  -44868743.0610096     
  -44882103.5468841     
  -44895125.9889405     
  -44907818.7580216     
  -44920190.1925163     
  -44932248.5935799     
  -44944002.2206598     
  -44955459.2873288     
  -44966627.9574274     
  -44977516.3415191     
  -44988132.4936580     
  -44998484.4084725     
  -45008580.0185653     
  -45018427.1922316     
  -45028033.7314961     
  -45037407.3704706     
  -45046555.7740319     
  -45055486.5368211     
  -45064207.1825653     
  -45072725.1637201     
  -45081047.8614344     
  -45089182.5858358     
  -45097136.5766372     
  -45104917.0040623     
  -45112530.9700893     
  -45119985.5100109     
  -45127287.5943089     
  -44185120.3122540     
  -44209157.6706318     
  -44232607.3332416     
  -44255478.2470413     
  -44277779.5040789     
  -44299520.3291917     
  -44320710.0679196     
  -44341358.1746430     
  -44361474.2009606     
  -44381067.7843144     
  -44400148.6368739     
  -44418726.5346881     
  -44436811.3071157     
  -44454412.8265385     
  -44471540.9983697     
  -44488205.7513600     
  -44504417.0282111     
  -44520184.7765013     
  -44535518.9399280     
  -44550429.4498741     
  -44564926.2173011     
  -44579019.1249752     
  -44592718.0200284     
  -44606032.7068603     
  -44618972.9403833     
  -44631548.4196137     
  -44643768.7816137     
  -44655643.5957861     
  -44667182.3585237     
  -44678394.4882180     
  -44689289.3206283     
  -44699876.1046143     
  -44710163.9982337     
  -44720162.0652083     
  -44729879.2717605     
  -44739324.4838206     
  -44748506.4646103     
  -44757433.8726005     
  -44766115.2598492     
  -44774559.0707174     
  -44782773.6409687     
  -44790767.1972502     
  -44798547.8569596     
  -44806123.6284975     
  -44813502.4119075     
  -44820691.9999031     
  -44827700.0792849     
  -44834534.2327449     
  -44841201.9410621     
  -44847710.5856845     
  -43917920.0603663     
  -43942426.7662846     
  -43966277.4464791     
  -43989483.1587913     
  -44012055.0945632     
  -44034004.5641970     
  -44055342.9829950     
  -44076081.8572927     
  -44096232.7708977     
  -44115807.3718467     
  -44134817.3594886     
  -44153274.4719071     
  -44171190.4736862     
  -44188577.1440312     
  -44205446.2652493     
  -44221809.6115972     
  -44237678.9385018     
  -44253065.9721574     
  -44267982.3995065     
  -44282439.8586069     
  -44296449.9293884     
  -44310024.1248046     
  -44323173.8823805     
  -44335910.5561606     
  -44348245.4090590     
  -44360189.6056156     
  -44371754.2051586     
  -44382950.1553778     
  -44393788.2863095     
  -44404279.3047364     
  -44414433.7890042     
  -44424262.1842576     
  -44433774.7980974     
  -44442981.7966624     
  -44451893.2011389     
  -44460518.8846980     
  -44468868.5698676     
  -44476951.8263381     
  -44484778.0692084     
  -44492356.5576721     
  -44499696.3941512     
  -44506806.5238747     
  -44513695.7349135     
  -44520372.6586671     
  -44526845.7708110     
  -44533123.3927054     
  -44539213.6932695     
  -44545124.6913251     
  -44550864.2584096     
  -44556440.1220651     
  -43648398.6927503     
  -43673192.0060549     
  -43697256.0035796     
  -43720604.2294555     
  -43743250.3439428     
  -43765208.1064441     
  -43786491.3588964     
  -43807114.0095488     
  -43827090.0171408     
  -43846433.3754927     
  -43865158.0985131     
  -43883278.2056380     
  -43900807.7077001     
  -43917760.5932439     
  -43934150.8152831     
  -43949992.2785098     
  -43965298.8269577     
  -43980084.2321206     
  -43994362.1815318     
  -44008146.2678029     
  -44021449.9781259     
  -44034286.6842383     
  -44046669.6328534     
  -44058611.9365555     
  -44070126.5651612     
  -44081226.3375473     
  -44091923.9139471     
  -44102231.7887134     
  -44112162.2835519     
  -44121727.5412250     
  -44130939.5197268     
  -44139809.9869324     
  -44148350.5157223     
  -44156572.4795857     
  -44164487.0487039     
  -44172105.1865180     
  -44179437.6467854     
  -44186494.9711267     
  -44193287.4870706     
  -44199825.3065981     
  -44206118.3251969     
  -44212176.2214230     
  -44218008.4569875     
  -44223624.2773622     
  -44229032.7129214     
  -44234242.5806199     
  -44239262.4862185     
  -44244100.8270608     
  -44248765.7954136     
  -44253265.3823703     
  -43377864.3722669     
  -43402711.9029516     
  -43426751.8948473     
  -43450000.8267892     
  -43472475.2681805     
  -43494191.8590569     
  -43515167.2906435     
  -43535418.2864431     
  -43554961.5838461     
  -43573813.9162772     
  -43591991.9958862     
  -43609512.4967824     
  -43626392.0388195     
  -43642647.1719341     
  -43658294.3610326     
  -43673349.9714347     
  -43687830.2548670     
  -43701751.3360064     
  -43715129.1995740     
  -43727979.6779731     
  -43740318.4394716     
  -43752160.9769242     
  -43763522.5970320     
  -43774418.4101356     
  -43784863.3205402     
  -43794872.0173672     
  -43804458.9659335     
  -43813638.3996518     
  -43822424.3124537     
  -43830830.4517335     
  -43838870.3118100     
  -43846557.1279096     
  -43853903.8706688     
  -43860923.2411590     
  -43867627.6664356     
  -43874029.2956139     
  -43880139.9964782     
  -43885971.3526261     
  -43891534.6611565     
  -43896840.9309065     
  -43901900.8812471     
  -43906724.9414433     
  -43911323.2505933     
  -43915705.6581509     
  -43919881.7250489     
  -43923860.7254305     
  -43927651.6490031     
  -43931263.2040357     
  -43934703.8209887     
  -43937981.6568339     
  -43107867.0708484     
  -43132475.2733068     
  -43156192.9720011     
  -43179040.1147805     
  -43201036.7029170     
  -43222202.7677891     
  -43242558.3483221     
  -43262123.4690802     
  -43280918.1190730     
  -43298962.2312641     
  -43316275.6627767     
  -43332878.1757977     
  -43348789.4191760     
  -43364028.9107130     
  -43378616.0201342     
  -43392569.9527395     
  -43405909.7337206     
  -43418654.1931404     
  -43430821.9515620     
  -43442431.4063195     
  -43453500.7184217     
  -43464047.8000751     
  -43474090.3028215     
  -43483645.6062763     
  -43492730.8074596     
  -43501362.7107117     
  -43509557.8181847     
  -43517332.3209009     
  -43524702.0903734     
  -43531682.6707819     
  -43538289.2716990     
  -43544536.7613641     
  -43550439.6605023     
  -43556012.1366858     
  -43561267.9992441     
  -43566220.6947162     
  -43570883.3028568     
  -43575268.5331982     
  -43579388.7221751     
  -43583255.8308222     
  -43586881.4430549     
  -43590276.7645461     
  -43593452.6222127     
  -43596419.4643263     
  -43599187.3612695     
  -43601766.0069560     
  -43604164.7209332     
  -43606392.4511711     
  -43608457.7776374     
  -43610368.9165314     
  -42840220.3325779     
  -42864220.3479031     
  -42887242.5988895     
  -42909311.1350676     
  -42930450.0057765     
  -42950683.2334273     
  -42970034.7874410     
  -42988528.5592802     
  -43006188.3383416     
  -43023037.7887585     
  -43039100.4271129     
  -43054399.6010387     
  -43068958.4686970     
  -43082799.9791124     
  -43095946.8533510     
  -43108421.5665248     
  -43120246.3306023     
  -43131443.0780068     
  -43142033.4459818     
  -43152038.7617032     
  -43161480.0281182     
  -43170377.9104905     
  -43178752.7236302     
  -43186624.4197910     
  -43194012.5772125     
  -43200936.3892906     
  -43207414.6543581     
  -43213465.7660583     
  -43219107.7042969     
  -43224358.0267581     
  -43229233.8609723     
  -43233751.8969268     
  -43237928.3802093     
  -43241779.1056789     
  -43245319.4116630     
  -43248564.1746758     
  -43251527.8046614     
  -43254224.2407685     
  -43256666.9476593     
  -43258868.9123660     
  -43260842.6417082     
  -43262600.1602861     
  -43264153.0090716     
  -43265512.2446179     
  -43266688.4389130     
  -43267691.6798980     
  -43268531.5726976     
  -43269217.2416441     
  -43269757.3328797     
  -43270160.0181186     
  -42577018.6374027     
  -42599949.0524775     
  -42621810.9768583     
  -42642633.3025392     
  -42662444.8455103     
  -42681274.3146622     
  -42699150.2828869     
  -42716101.1588306     
  -42732155.1599984     
  -42747340.2870692     
  -42761684.2993360     
  -42775214.6912627     
  -42787958.6701394     
  -42799943.1348066     
  -42811194.6554179     
  -42821739.4542018     
  -42831603.3871950     
  -42840811.9269096     
  -42849390.1459018     
  -42857362.7012042     
  -42864753.8195898     
  -42871587.2836267     
  -42877886.4184921     
  -42883674.0795075     
  -42888972.6403608     
  -42893803.9819826     
  -42898189.4820420     
  -42902150.0050310     
  -42905705.8929102     
  -42908876.9562837     
  -42911682.4660830     
  -42914141.1457332     
  -42916271.1637856     
  -42918090.1269979     
  -42919615.0738508     
  -42920862.4684929     
  -42921848.1951077     
  -42922587.5527049     
  -42923095.2503396     
  -42923385.4027696     
  -42923471.5265661     
  -42923366.5366949     
  -42923082.7435916     
  -42922631.8507624     
  -42922024.9529593     
  -42921272.5349771     
  -42920384.4710502     
  -42919370.0248129     
  -42918237.8506767     
  -42916995.9947329     
  -42320646.6771067     
  -42341932.8134410     
  -42362057.6499605     
  -42381055.7770742     
  -42398961.6009062     
  -42415809.3114739     
  -42431632.8488720     
  -42446465.8729535     
  -42460341.7341551     
  -42473293.4456461     
  -42485353.6569854     
  -42496554.6292303     
  -42506928.2114088     
  -42516505.8183009     
  -42525318.4094844     
  -42533396.4696036     
  -42540769.9898083     
  -42547468.4503130     
  -42553520.8040166     
  -42558955.4611303     
  -42563800.2747541     
  -42568082.5273461     
  -42571828.9180264     
  -42575065.5506556     
  -42577817.9226314     
  -42580110.9143434     
  -42581968.7792307     
  -42583415.1343850     
  -42584472.9516466     
  -42585164.5491416     
  -42585511.5832119     
  -42585535.0406942     
  -42585255.2315071     
  -42584691.7815106     
  -42583863.6256091     
  -42582789.0010719     
  -42581485.4410555     
  -42579969.7683136     
  -42578258.0890931     
  -42576365.7872173     
  -42574307.5183721     
  -42572097.2046195     
  -42569748.0291709     
  -42567272.4314434     
  -42564682.1024084     
  -42561987.9803002     
  -42559200.2469817     
  -42556328.3251305     
  -42553380.8738556     
  -42550365.7897439     
  -42073775.6000189     
  -42092705.0401235     
  -42110380.4430777     
  -42126843.0627112     
  -42142133.8272941     
  -42156293.2944687     
  -42169361.6215411     
  -42181378.5313735     
  -42192383.2809816     
  -42202414.6326833     
  -42211510.8269949     
  -42219709.5571355     
  -42227047.9451956     
  -42233562.5199697     
  -42239289.1963877     
  -42244263.2564650     
  -42248519.3316873     
  -42252091.3867600     
  -42255012.7046421     
  -42257315.8727907     
  -42259032.7705279     
  -42260194.5574451     
  -42260831.6627507     
  -42260973.7754683     
  -42260649.8353887     
  -42259888.0246788     
  -42258715.7600515     
  -42257159.6853977     
  -42255245.6647876     
  -42252998.7757474     
  -42250443.3027226     
  -42247602.7306427     
  -42244499.7385098     
  -42241156.1929361     
  -42237593.1415692     
  -42233830.8063471     
  -42229888.5765412     
  -42225785.0015507     
  -42221537.7834310     
  -42217163.7691381     
  -42212678.9424848     
  -42208098.4158106     
  -42203436.4214047     
  -42198706.3027855     
  -42193920.5059713     
  -42189090.5706656     
  -42184227.1207371     
  -42179339.8544279     
  -42174437.5416993     
  -42169528.0048162     
  -41839339.9879562     
  -41855034.1930728     
  -41869384.8620181     
  -41882441.0020398     
  -41894251.0745146     
  -41904862.9873066     
  -41914324.0408045     
  -41922680.8965933     
  -41929979.5477365     
  -41936265.2889731     
  -41941582.6889279     
  -41945975.5649448     
  -41949486.9602965     
  -41952159.1234812     
  -41954033.4894820     
  -41955150.6629322     
  -41955550.4031462     
  -41955271.6109357     
  -41954352.3171119     
  -41952829.6725554     
  -41950739.9397219     
  -41948118.4854531     
  -41944999.7749451     
  -41941417.3667285     
  -41937403.9085032     
  -41932991.1336632     
  -41928209.8583480     
  -41923089.9788477     
  -41917660.4691943     
  -41911949.3787691     
  -41905983.8297652     
  -41899790.0143446     
  -41893393.1913434     
  -41886817.6823856     
  -41880086.8672762     
  -41873223.1785586     
  -41866248.0951353     
  -41859182.1348671     
  -41852044.8460941     
  -41844854.7980523     
  -41837629.5701889     
  -41830385.7403833     
  -41823138.8720141     
  -41815903.4997293     
  -41808693.1139215     
  -41801520.1447732     
  -41794395.9477607     
  -41787330.7878378     
  -41780333.8022231     
  -41773413.0237855     
  -41620488.3286726     
  -41631870.2766957     
  -41641826.9245637     
  -41650416.1528536     
  -41657695.1268335     
  -41663720.1375245     
  -41668546.6207724     
  -41672229.1180662     
  -41674821.2362220     
  -41676375.6170684     
  -41676943.9121895     
  -41676576.7598023     
  -41675323.7636283     
  -41673233.4743320     
  -41670353.3738569     
  -41666729.8626643     
  -41662408.2497269     
  -41657432.7450986     
  -41651846.4548950     
  -41645691.3785282     
  -41639008.4080235     
  -41631837.3292284     
  -41624216.8246927     
  -41616184.4779711     
  -41607776.7790772     
  -41599029.1308043     
  -41589975.8556107     
  -41580650.2027667     
  -41571084.3554488     
  -41561309.4374755     
  -41551355.5193800     
  -41541251.6235231     
  -41531025.7279683     
  -41520704.7688597     
  -41510314.6410649     
  -41499880.1968773     
  -41489425.2425876     
  -41478972.5327572     
  -41468543.7620259     
  -41458159.5543057     
  -41447839.4492697     
  -41437601.8862078     
  -41427464.1855889     
  -41417442.5287511     
  -41407551.9353290     
  -41397806.2356603     
  -41388218.0350445     
  -41378798.6841203     
  -41369558.3067553     
  -41360505.6140513     
  -41420499.4620579     
  -41426257.2373019     
  -41430521.5389299     
  -41433360.6559597     
  -41434841.4890282     
  -41435029.9420823     
  -41433990.7009487     
  -41431787.1862817     
  -41428481.5425261     
  -41424134.6135282     
  -41418805.9116362     
  -41412553.5902426     
  -41405434.4227904     
  -41397503.7876075     
  -41388815.6574344     
  -41379422.5930364     
  -41369375.7407816     
  -41358724.8342337     
  -41347518.1997664     
  -41335802.7660722     
  -41323624.0773107     
  -41311026.3095388     
  -41298052.2900020     
  -41284743.5188124     
  -41271140.1925103     
  -41257281.2289809     
  -41243204.2931733     
  -41228945.8230611     
  -41214541.0552626     
  -41200024.0497544     
  -41185427.7131015     
  -41170783.8196526     
  -41156123.0301652     
  -41141474.9073562     
  -41126867.9279209     
  -41112329.4906253     
  -41097885.9201601     
  -41083562.4665537     
  -41069383.3000223     
  -41055371.5011420     
  -41041549.0460706     
  -41027936.7861864     
  -41014554.4212915     
  -41001420.4663709     
  -40988552.2153043     
  -40975965.7098388     
  -40963675.7150544     
  -40951695.6477820     
  -40940037.3472649     
  -40928711.5635287     
  -41242659.1368202     
  -41241204.0121600     
  -41238209.0386543     
  -41233753.4967044     
  -41227916.2138077     
  -41220773.9174922     
  -41212401.7011089     
  -41202873.0670941     
  -41192259.8191615     
  -41180631.9827512     
  -41168057.7668645     
  -41154603.5440679     
  -41140333.8350335     
  -41125311.2953322     
  -41109596.7067961     
  -41093248.9759624     
  -41076325.1409175     
  -41058880.3867489     
  -41040968.0691870     
  -41022639.7457662     
  -41003945.2137770     
  -40984932.5542787     
  -40965648.1814127     
  -40946136.8961982     
  -40926441.9439012     
  -40906605.0739738     
  -40886666.6014868     
  -40866665.4689157     
  -40846639.3071261     
  -40826624.4944258     
  -40806656.2125890     
  -40786768.4988395     
  -40766994.2928524     
  -40747365.4779169     
  -40727912.9154542     
  -40708666.4721291     
  -40689655.0388272     
  -40670906.5408741     
  -40652447.9391268     
  -40634305.2221030     
  -40616503.3901066     
  -40599066.4329238     
  -40582017.3018412     
  -40565377.8723030     
  -40549168.8847873     
  -40533409.8483830     
  -40518118.9335639     
  -40503313.0271230     
  -40489008.1192174     
  -40475217.3063841     
  -41090093.7140349     
  -41079510.7269984     
  -41067370.2893542     
  -41053768.5707110     
  -41038795.7426324     
  -41022541.5102242     
  -41005093.6710834     
  -40986537.5292021     
  -40966955.9001667     
  -40946429.1756013     
  -40925035.3129203     
  -40902849.7789193     
  -40879945.4912989     
  -40856392.7805301     
  -40832259.3767561     
  -40807610.4187853     
  -40782508.4810527     
  -40757013.6156603     
  -40731183.4080827     
  -40705073.0459789     
  -40678735.4007646     
  -40652221.1213571     
  -40625578.7390510     
  -40598854.7819843     
  -40572093.8972350     
  -40545338.9782642     
  -40518631.2952407     
  -40492010.6256933     
  -40465515.3829769     
  -40439182.7401437     
  -40413048.7470125     
  -40387148.4385008     
  -40361515.9326122     
  -40336184.5168549     
  -40311186.7222285     
  -40286554.3842120     
  -40262318.6902580     
  -40238510.2130389     
  -40215158.9280009     
  -40192294.2128434     
  -40169944.8261316     
  -40148138.8641288     
  -40126903.7018810     
  -40106265.9380492     
  -40086251.3747209     
  -40066885.0356380     
  -40048191.0719884     
  -40030192.0973497     
  -40012907.9927089     
  -39996362.2320313     
  -40965568.8797535     
  -40943542.0618206     
  -40919989.4727444     
  -40895012.4274145     
  -40868724.5427401     
  -40841232.2733187     
  -40812637.4993565     
  -40783039.3302938     
  -40752534.1497559     
  -40721215.1507758     
  -40689171.9603897     
  -40656490.4543087     
  -40623252.6996764     
  -40589536.9568996     
  -40555417.7033381     
  -40520965.6686228     
  -40486247.8852348     
  -40451327.7618467     
  -40416265.1855553     
  -40381116.6558975     
  -40345935.4503029     
  -40310771.8181490     
  -40275673.1989933     
  -40240684.4597405     
  -40205848.1452486     
  -40171204.7369631     
  -40136792.9144423     
  -40102649.8149611     
  -40068811.2867080     
  -40035312.1313587     
  -40002186.3320594     
  -39969467.2631103     
  -39937187.8779746     
  -39905380.8727815     
  -39874078.8233305     
  -39843314.2948845     
  -39813119.9257420     
  -39783528.4875226     
  -39754572.9266027     
  -39726286.3907844     
  -39698702.2406812     
  -39671854.0336223     
  -39645775.4485442     
  -39620500.1034323     
  -39596061.2414429     
  -39572491.4207176     
  -39549822.7511472     
  -39528088.5914814     
  -39507325.0092937     
  -39487549.5308830     
  -40871255.6487203     
  -40834971.3125530     
  -40797213.5610260     
  -40758155.9463906     
  -40717915.3500472     
  -40676614.5025351     
  -40634379.0373816     
  -40591330.9377688     
  -40547586.0127367     
  -40503253.6957389     
  -40458437.4486253     
  -40413235.0555722     
  -40367738.6821961     
  -40322034.7886481     
  -40276204.0142753     
  -40230321.1177067     
  -40184455.0146302     
  -40138668.9241093     
  -40093020.6153956     
  -40047562.7381624     
  -40002343.2164096     
  -39957405.6872185     
  -39912789.9681307     
  -39868532.5400483     
  -39824667.0355514     
  -39781224.7250865     
  -39738234.9954650     
  -39695725.8164899     
  -39653724.1923145     
  -39612256.5943586     
  -39571349.3723035     
  -39531029.1389102     
  -39491323.1232233     
  -39452259.4853040     
  -39413867.5842240     
  -39376178.1901651     
  -39339223.6319064     
  -39303037.8740415     
  -39267656.5257077     
  -39233116.7963845     
  -39199457.4352464     
  -39166718.7147965     
  -39134942.5303916     
  -39104172.6399966     
  -39074454.8708731     
  -39045836.6469118     
  -39018364.5158850     
  -38992078.9292005     
  -38967014.9257404     
  -38943266.7026699     
  -40808520.4359965     
  -40754350.1386637     
  -40698969.9392766     
  -40642407.4506617     
  -40584868.5907120     
  -40526544.6671721     
  -40467597.5474743     
  -40408172.1138288     
  -40348404.7868239     
  -40288426.0432244     
  -40228359.7154376     
  -40168321.3208296     
  -40108416.5632500     
  -40048740.4120906     
  -39989376.7947549     
  -39930398.7927848     
  -39871869.1981105     
  -39813841.2992565     
  -39756359.7955136     
  -39699461.7659069     
  -39643177.6440486     
  -39587532.1685967     
  -39532545.2925580     
  -39478233.0441095     
  -39424608.3379504     
  -39371681.7402921     
  -39319462.1930857     
  -39267957.7043936     
  -39217176.0122451     
  -39167125.2289978     
  -39117814.4721736     
  -39069254.4858526     
  -39021458.2537708     
  -38974441.6009069     
  -38928223.7741162     
  -38882827.9837077     
  -38838281.8763207     
  -38794617.8950297     
  -38751873.4666623     
  -38710090.9433847     
  -38669317.2270727     
  -38629603.0453541     
  -38591001.9745787     
  -38553569.5940132     
  -38517363.6897939     
  -38482447.1286727     
  -38448894.9510691     
  -38416802.0540483     
  -38386261.2640797     
  -38357177.6411674     
  -40777604.8685696     
  -40700990.2659691     
  -40622930.3654396     
  -40544217.9030383     
  -40465055.8400805     
  -40385581.4362595     
  -40305967.1553779     
  -40226413.2618823     
  -40147124.0226098     
  -40068289.8112289     
  -39990077.4806363     
  -39912626.8193159     
  -39836050.6685241     
  -39760436.9527422     
  -39685851.5378351     
  -39612341.3000116     
  -39539937.0829068     
  -39468656.3930964     
  -39398505.7811617     
  -39329482.9068736     
  -39261578.3124561     
  -39194776.9388241     
  -39129059.4229015     
  -39064403.2134834     
  -39000783.5407721     
  -38938174.2718872     
  -38876548.6819479     
  -38815880.1680783     
  -38756142.9320343     
  -38697312.6561158     
  -38639367.1965864     
  -38582287.3188189     
  -38526057.4985822     
  -38470666.8137916     
  -38416109.9498154     
  -38362388.3375296     
  -38309511.4340511     
  -38257498.1367878     
  -38206378.2841914     
  -38156194.1282765     
  -38107001.5441545     
  -38058870.5419261     
  -38011884.3372018     
  -37966135.8275095     
  -37921720.0020412     
  -37878721.4110022     
  -37837200.2290954     
  -37797197.8975303     
  -37758842.1268721     
  -37722816.2698411     
  -40777422.9314708     
  -40669723.1729790     
  -40563041.7185486     
  -40455924.5370536     
  -40348530.7088772     
  -40241427.5864738     
  -40135187.8786184     
  -40030275.5037510     
  -39927031.0694197     
  -39825687.8888927     
  -39726394.0987031     
  -39629232.9562529     
  -39534239.3577513     
  -39441412.6306182     
  -39350726.2191112     
  -39262134.9411658     
  -39175580.3998521     
  -39090995.0102878     
  -39008304.9928670     
  -38927432.5957397     
  -38848297.7425502     
  -38770819.2517070     
  -38694915.7368939     
  -38620506.2718747     
  -38547510.8833213     
  -38475850.9215788     
  -38405449.3496317     
  -38336230.9841754     
  -38268122.7190377     
  -38201053.7599472     
  -38134955.9007403     
  -38069763.8746955     
  -38005415.8212212     
  -37941853.9183129     
  -37879025.2461300     
  -37816882.9682779     
  -37755387.9469094     
  -37694510.9479591     
  -37634235.6456888     
  -37574562.7007323     
  -37515515.2537838     
  -37457146.2138228     
  -37399547.6234844     
  -37342861.8745440     
  -37287292.8750230     
  -37233110.4569316     
  -37180628.1184375     
  -37130098.6309465     
  -37081376.3998358     
  -37032936.8355319     
  -40804428.0718863     
  -40658411.1247107     
  -40505995.9888502     
  -40353583.5139192     
  -40204133.4614535     
  -40058982.8122731     
  -39918673.7194537     
  -39783347.3591042     
  -39652939.3683265     
  -39527280.6230727     
  -39406150.9047374     
  -39289308.1626297     
  -39176504.6678944     
  -39067495.9021719     
  -38962045.3157432     
  -38859926.6927469     
  -38760925.1143359     
  -38664837.0983442     
  -38571470.2595830     
  -38480642.6980966     
  -38392182.2410855     
  -38305925.6145900     
  -38221717.5904208     
  -38139410.1347196     
  -38058861.5725534     
  -37979935.7754419     
  -37902501.3740896     
  -37826430.9958926     
  -37751600.5254501     
  -37677888.3860567     
  -37605174.8409447     
  -37533341.3150493     
  -37462269.7417494     
  -37391841.9452559     
  -37321939.0796006     
  -37252441.1622014     
  -37183226.7684093     
  -37114173.0016648     
  -37045155.9372179     
  -36976051.8845503     
  -36906740.0802244     
  -36837107.9195595     
  -36767060.7900159     
  -36696540.4659999     
  -36625559.9305546     
  -36554270.8320128     
  -36483098.2739409     
  -36413020.1312106     
  -36346169.1950981     
  -36287184.9608582     
  -40838182.6307409     
  -40575576.8145552     
  -40340692.1513969     
  -40126996.8583962     
  -39930251.0630580     
  -39747514.8113501     
  -39576638.4492218     
  -39415983.2682831     
  -39264258.5744086     
  -39120421.1263097     
  -38983609.9019339     
  -38853101.9354977     
  -38728281.3173627     
  -38608616.7572476     
  -38493644.9170145     
  -38382957.7489083     
  -38276192.6863786     
  -38173024.9108980     
  -38073161.1574559     
  -37976334.6779352     
  -37882301.0865906     
  -37790834.8837398     
  -37701726.5039253     
  -37614779.7702100     
  -37529809.6614754     
  -37446640.3175224     
  -37365103.2193623     
  -37285035.4905650     
  -37206278.2706740     
  -37128675.1139277     
  -37052070.3659394     
  -36976307.4674127     
  -36901227.1268623     
  -36826665.2927010     
  -36752450.8373005     
  -36678402.8390917     
  -36604327.3091423     
  -36530013.1488922     
  -36455227.0339929     
  -36379706.7750379     
  -36303152.4729544     
  -36225214.3978070     
  -36145475.8462523     
  -36063428.0194159     
  -35978431.6808573     
  -35889655.8646281     
  -35795974.6544054     
  -35695783.1091891     
  -35586648.4603499     
  -35464607.1330827     
SCALARS 2waySource double 
LOOKUP_TABLE default
  3.988603937690005E-005
  3.808574880589842E-005
  3.651209697704978E-005
  3.507946073614282E-005
  3.319621192253146E-005
  3.097380415087096E-005
  2.881154575244424E-005
  2.763174835751467E-005
  2.652903562662177E-005
  2.562834178821427E-005
  2.484420989404869E-005
  2.416258636465549E-005
  2.381758869970844E-005
  2.376275552093930E-005
  2.346984583433096E-005
  2.311782948187639E-005
  2.277818299313607E-005
  2.238598819631559E-005
  2.183215720709504E-005
  2.115330335647763E-005
  2.056202557496289E-005
  2.004054981435911E-005
  1.957914935993076E-005
  1.917231808800978E-005
  1.881700932516263E-005
  1.851183595721030E-005
  1.825676298270433E-005
  1.805310822896935E-005
  1.790381847710944E-005
  1.781411022715651E-005
  1.779273394942895E-005
  1.785445107101656E-005
  1.802504903868448E-005
  1.728897831985404E-005
  1.430505398326779E-005
  9.819365950885198E-006
  4.291699431008867E-006
 -2.023682995462205E-006
 -9.135631757379135E-006
 -1.603508101779665E-005
 -1.712401192188518E-005
 -1.680410816516865E-005
 -1.669204723138359E-005
 -1.616319229896074E-005
 -1.547250743032871E-005
 -1.453800924706183E-005
 -1.323970345324324E-005
 -1.159219947730160E-005
 -9.550564858799053E-006
 -7.081280578705022E-006
  4.127150025892987E-005
  4.040620283379212E-005
  3.923809410809112E-005
  3.797853049812504E-005
  3.652571674832889E-005
  3.475437607665548E-005
  3.345135650686772E-005
  3.227551789650227E-005
  3.124207914707788E-005
  3.035812724033924E-005
  2.958622350011614E-005
  2.892246296416178E-005
  2.858905021349661E-005
  2.837785672276264E-005
  2.795739438361682E-005
  2.765220546337332E-005
  2.740060952764184E-005
  2.710273392154431E-005
  2.671802556244777E-005
  2.634097414851937E-005
  2.595488728433540E-005
  2.557861656574418E-005
  2.522109012773981E-005
  2.488672279817441E-005
  2.457778119023959E-005
  2.429544012736573E-005
  2.404023944308267E-005
  2.381222088239283E-005
  2.361081854075282E-005
  2.343442664593291E-005
  2.327936073208148E-005
  2.313749514480705E-005
  2.299082405231394E-005
  2.283251446833650E-005
  2.187612296009620E-005
  2.054162056943039E-005
  1.747479226247124E-005
  1.212863638490198E-005
  5.182410694574388E-006
 -2.382035630121944E-006
 -8.698901885364883E-006
 -1.128909774439505E-005
 -1.007483096427413E-005
 -9.112829532044716E-006
 -7.735240165921270E-006
 -6.033458393003259E-006
 -4.381942997669469E-006
 -2.536035174048849E-006
 -4.636448961197015E-007
  1.809829659032674E-006
  4.431575350137253E-005
  4.289576614985671E-005
  4.173632579178254E-005
  4.066643118136844E-005
  3.966812551600136E-005
  3.873512831213465E-005
  3.779421260907880E-005
  3.694475115425412E-005
  3.616419246497525E-005
  3.545923414337868E-005
  3.483571749008749E-005
  3.430078878400212E-005
  3.379894112374508E-005
  3.334716024944062E-005
  3.294645409925078E-005
  3.255079964735441E-005
  3.216953876872611E-005
  3.181125884827569E-005
  3.147530533189035E-005
  3.113886292293958E-005
  3.081172387166517E-005
  3.049233550886963E-005
  3.018214287938492E-005
  2.988291665230681E-005
  2.959599016513876E-005
  2.932209896569928E-005
  2.906136846686493E-005
  2.881329633024529E-005
  2.857668609461289E-005
  2.834954901663189E-005
  2.812908919574939E-005
  2.791215674215806E-005
  2.769733309610244E-005
  2.747460944457887E-005
  2.732724698220438E-005
  2.704454992884105E-005
  2.614757243558392E-005
  2.467648799910662E-005
  2.242235997398906E-005
  1.615477336258907E-005
  7.898737747730236E-006
  9.260038703879508E-007
 -4.625196922302728E-006
 -4.148873349356160E-006
 -2.028383078315402E-006
 -5.583517844880711E-008
  2.595547873114345E-006
  5.126710461751585E-006
  7.434977749448072E-006
  9.307534927626157E-006
  4.405370252530676E-005
  4.350753282932580E-005
  4.289615849869018E-005
  4.229005242727410E-005
  4.169950806204108E-005
  4.112543102558288E-005
  4.058404660421488E-005
  4.005401657579340E-005
  3.954876610868625E-005
  3.906954940427160E-005
  3.861576271407405E-005
  3.818198564080149E-005
  3.777547991711752E-005
  3.738738848966257E-005
  3.701511315454979E-005
  3.666486928816997E-005
  3.632942244509775E-005
  3.600531959109878E-005
  3.569092713071289E-005
  3.538879393833733E-005
  3.509391719855275E-005
  3.480588258093310E-005
  3.452385371043066E-005
  3.424729284699703E-005
  3.397592849943725E-005
  3.370961428383943E-005
  3.344823457179074E-005
  3.319168308434100E-005
  3.293991935574703E-005
  3.269311305120802E-005
  3.245187695306403E-005
  3.221749499766272E-005
  3.199165325742934E-005
  3.178140755939044E-005
  3.156697861604201E-005
  3.139204194992451E-005
  3.127669260970671E-005
  3.114845210078486E-005
  3.064250049764642E-005
  2.894407388870592E-005
  2.684652577881283E-005
  2.103132948116513E-005
  1.379069120294432E-005
  7.895075486863786E-006
  2.988811072561114E-006
  3.531208444022470E-006
  5.363420227352730E-006
  8.649685364206019E-006
  1.147510791116144E-005
  1.454602568166094E-005
  4.391329524304217E-005
  4.375867291766268E-005
  4.357387170672121E-005
  4.335288337174634E-005
  4.310614783011262E-005
  4.284361418414610E-005
  4.256880781789221E-005
  4.229154724662604E-005
  4.201097874437352E-005
  4.172937891536273E-005
  4.144840327940584E-005
  4.117066579478718E-005
  4.089538609532169E-005
  4.062471902814050E-005
  4.035845902815762E-005
  4.009477431764085E-005
  3.983488537616294E-005
  3.957819620886351E-005
  3.932394545706425E-005
  3.907071469626452E-005
  3.881887999483813E-005
  3.856744399777791E-005
  3.831569677356661E-005
  3.806294876309341E-005
  3.780854058374902E-005
  3.755187136917775E-005
  3.729241433499510E-005
  3.702972948977397E-005
  3.676348040596132E-005
  3.649345034956893E-005
  3.621954401243124E-005
  3.594178122486805E-005
  3.566045090271824E-005
  3.537419414188482E-005
  3.509014655624079E-005
  3.480413041262550E-005
  3.451562553313706E-005
  3.423124230402447E-005
  3.399588277735033E-005
  3.385203420485421E-005
  3.319510283857123E-005
  3.145424280365421E-005
  2.914605901836490E-005
  2.681598261042707E-005
  2.081724424882676E-005
  1.663300579567507E-005
  1.176161951823030E-005
  7.329644701263009E-006
  9.658098244116255E-006
  1.354227582251525E-005
  4.418369258147715E-005
  4.425060442187962E-005
  4.428281947289221E-005
  4.428659362044053E-005
  4.426374472880586E-005
  4.421657479012682E-005
  4.414875491830862E-005
  4.406205676274170E-005
  4.396031484527173E-005
  4.384568828731356E-005
  4.372012896305244E-005
  4.358483620722795E-005
  4.344137084843170E-005
  4.329032387163935E-005
  4.313261224610914E-005
  4.296905517542879E-005
  4.279951505577797E-005
  4.262426416871070E-005
  4.244332898305545E-005
  4.225667393419013E-005
  4.206373321863687E-005
  4.186422283440813E-005
  4.165763566151622E-005
  4.144335698001387E-005
  4.122066778157184E-005
  4.098873914237000E-005
  4.074662461531977E-005
  4.049324525212176E-005
  4.022736397392935E-005
  3.994754966644108E-005
  3.965213559847406E-005
  3.933917427170197E-005
  3.900633210626566E-005
  3.865157107408498E-005
  3.827002889854587E-005
  3.785789366103553E-005
  3.740991874291834E-005
  3.692242313554625E-005
  3.638198329836892E-005
  3.575052963893104E-005
  3.513560184963322E-005
  3.441265670286667E-005
  3.335176820745894E-005
  3.207254912124586E-005
  2.904648191212544E-005
  2.607239412773353E-005
  2.328651482650475E-005
  1.904961816209615E-005
  1.258464657513280E-005
  6.401473418724868E-006
  4.461235114593902E-005
  4.482801258893772E-005
  4.501310735425478E-005
  4.516884875961946E-005
  4.529757065001921E-005
  4.540129217123309E-005
  4.548163384659859E-005
  4.554058202082029E-005
  4.557949196759265E-005
  4.560001999558003E-005
  4.560358778387448E-005
  4.559157219258133E-005
  4.556504238229966E-005
  4.552505468982095E-005
  4.547235630792642E-005
  4.540756063989513E-005
  4.533130299879123E-005
  4.524389474865422E-005
  4.514556274513282E-005
  4.503639242979337E-005
  4.491642556147400E-005
  4.478546880858687E-005
  4.464324498744290E-005
  4.448934711732647E-005
  4.432323133720377E-005
  4.414420699344355E-005
  4.395142110189648E-005
  4.374383763834568E-005
  4.352021105920094E-005
  4.327905235398404E-005
  4.301858402007155E-005
  4.273667895780008E-005
  4.243079705344249E-005
  4.209759419621431E-005
  4.173363541579560E-005
  4.133452062401410E-005
  4.089501837380051E-005
  4.040679339075325E-005
  3.986093630864101E-005
  3.925815013161281E-005
  3.856450210427972E-005
  3.778647705270559E-005
  3.693130085265146E-005
  3.591265270341346E-005
  3.472402141003513E-005
  3.323591076750781E-005
  3.090756574430759E-005
  2.802667741332205E-005
  2.344433758810718E-005
  1.864850568066178E-005
  4.504690587272671E-005
  4.537612790478328E-005
  4.567587081051698E-005
  4.594765556378059E-005
  4.619272265551469E-005
  4.641240436946848E-005
  4.660807652206246E-005
  4.678096259710574E-005
  4.693236527353291E-005
  4.706341605815811E-005
  4.717523124052550E-005
  4.726883079799609E-005
  4.734518894256312E-005
  4.740516379862729E-005
  4.744956398762741E-005
  4.747909183878396E-005
  4.749432188399406E-005
  4.749578904878808E-005
  4.748391603509014E-005
  4.745903720157686E-005
  4.742138099299659E-005
  4.737111591917639E-005
  4.730830846434392E-005
  4.723293872062275E-005
  4.714489955678348E-005
  4.704399503718420E-005
  4.692993848262242E-005
  4.680234975866806E-005
  4.666075172543659E-005
  4.650456593664585E-005
  4.633310815233958E-005
  4.614558494743513E-005
  4.594108622939396E-005
  4.571869394957274E-005
  4.547727600488992E-005
  4.521560688670652E-005
  4.493233938164245E-005
  4.462691205678443E-005
  4.429918476365988E-005
  4.394510871875123E-005
  4.356756320883265E-005
  4.316179385951240E-005
  4.272714053251573E-005
  4.228920278664588E-005
  4.184323979411318E-005
  4.138752947710607E-005
  4.103825500180833E-005
  4.059469711276598E-005
  4.034810418933336E-005
  4.086112995021956E-005
  4.540395344293499E-005
  4.582489657310565E-005
  4.621728636935794E-005
  4.658222343682856E-005
  4.692086943501211E-005
  4.723433848385229E-005
  4.752371365475481E-005
  4.779008205304415E-005
  4.803446927203466E-005
  4.825789599140151E-005
  4.846132523670422E-005
  4.864568399877268E-005
  4.881184721853850E-005
  4.896064909148954E-005
  4.909286419025149E-005
  4.920922197139859E-005
  4.931040732534377E-005
  4.939703931718934E-005
  4.946969334435681E-005
  4.952889436330185E-005
  4.957512278143613E-005
  4.960880676874378E-005
  4.963033687452742E-005
  4.964006448293388E-005
  4.963830662612759E-005
  4.962535144219864E-005
  4.960146450062153E-005
  4.956689646009949E-005
  4.952189253864835E-005
  4.946670448625174E-005
  4.940160597277957E-005
  4.932691253753625E-005
  4.924301036238492E-005
  4.915035337011109E-005
  4.904955654592066E-005
  4.894144558121603E-005
  4.882715427776304E-005
  4.870791767048143E-005
  4.858515221612175E-005
  4.846215765899295E-005
  4.834190180835391E-005
  4.823026691487573E-005
  4.813339921861100E-005
  4.805243587599751E-005
  4.800092446745844E-005
  4.800473175989498E-005
  4.806935690059322E-005
  4.828867147354958E-005
  4.862903352066972E-005
  4.893550897577806E-005
  4.564977106783688E-005
  4.614535157152732E-005
  4.661289655835522E-005
  4.705350047859253E-005
  4.746822186735825E-005
  4.785810811666529E-005
  4.822418476337243E-005
  4.856744556595209E-005
  4.888886592472961E-005
  4.918938571187991E-005
  4.946992182288005E-005
  4.973135916557670E-005
  4.997455321978862E-005
  5.020032694346233E-005
  5.040947494433434E-005
  5.060275950358795E-005
  5.078091190673215E-005
  5.094463858844973E-005
  5.109461679726711E-005
  5.123149944954709E-005
  5.135591684587147E-005
  5.146848219903340E-005
  5.156979256088445E-005
  5.166043515877242E-005
  5.174099266044041E-005
  5.181204957488932E-005
  5.187419988136490E-005
  5.192805604561588E-005
  5.197425968995913E-005
  5.201349422038934E-005
  5.204649973909059E-005
  5.207409056970826E-005
  5.209717454907573E-005
  5.211678920815608E-005
  5.213412074915497E-005
  5.215053626413204E-005
  5.216761197373599E-005
  5.218727647788462E-005
  5.221194463804112E-005
  5.224411998015161E-005
  5.228699837614719E-005
  5.234392557452372E-005
  5.241920612047046E-005
  5.251990852033435E-005
  5.265149137088121E-005
  5.281566255840434E-005
  5.301832459343294E-005
  5.323850266204156E-005
  5.348002666500989E-005
  5.378423663551862E-005
  4.578302834877106E-005
  4.633640741266057E-005
  4.686239467120894E-005
  4.736207262221795E-005
  4.783649682984786E-005
  4.828669058235845E-005
  4.871364903928364E-005
  4.911834158961839E-005
  4.950170895551190E-005
  4.986466799618572E-005
  5.020810861225111E-005
  5.053289691277725E-005
  5.083987515163012E-005
  5.112986319523625E-005
  5.140365860956207E-005
  5.166203912563544E-005
  5.190576384339325E-005
  5.213557390022068E-005
  5.235219614572890E-005
  5.255634468180122E-005
  5.274872390653252E-005
  5.293003120358613E-005
  5.310096134025572E-005
  5.326221011752565E-005
  5.341447921089476E-005
  5.355848156918717E-005
  5.369494750673109E-005
  5.382463159216791E-005
  5.394832041438036E-005
  5.406684130880079E-005
  5.418107213592650E-005
  5.429195223326616E-005
  5.440049518675659E-005
  5.450779857945433E-005
  5.461505968750080E-005
  5.472359111989974E-005
  5.483484072849729E-005
  5.495037660078033E-005
  5.507185092150181E-005
  5.520111943073627E-005
  5.534010194917533E-005
  5.549086392616838E-005
  5.565535478378180E-005
  5.583465826943705E-005
  5.602967404518919E-005
  5.624172961038110E-005
  5.647017305795404E-005
  5.672119404574997E-005
  5.699649898188353E-005
  5.728632794813682E-005
  4.581867500054607E-005
  4.641199073831658E-005
  4.697899373203928E-005
  4.752074289585749E-005
  4.803826109328702E-005
  4.853253933700537E-005
  4.900453806969700E-005
  4.945518896379007E-005
  4.988539760541817E-005
  5.029604408998663E-005
  5.068798562302135E-005
  5.106205733281126E-005
  5.141907402245179E-005
  5.175983157550749E-005
  5.208510874786148E-005
  5.239566848113012E-005
  5.269225973969147E-005
  5.297561959643430E-005
  5.324647480824356E-005
  5.350554423415324E-005
  5.375354109197763E-005
  5.399117561357418E-005
  5.421915762731270E-005
  5.443819970521360E-005
  5.464902036055243E-005
  5.485234752231887E-005
  5.504892224235072E-005
  5.523950259772431E-005
  5.542486773681376E-005
  5.560582198262557E-005
  5.578319885296344E-005
  5.595786476390895E-005
  5.613072183717120E-005
  5.630271087675823E-005
  5.647481161056368E-005
  5.664804025800571E-005
  5.682344132422357E-005
  5.700208351358708E-005
  5.718506056535587E-005
  5.737343832238241E-005
  5.756825279267502E-005
  5.777044751111958E-005
  5.798087226966616E-005
  5.820046297606407E-005
  5.843013412289815E-005
  5.867059954371017E-005
  5.892314742792766E-005
  5.918719108849065E-005
  5.946245584519417E-005
  5.975163427522242E-005
  4.577499217901967E-005
  4.638984378662813E-005
  4.698006451532399E-005
  4.754663475189366E-005
  4.809050279398714E-005
  4.861258675809417E-005
  4.911377699317316E-005
  4.959493805623791E-005
  5.005691034707557E-005
  5.050051211641669E-005
  5.092654082889449E-005
  5.133577493299372E-005
  5.172897531089606E-005
  5.210688679941517E-005
  5.247023962236179E-005
  5.281975096307599E-005
  5.315612643788955E-005
  5.348006158435329E-005
  5.379224354215652E-005
  5.409335259759161E-005
  5.438406387879767E-005
  5.466504904307471E-005
  5.493697807013548E-005
  5.520052099384173E-005
  5.545634969214200E-005
  5.570513963245830E-005
  5.594757154274829E-005
  5.618433295178729E-005
  5.641611952173821E-005
  5.664363607505663E-005
  5.686759719741692E-005
  5.708872728502382E-005
  5.730775999413448E-005
  5.752543648706318E-005
  5.774250288467100E-005
  5.795970675788250E-005
  5.817779359970857E-005
  5.839750057988825E-005
  5.861954552482231E-005
  5.884462932497395E-005
  5.907342681439738E-005
  5.930659481249123E-005
  5.954477679882731E-005
  5.978855345104262E-005
  6.003844541775888E-005
  6.029495435707488E-005
  6.055829223865785E-005
  6.082901552682701E-005
  6.110767123932187E-005
  6.139391773943620E-005
  4.566571445902768E-005
  4.628436419012010E-005
  4.688064972433570E-005
  4.745542443122239E-005
  4.800951688724620E-005
  4.854373248828659E-005
  4.905885482020428E-005
  4.955564705917045E-005
  5.003485334930749E-005
  5.049720000988675E-005
  5.094339684358783E-005
  5.137413827754438E-005
  5.179010454792234E-005
  5.219196282852081E-005
  5.258036835498442E-005
  5.295596549757247E-005
  5.331938884880276E-005
  5.367126429519387E-005
  5.401221003672400E-005
  5.434283763330372E-005
  5.466375299436605E-005
  5.497555734785303E-005
  5.527884814447620E-005
  5.557421991790784E-005
  5.586226504215686E-005
  5.614357438154960E-005
  5.641873779745102E-005
  5.668834447648200E-005
  5.695298304300788E-005
  5.721324141768408E-005
  5.746970638663513E-005
  5.772296285062387E-005
  5.797359269574690E-005
  5.822217341813157E-005
  5.846927641491466E-005
  5.871546501072586E-005
  5.896129195572775E-005
  5.920729718045263E-005
  5.945400716080632E-005
  5.970193094835113E-005
  5.995155911971598E-005
  6.020335832258630E-005
  6.045776293189193E-005
  6.071518092513373E-005
  6.097599132678046E-005
  6.124052639857585E-005
  6.150915695541580E-005
  6.178213431738470E-005
  6.205962234279115E-005
  6.234196493716985E-005
  4.549703079292573E-005
  4.610356506846309E-005
  4.669045122029906E-005
  4.725838410320419E-005
  4.780804316225852E-005
  4.834009302265721E-005
  4.885518414871721E-005
  4.935395349060777E-005
  4.983702513585855E-005
  5.030501099310616E-005
  5.075851143689769E-005
  5.119811598287167E-005
  5.162440393468186E-005
  5.203794503012667E-005
  5.243930007043883E-005
  5.282902154237593E-005
  5.320765421372899E-005
  5.357573570721333E-005
  5.393379705473040E-005
  5.428236320575229E-005
  5.462195350335995E-005
  5.495308210623926E-005
  5.527625835517821E-005
  5.559198706400976E-005
  5.590076873285765E-005
  5.620309966513167E-005
  5.649947197771765E-005
  5.679037349289213E-005
  5.707628750178543E-005
  5.735769239211750E-005
  5.763506113634155E-005
  5.790886064130699E-005
  5.817955098060590E-005
  5.844758448539200E-005
  5.871340472920747E-005
  5.897744541392074E-005
  5.924012928684209E-005
  5.950186695419256E-005
  5.976305507568848E-005
  6.002407525586288E-005
  6.028529202515154E-005
  6.054705172759184E-005
  6.080968312592579E-005
  6.107349477758628E-005
  6.133877390197731E-005
  6.160579161808424E-005
  6.187477538871150E-005
  6.214594450671513E-005
  6.241951592742741E-005
  6.269562626193465E-005
  4.526793687085948E-005
  4.584904459754416E-005
  4.641348525527340E-005
  4.696178382431562E-005
  4.749445880874090E-005
  4.801202213454186E-005
  4.851497910389339E-005
  4.900382841388135E-005
  4.947906222193327E-005
  4.994116624271034E-005
  5.039061988531170E-005
  5.082789640497230E-005
  5.125346307760228E-005
  5.166778138288643E-005
  5.207130719399787E-005
  5.246449096532022E-005
  5.284777791657575E-005
  5.322160820541746E-005
  5.358641708163663E-005
  5.394263502213499E-005
  5.429068783547458E-005
  5.463099673394347E-005
  5.496397836511906E-005
  5.529004479952109E-005
  5.560960346659223E-005
  5.592305703604900E-005
  5.623080323995249E-005
  5.653323463261307E-005
  5.683073828653632E-005
  5.712369542423624E-005
  5.741248098693637E-005
  5.769746314291252E-005
  5.797900273369422E-005
  5.825745267101305E-005
  5.853315728537035E-005
  5.880645163546466E-005
  5.907766074581549E-005
  5.934709879737123E-005
  5.961506846061107E-005
  5.988186005448026E-005
  6.014775099490480E-005
  6.041300516908149E-005
  6.067787175671695E-005
  6.094258485113972E-005
  6.120736294727411E-005
  6.147240605662262E-005
  6.173790305463337E-005
  6.200402366908657E-005
  6.227091301807754E-005
  6.253871329593914E-005
  4.497222442067656E-005
  4.551753578652762E-005
  4.604924491986171E-005
  4.656771159293291E-005
  4.707329655103912E-005
  4.756636092674618E-005
  4.804726573748810E-005
  4.851637145182140E-005
  4.897403761815539E-005
  4.942062254885639E-005
  4.985648304798608E-005
  5.028197418045879E-005
  5.069744907190944E-005
  5.110325873538331E-005
  5.149975191784079E-005
  5.188727496168734E-005
  5.226617167506377E-005
  5.263678320664682E-005
  5.299944792026807E-005
  5.335450126388698E-005
  5.370227562988328E-005
  5.404310020193819E-005
  5.437730078529942E-005
  5.470519961691635E-005
  5.502711515312273E-005
  5.534336183231006E-005
  5.565424981104515E-005
  5.596008467247459E-005
  5.626116710658447E-005
  5.655779256235635E-005
  5.685025087241224E-005
  5.713882585121017E-005
  5.742379487022651E-005
  5.770542841056958E-005
  5.798398959690344E-005
  5.825973371486334E-005
  5.853290772916024E-005
  5.880374981244322E-005
  5.907248883812143E-005
  5.933934392890040E-005
  5.960452394208692E-005
  5.986822695779352E-005
  6.013063996446844E-005
  6.039193839865179E-005
  6.065228572028230E-005
  6.091183393793600E-005
  6.117072117658718E-005
  6.142907287794987E-005
  6.168700378731018E-005
  6.194461179837191E-005
  4.460084554765318E-005
  4.510291810444496E-005
  4.559438653248535E-005
  4.607546053470920E-005
  4.654635638033649E-005
  4.700729606188455E-005
  4.745850652756524E-005
  4.790021898340655E-005
  4.833266825777435E-005
  4.875609222169087E-005
  4.917073125985458E-005
  4.957682778542966E-005
  4.997462579402681E-005
  5.036437045122493E-005
  5.074630770890474E-005
  5.112068394561475E-005
  5.148774562690286E-005
  5.184773898130965E-005
  5.220090968826334E-005
  5.254750257464082E-005
  5.288776131640903E-005
  5.322192814287070E-005
  5.355024354060169E-005
  5.387294595516087E-005
  5.419027148842168E-005
  5.450245359016260E-005
  5.480972274269959E-005
  5.511230613768935E-005
  5.541042734473780E-005
  5.570430597170332E-005
  5.599415731701585E-005
  5.628019201488547E-005
  5.656261567399342E-005
  5.684162851162578E-005
  5.711742498508425E-005
  5.739019342338049E-005
  5.766011565830059E-005
  5.792736665335028E-005
  5.819211414725420E-005
  5.845451829051277E-005
  5.871473131026293E-005
  5.897289720195768E-005
  5.922915138941951E-005
  5.948362044489796E-005
  5.973642184623398E-005
  5.998766343215775E-005
  6.023744372795482E-005
  6.048585151562121E-005
  6.073296488753574E-005
  6.097885270422865E-005
  4.414396605377888E-005
  4.459804242226199E-005
  4.504433513575924E-005
  4.548292445635585E-005
  4.591390104300385E-005
  4.633736500824785E-005
  4.675342503963885E-005
  4.716219758090158E-005
  4.756380606870412E-005
  4.795838022068948E-005
  4.834605537030951E-005
  4.872697184468125E-005
  4.910127438122018E-005
  4.946911157944959E-005
  4.983063538425296E-005
  5.018600059718803E-005
  5.053536441256039E-005
  5.087888597524787E-005
  5.121672595742112E-005
  5.154904615148164E-005
  5.187600907688442E-005
  5.219777759862399E-005
  5.251451455537649E-005
  5.282638239566088E-005
  5.313354282047963E-005
  5.343615643118773E-005
  5.373438238160323E-005
  5.402837803355545E-005
  5.431829861534701E-005
  5.460429688283835E-005
  5.488652278300182E-005
  5.516512312011655E-005
  5.544024122492689E-005
  5.571201662718860E-005
  5.598058473218032E-005
  5.624607650139034E-005
  5.650861813888260E-005
  5.676833078571785E-005
  5.702533021964425E-005
  5.727972656791045E-005
  5.753162402629510E-005
  5.778112058321469E-005
  5.802830776769408E-005
  5.827327039904002E-005
  5.851608633795886E-005
  5.875682635992056E-005
  5.899555381317320E-005
  5.923232444529641E-005
  5.946718647100174E-005
  5.970017998326403E-005
  4.359245873122243E-005
  4.399610509516092E-005
  4.439453760085788E-005
  4.478772957999374E-005
  4.517566710434093E-005
  4.555834804559838E-005
  4.593578118636781E-005
  4.630798537975129E-005
  4.667498875474807E-005
  4.703682796489219E-005
  4.739354747724724E-005
  4.774519889924941E-005
  4.809184034071474E-005
  4.843353580840496E-005
  4.877035463074935E-005
  4.910237091030256E-005
  4.942966300167482E-005
  4.975231301271280E-005
  5.007040632699425E-005
  5.038403114562072E-005
  5.069327804657453E-005
  5.099823956007843E-005
  5.129900975829866E-005
  5.159568385826316E-005
  5.188835783665210E-005
  5.217712805547572E-005
  5.246209089778457E-005
  5.274334241260602E-005
  5.302097796856909E-005
  5.329509191568541E-005
  5.356577725504077E-005
  5.383312531610181E-005
  5.409722544154786E-005
  5.435816467968214E-005
  5.461602748440675E-005
  5.487089542322741E-005
  5.512284689339370E-005
  5.537195684601563E-005
  5.561829651957859E-005
  5.586193318128123E-005
  5.610292987827284E-005
  5.634134520058047E-005
  5.657723305099613E-005
  5.681064242825715E-005
  5.704161722684494E-005
  5.727019601337774E-005
  5.749641187405722E-005
  5.772029224790401E-005
  5.794185869201691E-005
  5.816112684374438E-005
  4.293883592842719E-005
  4.329153898049790E-005
  4.364130578872396E-005
  4.398802484939412E-005
  4.433159857388376E-005
  4.467194241131354E-005
  4.500898401016054E-005
  4.534266241749532E-005
  4.567292731423386E-005
  4.599973828501683E-005
  4.632306412092321E-005
  4.664288215364495E-005
  4.695917761928845E-005
  4.727194305038929E-005
  4.758117769442084E-005
  4.788688695733287E-005
  4.818908187057885E-005
  4.848777858017667E-005
  4.878299785646207E-005
  4.907476462313502E-005
  4.936310750442899E-005
  4.964805838919350E-005
  4.992965201079089E-005
  5.020792554188526E-005
  5.048291820309629E-005
  5.075467088480648E-005
  5.102322578131732E-005
  5.128862603671136E-005
  5.155091540192488E-005
  5.181013790243676E-005
  5.206633751628031E-005
  5.231955786197351E-005
  5.256984189616387E-005
  5.281723162077396E-005
  5.306176779950737E-005
  5.330348968363631E-005
  5.354243474694804E-005
  5.377863843003108E-005
  5.401213389360630E-005
  5.424295178146266E-005
  5.447111999274120E-005
  5.469666346307705E-005
  5.491960395609150E-005
  5.513995986373216E-005
  5.535774601375413E-005
  5.557297349722804E-005
  5.578564949069867E-005
  5.599577709045761E-005
  5.620335518179157E-005
  5.640837826709174E-005
  4.217772517111794E-005
  4.248049553950943E-005
  4.278229784521015E-005
  4.308295612741677E-005
  4.338230864090406E-005
  4.368020707238978E-005
  4.397651578554726E-005
  4.427111109405862E-005
  4.456388056197269E-005
  4.485472233060862E-005
  4.514354447120165E-005
  4.543026436236088E-005
  4.571480809145938E-005
  4.599710987908635E-005
  4.627711152555812E-005
  4.655476187859585E-005
  4.683001632125579E-005
  4.710283627916133E-005
  4.737318874623034E-005
  4.764104582791494E-005
  4.790638430127740E-005
  4.816918519098040E-005
  4.842943336055056E-005
  4.868711711812061E-005
  4.894222783605133E-005
  4.919475958384824E-005
  4.944470877370345E-005
  4.969207381828358E-005
  4.993685480021668E-005
  5.017905315286269E-005
  5.041867135206275E-005
  5.065571261847310E-005
  5.089018063023218E-005
  5.112207924572057E-005
  5.135141223618310E-005
  5.157818302804891E-005
  5.180239445484533E-005
  5.202404851849629E-005
  5.224314616002691E-005
  5.245968703946113E-005
  5.267366932487289E-005
  5.288508949073826E-005
  5.309394212512110E-005
  5.330021974606054E-005
  5.350391262786201E-005
  5.370500863333398E-005
  5.390349305848522E-005
  5.409934848653446E-005
  5.429255464297480E-005
  5.448308827296194E-005
  4.130601368938405E-005
  4.156102196320535E-005
  4.181672130047694E-005
  4.207288930991205E-005
  4.232931748796650E-005
  4.258581054144519E-005
  4.284218573039826E-005
  4.309827223123630E-005
  4.335391051973584E-005
  4.360895177369461E-005
  4.386325729491307E-005
  4.411669795009032E-005
  4.436915363020277E-005
  4.462051272793687E-005
  4.487067163271199E-005
  4.511953424270558E-005
  4.536701149351275E-005
  4.561302090280153E-005
  4.585748613053539E-005
  4.610033655419670E-005
  4.634150685854879E-005
  4.658093663942614E-005
  4.681857002108701E-005
  4.705435528666928E-005
  4.728824452130877E-005
  4.752019326752668E-005
  4.775016019246757E-005
  4.797810676664406E-005
  4.820399695384680E-005
  4.842779691188840E-005
  4.864947470390933E-005
  4.886900001997767E-005
  4.908634390872924E-005
  4.930147851885781E-005
  4.951437685022452E-005
  4.972501251444728E-005
  4.993335950478393E-005
  5.013939197519208E-005
  5.034308402842153E-005
  5.054440951305305E-005
  5.074334182938586E-005
  5.093985374404025E-005
  5.113391721330104E-005
  5.132550321503765E-005
  5.151458158885871E-005
  5.170112088556982E-005
  5.188508822425927E-005
  5.206644915734290E-005
  5.224516754616761E-005
  5.242120544128720E-005
  4.032277312978611E-005
  4.053303039374688E-005
  4.074534136551579E-005
  4.095945267643771E-005
  4.117512408602634E-005
  4.139212791233058E-005
  4.161024847605508E-005
  4.182928155850635E-005
  4.204903387346445E-005
  4.226932255298585E-005
  4.248997464710644E-005
  4.271082663735731E-005
  4.293172396403489E-005
  4.315252056695710E-005
  4.337307843969242E-005
  4.359326719690887E-005
  4.381296365474043E-005
  4.403205142384846E-005
  4.425042051500523E-005
  4.446796695686957E-005
  4.468459242578086E-005
  4.490020388720126E-005
  4.511471324865965E-005
  4.532803702384651E-005
  4.554009600764452E-005
  4.575081496185519E-005
  4.596012231135598E-005
  4.616794985047308E-005
  4.637423245935976E-005
  4.657890783014735E-005
  4.678191620269249E-005
  4.698320010973586E-005
  4.718270413128961E-005
  4.738037465810112E-005
  4.757615966404760E-005
  4.777000848732646E-005
  4.796187162030322E-005
  4.815170050791983E-005
  4.833944735455847E-005
  4.852506493925567E-005
  4.870850643918338E-005
  4.888972526133437E-005
  4.906867488230541E-005
  4.924530869615065E-005
  4.941957987032095E-005
  4.959144120933307E-005
  4.976084502651023E-005
  4.992774302375456E-005
  5.009208617849346E-005
  5.025382463936389E-005
  3.922905045822998E-005
  3.939813681176998E-005
  3.957036357419073E-005
  3.974545929922408E-005
  3.992316463056102E-005
  4.010323183515637E-005
  4.028542434510414E-005
  4.046951630839142E-005
  4.065529214879566E-005
  4.084254613507147E-005
  4.103108195963554E-005
  4.122071232679972E-005
  4.141125855074568E-005
  4.160255016312815E-005
  4.179442453051103E-005
  4.198672648146921E-005
  4.217930794345289E-005
  4.237202758930185E-005
  4.256475049335649E-005
  4.275734779712030E-005
  4.294969638434495E-005
  4.314167856547330E-005
  4.333318177131342E-005
  4.352409825584766E-005
  4.371432480806228E-005
  4.390376247265552E-005
  4.409231627956466E-005
  4.427989498212940E-005
  4.446641080383087E-005
  4.465177919345382E-005
  4.483591858860588E-005
  4.501875018744966E-005
  4.520019772856906E-005
  4.538018727887840E-005
  4.555864702946848E-005
  4.573550709933106E-005
  4.591069934684075E-005
  4.608415718897321E-005
  4.625581542815091E-005
  4.642561008666977E-005
  4.659347824865368E-005
  4.675935790945959E-005
  4.692318783252759E-005
  4.708490741359404E-005
  4.724445655221338E-005
  4.740177553064285E-005
  4.755680489995089E-005
  4.770948537331711E-005
  4.785975772671432E-005
  4.800756270653180E-005
  3.802758676359358E-005
  3.815942663877894E-005
  3.829524298638069E-005
  3.843475678360834E-005
  3.857769989805150E-005
  3.872381471550117E-005
  3.887285377240616E-005
  3.902457939338024E-005
  3.917876333406426E-005
  3.933518642964920E-005
  3.949363824933525E-005
  3.965391675691651E-005
  3.981582797777846E-005
  3.997918567236783E-005
  4.014381101637644E-005
  4.030953228769393E-005
  4.047618456029201E-005
  4.064360940505096E-005
  4.081165459764611E-005
  4.098017383353051E-005
  4.114902645000844E-005
  4.131807715546779E-005
  4.148719576575574E-005
  4.165625694768871E-005
  4.182513996971403E-005
  4.199372845967810E-005
  4.216191016968932E-005
  4.232957674806999E-005
  4.249662351833464E-005
  4.266294926517782E-005
  4.282845602745005E-005
  4.299304889806045E-005
  4.315663583079540E-005
  4.331912745398782E-005
  4.348043689104496E-005
  4.364047958776018E-005
  4.379917314638886E-005
  4.395643716646415E-005
  4.411219309233008E-005
  4.426636406730846E-005
  4.441887479457203E-005
  4.456965140459037E-005
  4.471862132920526E-005
  4.486571318227110E-005
  4.501085664686762E-005
  4.515398236904153E-005
  4.529502185806777E-005
  4.543390739325549E-005
  4.557057193719134E-005
  4.570494905553519E-005
  3.672250617016284E-005
  3.682118688143945E-005
  3.692445719218090E-005
  3.703203882941047E-005
  3.714366313796416E-005
  3.725907079276236E-005
  3.737801151267975E-005
  3.750024377655365E-005
  3.762553454164895E-005
  3.775365896495857E-005
  3.788440012763797E-005
  3.801754876287382E-005
  3.815290298744668E-005
  3.829026803726232E-005
  3.842945600704158E-005
  3.857028559434648E-005
  3.871258184818529E-005
  3.885617592229420E-005
  3.900090483328080E-005
  3.914661122372155E-005
  3.929314313033935E-005
  3.944035375738115E-005
  3.958810125522820E-005
  3.973624850437449E-005
  3.988466290478883E-005
  4.003321617074653E-005
  4.018178413115465E-005
  4.033024653543428E-005
  4.047848686498329E-005
  4.062639215023583E-005
  4.077385279336538E-005
  4.092076239663222E-005
  4.106701759639456E-005
  4.121251790280996E-005
  4.135716554521814E-005
  4.150086532321128E-005
  4.164352446343307E-005
  4.178505248205686E-005
  4.192536105299232E-005
  4.206436388179553E-005
  4.220197658529820E-005
  4.233811657694379E-005
  4.247270295785281E-005
  4.260565641357316E-005
  4.273689911657125E-005
  4.286635463441645E-005
  4.299394784367596E-005
  4.311960484951290E-005
  4.324325291098854E-005
  4.336482037205524E-005
  3.531900266145862E-005
  3.538863155111141E-005
  3.546326859829397E-005
  3.554264268525730E-005
  3.562649103211552E-005
  3.571455898273346E-005
  3.580659979008206E-005
  3.590237440151549E-005
  3.600165124433204E-005
  3.610420601198649E-005
  3.620982145132226E-005
  3.631828715112365E-005
  3.642939933229075E-005
  3.654296063989250E-005
  3.665877993744605E-005
  3.677667210351514E-005
  3.689645783098952E-005
  3.701796342916890E-005
  3.714102062887365E-005
  3.726546639074967E-005
  3.739114271690672E-005
  3.751789646609202E-005
  3.764557917246892E-005
  3.777404686817167E-005
  3.790315990973849E-005
  3.803278280850316E-005
  3.816278406508401E-005
  3.829303600800103E-005
  3.842341463656299E-005
  3.855379946803464E-005
  3.868407338920086E-005
  3.881412251234617E-005
  3.894383603572770E-005
  3.907310610858884E-005
  3.920182770075062E-005
  3.932989847681581E-005
  3.945721867504441E-005
  3.958369099090163E-005
  3.970922046534123E-005
  3.983371437782795E-005
  3.995708214413170E-005
  4.007923521890739E-005
  4.020008700308978E-005
  4.031955275611083E-005
  4.043754951296248E-005
  4.055399600609625E-005
  4.066881259220084E-005
  4.078192118381785E-005
  4.089324518585829E-005
  4.100270943696790E-005
  3.382304241526321E-005
  3.386763762208827E-005
  3.391749277647898E-005
  3.397234866092473E-005
  3.403195315571973E-005
  3.409606108782776E-005
  3.416443407761872E-005
  3.423684038395697E-005
  3.431305474794828E-005
  3.439285823578863E-005
  3.447603808096849E-005
  3.456238752623700E-005
  3.465170566560434E-005
  3.474379728664515E-005
  3.483847271342126E-005
  3.493554765025576E-005
  3.503484302662069E-005
  3.513618484332010E-005
  3.523940402025031E-005
  3.534433624588967E-005
  3.545082182871150E-005
  3.555870555070831E-005
  3.566783652319149E-005
  3.577806804500872E-005
  3.588925746332581E-005
  3.600126603711998E-005
  3.611395880348904E-005
  3.622720444690052E-005
  3.634087517149594E-005
  3.645484657653567E-005
  3.656899753509841E-005
  3.668321007609633E-005
  3.679736926970606E-005
  3.691136311627327E-005
  3.702508243879070E-005
  3.713842077895623E-005
  3.725127429693130E-005
  3.736354167481795E-005
  3.747512402390875E-005
  3.758592479575060E-005
  3.769584969708387E-005
  3.780480660866607E-005
  3.791270550801923E-005
  3.801945839616033E-005
  3.812497922828276E-005
  3.822918384845847E-005
  3.833198992836863E-005
  3.843331691004110E-005
  3.853308595265949E-005
  3.863121988340982E-005
  3.224109217507087E-005
  3.226450211882785E-005
  3.229328341520030E-005
  3.232719208443784E-005
  3.236599007740643E-005
  3.240944517720897E-005
  3.245733089760929E-005
  3.250942637868957E-005
  3.256551628005596E-005
  3.262539067200404E-005
  3.268884492485327E-005
  3.275567959691304E-005
  3.282570032127346E-005
  3.289871769174876E-005
  3.297454714823476E-005
  3.305300886175238E-005
  3.313392761942147E-005
  3.321713270956817E-005
  3.330245780723358E-005
  3.338974086027111E-005
  3.347882397621570E-005
  3.356955331014864E-005
  3.366177895371055E-005
  3.375535482542626E-005
  3.385013856252828E-005
  3.394599141439859E-005
  3.404277813778198E-005
  3.414036689390567E-005
  3.423862914762882E-005
  3.433743956872978E-005
  3.443667593545698E-005
  3.453621904042712E-005
  3.463595259898328E-005
  3.473576316009429E-005
  3.483554001988887E-005
  3.493517513787338E-005
  3.503456305596224E-005
  3.513360082031028E-005
  3.523218790609364E-005
  3.533022614521984E-005
  3.542761965707818E-005
  3.552427478233021E-005
  3.562010001981953E-005
  3.571500596661482E-005
  3.580890526122977E-005
  3.590171253004136E-005
  3.599334433693567E-005
  3.608371913619909E-005
  3.617275722865718E-005
  3.626038072109297E-005
  3.057987933140489E-005
  3.058572628565425E-005
  3.059694001953951E-005
  3.061329395825773E-005
  3.063456638487417E-005
  3.066054038524617E-005
  3.069100378907241E-005
  3.072574910745140E-005
  3.076457346724342E-005
  3.080727854259294E-005
  3.085367048388053E-005
  3.090355984442346E-005
  3.095676150520440E-005
  3.101309459789265E-005
  3.107238242642094E-005
  3.113445238737359E-005
  3.119913588941530E-005
  3.126626827199729E-005
  3.133568872354522E-005
  3.140724019936296E-005
  3.148076933942054E-005
  3.155612638623506E-005
  3.163316510301959E-005
  3.171174269227138E-005
  3.179171971495734E-005
  3.187296001046116E-005
  3.195533061743141E-005
  3.203870169567447E-005
  3.212294644921727E-005
  3.220794105067342E-005
  3.229356456702050E-005
  3.237969888690918E-005
  3.246622864959957E-005
  3.255304117563224E-005
  3.264002639931071E-005
  3.272707680310522E-005
  3.281408735403299E-005
  3.290095544210090E-005
  3.298758082088797E-005
  3.307386555031688E-005
  3.315971394167789E-005
  3.324503250495230E-005
  3.332972989851569E-005
  3.341371688119792E-005
  3.349690626681805E-005
  3.357921288115701E-005
  3.366055352143313E-005
  3.374084691830169E-005
  3.382001370037689E-005
  3.389797636129783E-005
  2.884618608623673E-005
  2.883782960215493E-005
  2.883474144381146E-005
  2.883671365478151E-005
  2.884354217091835E-005
  2.885502680001857E-005
  2.887097119724729E-005
  2.889118283663353E-005
  2.891547297895323E-005
  2.894365663626053E-005
  2.897555253336168E-005
  2.901098306648852E-005
  2.904977425947002E-005
  2.909175571757257E-005
  2.913676057933581E-005
  2.918462546659917E-005
  2.923519043291466E-005
  2.928829891062032E-005
  2.934379765673976E-005
  2.940153669792152E-005
  2.946136927459453E-005
  2.952315178454570E-005
  2.958674372607462E-005
  2.965200764090178E-005
  2.971880905698306E-005
  2.978701643139826E-005
  2.985650109342926E-005
  2.992713718800562E-005
  2.999880161961941E-005
  3.007137399683774E-005
  3.014473657755708E-005
  3.021877421506816E-005
  3.029337430508821E-005
  3.036842673381426E-005
  3.044382382712724E-005
  3.051946030100856E-005
  3.059523321328001E-005
  3.067104191672062E-005
  3.074678801363645E-005
  3.082237531197148E-005
  3.089770978298595E-005
  3.097269952058642E-005
  3.104725470234919E-005
  3.112128755227208E-005
  3.119471230531827E-005
  3.126744517375143E-005
  3.133940431533654E-005
  3.141050980338875E-005
  3.148068359871563E-005
  3.154984952345130E-005
  2.704667785556830E-005
  2.702719423865691E-005
  2.701280623626073E-005
  2.700332496373425E-005
  2.699856457616211E-005
  2.699834227515601E-005
  2.700247831128799E-005
  2.701079598241755E-005
  2.702312162816704E-005
  2.703928462083267E-005
  2.705911735292547E-005
  2.708245522163107E-005
  2.710913661039424E-005
  2.713900286786366E-005
  2.717189828440155E-005
  2.720767006639695E-005
  2.724616830855392E-005
  2.728724596438343E-005
  2.733075881506382E-005
  2.737656543687536E-005
  2.742452716736320E-005
  2.747450807043026E-005
  2.752637490048562E-005
  2.757999706584668E-005
  2.763524659150997E-005
  2.769199808146088E-005
  2.775012868065036E-005
  2.780951803677265E-005
  2.787004826197763E-005
  2.793160389462040E-005
  2.799407186118988E-005
  2.805734143850381E-005
  2.812130421628326E-005
  2.818585406020781E-005
  2.825088707553827E-005
  2.831630157139106E-005
  2.838199802576498E-005
  2.844787905137629E-005
  2.851384936237688E-005
  2.857981574204066E-005
  2.864568701145683E-005
  2.871137399929660E-005
  2.877678951270094E-005
  2.884184830934352E-005
  2.890646707069438E-005
  2.897056437654073E-005
  2.903406068076696E-005
  2.909687828844549E-005
  2.915894133424415E-005
  2.922017576217033E-005
  2.518776460675625E-005
  2.515993910116689E-005
  2.513697935478055E-005
  2.511871541827608E-005
  2.510497964325220E-005
  2.509560670954978E-005
  2.509043364822825E-005
  2.508929986046560E-005
  2.509204713254184E-005
  2.509851964718364E-005
  2.510856399147851E-005
  2.512202916151502E-005
  2.513876656403655E-005
  2.515863001522224E-005
  2.518147573687654E-005
  2.520716235013026E-005
  2.523555086689576E-005
  2.526650467923523E-005
  2.529988954680637E-005
  2.533557358255598E-005
  2.537342723683815E-005
  2.541332328008118E-005
  2.545513678419176E-005
  2.549874510280667E-005
  2.554402785055072E-005
  2.559086688143294E-005
  2.563914626651140E-005
  2.568875227093782E-005
  2.573957333051663E-005
  2.579150002788519E-005
  2.584442506842114E-005
  2.589824325599076E-005
  2.595285146861759E-005
  2.600814863418143E-005
  2.606403570623378E-005
  2.612041564001512E-005
  2.617719336873050E-005
  2.623427578019332E-005
  2.629157169387618E-005
  2.634899183845518E-005
  2.640644882988432E-005
  2.646385715007311E-005
  2.652113312621218E-005
  2.657819491078401E-005
  2.663496246230836E-005
  2.669135752684682E-005
  2.674730362031200E-005
  2.680272601158567E-005
  2.685755170648657E-005
  2.691170943258797E-005
  2.327549290828958E-005
  2.324182168737940E-005
  2.321274388461516E-005
  2.318810790664404E-005
  2.316776383290319E-005
  2.315156345778071E-005
  2.313936032860355E-005
  2.313100977966261E-005
  2.312636896243496E-005
  2.312529687221512E-005
  2.312765437133357E-005
  2.313330420913505E-005
  2.314211103890425E-005
  2.315394143190522E-005
  2.316866388871341E-005
  2.318614884797769E-005
  2.320626869281300E-005
  2.322889775494410E-005
  2.325391231677510E-005
  2.328119061152390E-005
  2.331061282155764E-005
  2.334206107509059E-005
  2.337541944135474E-005
  2.341057392437941E-005
  2.344741245552813E-005
  2.348582488487946E-005
  2.352570297159279E-005
  2.356694037336306E-005
  2.360943263508038E-005
  2.365307717678840E-005
  2.369777328104364E-005
  2.374342207977510E-005
  2.378992654074560E-005
  2.383719145366362E-005
  2.388512341607652E-005
  2.393363081908989E-005
  2.398262383299549E-005
  2.403201439287966E-005
  2.408171618427203E-005
  2.413164462890336E-005
  2.418171687060877E-005
  2.423185176146684E-005
  2.428196984815785E-005
  2.433199335866117E-005
  2.438184618926098E-005
  2.443145389193042E-005
  2.448074366212730E-005
  2.452964432699656E-005
  2.457808633401756E-005
  2.462600174011967E-005
  2.131546593674500E-005
  2.127816541977953E-005
  2.124515581762429E-005
  2.121630299558653E-005
  2.119147396858242E-005
  2.117053695334954E-005
  2.115336141675307E-005
  2.113981812032126E-005
  2.112977916118188E-005
  2.112311800956188E-005
  2.111970954298322E-005
  2.111943007735184E-005
  2.112215739502865E-005
  2.112777077009670E-005
  2.113615099090593E-005
  2.114718038008274E-005
  2.116074281213006E-005
  2.117672372872949E-005
  2.119501015193035E-005
  2.121549069528551E-005
  2.123805557312021E-005
  2.126259660803385E-005
  2.128900723673367E-005
  2.131718251434305E-005
  2.134701911729273E-005
  2.137841534488167E-005
  2.141127111964340E-005
  2.144548798658650E-005
  2.148096911143659E-005
  2.151761927794436E-005
  2.155534488437068E-005
  2.159405393924107E-005
  2.163365605640509E-005
  2.167406244955006E-005
  2.171518592618385E-005
  2.175694088118130E-005
  2.179924328997290E-005
  2.184201070141554E-005
  2.188516223041208E-005
  2.192861855034969E-005
  2.197230188538731E-005
  2.201613600265823E-005
  2.206004620440994E-005
  2.210395932014149E-005
  2.214780369876204E-005
  2.219150920080900E-005
  2.223500719073830E-005
  2.227823052932740E-005
  2.232111356620384E-005
  2.236359213249880E-005
  1.931278843014023E-005
  1.927380983493419E-005
  1.923879964016296E-005
  1.920764005907442E-005
  1.918021402883321E-005
  1.915640526880260E-005
  1.913609833523762E-005
  1.911917867247749E-005
  1.910553266079986E-005
  1.909504766104800E-005
  1.908761205615415E-005
  1.908311528970937E-005
  1.908144790169864E-005
  1.908250156149091E-005
  1.908616909826842E-005
  1.909234452895123E-005
  1.910092308378499E-005
  1.911180122966888E-005
  1.912487669137412E-005
  1.914004847071392E-005
  1.915721686383574E-005
  1.917628347667953E-005
  1.919715123875125E-005
  1.921972441528824E-005
  1.924390861790701E-005
  1.926961081386630E-005
  1.929673933398602E-005
  1.932520387933983E-005
  1.935491552681360E-005
  1.938578673359831E-005
  1.941773134067646E-005
  1.945066457544082E-005
  1.948450305344362E-005
  1.951916477940719E-005
  1.955456914751252E-005
  1.959063694108113E-005
  1.962729033166291E-005
  1.966445287761959E-005
  1.970204952222827E-005
  1.974000659139414E-005
  1.977825179097822E-005
  1.981671420380673E-005
  1.985532428639436E-005
  1.989401386542481E-005
  1.993271613400583E-005
  1.997136564774477E-005
  2.000989832064888E-005
  2.004825142089824E-005
  2.008636356648568E-005
  2.012417472074464E-005
  1.727203351959631E-005
  1.723308091447614E-005
  1.719776235132171E-005
  1.716597515336382E-005
  1.713761703101193E-005
  1.711258614297235E-005
  1.709078115410425E-005
  1.707210129010255E-005
  1.705644638911216E-005
  1.704371695036861E-005
  1.703381418001565E-005
  1.702664003413443E-005
  1.702209725914293E-005
  1.702008942965352E-005
  1.702052098386992E-005
  1.702329725665178E-005
  1.702832451032022E-005
  1.703550996332726E-005
  1.704476181686451E-005
  1.705598927949143E-005
  1.706910258993474E-005
  1.708401303806671E-005
  1.710063298420363E-005
  1.711887587682148E-005
  1.713865626870277E-005
  1.715988983168664E-005
  1.718249337002305E-005
  1.720638483245620E-005
  1.723148332309640E-005
  1.725770911114060E-005
  1.728498363953618E-005
  1.731322953262929E-005
  1.734237060287750E-005
  1.737233185668533E-005
  1.740303949941496E-005
  1.743442093963609E-005
  1.746640479266236E-005
  1.749892088343024E-005
  1.753190024876616E-005
  1.756527513907163E-005
  1.759897901949806E-005
  1.763294657062389E-005
  1.766711368867260E-005
  1.770141748532206E-005
  1.773579628710760E-005
  1.777018963446924E-005
  1.780453828044690E-005
  1.783878418905432E-005
  1.787287053334430E-005
  1.790674169317099E-005
  1.519722845348014E-005
  1.515977888659689E-005
  1.512562354181917E-005
  1.509467355696601E-005
  1.506684020026420E-005
  1.504203493169050E-005
  1.502016946141177E-005
  1.500115580535477E-005
  1.498490633802908E-005
  1.497133384266111E-005
  1.496035155874362E-005
  1.495187322707790E-005
  1.494581313236493E-005
  1.494208614349342E-005
  1.494060775152848E-005
  1.494129410555357E-005
  1.494406204638909E-005
  1.494882913831162E-005
  1.495551369883052E-005
  1.496403482659671E-005
  1.497431242754030E-005
  1.498626723928665E-005
  1.499982085395172E-005
  1.501489573936472E-005
  1.503141525880515E-005
  1.504930368931204E-005
  1.506848623865097E-005
  1.508888906097289E-005
  1.511043927126187E-005
  1.513306495861266E-005
  1.515669519840651E-005
  1.518126006343689E-005
  1.520669063404165E-005
  1.523291900730545E-005
  1.525987830536125E-005
  1.528750268287139E-005
  1.531572733368996E-005
  1.534448849680623E-005
  1.537372346155469E-005
  1.540337057217210E-005
  1.543336923172271E-005
  1.546365990541274E-005
  1.549418412334978E-005
  1.552488448276210E-005
  1.555570464970233E-005
  1.558658936025928E-005
  1.561748442131073E-005
  1.564833671081395E-005
  1.567909417765731E-005
  1.570970584110476E-005
  1.309185640568224E-005
  1.305718096510709E-005
  1.302545926588868E-005
  1.299661496326104E-005
  1.297057165699106E-005
  1.294725295091025E-005
  1.292658250985424E-005
  1.290848411407312E-005
  1.289288171121451E-005
  1.287969946587517E-005
  1.286886180689173E-005
  1.286029347231366E-005
  1.285391955223189E-005
  1.284966552946598E-005
  1.284745731820019E-005
  1.284722130063812E-005
  1.284888436172343E-005
  1.285237392201462E-005
  1.285761796876103E-005
  1.286454508524779E-005
  1.287308447848508E-005
  1.288316600528942E-005
  1.289472019682794E-005
  1.290767828167419E-005
  1.292197220744878E-005
  1.293753466110171E-005
  1.295429908787114E-005
  1.297219970901128E-005
  1.299117153830247E-005
  1.301115039743608E-005
  1.303207293028358E-005
  1.305387661613575E-005
  1.307649978193362E-005
  1.309988161355369E-005
  1.312396216617463E-005
  1.314868237378522E-005
  1.317398405785962E-005
  1.319980993524104E-005
  1.322610362527830E-005
  1.325280965623060E-005
  1.327987347099999E-005
  1.330724143218733E-005
  1.333486082652548E-005
  1.336267986870625E-005
  1.339064770462236E-005
  1.341871441404163E-005
  1.344683101273418E-005
  1.347494945408131E-005
  1.350302263015332E-005
  1.353100437228566E-005
  1.095887179863438E-005
  1.092805669347111E-005
  1.089985760318913E-005
  1.087420944505041E-005
  1.085104695706984E-005
  1.083030475411254E-005
  1.081191738174190E-005
  1.079581936786152E-005
  1.078194527220229E-005
  1.077022973372615E-005
  1.076060751595197E-005
  1.075301355031073E-005
  1.074738297753743E-005
  1.074365118718201E-005
  1.074175385526967E-005
  1.074162698019314E-005
  1.074320691685463E-005
  1.074643040912986E-005
  1.075123462072008E-005
  1.075755716440214E-005
  1.076533612978131E-005
  1.077451010954670E-005
  1.078501822433159E-005
  1.079680014616838E-005
  1.080979612064970E-005
  1.082394698779778E-005
  1.083919420170460E-005
  1.085547984899803E-005
  1.087274666616353E-005
  1.089093805577693E-005
  1.090999810167933E-005
  1.092987158314730E-005
  1.095050398809117E-005
  1.097184152532809E-005
  1.099383113594525E-005
  1.101642050381764E-005
  1.103955806529698E-005
  1.106319301810966E-005
  1.108727532948977E-005
  1.111175574357617E-005
  1.113658578811447E-005
  1.116171778046724E-005
  1.118710483297381E-005
  1.121270085767778E-005
  1.123846057042747E-005
  1.126433949439328E-005
  1.129029396299642E-005
  1.131628112226481E-005
  1.134225893264692E-005
  1.136818617026190E-005
  8.800726846334951E-006
  8.774693799239794E-006
  8.750944011301020E-006
  8.729422481721742E-006
  8.710073960368284E-006
  8.692842999226354E-006
  8.677674001917339E-006
  8.664511271330516E-006
  8.653299055360265E-006
  8.643981590854695E-006
  8.636503145750307E-006
  8.630808059477577E-006
  8.626840781654580E-006
  8.624545909123889E-006
  8.623868221361930E-006
  8.624752714317407E-006
  8.627144632694868E-006
  8.630989500765196E-006
  8.636233151709200E-006
  8.642821755548119E-006
  8.650701845718280E-006
  8.659820344300749E-006
  8.670124585974771E-006
  8.681562340720139E-006
  8.694081835313969E-006
  8.707631773663569E-006
  8.722161356005636E-006
  8.737620297021026E-006
  8.753958842887742E-006
  8.771127787329451E-006
  8.789078486673134E-006
  8.807762873960043E-006
  8.827133472150174E-006
  8.847143406444836E-006
  8.867746415745948E-006
  8.888896863316927E-006
  8.910549746628633E-006
  8.932660706466860E-006
  8.955186035272743E-006
  8.978082684798571E-006
  9.001308273054684E-006
  9.024821090596038E-006
  9.048580106150564E-006
  9.072544971638784E-006
  9.096676026558687E-006
  9.120934301784379E-006
  9.145281522785875E-006
  9.169680112267664E-006
  9.194093192253712E-006
  9.218484585623306E-006
  6.619407313254872E-006
  6.598932720792922E-006
  6.580414793653742E-006
  6.563807533449245E-006
  6.549064668229990E-006
  6.536139698402739E-006
  6.524985940995008E-006
  6.515556572295854E-006
  6.507804668915660E-006
  6.501683247271780E-006
  6.497145301548552E-006
  6.494143840148498E-006
  6.492631920677483E-006
  6.492562683489054E-006
  6.493889383818040E-006
  6.496565422545165E-006
  6.500544375618755E-006
  6.505780022164166E-006
  6.512226371329845E-006
  6.519837687882332E-006
  6.528568516591329E-006
  6.538373705457187E-006
  6.549208427777586E-006
  6.561028203117330E-006
  6.573788917198746E-006
  6.587446840750401E-006
  6.601958647339791E-006
  6.617281430233597E-006
  6.633372718294029E-006
  6.650190490965949E-006
  6.667693192376876E-006
  6.685839744548269E-006
  6.704589559810766E-006
  6.723902552376287E-006
  6.743739149150840E-006
  6.764060299771290E-006
  6.784827485930498E-006
  6.806002729973781E-006
  6.827548602812057E-006
  6.849428231176084E-006
  6.871605304208091E-006
  6.894044079435859E-006
  6.916709388133082E-006
  6.939566640068553E-006
  6.962581827706294E-006
  6.985721529801006E-006
  7.008952914459654E-006
  7.032243741655624E-006
  7.055562365197034E-006
  7.078877734182263E-006
  4.416475776665866E-006
  4.402208228814389E-006
  4.389577238539153E-006
  4.378544849570518E-006
  4.369072846533000E-006
  4.361122794650564E-006
  4.354656078061896E-006
  4.349633936786733E-006
  4.346017502334795E-006
  4.343767832017963E-006
  4.342845941945399E-006
  4.343212838759923E-006
  4.344829550116954E-006
  4.347657153947672E-006
  4.351656806516553E-006
  4.356789769304408E-006
  4.363017434750613E-006
  4.370301350861818E-006
  4.378603244746169E-006
  4.387885045052170E-006
  4.398108903389811E-006
  4.409237214711944E-006
  4.421232636740515E-006
  4.434058108389227E-006
  4.447676867283349E-006
  4.462052466351241E-006
  4.477148789533010E-006
  4.492930066640216E-006
  4.509360887373030E-006
  4.526406214513307E-006
  4.544031396365446E-006
  4.562202178398678E-006
  4.580884714176553E-006
  4.600045575549155E-006
  4.619651762159896E-006
  4.639670710267698E-006
  4.660070300932047E-006
  4.680818867535504E-006
  4.701885202698136E-006
  4.723238564608385E-006
  4.744848682740557E-006
  4.766685763019947E-006
  4.788720492437852E-006
  4.810924043112210E-006
  4.833268075826330E-006
  4.855724743062559E-006
  4.878266691510796E-006
  4.900867064093849E-006
  4.923499501502314E-006
  4.946138143241940E-006
  2.193120961519054E-006
  2.185596818660621E-006
  2.179395211947586E-006
  2.174485399797901E-006
  2.170836428100348E-006
  2.168417163203889E-006
  2.167196323788554E-006
  2.167142511605937E-006
  2.168224241121132E-006
  2.170409968043425E-006
  2.173668116809873E-006
  2.177967106983961E-006
  2.183275378643644E-006
  2.189561416726276E-006
  2.196793774387606E-006
  2.204941095386734E-006
  2.213972135488800E-006
  2.223855782949543E-006
  2.234561078080633E-006
  2.246057231903503E-006
  2.258313643937569E-006
  2.271299919139295E-006
  2.284985883990943E-006
  2.299341601794886E-006
  2.314337387158336E-006
  2.329943819723578E-006
  2.346131757136781E-006
  2.362872347297583E-006
  2.380137039887052E-006
  2.397897597210078E-006
  2.416126104377439E-006
  2.434794978826280E-006
  2.453876979201111E-006
  2.473345213645195E-006
  2.493173147466093E-006
  2.513334610243525E-006
  2.533803802360346E-006
  2.554555300990191E-006
  2.575564065560418E-006
  2.596805442680374E-006
  2.618255170584746E-006
  2.639889383073860E-006
  2.661684612973556E-006
  2.683617795146240E-006
  2.705666269020200E-006
  2.727807780692170E-006
  2.750020484591528E-006
  2.772282944702574E-006
  2.794574135378563E-006
  2.816873441739724E-006
 -4.978801974002509E-008
 -5.013121156698375E-008
 -4.946079801558192E-008
 -4.780099070916050E-008
 -4.517614110133287E-008
 -4.161071451885785E-008
 -3.712926513980260E-008
 -3.175641185461849E-008
 -2.551681503386617E-008
 -1.843515417064291E-008
 -1.053610639623687E-008
 -1.844325830742506E-009
  7.615576194621229E-009
  1.781905013175437E-008
  2.874162636742635E-008
  4.035893259872012E-008
  5.264671043691642E-008
  6.558083122867630E-008
  7.913731116002557E-008
  9.329232561056417E-008
  1.080222228112459E-007
  1.233035368003020E-007
  1.391129997099770E-007
  1.554275533798600E-007
  1.722243603360741E-007
  1.894808141512102E-007
  2.071745491746336E-007
  2.252834496868828E-007
  2.437856584586399E-007
  2.626595847729101E-007
  2.818839118731548E-007
  3.014376039043362E-007
  3.212999123239662E-007
  3.414503818144215E-007
  3.618688557156837E-007
  3.825354809812281E-007
  4.034307126751852E-007
  4.245353180149395E-007
  4.458303800009069E-007
  4.672973006039863E-007
  4.889178035561589E-007
  5.106739367333155E-007
  5.325480741557275E-007
  5.545229176106624E-007
  5.765814978987891E-007
  5.987071757259915E-007
  6.208836422382836E-007
  6.430949192142161E-007
  6.653253589159072E-007
  6.875596436118225E-007
 -2.311643451193096E-006
 -2.304455864687400E-006
 -2.296559990010679E-006
 -2.287974043756613E-006
 -2.278716288925730E-006
 -2.268805016305815E-006
 -2.258258526543591E-006
 -2.247095112946661E-006
 -2.235333044949966E-006
 -2.222990552282605E-006
 -2.210085809798829E-006
 -2.196636922976690E-006
 -2.182661914053978E-006
 -2.168178708815819E-006
 -2.153205123997655E-006
 -2.137758855300992E-006
 -2.121857466008771E-006
 -2.105518376196702E-006
 -2.088758852501279E-006
 -2.071595998461221E-006
 -2.054046745400462E-006
 -2.036127843849612E-006
 -2.017855855475211E-006
 -1.999247145527203E-006
 -1.980317875778436E-006
 -1.961083997940029E-006
 -1.941561247545246E-006
 -1.921765138284141E-006
 -1.901710956787163E-006
 -1.881413757827391E-006
 -1.860888359941400E-006
 -1.840149341455785E-006
 -1.819211036903096E-006
 -1.798087533818727E-006
 -1.776792669897539E-006
 -1.755340030521246E-006
 -1.733742946614603E-006
 -1.712014492848984E-006
 -1.690167486171862E-006
 -1.668214484631088E-006
 -1.646167786540620E-006
 -1.624039429900377E-006
 -1.601841192138034E-006
 -1.579584590110439E-006
 -1.557280880384163E-006
 -1.534941059781947E-006
 -1.512575866171207E-006
 -1.490195779532439E-006
 -1.467811023235956E-006
 -1.445431565587343E-006
 -4.592037539742295E-006
 -4.577048404901601E-006
 -4.561654541571402E-006
 -4.545868551071718E-006
 -4.529702972013064E-006
 -4.513170269195802E-006
 -4.496282823037262E-006
 -4.479052919519896E-006
 -4.461492740627346E-006
 -4.443614355286501E-006
 -4.425429710798756E-006
 -4.406950624738431E-006
 -4.388188777325488E-006
 -4.369155704253325E-006
 -4.349862789960359E-006
 -4.330321261342997E-006
 -4.310542181889102E-006
 -4.290536446237215E-006
 -4.270314775127043E-006
 -4.249887710749663E-006
 -4.229265612492124E-006
 -4.208458653034745E-006
 -4.187476814823702E-006
 -4.166329886902738E-006
 -4.145027462063644E-006
 -4.123578934344251E-006
 -4.101993496847063E-006
 -4.080280139860214E-006
 -4.058447649276732E-006
 -4.036504605316837E-006
 -4.014459381515760E-006
 -3.992320143989682E-006
 -3.970094850960049E-006
 -3.947791252528366E-006
 -3.925416890699485E-006
 -3.902979099628980E-006
 -3.880485006101338E-006
 -3.857941530223249E-006
 -3.835355386325716E-006
 -3.812733084061479E-006
 -3.790080929706162E-006
 -3.767405027629784E-006
 -3.744711281956877E-006
 -3.722005398393808E-006
 -3.699292886219249E-006
 -3.676579060440844E-006
 -3.653869044081704E-006
 -3.631167770639783E-006
 -3.608479986675513E-006
 -3.585810254532603E-006
 -6.890698223500152E-006
 -6.867709686141217E-006
 -6.844620364491371E-006
 -6.821437464935368E-006
 -6.798168010993151E-006
 -6.774818839928618E-006
 -6.751396599723812E-006
 -6.727907746368448E-006
 -6.704358541477091E-006
 -6.680755050228553E-006
 -6.657103139595443E-006
 -6.633408476886839E-006
 -6.609676528585195E-006
 -6.585912559431918E-006
 -6.562121631822991E-006
 -6.538308605443509E-006
 -6.514478137171242E-006
 -6.490634681211037E-006
 -6.466782489475186E-006
 -6.442925612201255E-006
 -6.419067898768161E-006
 -6.395212998747463E-006
 -6.371364363139766E-006
 -6.347525245811843E-006
 -6.323698705135536E-006
 -6.299887605776253E-006
 -6.276094620680459E-006
 -6.252322233207490E-006
 -6.228572739429875E-006
 -6.204848250567469E-006
 -6.181150695580064E-006
 -6.157481823869865E-006
 -6.133843208135383E-006
 -6.110236247320014E-006
 -6.086662169687938E-006
 -6.063122036002473E-006
 -6.039616742795373E-006
 -6.016147025733982E-006
 -5.992713463077934E-006
 -5.969316479201081E-006
 -5.945956348200567E-006
 -5.922633197565585E-006
 -5.899347011913328E-006
 -5.876097636769063E-006
 -5.852884782410585E-006
 -5.829708027748514E-006
 -5.806566824247856E-006
 -5.783460499886153E-006
 -5.760388263134734E-006
 -5.737349206974521E-006
 -9.207422657169260E-006
 -9.176306226022460E-006
 -9.145395681566523E-006
 -9.114692892432318E-006
 -9.084199417653609E-006
 -9.053916511187970E-006
 -9.023845126585936E-006
 -8.993985921819432E-006
 -8.964339264257962E-006
 -8.934905235773520E-006
 -8.905683637972938E-006
 -8.876673997565500E-006
 -8.847875571823781E-006
 -8.819287354157233E-006
 -8.790908079787671E-006
 -8.762736231506544E-006
 -8.734770045510104E-006
 -8.707007517330528E-006
 -8.679446407811462E-006
 -8.652084249157712E-006
 -8.624918351041946E-006
 -8.597945806748996E-006
 -8.571163499373977E-006
 -8.544568108051856E-006
 -8.518156114207262E-006
 -8.491923807854616E-006
 -8.465867293886798E-006
 -8.439982498392615E-006
 -8.414265174984694E-006
 -8.388710911116098E-006
 -8.363315134404145E-006
 -8.338073118944797E-006
 -8.312979991606786E-006
 -8.288030738314747E-006
 -8.263220210310594E-006
 -8.238543130368618E-006
 -8.213994099004079E-006
 -8.189567600632381E-006
 -8.165258009669071E-006
 -8.141059596615415E-006
 -8.116966534072885E-006
 -8.092972902702065E-006
 -8.069072697124840E-006
 -8.045259831761799E-006
 -8.021528146606137E-006
 -7.997871412908945E-006
 -7.974283338804118E-006
 -7.950757574837894E-006
 -7.927287719416509E-006
 -7.903867324157282E-006
 -1.154200865962813E-005
 -1.150270430208065E-005
 -1.146391769000028E-005
 -1.142564524470132E-005
 -1.138788294903307E-005
 -1.135062635995732E-005
 -1.131387062110040E-005
 -1.127761047527036E-005
 -1.124184027696016E-005
 -1.120655400477477E-005
 -1.117174527383571E-005
 -1.113740734810394E-005
 -1.110353315264062E-005
 -1.107011528579722E-005
 -1.103714603131949E-005
 -1.100461737036700E-005
 -1.097252099343567E-005
 -1.094084831219034E-005
 -1.090959047118095E-005
 -1.087873835946036E-005
 -1.084828262207375E-005
 -1.081821367145896E-005
 -1.078852169868662E-005
 -1.075919668460080E-005
 -1.073022841081767E-005
 -1.070160647059771E-005
 -1.067332027956655E-005
 -1.064535908631154E-005
 -1.061771198282361E-005
 -1.059036791478875E-005
 -1.056331569173500E-005
 -1.053654399703249E-005
 -1.051004139772235E-005
 -1.048379635418869E-005
 -1.045779722968365E-005
 -1.043203229966881E-005
 -1.040648976099860E-005
 -1.038115774093397E-005
 -1.035602430597602E-005
 -1.033107747053272E-005
 -1.030630520539353E-005
 -1.028169544603801E-005
 -1.025723610074779E-005
 -1.023291505853024E-005
 -1.020872019685697E-005
 -1.018463938919930E-005
 -1.016066051237375E-005
 -1.013677145367169E-005
 -1.011296011779696E-005
 -1.008921443357648E-005
 -1.389418433557750E-005
 -1.384670227926608E-005
 -1.380005751457741E-005
 -1.375424073565741E-005
 -1.370924207165788E-005
 -1.366505110754182E-005
 -1.362165690466677E-005
 -1.357904802117690E-005
 -1.353721253213486E-005
 -1.349613804945392E-005
 -1.345581174156244E-005
 -1.341622035282661E-005
 -1.337735022273133E-005
 -1.333918730477835E-005
 -1.330171718513576E-005
 -1.326492510100746E-005
 -1.322879595873349E-005
 -1.319331435160203E-005
 -1.315846457738872E-005
 -1.312423065561302E-005
 -1.309059634448932E-005
 -1.305754515761091E-005
 -1.302506038031868E-005
 -1.299312508579491E-005
 -1.296172215084984E-005
 -1.293083427141047E-005
 -1.290044397772507E-005
 -1.287053364924590E-005
 -1.284108552923319E-005
 -1.281208173904354E-005
 -1.278350429212611E-005
 -1.275533510770894E-005
 -1.272755602419404E-005
 -1.270014881223335E-005
 -1.267309518751492E-005
 -1.264637682323711E-005
 -1.261997536227789E-005
 -1.259387242906598E-005
 -1.256804964112896E-005
 -1.254248862035502E-005
 -1.251717100392164E-005
 -1.249207845493886E-005
 -1.246719267275567E-005
 -1.244249540296878E-005
 -1.241796844711101E-005
 -1.239359367201338E-005
 -1.236935301886045E-005
 -1.234522851190421E-005
 -1.232120226685959E-005
 -1.229725649896558E-005
 -1.626353604708167E-005
 -1.620796134439136E-005
 -1.615355362319315E-005
 -1.610029739670999E-005
 -1.604817649370009E-005
 -1.599717408764382E-005
 -1.594727272553026E-005
 -1.589845435621904E-005
 -1.585070035836661E-005
 -1.580399156793033E-005
 -1.575830830521975E-005
 -1.571363040149578E-005
 -1.566993722513656E-005
 -1.562720770731368E-005
 -1.558542036724154E-005
 -1.554455333693741E-005
 -1.550458438552992E-005
 -1.546549094309166E-005
 -1.542725012400914E-005
 -1.538983874987883E-005
 -1.535323337193479E-005
 -1.531741029301278E-005
 -1.528234558903528E-005
 -1.524801513003363E-005
 -1.521439460070895E-005
 -1.518145952052028E-005
 -1.514918526331167E-005
 -1.511754707647264E-005
 -1.508652009965706E-005
 -1.505607938301642E-005
 -1.502619990499923E-005
 -1.499685658969140E-005
 -1.496802432369428E-005
 -1.493967797257044E-005
 -1.491179239682804E-005
 -1.488434246746730E-005
 -1.485730308107536E-005
 -1.483064917448718E-005
 -1.480435573899660E-005
 -1.477839783413303E-005
 -1.475275060099667E-005
 -1.472738927514865E-005
 -1.470228919906362E-005
 -1.467742583415382E-005
 -1.465277477233266E-005
 -1.462831174715490E-005
 -1.460401264449364E-005
 -1.457985351278690E-005
 -1.455581057283325E-005
 -1.453186022711993E-005
 -1.864943491264674E-005
 -1.858593482513782E-005
 -1.852394387904450E-005
 -1.846343977556851E-005
 -1.840439942411344E-005
 -1.834679898001393E-005
 -1.829061388162219E-005
 -1.823581888675736E-005
 -1.818238810850579E-005
 -1.813029505035963E-005
 -1.807951264069888E-005
 -1.803001326662030E-005
 -1.798176880707527E-005
 -1.793475066536861E-005
 -1.788892980095822E-005
 -1.784427676061884E-005
 -1.780076170890499E-005
 -1.775835445796543E-005
 -1.771702449669659E-005
 -1.767674101921073E-005
 -1.763747295266904E-005
 -1.759918898444492E-005
 -1.756185758863302E-005
 -1.752544705192453E-005
 -1.748992549882329E-005
 -1.745526091622614E-005
 -1.742142117738080E-005
 -1.738837406519821E-005
 -1.735608729495751E-005
 -1.732452853637965E-005
 -1.729366543509529E-005
 -1.726346563350701E-005
 -1.723389679103878E-005
 -1.720492660380153E-005
 -1.717652282365427E-005
 -1.714865327668626E-005
 -1.712128588110557E-005
 -1.709438866456686E-005
 -1.706792978089452E-005
 -1.704187752626011E-005
 -1.701620035477946E-005
 -1.699086689353385E-005
 -1.696584595704597E-005
 -1.694110656116935E-005
 -1.691661793643538E-005
 -1.689234954081846E-005
 -1.686827107195284E-005
 -1.684435247877058E-005
 -1.682056397258641E-005
 -1.679687603759852E-005
 -2.105096205233495E-005
 -2.097979630894538E-005
 -2.091049643860307E-005
 -2.084303251908409E-005
 -2.077737374678779E-005
 -2.071348848309447E-005
 -2.065134429982464E-005
 -2.059090802382315E-005
 -2.053214578064145E-005
 -2.047502303733722E-005
 -2.041950464434735E-005
 -2.036555487650171E-005
 -2.031313747310905E-005
 -2.026221567715379E-005
 -2.021275227361079E-005
 -2.016470962686172E-005
 -2.011804971722373E-005
 -2.007273417660206E-005
 -2.002872432328598E-005
 -1.998598119583525E-005
 -1.994446558615840E-005
 -1.990413807169918E-005
 -1.986495904679776E-005
 -1.982688875321566E-005
 -1.978988730982765E-005
 -1.975391474149801E-005
 -1.971893100715246E-005
 -1.968489602704108E-005
 -1.965176970922448E-005
 -1.961951197526437E-005
 -1.958808278515497E-005
 -1.955744216148235E-005
 -1.952755021283251E-005
 -1.949836715646281E-005
 -1.946985334021872E-005
 -1.944196926373786E-005
 -1.941467559892867E-005
 -1.938793320972522E-005
 -1.936170317115349E-005
 -1.933594678767604E-005
 -1.931062561084966E-005
 -1.928570145630170E-005
 -1.926113641999927E-005
 -1.923689289385025E-005
 -1.921293358061924E-005
 -1.918922150815942E-005
 -1.916572004297791E-005
 -1.914239290310436E-005
 -1.911920417029762E-005
 -1.909611830156111E-005
 -2.346683287736566E-005
 -2.338836685134266E-005
 -2.331213977286433E-005
 -2.323811310267050E-005
 -2.316624735455427E-005
 -2.309650215035017E-005
 -2.302883627376219E-005
 -2.296320772303362E-005
 -2.289957376245486E-005
 -2.283789097270243E-005
 -2.277811530001728E-005
 -2.272020210423486E-005
 -2.266410620567080E-005
 -2.260978193084047E-005
 -2.255718315707296E-005
 -2.250626335598316E-005
 -2.245697563582879E-005
 -2.240927278276122E-005
 -2.236310730099216E-005
 -2.231843145185950E-005
 -2.227519729184339E-005
 -2.223335670951479E-005
 -2.219286146143756E-005
 -2.215366320704877E-005
 -2.211571354252204E-005
 -2.207896403362026E-005
 -2.204336624757380E-005
 -2.200887178397912E-005
 -2.197543230473575E-005
 -2.194299956304709E-005
 -2.191152543147662E-005
 -2.188096192910578E-005
 -2.185126124776584E-005
 -2.182237577739932E-005
 -2.179425813052937E-005
 -2.176686116587006E-005
 -2.174013801107705E-005
 -2.171404208465777E-005
 -2.168852711704456E-005
 -2.166354717084515E-005
 -2.163905666027838E-005
 -2.161501036979820E-005
 -2.159136347192027E-005
 -2.156807154424808E-005
 -2.154509058571354E-005
 -2.152237703202589E-005
 -2.149988777034104E-005
 -2.147758015314080E-005
 -2.145541201133998E-005
 -2.143334166659251E-005
 -2.589532084300383E-005
 -2.581004167449332E-005
 -2.572739219171172E-005
 -2.564732406244200E-005
 -2.556978797296034E-005
 -2.549473369156344E-005
 -2.542211013062975E-005
 -2.535186540719855E-005
 -2.528394690209365E-005
 -2.521830131758783E-005
 -2.515487473362057E-005
 -2.509361266257708E-005
 -2.503446010265986E-005
 -2.497736158982069E-005
 -2.492226124832435E-005
 -2.486910283992361E-005
 -2.481782981166809E-005
 -2.476838534236769E-005
 -2.472071238773557E-005
 -2.467475372421464E-005
 -2.463045199152344E-005
 -2.458774973391932E-005
 -2.454658944022586E-005
 -2.450691358262387E-005
 -2.446866465422882E-005
 -2.443178520549897E-005
 -2.439621787944796E-005
 -2.436190544573179E-005
 -2.432879083360252E-005
 -2.429681716374689E-005
 -2.426592777905277E-005
 -2.423606627428858E-005
 -2.420717652475111E-005
 -2.417920271386288E-005
 -2.415208935978068E-005
 -2.412578134097388E-005
 -2.410022392085502E-005
 -2.407536277141455E-005
 -2.405114399593421E-005
 -2.402751415072896E-005
 -2.400442026599352E-005
 -2.398180986570860E-005
 -2.395963098665856E-005
 -2.393783219654950E-005
 -2.391636261123286E-005
 -2.389517191105138E-005
 -2.387421035629804E-005
 -2.385342880181996E-005
 -2.383277871072900E-005
 -2.381221216723986E-005
 -2.833418124405634E-005
 -2.824271690514511E-005
 -2.815429138772825E-005
 -2.806884521100763E-005
 -2.798631791704149E-005
 -2.790664814252408E-005
 -2.782977368873983E-005
 -2.775563158973117E-005
 -2.768415817865208E-005
 -2.761528915234215E-005
 -2.754895963414439E-005
 -2.748510423498882E-005
 -2.742365711273209E-005
 -2.736455202983456E-005
 -2.730772240932808E-005
 -2.725310138915497E-005
 -2.720062187487846E-005
 -2.715021659079701E-005
 -2.710181812947238E-005
 -2.705535899973455E-005
 -2.701077167315889E-005
 -2.696798862905343E-005
 -2.692694239799305E-005
 -2.688756560391105E-005
 -2.684979100480180E-005
 -2.681355153203383E-005
 -2.677878032832108E-005
 -2.674541078438143E-005
 -2.671337657429785E-005
 -2.668261168960033E-005
 -2.665305047214255E-005
 -2.662462764572932E-005
 -2.659727834658527E-005
 -2.657093815263603E-005
 -2.654554311167235E-005
 -2.652102976837871E-005
 -2.649733519027765E-005
 -2.647439699258245E-005
 -2.645215336201902E-005
 -2.643054307957899E-005
 -2.640950554227790E-005
 -2.638898078388598E-005
 -2.636890949467591E-005
 -2.634923304018514E-005
 -2.632989347901453E-005
 -2.631083357964839E-005
 -2.629199683634557E-005
 -2.627332748405876E-005
 -2.625477051241017E-005
 -2.623627167873879E-005
 -3.078057583353556E-005
 -3.068371708688672E-005
 -3.059032468623707E-005
 -3.050032647349480E-005
 -3.041364936548904E-005
 -3.033021943352510E-005
 -3.024996198069428E-005
 -3.017280161700949E-005
 -3.009866233239115E-005
 -3.002746756749449E-005
 -2.995914028246995E-005
 -2.989360302362800E-005
 -2.983077798806355E-005
 -2.977058708629847E-005
 -2.971295200293611E-005
 -2.965779425537819E-005
 -2.960503525066254E-005
 -2.955459634041717E-005
 -2.950639887401098E-005
 -2.946036424989804E-005
 -2.941641396523661E-005
 -2.937446966377684E-005
 -2.933445318208721E-005
 -2.929628659415112E-005
 -2.925989225435576E-005
 -2.922519283893690E-005
 -2.919211138588740E-005
 -2.916057133339187E-005
 -2.913049655681268E-005
 -2.910181140425233E-005
 -2.907444073075047E-005
 -2.904830993112458E-005
 -2.902334497150231E-005
 -2.899947241957292E-005
 -2.897661947358610E-005
 -2.895471399012742E-005
 -2.893368451070525E-005
 -2.891346028716106E-005
 -2.889397130594152E-005
 -2.887514831125023E-005
 -2.885692282709935E-005
 -2.883922717828371E-005
 -2.882199451029372E-005
 -2.880515880817616E-005
 -2.878865491438625E-005
 -2.877241854558857E-005
 -2.875638630847887E-005
 -2.874049571458378E-005
 -2.872468519408345E-005
 -2.870889410862371E-005
 -3.323099928643158E-005
 -3.312972442392203E-005
 -3.303236089231245E-005
 -3.293882216625130E-005
 -3.284902090494165E-005
 -3.276286903858939E-005
 -3.268027785221954E-005
 -3.260115806691642E-005
 -3.252541991848634E-005
 -3.245297323362730E-005
 -3.238372750361303E-005
 -3.231759195558916E-005
 -3.225447562145657E-005
 -3.219428740445314E-005
 -3.213693614344888E-005
 -3.208233067500618E-005
 -3.203037989327773E-005
 -3.198099280774528E-005
 -3.193407859891352E-005
 -3.188954667194716E-005
 -3.184730670833867E-005
 -3.180726871565250E-005
 -3.176934307538445E-005
 -3.173344058899271E-005
 -3.169947252215023E-005
 -3.166735064725331E-005
 -3.163698728427917E-005
 -3.160829533996260E-005
 -3.158118834541103E-005
 -3.155558049216675E-005
 -3.153138666675975E-005
 -3.150852248381003E-005
 -3.148690431769735E-005
 -3.146644933286702E-005
 -3.144707551278355E-005
 -3.142870168757982E-005
 -3.141124756045163E-005
 -3.139463373278838E-005
 -3.137878172812280E-005
 -3.136361401489280E-005
 -3.134905402805661E-005
 -3.133502618957985E-005
 -3.132145592783221E-005
 -3.130826969589059E-005
 -3.129539498878735E-005
 -3.128276035971102E-005
 -3.127029543516928E-005
 -3.125793092913874E-005
 -3.124559865618349E-005
 -3.123323154358080E-005
 -3.568120881099090E-005
 -3.557671097158830E-005
 -3.547658486139138E-005
 -3.538072775554384E-005
 -3.528903629162827E-005
 -3.520140656182493E-005
 -3.511773420198049E-005
 -3.503791447767315E-005
 -3.496184236726899E-005
 -3.488941264207976E-005
 -3.482051994369411E-005
 -3.475505885848098E-005
 -3.469292398941040E-005
 -3.463401002518022E-005
 -3.457821180678262E-005
 -3.452542439150372E-005
 -3.447554311450964E-005
 -3.442846364797445E-005
 -3.438408205794019E-005
 -3.434229485886022E-005
 -3.430299906595873E-005
 -3.426609224546234E-005
 -3.423147256274302E-005
 -3.419903882845603E-005
 -3.416869054271955E-005
 -3.414032793743001E-005
 -3.411385201671672E-005
 -3.408916459565352E-005
 -3.406616833724380E-005
 -3.404476678775226E-005
 -3.402486441043471E-005
 -3.400636661771735E-005
 -3.398917980187950E-005
 -3.397321136428605E-005
 -3.395836974320917E-005
 -3.394456444030623E-005
 -3.393170604577465E-005
 -3.391970626222867E-005
 -3.390847792735533E-005
 -3.389793503534776E-005
 -3.388799275720243E-005
 -3.387856745984825E-005
 -3.386957672419926E-005
 -3.386093936209704E-005
 -3.385257543222752E-005
 -3.384440625496172E-005
 -3.383635442620787E-005
 -3.382834383023500E-005
 -3.382029965150176E-005
 -3.381214838550134E-005
 -3.812615852749318E-005
 -3.801987528010095E-005
 -3.791843618643066E-005
 -3.782172037531032E-005
 -3.772960659575229E-005
 -3.764197331316208E-005
 -3.755869880193020E-005
 -3.747966123456255E-005
 -3.740473876739769E-005
 -3.733380962298137E-005
 -3.726675216923565E-005
 -3.720344499541065E-005
 -3.714376698503596E-005
 -3.708759738580818E-005
 -3.703481587662478E-005
 -3.698530263177049E-005
 -3.693893838236787E-005
 -3.689560447517995E-005
 -3.685518292884235E-005
 -3.681755648759301E-005
 -3.678260867261358E-005
 -3.675022383101642E-005
 -3.672028718262377E-005
 -3.669268486453152E-005
 -3.666730397361201E-005
 -3.664403260698876E-005
 -3.662275990055715E-005
 -3.660337606565324E-005
 -3.658577242389819E-005
 -3.656984144031775E-005
 -3.655547675480227E-005
 -3.654257321194215E-005
 -3.653102688933798E-005
 -3.652073512441854E-005
 -3.651159653983212E-005
 -3.650351106746850E-005
 -3.649637997116240E-005
 -3.649010586811649E-005
 -3.648459274911245E-005
 -3.647974599752753E-005
 -3.647547240721853E-005
 -3.647168019930528E-005
 -3.646827903786361E-005
 -3.646518004461199E-005
 -3.646229581255200E-005
 -3.645954041866527E-005
 -3.645682943559149E-005
 -3.645407994240251E-005
 -3.645121053441994E-005
 -3.644814133211314E-005
 -4.055994058593825E-005
 -4.045358531990401E-005
 -4.035255368765224E-005
 -4.025670464898733E-005
 -4.016589713387769E-005
 -4.007999014036899E-005
 -3.999884282846179E-005
 -3.992231460999051E-005
 -3.985026523468350E-005
 -3.978255487245955E-005
 -3.971904419212590E-005
 -3.965959443651098E-005
 -3.960406749420023E-005
 -3.955232596795316E-005
 -3.950423323993235E-005
 -3.945965353381219E-005
 -3.941845197389944E-005
 -3.938049464138547E-005
 -3.934564862779103E-005
 -3.931378208571946E-005
 -3.928476427706386E-005
 -3.925846561868900E-005
 -3.923475772574066E-005
 -3.921351345266598E-005
 -3.919460693202637E-005
 -3.917791361120006E-005
 -3.916331028706215E-005
 -3.915067513874458E-005
 -3.913988775851753E-005
 -3.913082918093646E-005
 -3.912338191026238E-005
 -3.911742994630145E-005
 -3.911285880867489E-005
 -3.910955555964645E-005
 -3.910740882552027E-005
 -3.910630881671816E-005
 -3.910614734658215E-005
 -3.910681784893907E-005
 -3.910821539452349E-005
 -3.911023670627089E-005
 -3.911278017355927E-005
 -3.911574586542523E-005
 -3.911903554278785E-005
 -3.912255266975624E-005
 -3.912620242399906E-005
 -3.912989170625136E-005
 -3.913352914895354E-005
 -3.913702512406410E-005
 -3.914029175004212E-005
 -3.914324289803741E-005
 -4.297573537473436E-005
 -4.287132986451227E-005
 -4.277272770699976E-005
 -4.267976564635663E-005
 -4.259228085182029E-005
 -4.251011101440307E-005
 -4.243309443904746E-005
 -4.236107013233612E-005
 -4.229387788593938E-005
 -4.223135835592443E-005
 -4.217335313805096E-005
 -4.211970483920230E-005
 -4.207025714506365E-005
 -4.202485488423395E-005
 -4.198334408882096E-005
 -4.194557205173663E-005
 -4.191138738076004E-005
 -4.188064004951652E-005
 -4.185318144550889E-005
 -4.182886441529772E-005
 -4.180754330697635E-005
 -4.178907401004873E-005
 -4.177331399282274E-005
 -4.176012233743437E-005
 -4.174935977261699E-005
 -4.174088870431908E-005
 -4.173457324428873E-005
 -4.173027923669246E-005
 -4.172787428291748E-005
 -4.172722776460317E-005
 -4.172821086503791E-005
 -4.173069658897983E-005
 -4.173455978098417E-005
 -4.173967714236287E-005
 -4.174592724680466E-005
 -4.175319055474918E-005
 -4.176134942660441E-005
 -4.177028813484014E-005
 -4.177989287505531E-005
 -4.179005177605044E-005
 -4.180065490898875E-005
 -4.181159429566229E-005
 -4.182276391594509E-005
 -4.183405971445877E-005
 -4.184537960648163E-005
 -4.185662348315510E-005
 -4.186769321599909E-005
 -4.187849266077439E-005
 -4.188892766069053E-005
 -4.189890604900911E-005
 -4.536577357580110E-005
 -4.526568087396482E-005
 -4.517186254257630E-005
 -4.508413110712744E-005
 -4.500230009088719E-005
 -4.492618410660667E-005
 -4.485559894323054E-005
 -4.479036164771833E-005
 -4.473029060224354E-005
 -4.467520559683935E-005
 -4.462492789773755E-005
 -4.457928031152504E-005
 -4.453808724528770E-005
 -4.450117476293142E-005
 -4.446837063777673E-005
 -4.443950440168101E-005
 -4.441440739073547E-005
 -4.439291278778167E-005
 -4.437485566181748E-005
 -4.436007300451731E-005
 -4.434840376392689E-005
 -4.433968887555410E-005
 -4.433377129092751E-005
 -4.433049600376960E-005
 -4.432971007396447E-005
 -4.433126264936046E-005
 -4.433500498561121E-005
 -4.434079046410524E-005
 -4.434847460815803E-005
 -4.435791509753190E-005
 -4.436897178141085E-005
 -4.438150668993797E-005
 -4.439538404439048E-005
 -4.441047026611768E-005
 -4.442663398430629E-005
 -4.444374604267005E-005
 -4.446167950514407E-005
 -4.448030966065981E-005
 -4.449951402707692E-005
 -4.451917235432688E-005
 -4.453916662684968E-005
 -4.455938106537034E-005
 -4.457970212806643E-005
 -4.460001851119175E-005
 -4.462022114916975E-005
 -4.464020321423378E-005
 -4.465986011561293E-005
 -4.467908949831433E-005
 -4.469779124150812E-005
 -4.471586745655085E-005
 -4.772131323903409E-005
 -4.762826980131190E-005
 -4.754195170124128E-005
 -4.746214537198059E-005
 -4.738863894728209E-005
 -4.732122234356918E-005
 -4.725968733658204E-005
 -4.720382763279989E-005
 -4.715343893586669E-005
 -4.710831900818967E-005
 -4.706826772795252E-005
 -4.703308714173259E-005
 -4.700258151288328E-005
 -4.697655736594972E-005
 -4.695482352721139E-005
 -4.693719116164355E-005
 -4.692347380636197E-005
 -4.691348740085922E-005
 -4.690705031407597E-005
 -4.690398336858502E-005
 -4.690410986197627E-005
 -4.690725558567287E-005
 -4.691324884126343E-005
 -4.692192045455535E-005
 -4.693310378749209E-005
 -4.694663474803635E-005
 -4.696235179822814E-005
 -4.698009596047917E-005
 -4.699971082229053E-005
 -4.702104253948057E-005
 -4.704393983806890E-005
 -4.706825401492278E-005
 -4.709383893726902E-005
 -4.712055104117884E-005
 -4.714824932915940E-005
 -4.717679536687721E-005
 -4.720605327919416E-005
 -4.723588974552153E-005
 -4.726617399461701E-005
 -4.729677779889809E-005
 -4.732757546832469E-005
 -4.735844384392386E-005
 -4.738926229102599E-005
 -4.741991269224877E-005
 -4.745027944029684E-005
 -4.748024943059857E-005
 -4.750971205383527E-005
 -4.753855918838558E-005
 -4.756668519271084E-005
 -4.759398689770095E-005
 -5.003263547005638E-005
 -4.994978112511531E-005
 -4.987406899099255E-005
 -4.980525777051484E-005
 -4.974310871129286E-005
 -4.968738567247236E-005
 -4.963785518579963E-005
 -4.959428651115162E-005
 -4.955645168679750E-005
 -4.952412557471628E-005
 -4.949708590108598E-005
 -4.947511329229724E-005
 -4.945799130662598E-005
 -4.944550646187007E-005
 -4.943744825910268E-005
 -4.943360920282986E-005
 -4.943378481766259E-005
 -4.943777366183645E-005
 -4.944537733765721E-005
 -4.945640049914192E-005
 -4.947065085702083E-005
 -4.948793918127519E-005
 -4.950807930141119E-005
 -4.953088810461086E-005
 -4.955618553196174E-005
 -4.958379457289755E-005
 -4.961354125802011E-005
 -4.964525465045040E-005
 -4.967876683585702E-005
 -4.971391291128636E-005
 -4.975053097294367E-005
 -4.978846210304941E-005
 -4.982755035588288E-005
 -4.986764274314368E-005
 -4.990858921873472E-005
 -4.995024266306759E-005
 -4.999245886700669E-005
 -5.003509651551264E-005
 -5.007801717111926E-005
 -5.012108525728448E-005
 -5.016416804171511E-005
 -5.020713561972549E-005
 -5.024986089770711E-005
 -5.029221957675137E-005
 -5.033409013648293E-005
 -5.037535381917202E-005
 -5.041589461411904E-005
 -5.045559924239733E-005
 -5.049435714195020E-005
 -5.053206045306399E-005
 -5.228906273562607E-005
 -5.221996678123698E-005
 -5.215837880749667E-005
 -5.210402851396933E-005
 -5.205664913974506E-005
 -5.201597750818989E-005
 -5.198175406577327E-005
 -5.195372291525953E-005
 -5.193163184354193E-005
 -5.191523234441093E-005
 -5.190427963655952E-005
 -5.189853267705140E-005
 -5.189775417054804E-005
 -5.190171057457551E-005
 -5.191017210100761E-005
 -5.192291271409194E-005
 -5.193971012521139E-005
 -5.196034578462034E-005
 -5.198460487038590E-005
 -5.201227627474636E-005
 -5.204315258809962E-005
 -5.207703008081921E-005
 -5.211370868311076E-005
 -5.215299196307795E-005
 -5.219468710319461E-005
 -5.223860487536891E-005
 -5.228455961474428E-005
 -5.233236919240710E-005
 -5.238185498720646E-005
 -5.243284185674501E-005
 -5.248515810776990E-005
 -5.253863546606595E-005
 -5.259310904596105E-005
 -5.264841731963376E-005
 -5.270440208626252E-005
 -5.276090844118518E-005
 -5.281778474517044E-005
 -5.287488259385124E-005
 -5.293205678749030E-005
 -5.298916530109842E-005
 -5.304606925503247E-005
 -5.310263288611349E-005
 -5.315872351935450E-005
 -5.321421154035858E-005
 -5.326897036843277E-005
 -5.332287643046452E-005
 -5.337580913562106E-005
 -5.342765085089272E-005
 -5.347828687751222E-005
 -5.352760542825949E-005
 -5.447900417516910E-005
 -5.442768551131483E-005
 -5.438416927747244E-005
 -5.434815541650229E-005
 -5.431934856227080E-005
 -5.429745805450725E-005
 -5.428219794774414E-005
 -5.427328701466458E-005
 -5.427044874418441E-005
 -5.427341133461014E-005
 -5.428190768218299E-005
 -5.429567536532662E-005
 -5.431445662485150E-005
 -5.433799834049183E-005
 -5.436605200396910E-005
 -5.439837368891402E-005
 -5.443472401786159E-005
 -5.447486812663726E-005
 -5.451857562631536E-005
 -5.456562056302327E-005
 -5.461578137582645E-005
 -5.466884085289538E-005
 -5.472458608616492E-005
 -5.478280842473046E-005
 -5.484330342712605E-005
 -5.490587081270643E-005
 -5.497031441230676E-005
 -5.503644211836311E-005
 -5.510406583463709E-005
 -5.517300142572463E-005
 -5.524306866650584E-005
 -5.531409119164619E-005
 -5.538589644533866E-005
 -5.545831563136497E-005
 -5.553118366364023E-005
 -5.560433911734443E-005
 -5.567762418072237E-005
 -5.575088460772017E-005
 -5.582396967147794E-005
 -5.589673211884040E-005
 -5.596902812590513E-005
 -5.604071725473121E-005
 -5.611166241125792E-005
 -5.618172980449313E-005
 -5.625078890704314E-005
 -5.631871241701037E-005
 -5.638537622132630E-005
 -5.645065936053486E-005
 -5.651444399506564E-005
 -5.657661537301746E-005
 -5.659003264414262E-005
 -5.656097144589484E-005
 -5.653991218927439E-005
 -5.652652500765254E-005
 -5.652048603543744E-005
 -5.652147738398264E-005
 -5.652918711188173E-005
 -5.654330918993982E-005
 -5.656354346121938E-005
 -5.658959559657352E-005
 -5.662117704592372E-005
 -5.665800498576056E-005
 -5.669980226302024E-005
 -5.674629733582794E-005
 -5.679722421130160E-005
 -5.685232238076471E-005
 -5.691133675261011E-005
 -5.697401758315656E-005
 -5.704012040570359E-005
 -5.710940595803762E-005
 -5.718164010869015E-005
 -5.725659378213743E-005
 -5.733404288314821E-005
 -5.741376822057136E-005
 -5.749555543067073E-005
 -5.757919490029118E-005
 -5.766448168998491E-005
 -5.775121545732413E-005
 -5.783920038052287E-005
 -5.792824508257220E-005
 -5.801816255603597E-005
 -5.810877008861315E-005
 -5.819988918969027E-005
 -5.829134551791678E-005
 -5.838296881001181E-005
 -5.847459281086874E-005
 -5.856605520507885E-005
 -5.865719754998744E-005
 -5.874786521037983E-005
 -5.883790729485606E-005
 -5.892717659401175E-005
 -5.901552952048343E-005
 -5.910282605092294E-005
 -5.918892966997124E-005
 -5.927370731627291E-005
 -5.935702933059541E-005
 -5.943876940608905E-005
 -5.951880454069098E-005
 -5.959701499174640E-005
 -5.967328423284751E-005
 -5.860899848193216E-005
 -5.860713647502156E-005
 -5.861335384851697E-005
 -5.862729178295436E-005
 -5.864859892440119E-005
 -5.867693131131136E-005
 -5.871195229626352E-005
 -5.875333246307808E-005
 -5.880074953963057E-005
 -5.885388830682117E-005
 -5.891244050408852E-005
 -5.897610473179005E-005
 -5.904458635084377E-005
 -5.911759737994958E-005
 -5.919485639073749E-005
 -5.927608840114246E-005
 -5.936102476727972E-005
 -5.944940307418873E-005
 -5.954096702562552E-005
 -5.963546633322671E-005
 -5.973265660528829E-005
 -5.983229923538852E-005
 -5.993416129106973E-005
 -6.003801540286508E-005
 -6.014363965376377E-005
 -6.025081746944691E-005
 -6.035933750936170E-005
 -6.046899355889938E-005
 -6.057958442278883E-005
 -6.069091381991145E-005
 -6.080279027966224E-005
 -6.091502703998541E-005
 -6.102744194727136E-005
 -6.113985735818964E-005
 -6.125210004361367E-005
 -6.136400109470192E-005
 -6.147539583131791E-005
 -6.158612371279973E-005
 -6.169602825121348E-005
 -6.180495692719638E-005
 -6.191276110838816E-005
 -6.201929597061389E-005
 -6.212442042178987E-005
 -6.222799702869047E-005
 -6.232989194655426E-005
 -6.242997485161674E-005
 -6.252811887658632E-005
 -6.262420054908968E-005
 -6.271809973311724E-005
 -6.280969957347715E-005
 -6.052218516574813E-005
 -6.055291110322386E-005
 -6.059164112088407E-005
 -6.063798944883691E-005
 -6.069157939004892E-005
 -6.075204318691705E-005
 -6.081902188366695E-005
 -6.089216518518211E-005
 -6.097113131257130E-005
 -6.105558685599653E-005
 -6.114520662509605E-005
 -6.123967349743497E-005
 -6.133867826534499E-005
 -6.144191948147632E-005
 -6.154910330344381E-005
 -6.165994333787715E-005
 -6.177416048412920E-005
 -6.189148277802424E-005
 -6.201164523586250E-005
 -6.213438969892864E-005
 -6.225946467882412E-005
 -6.238662520380669E-005
 -6.251563266634768E-005
 -6.264625467218243E-005
 -6.277826489098828E-005
 -6.291144290893866E-005
 -6.304557408323201E-005
 -6.318044939889502E-005
 -6.331586532782993E-005
 -6.345162369046798E-005
 -6.358753151999378E-005
 -6.372340092935687E-005
 -6.385904898119826E-005
 -6.399429756076070E-005
 -6.412897325190811E-005
 -6.426290721638629E-005
 -6.439593507635166E-005
 -6.452789680031461E-005
 -6.465863659251778E-005
 -6.478800278588589E-005
 -6.491584773853078E-005
 -6.504202773394278E-005
 -6.516640288487357E-005
 -6.528883704095452E-005
 -6.540919770013066E-005
 -6.552735592389332E-005
 -6.564318625635368E-005
 -6.575656664719450E-005
 -6.586737837847509E-005
 -6.597550599535308E-005
 -6.231551204809651E-005
 -6.238462850759232E-005
 -6.246148693690858E-005
 -6.254567802646466E-005
 -6.263680326845268E-005
 -6.273447475098733E-005
 -6.283831494962657E-005
 -6.294795651673659E-005
 -6.306304206926284E-005
 -6.318322397517285E-005
 -6.330816413913749E-005
 -6.343753378773749E-005
 -6.357101325467963E-005
 -6.370829176620503E-005
 -6.384906722725910E-005
 -6.399304600850168E-005
 -6.413994273461711E-005
 -6.428948007415237E-005
 -6.444138853111938E-005
 -6.459540623867313E-005
 -6.475127875505091E-005
 -6.490875886200986E-005
 -6.506760636597095E-005
 -6.522758790205812E-005
 -6.538847674121820E-005
 -6.555005260058230E-005
 -6.571210145723139E-005
 -6.587441536550772E-005
 -6.603679227802457E-005
 -6.619903587045702E-005
 -6.636095537030525E-005
 -6.652236538963626E-005
 -6.668308576200836E-005
 -6.684294138359679E-005
 -6.700176205862664E-005
 -6.715938234919451E-005
 -6.731564142954438E-005
 -6.747038294485827E-005
 -6.762345487461218E-005
 -6.777470940056416E-005
 -6.792400277939585E-005
 -6.807119522006104E-005
 -6.821615076587105E-005
 -6.835873718134852E-005
 -6.849882584385257E-005
 -6.863629164000743E-005
 -6.877101286696031E-005
 -6.890287113842562E-005
 -6.903175129558188E-005
 -6.915754132274828E-005
 -6.397478923840096E-005
 -6.408845637984241E-005
 -6.420937940033319E-005
 -6.433713055548022E-005
 -6.447129472011233E-005
 -6.461146909729041E-005
 -6.475726292681031E-005
 -6.490829719368059E-005
 -6.506420433700086E-005
 -6.522462795970999E-005
 -6.538922253958183E-005
 -6.555765314186246E-005
 -6.572959513392361E-005
 -6.590473390223598E-005
 -6.608276457200058E-005
 -6.626339172973892E-005
 -6.644632914904840E-005
 -6.663129951990693E-005
 -6.681803418160913E-005
 -6.700627285968218E-005
 -6.719576340690479E-005
 -6.738626154864188E-005
 -6.757753063267324E-005
 -6.776934138365121E-005
 -6.796147166237046E-005
 -6.815370622993262E-005
 -6.834583651695551E-005
 -6.853766039795829E-005
 -6.872898197094351E-005
 -6.891961134235954E-005
 -6.910936441746043E-005
 -6.929806269614911E-005
 -6.948553307436705E-005
 -6.967160765110937E-005
 -6.985612354107221E-005
 -7.003892269299568E-005
 -7.021985171375179E-005
 -7.039876169818175E-005
 -7.057550806473077E-005
 -7.074995039686462E-005
 -7.092195229034507E-005
 -7.109138120630055E-005
 -7.125810833015384E-005
 -7.142200843639058E-005
 -7.158295975916055E-005
 -7.174084386871376E-005
 -7.189554555366197E-005
 -7.204695270905044E-005
 -7.219495623022611E-005
 -7.233944991248337E-005
 -6.548602932761403E-005
 -6.565068078832184E-005
 -6.582183831872266E-005
 -6.599906284264289E-005
 -6.618192976185656E-005
 -6.637002856712257E-005
 -6.656296245135087E-005
 -6.676034792568965E-005
 -6.696181443861395E-005
 -6.716700399869013E-005
 -6.737557080127377E-005
 -6.758718085947669E-005
 -6.780151163982237E-005
 -6.801825170276143E-005
 -6.823710034836821E-005
 -6.845776726753888E-005
 -6.867997219876958E-005
 -6.890344459085845E-005
 -6.912792327162199E-005
 -6.935315612284628E-005
 -6.957889976158775E-005
 -6.980491922797657E-005
 -7.003098767962619E-005
 -7.025688609276534E-005
 -7.048240297016973E-005
 -7.070733405595919E-005
 -7.093148205734030E-005
 -7.115465637337005E-005
 -7.137667283072544E-005
 -7.159735342654829E-005
 -7.181652607841409E-005
 -7.203402438140150E-005
 -7.224968737227912E-005
 -7.246335930084414E-005
 -7.267488940838993E-005
 -7.288413171328468E-005
 -7.309094480368801E-005
 -7.329519163735214E-005
 -7.349673934851632E-005
 -7.369545906184495E-005
 -7.389122571343449E-005
 -7.408391787879053E-005
 -7.427341760782202E-005
 -7.445961026676327E-005
 -7.464238438700155E-005
 -7.482163152082837E-005
 -7.499724610398206E-005
 -7.516912532503411E-005
 -7.533716900152241E-005
 -7.550127946281742E-005
 -6.683582000347436E-005
 -6.705804568326316E-005
 -6.728572240601159E-005
 -6.751840917957327E-005
 -6.775568132597466E-005
 -6.799712998174757E-005
 -6.824236160406854E-005
 -6.849099748325313E-005
 -6.874267326185801E-005
 -6.899703846087853E-005
 -6.925375601321997E-005
 -6.951250180484154E-005
 -6.977296422373025E-005
 -7.003484371698796E-005
 -7.029785235624953E-005
 -7.056171341148778E-005
 -7.082616093353564E-005
 -7.109093934525169E-005
 -7.135580304162869E-005
 -7.162051599876472E-005
 -7.188485139188713E-005
 -7.214859122240232E-005
 -7.241152595406612E-005
 -7.267345415824023E-005
 -7.293418216827502E-005
 -7.319352374306014E-005
 -7.345129973958053E-005
 -7.370733779467060E-005
 -7.396147201572571E-005
 -7.421354268045334E-005
 -7.446339594561102E-005
 -7.471088356458990E-005
 -7.495586261390213E-005
 -7.519819522842240E-005
 -7.543774834534893E-005
 -7.567439345681155E-005
 -7.590800637106116E-005
 -7.613846698215226E-005
 -7.636565904804509E-005
 -7.658946997705964E-005
 -7.680979062260932E-005
 -7.702651508610550E-005
 -7.723954052800869E-005
 -7.744876698690085E-005
 -7.765409720653709E-005
 -7.785543647077641E-005
 -7.805269244636289E-005
 -7.824577503343249E-005
 -7.843459622371389E-005
 -7.861906996633667E-005
 -6.801176057906349E-005
 -6.829815070915002E-005
 -6.858858951726793E-005
 -6.888264613880677E-005
 -6.917990775390028E-005
 -6.947997896542050E-005
 -6.978248118732401E-005
 -7.008705204374717E-005
 -7.039334477908809E-005
 -7.070102767942459E-005
 -7.100978350533080E-005
 -7.131930893641448E-005
 -7.162931402765252E-005
 -7.193952167762691E-005
 -7.224966710884063E-005
 -7.255949736005682E-005
 -7.286877079077266E-005
 -7.317725659784796E-005
 -7.348473434425435E-005
 -7.379099349990228E-005
 -7.409583299457134E-005
 -7.439906078280268E-005
 -7.470049342074957E-005
 -7.499995565483998E-005
 -7.529728002218667E-005
 -7.559230646263778E-005
 -7.588488194232392E-005
 -7.617486008859616E-005
 -7.646210083619904E-005
 -7.674647008457989E-005
 -7.702783936612345E-005
 -7.730608552523947E-005
 -7.758109040809124E-005
 -7.785274056286101E-005
 -7.812092695035921E-005
 -7.838554466484268E-005
 -7.864649266490017E-005
 -7.890367351423456E-005
 -7.915699313220420E-005
 -7.940636055397736E-005
 -7.965168770014461E-005
 -7.989288915567383E-005
 -8.012988195804185E-005
 -8.036258539444116E-005
 -8.059092080790474E-005
 -8.081481141226194E-005
 -8.103418211577663E-005
 -8.124895935337829E-005
 -8.145907092735441E-005
 -8.166444585644723E-005
 -6.900296394576296E-005
 -6.935990857550061E-005
 -6.971911096652597E-005
 -7.008016535392140E-005
 -7.044268553755730E-005
 -7.080630412791690E-005
 -7.117067180793759E-005
 -7.153545661093066E-005
 -7.190034321475467E-005
 -7.226503225243189E-005
 -7.262923963918322E-005
 -7.299269591591510E-005
 -7.335514560928104E-005
 -7.371634660806146E-005
 -7.407606955605970E-005
 -7.443409726120489E-005
 -7.479022412084652E-005
 -7.514425556315690E-005
 -7.549600750433157E-005
 -7.584530582156558E-005
 -7.619198584152551E-005
 -7.653589184411529E-005
 -7.687687658139580E-005
 -7.721480081127879E-005
 -7.754953284590336E-005
 -7.788094811437781E-005
 -7.820892873961288E-005
 -7.853336312902507E-005
 -7.885414557886784E-005
 -7.917117589181978E-005
 -7.948435900769938E-005
 -7.979360464693918E-005
 -8.009882696661169E-005
 -8.039994422869919E-005
 -8.069687848037711E-005
 -8.098955524605579E-005
 -8.127790323089373E-005
 -8.156185403560047E-005
 -8.184134188221001E-005
 -8.211630335065912E-005
 -8.238667712590471E-005
 -8.265240375539891E-005
 -8.291342541665454E-005
 -8.316968569478069E-005
 -8.342112936972247E-005
 -8.366770221307971E-005
 -8.390935079429369E-005
 -8.414602229607317E-005
 -8.437766433888675E-005
 -8.460422481438384E-005
 -6.980062331299067E-005
 -7.023406122979334E-005
 -7.066753911452489E-005
 -7.110069447163803E-005
 -7.153318555076874E-005
 -7.196469045362844E-005
 -7.239490626364873E-005
 -7.282354819800964E-005
 -7.325034878233405E-005
 -7.367505704771981E-005
 -7.409743775005129E-005
 -7.451727061148262E-005
 -7.493434958379573E-005
 -7.534848213337929E-005
 -7.575948854769311E-005
 -7.616720126279444E-005
 -7.657146421163400E-005
 -7.697213219287296E-005
 -7.736907025973313E-005
 -7.776215312860826E-005
 -7.815126460702904E-005
 -7.853629704054477E-005
 -7.891715077820184E-005
 -7.929373365605068E-005
 -7.966596049850490E-005
 -8.003375263685289E-005
 -8.039703744472931E-005
 -8.075574788997046E-005
 -8.110982210250705E-005
 -8.145920295784289E-005
 -8.180383767571402E-005
 -8.214367743349026E-005
 -8.247867699395997E-005
 -8.280879434703358E-005
 -8.313399036503406E-005
 -8.345422847117529E-005
 -8.376947432080414E-005
 -8.407969549514603E-005
 -8.438486120710025E-005
 -8.468494201883221E-005
 -8.497990957077668E-005
 -8.526973632178535E-005
 -8.555439530008275E-005
 -8.583385986480398E-005
 -8.610810347778702E-005
 -8.637709948539809E-005
 -8.664082091017214E-005
 -8.689924025202255E-005
 -8.715232929878866E-005
 -8.740005894602692E-005
 -7.039864010760456E-005
 -7.091375128116409E-005
 -7.142622481413977E-005
 -7.193576306115010E-005
 -7.244208980734904E-005
 -7.294494923400645E-005
 -7.344410491456816E-005
 -7.393933884073689E-005
 -7.443045047833952E-005
 -7.491725585266788E-005
 -7.539958666267120E-005
 -7.587728942385754E-005
 -7.635022463919384E-005
 -7.681826599756259E-005
 -7.728129959931417E-005
 -7.773922320825808E-005
 -7.819194552956203E-005
 -7.863938551301759E-005
 -7.908147168094537E-005
 -7.951814148023000E-005
 -7.994934065783198E-005
 -8.037502265911592E-005
 -8.079514804835968E-005
 -8.120968395084507E-005
 -8.161860351588355E-005
 -8.202188540007069E-005
 -8.241951327024835E-005
 -8.281147532546837E-005
 -8.319776383734466E-005
 -8.357837470824255E-005
 -8.395330704662305E-005
 -8.432256275901643E-005
 -8.468614615803111E-005
 -8.504406358579885E-005
 -8.539632305238173E-005
 -8.574293388855580E-005
 -8.608390641245018E-005
 -8.641925160959766E-005
 -8.674898082586947E-005
 -8.707310547285267E-005
 -8.739163674523024E-005
 -8.770458534976985E-005
 -8.801196124544798E-005
 -8.831377339444261E-005
 -8.861002952353121E-005
 -8.890073589564209E-005
 -8.918589709121056E-005
 -8.946551579904152E-005
 -8.973959261646969E-005
 -9.000812585847805E-005
 -7.079430530346869E-005
 -7.139514128592819E-005
 -7.199017772787966E-005
 -7.257920695533667E-005
 -7.316204273189921E-005
 -7.373851908657650E-005
 -7.430848918103271E-005
 -7.487182421545649E-005
 -7.542841237255255E-005
 -7.597815779887887E-005
 -7.652097962261308E-005
 -7.705681100730102E-005
 -7.758559824032334E-005
 -7.810729985563871E-005
 -7.862188578966070E-005
 -7.912933656950690E-005
 -7.962964253263862E-005
 -8.012280307713866E-005
 -8.060882594147691E-005
 -8.108772651303568E-005
 -8.155952716440521E-005
 -8.202425661645957E-005
 -8.248194932746866E-005
 -8.293264490709330E-005
 -8.337638755462730E-005
 -8.381322552033412E-005
 -8.424321058925865E-005
 -8.466639758638922E-005
 -8.508284390254643E-005
 -8.549260903999473E-005
 -8.589575417711367E-005
 -8.629234175116462E-005
 -8.668243505857205E-005
 -8.706609787180320E-005
 -8.744339407221758E-005
 -8.781438729815117E-005
 -8.817914060755712E-005
 -8.853771615456368E-005
 -8.889017487930336E-005
 -8.923657621044383E-005
 -8.957697777980623E-005
 -8.991143514859657E-005
 -9.024000154464914E-005
 -9.056272761028086E-005
 -9.087966116024124E-005
 -9.119084694937541E-005
 -9.149632644956648E-005
 -9.179613763564487E-005
 -9.209031477985159E-005
 -9.237888825466980E-005
 -7.098902088096629E-005
 -7.167806829379759E-005
 -7.235765767489405E-005
 -7.302769999235335E-005
 -7.368812676866370E-005
 -7.433888878221705E-005
 -7.497995481840354E-005
 -7.561131046904252E-005
 -7.623295697920692E-005
 -7.684491014012900E-005
 -7.744719922698213E-005
 -7.803986598032094E-005
 -7.862296362998330E-005
 -7.919655596004256E-005
 -7.976071641365292E-005
 -8.031552723636360E-005
 -8.086107865674352E-005
 -8.139746810288772E-005
 -8.192479945357117E-005
 -8.244318232276894E-005
 -8.295273137623339E-005
 -8.345356567884411E-005
 -8.394580807158816E-005
 -8.442958457673605E-005
 -8.490502383025244E-005
 -8.537225654001605E-005
 -8.583141496884768E-005
 -8.628263244111930E-005
 -8.672604287186529E-005
 -8.716178031728945E-005
 -8.758997854562997E-005
 -8.801077062735148E-005
 -8.842428854366152E-005
 -8.883066281238077E-005
 -8.923002213029628E-005
 -8.962249303103148E-005
 -9.000819955758189E-005
 -9.038726294876920E-005
 -9.075980133871315E-005
 -9.112592946866982E-005
 -9.148575841042342E-005
 -9.183939530067499E-005
 -9.218694308563422E-005
 -9.252850027535128E-005
 -9.286416070715881E-005
 -9.319401331769051E-005
 -9.351814192302695E-005
 -9.383662500644624E-005
 -9.414953551355786E-005
 -9.445694065413404E-005
 -7.098904062741615E-005
 -7.176671405178026E-005
 -7.253077864206926E-005
 -7.328129607326153E-005
 -7.401834656050936E-005
 -7.474202745647878E-005
 -7.545245190900422E-005
 -7.614974757821956E-005
 -7.683405541082541E-005
 -7.750552847020955E-005
 -7.816433082016177E-005
 -7.881063646083218E-005
 -7.944462831487316E-005
 -8.006649726201320E-005
 -8.067644122027428E-005
 -8.127466427204816E-005
 -8.186137583321918E-005
 -8.243678986356658E-005
 -8.300112411672626E-005
 -8.355459942793285E-005
 -8.409743903792375E-005
 -8.462986795122396E-005
 -8.515211232731887E-005
 -8.566439890292089E-005
 -8.616695444398820E-005
 -8.666000522574445E-005
 -8.714377653937317E-005
 -8.761849222384271E-005
 -8.808437422148870E-005
 -8.854164215598575E-005
 -8.899051293137969E-005
 -8.943120035086318E-005
 -8.986391475414253E-005
 -9.028886267211690E-005
 -9.070624649777360E-005
 -9.111626417217052E-005
 -9.151910888448731E-005
 -9.191496878507129E-005
 -9.230402671058738E-005
 -9.268645992029624E-005
 -9.306243984261659E-005
 -9.343213183114933E-005
 -9.379569492937276E-005
 -9.415328164329752E-005
 -9.450503772139167E-005
 -9.485110194111738E-005
 -9.519160590152568E-005
 -9.552667382153613E-005
 -9.585642234279638E-005
 -9.618096033786822E-005
 -7.080619955124684E-005
 -7.167026198490496E-005
 -7.251609846253731E-005
 -7.334395644948712E-005
 -7.415409853976342E-005
 -7.494680098257391E-005
 -7.572235228398504E-005
 -7.648105187777949E-005
 -7.722320886477411E-005
 -7.794914081793669E-005
 -7.865917265040135E-005
 -7.935363554419060E-005
 -8.003286593715259E-005
 -8.069720456559069E-005
 -8.134699556018013E-005
 -8.198258559290429E-005
 -8.260432307240690E-005
 -8.321255738569599E-005
 -8.380763818370492E-005
 -8.438991470866395E-005
 -8.495973516098922E-005
 -8.551744610355195E-005
 -8.606339190135015E-005
 -8.659791419446251E-005
 -8.712135140238722E-005
 -8.763403825780668E-005
 -8.813630536800272E-005
 -8.862847880203671E-005
 -8.911087970209745E-005
 -8.958382391719020E-005
 -9.004762165772440E-005
 -9.050257716927236E-005
 -9.094898842418694E-005
 -9.138714682948857E-005
 -9.181733694973426E-005
 -9.223983624353187E-005
 -9.265491481243670E-005
 -9.306283516099887E-005
 -9.346385196686448E-005
 -9.385821185981408E-005
 -9.424615320869988E-005
 -9.462790591533655E-005
 -9.500369121438786E-005
 -9.537372147841515E-005
 -9.573820002729832E-005
 -9.609732094132569E-005
 -9.645126887719730E-005
 -9.680021888586036E-005
 -9.714433623365971E-005
 -9.748377622206754E-005
 -7.045858822902423E-005
 -7.140350001386456E-005
 -7.232515596996547E-005
 -7.322402679709562E-005
 -7.410059322043186E-005
 -7.495534450559048E-005
 -7.578877705080516E-005
 -7.660139306696349E-005
 -7.739369933481977E-005
 -7.816620603779834E-005
 -7.891942566718848E-005
 -7.965387199653905E-005
 -8.037005912162314E-005
 -8.106850056287216E-005
 -8.174970842729070E-005
 -8.241419262642664E-005
 -8.306246014777629E-005
 -8.369501437630221E-005
 -8.431235446344608E-005
 -8.491497474070905E-005
 -8.550336417513594E-005
 -8.607800586401295E-005
 -8.663937656633308E-005
 -8.718794626844048E-005
 -8.772417778158031E-005
 -8.824852636897168E-005
 -8.876143940024938E-005
 -8.926335603109167E-005
 -8.975470690599484E-005
 -9.023591388223056E-005
 -9.070738977306546E-005
 -9.116953810842894E-005
 -9.162275291126914E-005
 -9.206741848790554E-005
 -9.250390923083864E-005
 -9.293258943235812E-005
 -9.335381310762597E-005
 -9.376792382571688E-005
 -9.417525454735346E-005
 -9.457612746805775E-005
 -9.497085386551237E-005
 -9.535973395000661E-005
 -9.574305671698925E-005
 -9.612109980064291E-005
 -9.649412932756147E-005
 -9.686239976948448E-005
 -9.722615379487726E-005
 -9.758562211957433E-005
 -9.794102334923154E-005
 -9.829256382839718E-005
 -6.997111197439141E-005
 -7.098731301985781E-005
 -7.197490332975742E-005
 -7.293461560448765E-005
 -7.386718549028573E-005
 -7.477335012552803E-005
 -7.565384681805042E-005
 -7.650941179784013E-005
 -7.734077906389129E-005
 -7.814867931752470E-005
 -7.893383897551396E-005
 -7.969697925935116E-005
 -8.043881535668835E-005
 -8.116005565089816E-005
 -8.186140101483155E-005
 -8.254354416454816E-005
 -8.320716906958833E-005
 -8.385295041578107E-005
 -8.448155311743946E-005
 -8.509363187524910E-005
 -8.568983077675673E-005
 -8.627078293618992E-005
 -8.683711017066763E-005
 -8.738942270974904E-005
 -8.792831893568442E-005
 -8.845438515154842E-005
 -8.896819537475943E-005
 -8.947031115343309E-005
 -8.996128140325855E-005
 -9.044164226262192E-005
 -9.091191696373995E-005
 -9.137261571776919E-005
 -9.182423561185265E-005
 -9.226726051621555E-005
 -9.270216099948498E-005
 -9.312939425038007E-005
 -9.354940400428584E-005
 -9.396262047294706E-005
 -9.436946027585008E-005
 -9.477032637189524E-005
 -9.516560798990796E-005
 -9.555568055675647E-005
 -9.594090562177333E-005
 -9.632163077647688E-005
 -9.669818956884409E-005
 -9.707090141126675E-005
 -9.744007147950064E-005
 -9.780599060010917E-005
 -9.816893514668163E-005
 -9.852916688948513E-005
 -6.937585470956989E-005
 -7.044899028878568E-005
 -7.148796416168569E-005
 -7.249380967885047E-005
 -7.346755369944408E-005
 -7.441021538200597E-005
 -7.532280496460525E-005
 -7.620632271260568E-005
 -7.706175795362568E-005
 -7.789008819948454E-005
 -7.869227835674323E-005
 -7.946928002051801E-005
 -8.022203084475902E-005
 -8.095145398357922E-005
 -8.165845759881245E-005
 -8.234393442922075E-005
 -8.300876141693750E-005
 -8.365379938663498E-005
 -8.427989277341554E-005
 -8.488786939511652E-005
 -8.547854026550865E-005
 -8.605269944456759E-005
 -8.661112392236637E-005
 -8.715457353328679E-005
 -8.768379089741578E-005
 -8.819950138598876E-005
 -8.870241310804893E-005
 -8.919321691555190E-005
 -8.967258642419794E-005
 -9.014117804749824E-005
 -9.059963104162229E-005
 -9.104856755863935E-005
 -9.148859270603978E-005
 -9.192029461020261E-005
 -9.234424448191552E-005
 -9.276099668191473E-005
 -9.317108878450107E-005
 -9.357504163753525E-005
 -9.397335941696341E-005
 -9.436652967431855E-005
 -9.475502337572030E-005
 -9.513929493097970E-005
 -9.551978221154390E-005
 -9.589690655554278E-005
 -9.627107275795695E-005
 -9.664266904550869E-005
 -9.701206704133131E-005
 -9.737962171882573E-005
 -9.774567128054566E-005
 -9.811053715299553E-005
 -6.871214470519492E-005
 -6.982225222318945E-005
 -7.089262873694464E-005
 -7.192464455273864E-005
 -7.291965171847400E-005
 -7.387898274333234E-005
 -7.480394988534307E-005
 -7.569584434441623E-005
 -7.655593558078610E-005
 -7.738547075361024E-005
 -7.818567424912383E-005
 -7.895774728756562E-005
 -7.970286760581395E-005
 -8.042218921159197E-005
 -8.111684220376013E-005
 -8.178793265227450E-005
 -8.243654253271084E-005
 -8.306372970982685E-005
 -8.367052796586619E-005
 -8.425794706893531E-005
 -8.482697287743842E-005
 -8.537856747650300E-005
 -8.591366934250060E-005
 -8.643319353215645E-005
 -8.693803189269980E-005
 -8.742905328974860E-005
 -8.790710384983690E-005
 -8.837300721453511E-005
 -8.882756480326412E-005
 -8.927155608200199E-005
 -8.970573883522261E-005
 -9.013084943847182E-005
 -9.054760312900824E-005
 -9.095669427214558E-005
 -9.135879662096487E-005
 -9.175456356711535E-005
 -9.214462838058317E-005
 -9.252960443648710E-005
 -9.291008542677904E-005
 -9.328664555501995E-005
 -9.365983971211483E-005
 -9.403020363119323E-005
 -9.439825402042699E-005
 -9.476448867393368E-005
 -9.512938656094924E-005
 -9.549340788709033E-005
 -9.585699410960324E-005
 -9.622056792092987E-005
 -9.658453338216372E-005
 -9.694927554733362E-005
 -6.802619628041616E-005
 -6.914687950771661E-005
 -7.022247731375313E-005
 -7.125472901943665E-005
 -7.224534016282274E-005
 -7.319598300141111E-005
 -7.410829550687958E-005
 -7.498388112233269E-005
 -7.582430861799708E-005
 -7.663111196614219E-005
 -7.740579029178448E-005
 -7.814980791527860E-005
 -7.886459447497708E-005
 -7.955154511595292E-005
 -8.021202073566409E-005
 -8.084734828097420E-005
 -8.145882109194440E-005
 -8.204769928783620E-005
 -8.261521019034936E-005
 -8.316254877946633E-005
 -8.369087817741578E-005
 -8.420133015631787E-005
 -8.469500566588822E-005
 -8.517297537718449E-005
 -8.563628023917642E-005
 -8.608593204434212E-005
 -8.652291400036825E-005
 -8.694818130429972E-005
 -8.736266171628749E-005
 -8.776725612962263E-005
 -8.816283913412829E-005
 -8.855025956989421E-005
 -8.893034106850648E-005
 -8.930388257886746E-005
 -8.967165887493577E-005
 -9.003442104239755E-005
 -9.039289694191398E-005
 -9.074779164608960E-005
 -9.109978784818498E-005
 -9.144954624060930E-005
 -9.179770586164682E-005
 -9.214488440812698E-005
 -9.249167850983278E-005
 -9.283866395962598E-005
 -9.318639589809694E-005
 -9.353540897326913E-005
 -9.388621751312036E-005
 -9.423931561631686E-005
 -9.459517667179298E-005
 -9.495425452035207E-005
 -6.737018474261162E-005
 -6.846781020417950E-005
 -6.951550693976240E-005
 -7.051540473311514E-005
 -7.146958500544665E-005
 -7.238007691113781E-005
 -7.324885938462962E-005
 -7.407786137288907E-005
 -7.486896197847221E-005
 -7.562399090585443E-005
 -7.634472906530844E-005
 -7.703290922782440E-005
 -7.769021671225163E-005
 -7.831829011429732E-005
 -7.891872208334511E-005
 -7.949306014461849E-005
 -8.004280755987783E-005
 -8.056942421992318E-005
 -8.107432756282345E-005
 -8.155889351356267E-005
 -8.202445744171461E-005
 -8.247231513325423E-005
 -8.290372377371979E-005
 -8.331990293880935E-005
 -8.372203558905351E-005
 -8.411126906464236E-005
 -8.448871607690485E-005
 -8.485545569233359E-005
 -8.521253430563696E-005
 -8.556096659766093E-005
 -8.590173647460896E-005
 -8.623579798447989E-005
 -8.656407620718800E-005
 -8.688746811458839E-005
 -8.720684339702474E-005
 -8.752304525292994E-005
 -8.783689113815618E-005
 -8.814917347128406E-005
 -8.846066029091770E-005
 -8.877209586096894E-005
 -8.908420122115320E-005
 -8.939767468372479E-005
 -8.971319228238706E-005
 -9.003140817797508E-005
 -9.035295500074117E-005
 -9.067844405481072E-005
 -9.100846532768880E-005
 -9.134358770690834E-005
 -9.168436057552896E-005
 -9.203130953895609E-005
 -6.680060809991412E-005
 -6.783356869178710E-005
 -6.881262333046601E-005
 -6.974031203834584E-005
 -7.061909434704315E-005
 -7.145136490352029E-005
 -7.223944879587363E-005
 -7.298560219705502E-005
 -7.369201428633042E-005
 -7.436080875748219E-005
 -7.499404502879606E-005
 -7.559371945017099E-005
 -7.616176661017468E-005
 -7.670006072749864E-005
 -7.721041708766101E-005
 -7.769459349978846E-005
 -7.815429176554907E-005
 -7.859115916119698E-005
 -7.900678993516548E-005
 -7.940272682227803E-005
 -7.978046257372439E-005
 -8.014144149958504E-005
 -8.048706102006570E-005
 -8.081867322121823E-005
 -8.113758641017138E-005
 -8.144506666524963E-005
 -8.174233937589562E-005
 -8.203059076697046E-005
 -8.231096940198566E-005
 -8.258458765922913E-005
 -8.285252317471824E-005
 -8.311582024555371E-005
 -8.337549118732785E-005
 -8.363251763931133E-005
 -8.388785181157781E-005
 -8.414241766914322E-005
 -8.439711204947476E-005
 -8.465280571098292E-005
 -8.491034431073796E-005
 -8.517054930787409E-005
 -8.543421878339121E-005
 -8.570212815874563E-005
 -8.597503079379823E-005
 -8.625365847269526E-005
 -8.653872187036488E-005
 -8.683091118226368E-005
 -8.713089684638668E-005
 -8.743932892642006E-005
 -8.775683285403254E-005
 -8.808402449568908E-005
 -6.637582847792334E-005
 -6.729389498246925E-005
 -6.815538486721407E-005
 -6.896321253690711E-005
 -6.972023488960621E-005
 -7.042920023301655E-005
 -7.109276637220372E-005
 -7.171350625641267E-005
 -7.229390829940807E-005
 -7.283637712294654E-005
 -7.334323540172179E-005
 -7.381672615687569E-005
 -7.425901503420416E-005
 -7.467219244517443E-005
 -7.505827561455373E-005
 -7.541921060803204E-005
 -7.575687438860540E-005
 -7.607307692099789E-005
 -7.636956332489734E-005
 -7.664801607049662E-005
 -7.691005720893841E-005
 -7.715725063169937E-005
 -7.739110435400941E-005
 -7.761307281742303E-005
 -7.782455920554376E-005
 -7.802691776476008E-005
 -7.822145612024199E-005
 -7.840943757542243E-005
 -7.859208338214694E-005
 -7.877057496850589E-005
 -7.894605611120191E-005
 -7.911963504022868E-005
 -7.929238646422215E-005
 -7.946535350545548E-005
 -7.963954953364942E-005
 -7.981595988783285E-005
 -7.999554347593638E-005
 -8.017923424435513E-005
 -8.036794251660515E-005
 -8.056255621225587E-005
 -8.076394197255318E-005
 -8.097294622372531E-005
 -8.119039617200240E-005
 -8.141710060515288E-005
 -8.165385019011758E-005
 -8.190141699492106E-005
 -8.216055415320240E-005
 -8.243199994948573E-005
 -8.271648881908821E-005
 -8.301469933610640E-005
 -6.615273637284901E-005
 -6.689655097569524E-005
 -6.758281482674333E-005
 -6.821492960970652E-005
 -6.879604458697416E-005
 -6.932924587000380E-005
 -6.981751964568481E-005
 -7.026373763558544E-005
 -7.067066138172808E-005
 -7.104094912162832E-005
 -7.137716031762898E-005
 -7.168175824469528E-005
 -7.195711189600773E-005
 -7.220549796252117E-005
 -7.242910311701819E-005
 -7.263002656995487E-005
 -7.281028279895358E-005
 -7.297180437832323E-005
 -7.311644487948444E-005
 -7.324598184630853E-005
 -7.336211986403327E-005
 -7.346649374010004E-005
 -7.356067180533587E-005
 -7.364615933103591E-005
 -7.372440204390476E-005
 -7.379678970995968E-005
 -7.386465975092728E-005
 -7.392930085203548E-005
 -7.399195651964046E-005
 -7.405382854877901E-005
 -7.411608036579299E-005
 -7.417984021760716E-005
 -7.424620418759890E-005
 -7.431623902630804E-005
 -7.439098479256890E-005
 -7.447145730436863E-005
 -7.455865039665892E-005
 -7.465353797291650E-005
 -7.475707581963475E-005
 -7.487020313581873E-005
 -7.499384373486833E-005
 -7.512890694546483E-005
 -7.527628841952916E-005
 -7.543687134015645E-005
 -7.561152863906810E-005
 -7.580112584716956E-005
 -7.600652033137017E-005
 -7.622854651989118E-005
 -7.646799355936745E-005
 -7.672577782652836E-005
 -6.618275966151885E-005
 -6.668309527087527E-005
 -6.712743875296512E-005
 -6.751912652203084E-005
 -6.786185469301780E-005
 -6.815905307893564E-005
 -6.841396183285835E-005
 -6.862969927477834E-005
 -6.880927567220891E-005
 -6.895558760275364E-005
 -6.907141227854671E-005
 -6.915940634390170E-005
 -6.922210797844206E-005
 -6.926194035043729E-005
 -6.928121518852380E-005
 -6.928213603625673E-005
 -6.926680123817316E-005
 -6.923720690233762E-005
 -6.919525009777358E-005
 -6.914273247835231E-005
 -6.908136443389850E-005
 -6.901276978770878E-005
 -6.893849099716027E-005
 -6.885999477343981E-005
 -6.877867801214466E-005
 -6.869587391682803E-005
 -6.861285819571917E-005
 -6.853085521603774E-005
 -6.845104400812455E-005
 -6.837456402103045E-005
 -6.830252054317628E-005
 -6.823598971565317E-005
 -6.817602308420166E-005
 -6.812365165870593E-005
 -6.807988947950993E-005
 -6.804573672640346E-005
 -6.802218244657989E-005
 -6.801020701272971E-005
 -6.801078443177848E-005
 -6.802488457500328E-005
 -6.805347524472524E-005
 -6.809752369488534E-005
 -6.815799683366019E-005
 -6.823585918594380E-005
 -6.833206875722108E-005
 -6.844757516324608E-005
 -6.858333332253023E-005
 -6.874034993696712E-005
 -6.891970644313641E-005
 -6.912200938739268E-005
 -6.650717611192354E-005
 -6.668461470091253E-005
 -6.680918149290301E-005
 -6.688619674512622E-005
 -6.691905944423523E-005
 -6.691127265556605E-005
 -6.686642410229989E-005
 -6.678800180326236E-005
 -6.667931661547756E-005
 -6.654349715010008E-005
 -6.638350731142406E-005
 -6.620216234317955E-005
 -6.600213709037598E-005
 -6.578596779073391E-005
 -6.555605059664079E-005
 -6.531463960915055E-005
 -6.506384619471832E-005
 -6.480564044033680E-005
 -6.454185495852779E-005
 -6.427419087406653E-005
 -6.400422563633079E-005
 -6.373342223906712E-005
 -6.346313943800944E-005
 -6.319464260125546E-005
 -6.292911488350281E-005
 -6.266766847190642E-005
 -6.241135569949304E-005
 -6.216117985988225E-005
 -6.191810558326893E-005
 -6.168306864804951E-005
 -6.145698510725685E-005
 -6.124075960561664E-005
 -6.103529275561741E-005
 -6.084148743441813E-005
 -6.066025386667856E-005
 -6.049251338433709E-005
 -6.033920082151531E-005
 -6.020126563633901E-005
 -6.007967207872985E-005
 -5.997539906009307E-005
 -5.988944079459091E-005
 -5.982280960494720E-005
 -5.977654204624325E-005
 -5.975170765339596E-005
 -5.974941434100478E-005
 -5.977079408100303E-005
 -5.981694165065809E-005
 -5.988880647513866E-005
 -5.998727799650878E-005
 -6.011482903371585E-005
 -6.715363201075176E-005
 -6.691270891908901E-005
 -6.663014397291575E-005
 -6.630538616186093E-005
 -6.594366878443906E-005
 -6.554999966791085E-005
 -6.512853950340901E-005
 -6.468293988691671E-005
 -6.421662944029165E-005
 -6.373293032620144E-005
 -6.323506625384180E-005
 -6.272612542114165E-005
 -6.220901583181924E-005
 -6.168642978717166E-005
 -6.116082256962384E-005
 -6.063440476387209E-005
 -6.010914557154762E-005
 -5.958678409172539E-005
 -5.906884587233511E-005
 -5.855666259620483E-005
 -5.805139332709805E-005
 -5.755404622052812E-005
 -5.706549998182558E-005
 -5.658652463570940E-005
 -5.611780137383072E-005
 -5.565994138528128E-005
 -5.521350366542346E-005
 -5.477901185039108E-005
 -5.435697014713212E-005
 -5.394787842604952E-005
 -5.355224651738062E-005
 -5.317060770335051E-005
 -5.280353132282248E-005
 -5.245163430087818E-005
 -5.211559127762594E-005
 -5.179614283752192E-005
 -5.149410113876999E-005
 -5.121035203672653E-005
 -5.094585265244646E-005
 -5.070162340255325E-005
 -5.047873407618750E-005
 -5.027828516729146E-005
 -5.010138925822810E-005
 -4.994916400995997E-005
 -4.982275876080244E-005
 -4.972344625328658E-005
 -4.965279362458725E-005
 -4.961278097332513E-005
 -4.960511103978300E-005
 -4.962670862205239E-005
 -6.812928867636725E-005
 -6.736582648038595E-005
 -6.655433610312714E-005
 -6.571790580272815E-005
 -6.486117739390698E-005
 -6.398617966475948E-005
 -6.309592255283536E-005
 -6.219453246466430E-005
 -6.128667344741209E-005
 -6.037701481592286E-005
 -5.946988897458535E-005
 -5.856911527049217E-005
 -5.767793665747025E-005
 -5.679902403134004E-005
 -5.593451703291293E-005
 -5.508608168919249E-005
 -5.425497330737092E-005
 -5.344209820461326E-005
 -5.264807102574427E-005
 -5.187326627804412E-005
 -5.111786378306885E-005
 -5.038188832817266E-005
 -4.966524409331333E-005
 -4.896774455404700E-005
 -4.828913859456766E-005
 -4.762913354892060E-005
 -4.698741584977509E-005
 -4.636366991898491E-005
 -4.575759588750654E-005
 -4.516892668871933E-005
 -4.459744502750386E-005
 -4.404300068211718E-005
 -4.350552853918097E-005
 -4.298506767803644E-005
 -4.248178168502847E-005
 -4.199598015053886E-005
 -4.152814091916632E-005
 -4.107893202502498E-005
 -4.064923119837315E-005
 -4.024013915084161E-005
 -3.985298024029426E-005
 -3.948928028926080E-005
 -3.915070632472014E-005
 -3.883894831408172E-005
 -3.855552496095973E-005
 -3.830152561271732E-005
 -3.807742364662602E-005
 -3.788350593046166E-005
 -3.772271628257265E-005
 -3.761141640445154E-005
 -6.942773706124130E-005
 -6.793694283368585E-005
 -6.648194485488125E-005
 -6.501007259839746E-005
 -6.351723878836053E-005
 -6.201430366775038E-005
 -6.051476982376471E-005
 -5.903063811049758E-005
 -5.757134244155796E-005
 -5.614378891973989E-005
 -5.475273618178085E-005
 -5.340123072987340E-005
 -5.209099894032814E-005
 -5.082277027958242E-005
 -4.959653302548189E-005
 -4.841173224558361E-005
 -4.726742119276164E-005
 -4.616237620621077E-005
 -4.509518347217878E-005
 -4.406430428653582E-005
 -4.306812399577760E-005
 -4.210498861191869E-005
 -4.117323217744075E-005
 -4.027119725403691E-005
 -3.939725038045430E-005
 -3.854979395459568E-005
 -3.772727571221570E-005
 -3.692819677992112E-005
 -3.615111915630933E-005
 -3.539467341324535E-005
 -3.465756740456964E-005
 -3.393859681982551E-005
 -3.323665853075295E-005
 -3.255076785281421E-005
 -3.188008109429909E-005
 -3.122392509982098E-005
 -3.058183591989530E-005
 -2.995360924021886E-005
 -2.933936572174229E-005
 -2.873963475084136E-005
 -2.815545980053046E-005
 -2.758852648891377E-005
 -2.704130767894570E-005
 -2.651720185054700E-005
 -2.602059518161479E-005
 -2.555666428412669E-005
 -2.513045546527924E-005
 -2.474407357703533E-005
 -2.438902973387737E-005
 -2.402618965096810E-005
 -7.098094690540972E-005
 -6.874201949988107E-005
 -6.628085023030456E-005
 -6.376925688302122E-005
 -6.129235970642766E-005
 -5.889213200111104E-005
 -5.658820459922158E-005
 -5.438828272922466E-005
 -5.229359209106727E-005
 -5.030183413945071E-005
 -4.840883807262341E-005
 -4.660950391101792E-005
 -4.489834696288359E-005
 -4.326981200672642E-005
 -4.171845164766021E-005
 -4.023902339675435E-005
 -3.882653773140874E-005
 -3.747627657441047E-005
 -3.618379406832908E-005
 -3.494490697113190E-005
 -3.375567921207547E-005
 -3.261240341803401E-005
 -3.151158113805336E-005
 -3.044990281309023E-005
 -2.942422810953965E-005
 -2.843156696929405E-005
 -2.746906156909196E-005
 -2.653396929378463E-005
 -2.562364679090045E-005
 -2.473553517934446E-005
 -2.386714652743415E-005
 -2.301605180269933E-005
 -2.217987063787626E-005
 -2.135626347947746E-005
 -2.054292702700854E-005
 -1.973759439925793E-005
 -1.893804229079175E-005
 -1.814210869800118E-005
 -1.734772692907497E-005
 -1.655298515546450E-005
 -1.575622679425689E-005
 -1.495621757739391E-005
 -1.415242427717220E-005
 -1.334548586859020E-005
 -1.253802760567972E-005
 -1.173610968928658E-005
 -1.095190032191766E-005
 -1.020881887194169E-005
 -9.551896991927184E-006
 -9.069677884583274E-006
 -7.279367579643604E-005
 -6.769636549167467E-005
 -6.321884032854276E-005
 -5.922803621483612E-005
 -5.563100331933188E-005
 -5.235999970227132E-005
 -4.936396492102661E-005
 -4.660334429426394E-005
 -4.404678714901225E-005
 -4.166895358882854E-005
 -3.944900895567624E-005
 -3.736956200679072E-005
 -3.541589872170392E-005
 -3.357541834005405E-005
 -3.183721082116449E-005
 -3.019173507896537E-005
 -2.863057021485548E-005
 -2.714622040074511E-005
 -2.573195970600135E-005
 -2.438170700851097E-005
 -2.308992379200455E-005
 -2.185152950048381E-005
 -2.066183044563601E-005
 -1.951645921268532E-005
 -1.841132219382284E-005
 -1.734255337228563E-005
 -1.630647283500407E-005
 -1.529954874296515E-005
 -1.431836165807186E-005
 -1.335957023064788E-005
 -1.241987729865124E-005
 -1.149599544470671E-005
 -1.058461099542443E-005
 -9.682345325440125E-006
 -8.785712129675795E-006
 -7.891069032168307E-006
 -6.994561471697850E-006
 -6.092056190727085E-006
 -5.179060770836748E-006
 -4.250624370337536E-006
 -3.301212911173643E-006
 -2.324549064139392E-006
 -1.313402852968350E-006
 -2.593113754489373E-007
  8.478061829846219E-007
  2.020193759094831E-006
  3.273059478720773E-006
  4.625806390103746E-006
  6.104027316846276E-006
  7.742945937544213E-006
SCALARS elementIsPlast double 
LOOKUP_TABLE default
  0.000000000000000E+000
  0.000000000000000E+000
  0.000000000000000E+000
  0.000000000000000E+000
   1.00000000000000     
   1.00000000000000     
   1.00000000000000     
   1.00000000000000     
   1.00000000000000     
   1.00000000000000     
   1.00000000000000     
   1.00000000000000     
   1.00000000000000     
   1.00000000000000     
   1.00000000000000     
   1.00000000000000     
   1.00000000000000     
   1.00000000000000     
  0.000000000000000E+000
  0.000000000000000E+000
  0.000000000000000E+000
  0.000000000000000E+000
  0.000000000000000E+000
  0.000000000000000E+000
  0.000000000000000E+000
  0.000000000000000E+000
  0.000000000000000E+000
  0.000000000000000E+000
  0.000000000000000E+000
  0.000000000000000E+000
  0.000000000000000E+000
  0.000000000000000E+000
  0.000000000000000E+000
   1.00000000000000     
   1.00000000000000     
   1.00000000000000     
   1.00000000000000     
   1.00000000000000     
   1.00000000000000     
   1.00000000000000     
   1.00000000000000     
   1.00000000000000     
   1.00000000000000     
   1.00000000000000     
   1.00000000000000     
   1.00000000000000     
   1.00000000000000     
   1.00000000000000     
   1.00000000000000     
   1.00000000000000     
   1.00000000000000     
   1.00000000000000     
   1.00000000000000     
   1.00000000000000     
   1.00000000000000     
   1.00000000000000     
   1.00000000000000     
   1.00000000000000     
   1.00000000000000     
   1.00000000000000     
   1.00000000000000     
   1.00000000000000     
   1.00000000000000     
   1.00000000000000     
  0.000000000000000E+000
  0.000000000000000E+000
  0.000000000000000E+000
  0.000000000000000E+000
  0.000000000000000E+000
  0.000000000000000E+000
  0.000000000000000E+000
  0.000000000000000E+000
  0.000000000000000E+000
  0.000000000000000E+000
  0.000000000000000E+000
  0.000000000000000E+000
  0.000000000000000E+000
  0.000000000000000E+000
  0.000000000000000E+000
  0.000000000000000E+000
  0.000000000000000E+000
  0.000000000000000E+000
  0.000000000000000E+000
  0.000000000000000E+000
   1.00000000000000     
   1.00000000000000     
   1.00000000000000     
   1.00000000000000     
   1.00000000000000     
   1.00000000000000     
   1.00000000000000     
   1.00000000000000     
   1.00000000000000     
   1.00000000000000     
   1.00000000000000     
   1.00000000000000     
   1.00000000000000     
   1.00000000000000     
   1.00000000000000     
   1.00000000000000     
  0.000000000000000E+000
  0.000000000000000E+000
  0.000000000000000E+000
  0.000000000000000E+000
  0.000000000000000E+000
  0.000000000000000E+000
  0.000000000000000E+000
  0.000000000000000E+000
  0.000000000000000E+000
  0.000000000000000E+000
  0.000000000000000E+000
  0.000000000000000E+000
  0.000000000000000E+000
  0.000000000000000E+000
  0.000000000000000E+000
  0.000000000000000E+000
  0.000000000000000E+000
  0.000000000000000E+000
  0.000000000000000E+000
  0.000000000000000E+000
  0.000000000000000E+000
  0.000000000000000E+000
  0.000000000000000E+000
  0.000000000000000E+000
  0.000000000000000E+000
  0.000000000000000E+000
  0.000000000000000E+000
  0.000000000000000E+000
  0.000000000000000E+000
  0.000000000000000E+000
  0.000000000000000E+000
  0.000000000000000E+000
  0.000000000000000E+000
  0.000000000000000E+000
  0.000000000000000E+000
  0.000000000000000E+000
   1.00000000000000     
   1.00000000000000     
   1.00000000000000     
   1.00000000000000     
   1.00000000000000     
   1.00000000000000     
   1.00000000000000     
   1.00000000000000     
   1.00000000000000     
   1.00000000000000     
   1.00000000000000     
   1.00000000000000     
   1.00000000000000     
   1.00000000000000     
  0.000000000000000E+000
  0.000000000000000E+000
  0.000000000000000E+000
  0.000000000000000E+000
  0.000000000000000E+000
  0.000000000000000E+000
  0.000000000000000E+000
  0.000000000000000E+000
  0.000000000000000E+000
  0.000000000000000E+000
  0.000000000000000E+000
  0.000000000000000E+000
  0.000000000000000E+000
  0.000000000000000E+000
  0.000000000000000E+000
  0.000000000000000E+000
  0.000000000000000E+000
  0.000000000000000E+000
  0.000000000000000E+000
  0.000000000000000E+000
  0.000000000000000E+000
  0.000000000000000E+000
  0.000000000000000E+000
  0.000000000000000E+000
  0.000000000000000E+000
  0.000000000000000E+000
  0.000000000000000E+000
  0.000000000000000E+000
  0.000000000000000E+000
  0.000000000000000E+000
  0.000000000000000E+000
  0.000000000000000E+000
  0.000000000000000E+000
  0.000000000000000E+000
  0.000000000000000E+000
  0.000000000000000E+000
  0.000000000000000E+000
  0.000000000000000E+000
   1.00000000000000     
   1.00000000000000     
   1.00000000000000     
   1.00000000000000     
   1.00000000000000     
   1.00000000000000     
   1.00000000000000     
   1.00000000000000     
   1.00000000000000     
   1.00000000000000     
   1.00000000000000     
   1.00000000000000     
  0.000000000000000E+000
  0.000000000000000E+000
  0.000000000000000E+000
  0.000000000000000E+000
  0.000000000000000E+000
  0.000000000000000E+000
  0.000000000000000E+000
  0.000000000000000E+000
  0.000000000000000E+000
  0.000000000000000E+000
  0.000000000000000E+000
  0.000000000000000E+000
  0.000000000000000E+000
  0.000000000000000E+000
  0.000000000000000E+000
  0.000000000000000E+000
  0.000000000000000E+000
  0.000000000000000E+000
  0.000000000000000E+000
  0.000000000000000E+000
  0.000000000000000E+000
  0.000000000000000E+000
  0.000000000000000E+000
  0.000000000000000E+000
  0.000000000000000E+000
  0.000000000000000E+000
  0.000000000000000E+000
  0.000000000000000E+000
  0.000000000000000E+000
  0.000000000000000E+000
  0.000000000000000E+000
  0.000000000000000E+000
  0.000000000000000E+000
  0.000000000000000E+000
  0.000000000000000E+000
  0.000000000000000E+000
  0.000000000000000E+000
  0.000000000000000E+000
  0.000000000000000E+000
  0.000000000000000E+000
  0.000000000000000E+000
   1.00000000000000     
   1.00000000000000     
   1.00000000000000     
   1.00000000000000     
   1.00000000000000     
   1.00000000000000     
   1.00000000000000     
   1.00000000000000     
   1.00000000000000     
  0.000000000000000E+000
  0.000000000000000E+000
  0.000000000000000E+000
  0.000000000000000E+000
  0.000000000000000E+000
  0.000000000000000E+000
  0.000000000000000E+000
  0.000000000000000E+000
  0.000000000000000E+000
  0.000000000000000E+000
  0.000000000000000E+000
  0.000000000000000E+000
  0.000000000000000E+000
  0.000000000000000E+000
  0.000000000000000E+000
  0.000000000000000E+000
  0.000000000000000E+000
  0.000000000000000E+000
  0.000000000000000E+000
  0.000000000000000E+000
  0.000000000000000E+000
  0.000000000000000E+000
  0.000000000000000E+000
  0.000000000000000E+000
  0.000000000000000E+000
  0.000000000000000E+000
  0.000000000000000E+000
  0.000000000000000E+000
  0.000000000000000E+000
  0.000000000000000E+000
  0.000000000000000E+000
  0.000000000000000E+000
  0.000000000000000E+000
  0.000000000000000E+000
  0.000000000000000E+000
  0.000000000000000E+000
  0.000000000000000E+000
  0.000000000000000E+000
  0.000000000000000E+000
  0.000000000000000E+000
  0.000000000000000E+000
  0.000000000000000E+000
  0.000000000000000E+000
  0.000000000000000E+000
   1.00000000000000     
   1.00000000000000     
   1.00000000000000     
   1.00000000000000     
   1.00000000000000     
   1.00000000000000     
  0.000000000000000E+000
  0.000000000000000E+000
  0.000000000000000E+000
  0.000000000000000E+000
  0.000000000000000E+000
  0.000000000000000E+000
  0.000000000000000E+000
  0.000000000000000E+000
  0.000000000000000E+000
  0.000000000000000E+000
  0.000000000000000E+000
  0.000000000000000E+000
  0.000000000000000E+000
  0.000000000000000E+000
  0.000000000000000E+000
  0.000000000000000E+000
  0.000000000000000E+000
  0.000000000000000E+000
  0.000000000000000E+000
  0.000000000000000E+000
  0.000000000000000E+000
  0.000000000000000E+000
  0.000000000000000E+000
  0.000000000000000E+000
  0.000000000000000E+000
  0.000000000000000E+000
  0.000000000000000E+000
  0.000000000000000E+000
  0.000000000000000E+000
  0.000000000000000E+000
  0.000000000000000E+000
  0.000000000000000E+000
  0.000000000000000E+000
  0.000000000000000E+000
  0.000000000000000E+000
  0.000000000000000E+000
  0.000000000000000E+000
  0.000000000000000E+000
  0.000000000000000E+000
  0.000000000000000E+000
  0.000000000000000E+000
  0.000000000000000E+000
  0.000000000000000E+000
  0.000000000000000E+000
  0.000000000000000E+000
  0.000000000000000E+000
  0.000000000000000E+000
   1.00000000000000     
   1.00000000000000     
   1.00000000000000     
  0.000000000000000E+000
  0.000000000000000E+000
  0.000000000000000E+000
  0.000000000000000E+000
  0.000000000000000E+000
  0.000000000000000E+000
  0.000000000000000E+000
  0.000000000000000E+000
  0.000000000000000E+000
  0.000000000000000E+000
  0.000000000000000E+000
  0.000000000000000E+000
  0.000000000000000E+000
  0.000000000000000E+000
  0.000000000000000E+000
  0.000000000000000E+000
  0.000000000000000E+000
  0.000000000000000E+000
  0.000000000000000E+000
  0.000000000000000E+000
  0.000000000000000E+000
  0.000000000000000E+000
  0.000000000000000E+000
  0.000000000000000E+000
  0.000000000000000E+000
  0.000000000000000E+000
  0.000000000000000E+000
  0.000000000000000E+000
  0.000000000000000E+000
  0.000000000000000E+000
  0.000000000000000E+000
  0.000000000000000E+000
  0.000000000000000E+000
  0.000000000000000E+000
  0.000000000000000E+000
  0.000000000000000E+000
  0.000000000000000E+000
  0.000000000000000E+000
  0.000000000000000E+000
  0.000000000000000E+000
  0.000000000000000E+000
  0.000000000000000E+000
  0.000000000000000E+000
  0.000000000000000E+000
  0.000000000000000E+000
  0.000000000000000E+000
  0.000000000000000E+000
  0.000000000000000E+000
  0.000000000000000E+000
  0.000000000000000E+000
  0.000000000000000E+000
  0.000000000000000E+000
  0.000000000000000E+000
  0.000000000000000E+000
  0.000000000000000E+000
  0.000000000000000E+000
  0.000000000000000E+000
  0.000000000000000E+000
  0.000000000000000E+000
  0.000000000000000E+000
  0.000000000000000E+000
  0.000000000000000E+000
  0.000000000000000E+000
  0.000000000000000E+000
  0.000000000000000E+000
  0.000000000000000E+000
  0.000000000000000E+000
  0.000000000000000E+000
  0.000000000000000E+000
  0.000000000000000E+000
  0.000000000000000E+000
  0.000000000000000E+000
  0.000000000000000E+000
  0.000000000000000E+000
  0.000000000000000E+000
  0.000000000000000E+000
  0.000000000000000E+000
  0.000000000000000E+000
  0.000000000000000E+000
  0.000000000000000E+000
  0.000000000000000E+000
  0.000000000000000E+000
  0.000000000000000E+000
  0.000000000000000E+000
  0.000000000000000E+000
  0.000000000000000E+000
  0.000000000000000E+000
  0.000000000000000E+000
  0.000000000000000E+000
  0.000000000000000E+000
  0.000000000000000E+000
  0.000000000000000E+000
  0.000000000000000E+000
  0.000000000000000E+000
  0.000000000000000E+000
  0.000000000000000E+000
  0.000000000000000E+000
  0.000000000000000E+000
  0.000000000000000E+000
  0.000000000000000E+000
  0.000000000000000E+000
  0.000000000000000E+000
  0.000000000000000E+000
  0.000000000000000E+000
  0.000000000000000E+000
  0.000000000000000E+000
  0.000000000000000E+000
  0.000000000000000E+000
  0.000000000000000E+000
  0.000000000000000E+000
  0.000000000000000E+000
  0.000000000000000E+000
  0.000000000000000E+000
  0.000000000000000E+000
  0.000000000000000E+000
  0.000000000000000E+000
  0.000000000000000E+000
  0.000000000000000E+000
  0.000000000000000E+000
  0.000000000000000E+000
  0.000000000000000E+000
  0.000000000000000E+000
  0.000000000000000E+000
  0.000000000000000E+000
  0.000000000000000E+000
  0.000000000000000E+000
  0.000000000000000E+000
  0.000000000000000E+000
  0.000000000000000E+000
  0.000000000000000E+000
  0.000000000000000E+000
  0.000000000000000E+000
  0.000000000000000E+000
  0.000000000000000E+000
  0.000000000000000E+000
  0.000000000000000E+000
  0.000000000000000E+000
  0.000000000000000E+000
  0.000000000000000E+000
  0.000000000000000E+000
  0.000000000000000E+000
  0.000000000000000E+000
  0.000000000000000E+000
  0.000000000000000E+000
  0.000000000000000E+000
  0.000000000000000E+000
  0.000000000000000E+000
  0.000000000000000E+000
  0.000000000000000E+000
  0.000000000000000E+000
  0.000000000000000E+000
  0.000000000000000E+000
  0.000000000000000E+000
  0.000000000000000E+000
  0.000000000000000E+000
  0.000000000000000E+000
  0.000000000000000E+000
  0.000000000000000E+000
  0.000000000000000E+000
  0.000000000000000E+000
  0.000000000000000E+000
  0.000000000000000E+000
  0.000000000000000E+000
  0.000000000000000E+000
  0.000000000000000E+000
  0.000000000000000E+000
  0.000000000000000E+000
  0.000000000000000E+000
  0.000000000000000E+000
  0.000000000000000E+000
  0.000000000000000E+000
  0.000000000000000E+000
  0.000000000000000E+000
  0.000000000000000E+000
  0.000000000000000E+000
  0.000000000000000E+000
  0.000000000000000E+000
  0.000000000000000E+000
  0.000000000000000E+000
  0.000000000000000E+000
  0.000000000000000E+000
  0.000000000000000E+000
  0.000000000000000E+000
  0.000000000000000E+000
  0.000000000000000E+000
  0.000000000000000E+000
  0.000000000000000E+000
  0.000000000000000E+000
  0.000000000000000E+000
  0.000000000000000E+000
  0.000000000000000E+000
  0.000000000000000E+000
  0.000000000000000E+000
  0.000000000000000E+000
  0.000000000000000E+000
  0.000000000000000E+000
  0.000000000000000E+000
  0.000000000000000E+000
  0.000000000000000E+000
  0.000000000000000E+000
  0.000000000000000E+000
  0.000000000000000E+000
  0.000000000000000E+000
  0.000000000000000E+000
  0.000000000000000E+000
  0.000000000000000E+000
  0.000000000000000E+000
  0.000000000000000E+000
  0.000000000000000E+000
  0.000000000000000E+000
  0.000000000000000E+000
  0.000000000000000E+000
  0.000000000000000E+000
  0.000000000000000E+000
  0.000000000000000E+000
  0.000000000000000E+000
  0.000000000000000E+000
  0.000000000000000E+000
  0.000000000000000E+000
  0.000000000000000E+000
  0.000000000000000E+000
  0.000000000000000E+000
  0.000000000000000E+000
  0.000000000000000E+000
  0.000000000000000E+000
  0.000000000000000E+000
  0.000000000000000E+000
  0.000000000000000E+000
  0.000000000000000E+000
  0.000000000000000E+000
  0.000000000000000E+000
  0.000000000000000E+000
  0.000000000000000E+000
  0.000000000000000E+000
  0.000000000000000E+000
  0.000000000000000E+000
  0.000000000000000E+000
  0.000000000000000E+000
  0.000000000000000E+000
  0.000000000000000E+000
  0.000000000000000E+000
  0.000000000000000E+000
  0.000000000000000E+000
  0.000000000000000E+000
  0.000000000000000E+000
  0.000000000000000E+000
  0.000000000000000E+000
  0.000000000000000E+000
  0.000000000000000E+000
  0.000000000000000E+000
  0.000000000000000E+000
  0.000000000000000E+000
  0.000000000000000E+000
  0.000000000000000E+000
  0.000000000000000E+000
  0.000000000000000E+000
  0.000000000000000E+000
  0.000000000000000E+000
  0.000000000000000E+000
  0.000000000000000E+000
  0.000000000000000E+000
  0.000000000000000E+000
  0.000000000000000E+000
  0.000000000000000E+000
  0.000000000000000E+000
  0.000000000000000E+000
  0.000000000000000E+000
  0.000000000000000E+000
  0.000000000000000E+000
  0.000000000000000E+000
  0.000000000000000E+000
  0.000000000000000E+000
  0.000000000000000E+000
  0.000000000000000E+000
  0.000000000000000E+000
  0.000000000000000E+000
  0.000000000000000E+000
  0.000000000000000E+000
  0.000000000000000E+000
  0.000000000000000E+000
  0.000000000000000E+000
  0.000000000000000E+000
  0.000000000000000E+000
  0.000000000000000E+000
  0.000000000000000E+000
  0.000000000000000E+000
  0.000000000000000E+000
  0.000000000000000E+000
  0.000000000000000E+000
  0.000000000000000E+000
  0.000000000000000E+000
  0.000000000000000E+000
  0.000000000000000E+000
  0.000000000000000E+000
  0.000000000000000E+000
  0.000000000000000E+000
  0.000000000000000E+000
  0.000000000000000E+000
  0.000000000000000E+000
  0.000000000000000E+000
  0.000000000000000E+000
  0.000000000000000E+000
  0.000000000000000E+000
  0.000000000000000E+000
  0.000000000000000E+000
  0.000000000000000E+000
  0.000000000000000E+000
  0.000000000000000E+000
  0.000000000000000E+000
  0.000000000000000E+000
  0.000000000000000E+000
  0.000000000000000E+000
  0.000000000000000E+000
  0.000000000000000E+000
  0.000000000000000E+000
  0.000000000000000E+000
  0.000000000000000E+000
  0.000000000000000E+000
  0.000000000000000E+000
  0.000000000000000E+000
  0.000000000000000E+000
  0.000000000000000E+000
  0.000000000000000E+000
  0.000000000000000E+000
  0.000000000000000E+000
  0.000000000000000E+000
  0.000000000000000E+000
  0.000000000000000E+000
  0.000000000000000E+000
  0.000000000000000E+000
  0.000000000000000E+000
  0.000000000000000E+000
  0.000000000000000E+000
  0.000000000000000E+000
  0.000000000000000E+000
  0.000000000000000E+000
  0.000000000000000E+000
  0.000000000000000E+000
  0.000000000000000E+000
  0.000000000000000E+000
  0.000000000000000E+000
  0.000000000000000E+000
  0.000000000000000E+000
  0.000000000000000E+000
  0.000000000000000E+000
  0.000000000000000E+000
  0.000000000000000E+000
  0.000000000000000E+000
  0.000000000000000E+000
  0.000000000000000E+000
  0.000000000000000E+000
  0.000000000000000E+000
  0.000000000000000E+000
  0.000000000000000E+000
  0.000000000000000E+000
  0.000000000000000E+000
  0.000000000000000E+000
  0.000000000000000E+000
  0.000000000000000E+000
  0.000000000000000E+000
  0.000000000000000E+000
  0.000000000000000E+000
  0.000000000000000E+000
  0.000000000000000E+000
  0.000000000000000E+000
  0.000000000000000E+000
  0.000000000000000E+000
  0.000000000000000E+000
  0.000000000000000E+000
  0.000000000000000E+000
  0.000000000000000E+000
  0.000000000000000E+000
  0.000000000000000E+000
  0.000000000000000E+000
  0.000000000000000E+000
  0.000000000000000E+000
  0.000000000000000E+000
  0.000000000000000E+000
  0.000000000000000E+000
  0.000000000000000E+000
  0.000000000000000E+000
  0.000000000000000E+000
  0.000000000000000E+000
  0.000000000000000E+000
  0.000000000000000E+000
  0.000000000000000E+000
  0.000000000000000E+000
  0.000000000000000E+000
  0.000000000000000E+000
  0.000000000000000E+000
  0.000000000000000E+000
  0.000000000000000E+000
  0.000000000000000E+000
  0.000000000000000E+000
  0.000000000000000E+000
  0.000000000000000E+000
  0.000000000000000E+000
  0.000000000000000E+000
  0.000000000000000E+000
  0.000000000000000E+000
  0.000000000000000E+000
  0.000000000000000E+000
  0.000000000000000E+000
  0.000000000000000E+000
  0.000000000000000E+000
  0.000000000000000E+000
  0.000000000000000E+000
  0.000000000000000E+000
  0.000000000000000E+000
  0.000000000000000E+000
  0.000000000000000E+000
  0.000000000000000E+000
  0.000000000000000E+000
  0.000000000000000E+000
  0.000000000000000E+000
  0.000000000000000E+000
  0.000000000000000E+000
  0.000000000000000E+000
  0.000000000000000E+000
  0.000000000000000E+000
  0.000000000000000E+000
  0.000000000000000E+000
  0.000000000000000E+000
  0.000000000000000E+000
  0.000000000000000E+000
  0.000000000000000E+000
  0.000000000000000E+000
  0.000000000000000E+000
  0.000000000000000E+000
  0.000000000000000E+000
  0.000000000000000E+000
  0.000000000000000E+000
  0.000000000000000E+000
  0.000000000000000E+000
  0.000000000000000E+000
  0.000000000000000E+000
  0.000000000000000E+000
  0.000000000000000E+000
  0.000000000000000E+000
  0.000000000000000E+000
  0.000000000000000E+000
  0.000000000000000E+000
  0.000000000000000E+000
  0.000000000000000E+000
  0.000000000000000E+000
  0.000000000000000E+000
  0.000000000000000E+000
  0.000000000000000E+000
  0.000000000000000E+000
  0.000000000000000E+000
  0.000000000000000E+000
  0.000000000000000E+000
  0.000000000000000E+000
  0.000000000000000E+000
  0.000000000000000E+000
  0.000000000000000E+000
  0.000000000000000E+000
  0.000000000000000E+000
  0.000000000000000E+000
  0.000000000000000E+000
  0.000000000000000E+000
  0.000000000000000E+000
  0.000000000000000E+000
  0.000000000000000E+000
  0.000000000000000E+000
  0.000000000000000E+000
  0.000000000000000E+000
  0.000000000000000E+000
  0.000000000000000E+000
  0.000000000000000E+000
  0.000000000000000E+000
  0.000000000000000E+000
  0.000000000000000E+000
  0.000000000000000E+000
  0.000000000000000E+000
  0.000000000000000E+000
  0.000000000000000E+000
  0.000000000000000E+000
  0.000000000000000E+000
  0.000000000000000E+000
  0.000000000000000E+000
  0.000000000000000E+000
  0.000000000000000E+000
  0.000000000000000E+000
  0.000000000000000E+000
  0.000000000000000E+000
  0.000000000000000E+000
  0.000000000000000E+000
  0.000000000000000E+000
  0.000000000000000E+000
  0.000000000000000E+000
  0.000000000000000E+000
  0.000000000000000E+000
  0.000000000000000E+000
  0.000000000000000E+000
  0.000000000000000E+000
  0.000000000000000E+000
  0.000000000000000E+000
  0.000000000000000E+000
  0.000000000000000E+000
  0.000000000000000E+000
  0.000000000000000E+000
  0.000000000000000E+000
  0.000000000000000E+000
  0.000000000000000E+000
  0.000000000000000E+000
  0.000000000000000E+000
  0.000000000000000E+000
  0.000000000000000E+000
  0.000000000000000E+000
  0.000000000000000E+000
  0.000000000000000E+000
  0.000000000000000E+000
  0.000000000000000E+000
  0.000000000000000E+000
  0.000000000000000E+000
  0.000000000000000E+000
  0.000000000000000E+000
  0.000000000000000E+000
  0.000000000000000E+000
  0.000000000000000E+000
  0.000000000000000E+000
  0.000000000000000E+000
  0.000000000000000E+000
  0.000000000000000E+000
  0.000000000000000E+000
  0.000000000000000E+000
  0.000000000000000E+000
  0.000000000000000E+000
  0.000000000000000E+000
  0.000000000000000E+000
  0.000000000000000E+000
  0.000000000000000E+000
  0.000000000000000E+000
  0.000000000000000E+000
  0.000000000000000E+000
  0.000000000000000E+000
  0.000000000000000E+000
  0.000000000000000E+000
  0.000000000000000E+000
  0.000000000000000E+000
  0.000000000000000E+000
  0.000000000000000E+000
  0.000000000000000E+000
  0.000000000000000E+000
  0.000000000000000E+000
  0.000000000000000E+000
  0.000000000000000E+000
  0.000000000000000E+000
  0.000000000000000E+000
  0.000000000000000E+000
  0.000000000000000E+000
  0.000000000000000E+000
  0.000000000000000E+000
  0.000000000000000E+000
  0.000000000000000E+000
  0.000000000000000E+000
  0.000000000000000E+000
  0.000000000000000E+000
  0.000000000000000E+000
  0.000000000000000E+000
  0.000000000000000E+000
  0.000000000000000E+000
  0.000000000000000E+000
  0.000000000000000E+000
  0.000000000000000E+000
  0.000000000000000E+000
  0.000000000000000E+000
  0.000000000000000E+000
  0.000000000000000E+000
  0.000000000000000E+000
  0.000000000000000E+000
  0.000000000000000E+000
  0.000000000000000E+000
  0.000000000000000E+000
  0.000000000000000E+000
  0.000000000000000E+000
  0.000000000000000E+000
  0.000000000000000E+000
  0.000000000000000E+000
  0.000000000000000E+000
  0.000000000000000E+000
  0.000000000000000E+000
  0.000000000000000E+000
  0.000000000000000E+000
  0.000000000000000E+000
  0.000000000000000E+000
  0.000000000000000E+000
  0.000000000000000E+000
  0.000000000000000E+000
  0.000000000000000E+000
  0.000000000000000E+000
  0.000000000000000E+000
  0.000000000000000E+000
  0.000000000000000E+000
  0.000000000000000E+000
  0.000000000000000E+000
  0.000000000000000E+000
  0.000000000000000E+000
  0.000000000000000E+000
  0.000000000000000E+000
  0.000000000000000E+000
  0.000000000000000E+000
  0.000000000000000E+000
  0.000000000000000E+000
  0.000000000000000E+000
  0.000000000000000E+000
  0.000000000000000E+000
  0.000000000000000E+000
  0.000000000000000E+000
  0.000000000000000E+000
  0.000000000000000E+000
  0.000000000000000E+000
  0.000000000000000E+000
  0.000000000000000E+000
  0.000000000000000E+000
  0.000000000000000E+000
  0.000000000000000E+000
  0.000000000000000E+000
  0.000000000000000E+000
  0.000000000000000E+000
  0.000000000000000E+000
  0.000000000000000E+000
  0.000000000000000E+000
  0.000000000000000E+000
  0.000000000000000E+000
  0.000000000000000E+000
  0.000000000000000E+000
  0.000000000000000E+000
  0.000000000000000E+000
  0.000000000000000E+000
  0.000000000000000E+000
  0.000000000000000E+000
  0.000000000000000E+000
  0.000000000000000E+000
  0.000000000000000E+000
  0.000000000000000E+000
  0.000000000000000E+000
  0.000000000000000E+000
  0.000000000000000E+000
  0.000000000000000E+000
  0.000000000000000E+000
  0.000000000000000E+000
  0.000000000000000E+000
  0.000000000000000E+000
  0.000000000000000E+000
  0.000000000000000E+000
  0.000000000000000E+000
  0.000000000000000E+000
  0.000000000000000E+000
  0.000000000000000E+000
  0.000000000000000E+000
  0.000000000000000E+000
  0.000000000000000E+000
  0.000000000000000E+000
  0.000000000000000E+000
  0.000000000000000E+000
  0.000000000000000E+000
  0.000000000000000E+000
  0.000000000000000E+000
  0.000000000000000E+000
  0.000000000000000E+000
  0.000000000000000E+000
  0.000000000000000E+000
  0.000000000000000E+000
  0.000000000000000E+000
  0.000000000000000E+000
  0.000000000000000E+000
  0.000000000000000E+000
  0.000000000000000E+000
  0.000000000000000E+000
  0.000000000000000E+000
  0.000000000000000E+000
  0.000000000000000E+000
  0.000000000000000E+000
  0.000000000000000E+000
  0.000000000000000E+000
  0.000000000000000E+000
  0.000000000000000E+000
  0.000000000000000E+000
  0.000000000000000E+000
  0.000000000000000E+000
  0.000000000000000E+000
  0.000000000000000E+000
  0.000000000000000E+000
  0.000000000000000E+000
  0.000000000000000E+000
  0.000000000000000E+000
  0.000000000000000E+000
  0.000000000000000E+000
  0.000000000000000E+000
  0.000000000000000E+000
  0.000000000000000E+000
  0.000000000000000E+000
  0.000000000000000E+000
  0.000000000000000E+000
  0.000000000000000E+000
  0.000000000000000E+000
  0.000000000000000E+000
  0.000000000000000E+000
  0.000000000000000E+000
  0.000000000000000E+000
  0.000000000000000E+000
  0.000000000000000E+000
  0.000000000000000E+000
  0.000000000000000E+000
  0.000000000000000E+000
  0.000000000000000E+000
  0.000000000000000E+000
  0.000000000000000E+000
  0.000000000000000E+000
  0.000000000000000E+000
  0.000000000000000E+000
  0.000000000000000E+000
  0.000000000000000E+000
  0.000000000000000E+000
  0.000000000000000E+000
  0.000000000000000E+000
  0.000000000000000E+000
  0.000000000000000E+000
  0.000000000000000E+000
  0.000000000000000E+000
  0.000000000000000E+000
  0.000000000000000E+000
  0.000000000000000E+000
  0.000000000000000E+000
  0.000000000000000E+000
  0.000000000000000E+000
  0.000000000000000E+000
  0.000000000000000E+000
  0.000000000000000E+000
  0.000000000000000E+000
  0.000000000000000E+000
  0.000000000000000E+000
  0.000000000000000E+000
  0.000000000000000E+000
  0.000000000000000E+000
  0.000000000000000E+000
  0.000000000000000E+000
  0.000000000000000E+000
  0.000000000000000E+000
  0.000000000000000E+000
  0.000000000000000E+000
  0.000000000000000E+000
  0.000000000000000E+000
  0.000000000000000E+000
  0.000000000000000E+000
  0.000000000000000E+000
  0.000000000000000E+000
  0.000000000000000E+000
  0.000000000000000E+000
  0.000000000000000E+000
  0.000000000000000E+000
  0.000000000000000E+000
  0.000000000000000E+000
  0.000000000000000E+000
  0.000000000000000E+000
  0.000000000000000E+000
  0.000000000000000E+000
  0.000000000000000E+000
  0.000000000000000E+000
  0.000000000000000E+000
  0.000000000000000E+000
  0.000000000000000E+000
  0.000000000000000E+000
  0.000000000000000E+000
  0.000000000000000E+000
  0.000000000000000E+000
  0.000000000000000E+000
  0.000000000000000E+000
  0.000000000000000E+000
  0.000000000000000E+000
  0.000000000000000E+000
  0.000000000000000E+000
  0.000000000000000E+000
  0.000000000000000E+000
  0.000000000000000E+000
  0.000000000000000E+000
  0.000000000000000E+000
  0.000000000000000E+000
  0.000000000000000E+000
  0.000000000000000E+000
  0.000000000000000E+000
  0.000000000000000E+000
  0.000000000000000E+000
  0.000000000000000E+000
  0.000000000000000E+000
  0.000000000000000E+000
  0.000000000000000E+000
  0.000000000000000E+000
  0.000000000000000E+000
  0.000000000000000E+000
  0.000000000000000E+000
  0.000000000000000E+000
  0.000000000000000E+000
  0.000000000000000E+000
  0.000000000000000E+000
  0.000000000000000E+000
  0.000000000000000E+000
  0.000000000000000E+000
  0.000000000000000E+000
  0.000000000000000E+000
  0.000000000000000E+000
  0.000000000000000E+000
  0.000000000000000E+000
  0.000000000000000E+000
  0.000000000000000E+000
  0.000000000000000E+000
  0.000000000000000E+000
  0.000000000000000E+000
  0.000000000000000E+000
  0.000000000000000E+000
  0.000000000000000E+000
  0.000000000000000E+000
  0.000000000000000E+000
  0.000000000000000E+000
  0.000000000000000E+000
  0.000000000000000E+000
  0.000000000000000E+000
  0.000000000000000E+000
  0.000000000000000E+000
  0.000000000000000E+000
  0.000000000000000E+000
  0.000000000000000E+000
  0.000000000000000E+000
  0.000000000000000E+000
  0.000000000000000E+000
  0.000000000000000E+000
  0.000000000000000E+000
  0.000000000000000E+000
  0.000000000000000E+000
  0.000000000000000E+000
  0.000000000000000E+000
  0.000000000000000E+000
  0.000000000000000E+000
  0.000000000000000E+000
  0.000000000000000E+000
  0.000000000000000E+000
  0.000000000000000E+000
  0.000000000000000E+000
  0.000000000000000E+000
  0.000000000000000E+000
  0.000000000000000E+000
  0.000000000000000E+000
  0.000000000000000E+000
  0.000000000000000E+000
  0.000000000000000E+000
  0.000000000000000E+000
  0.000000000000000E+000
  0.000000000000000E+000
  0.000000000000000E+000
  0.000000000000000E+000
  0.000000000000000E+000
  0.000000000000000E+000
  0.000000000000000E+000
  0.000000000000000E+000
  0.000000000000000E+000
  0.000000000000000E+000
  0.000000000000000E+000
  0.000000000000000E+000
  0.000000000000000E+000
  0.000000000000000E+000
  0.000000000000000E+000
  0.000000000000000E+000
  0.000000000000000E+000
  0.000000000000000E+000
  0.000000000000000E+000
  0.000000000000000E+000
  0.000000000000000E+000
  0.000000000000000E+000
  0.000000000000000E+000
  0.000000000000000E+000
  0.000000000000000E+000
  0.000000000000000E+000
  0.000000000000000E+000
  0.000000000000000E+000
  0.000000000000000E+000
  0.000000000000000E+000
  0.000000000000000E+000
  0.000000000000000E+000
  0.000000000000000E+000
  0.000000000000000E+000
  0.000000000000000E+000
  0.000000000000000E+000
  0.000000000000000E+000
  0.000000000000000E+000
  0.000000000000000E+000
  0.000000000000000E+000
  0.000000000000000E+000
  0.000000000000000E+000
  0.000000000000000E+000
  0.000000000000000E+000
  0.000000000000000E+000
  0.000000000000000E+000
  0.000000000000000E+000
  0.000000000000000E+000
  0.000000000000000E+000
  0.000000000000000E+000
  0.000000000000000E+000
  0.000000000000000E+000
  0.000000000000000E+000
  0.000000000000000E+000
  0.000000000000000E+000
  0.000000000000000E+000
  0.000000000000000E+000
  0.000000000000000E+000
  0.000000000000000E+000
  0.000000000000000E+000
  0.000000000000000E+000
  0.000000000000000E+000
  0.000000000000000E+000
  0.000000000000000E+000
  0.000000000000000E+000
  0.000000000000000E+000
  0.000000000000000E+000
  0.000000000000000E+000
  0.000000000000000E+000
  0.000000000000000E+000
  0.000000000000000E+000
  0.000000000000000E+000
  0.000000000000000E+000
  0.000000000000000E+000
  0.000000000000000E+000
  0.000000000000000E+000
  0.000000000000000E+000
  0.000000000000000E+000
  0.000000000000000E+000
  0.000000000000000E+000
  0.000000000000000E+000
  0.000000000000000E+000
  0.000000000000000E+000
  0.000000000000000E+000
  0.000000000000000E+000
  0.000000000000000E+000
  0.000000000000000E+000
  0.000000000000000E+000
  0.000000000000000E+000
  0.000000000000000E+000
  0.000000000000000E+000
  0.000000000000000E+000
  0.000000000000000E+000
  0.000000000000000E+000
  0.000000000000000E+000
  0.000000000000000E+000
  0.000000000000000E+000
  0.000000000000000E+000
  0.000000000000000E+000
  0.000000000000000E+000
  0.000000000000000E+000
  0.000000000000000E+000
  0.000000000000000E+000
  0.000000000000000E+000
  0.000000000000000E+000
  0.000000000000000E+000
  0.000000000000000E+000
  0.000000000000000E+000
  0.000000000000000E+000
  0.000000000000000E+000
  0.000000000000000E+000
  0.000000000000000E+000
  0.000000000000000E+000
  0.000000000000000E+000
  0.000000000000000E+000
  0.000000000000000E+000
  0.000000000000000E+000
  0.000000000000000E+000
  0.000000000000000E+000
  0.000000000000000E+000
  0.000000000000000E+000
  0.000000000000000E+000
  0.000000000000000E+000
  0.000000000000000E+000
  0.000000000000000E+000
  0.000000000000000E+000
  0.000000000000000E+000
  0.000000000000000E+000
  0.000000000000000E+000
  0.000000000000000E+000
  0.000000000000000E+000
  0.000000000000000E+000
  0.000000000000000E+000
  0.000000000000000E+000
  0.000000000000000E+000
  0.000000000000000E+000
  0.000000000000000E+000
  0.000000000000000E+000
  0.000000000000000E+000
  0.000000000000000E+000
  0.000000000000000E+000
  0.000000000000000E+000
  0.000000000000000E+000
  0.000000000000000E+000
  0.000000000000000E+000
  0.000000000000000E+000
  0.000000000000000E+000
  0.000000000000000E+000
  0.000000000000000E+000
  0.000000000000000E+000
  0.000000000000000E+000
  0.000000000000000E+000
  0.000000000000000E+000
  0.000000000000000E+000
  0.000000000000000E+000
  0.000000000000000E+000
  0.000000000000000E+000
  0.000000000000000E+000
  0.000000000000000E+000
  0.000000000000000E+000
  0.000000000000000E+000
  0.000000000000000E+000
  0.000000000000000E+000
  0.000000000000000E+000
  0.000000000000000E+000
  0.000000000000000E+000
  0.000000000000000E+000
  0.000000000000000E+000
  0.000000000000000E+000
  0.000000000000000E+000
  0.000000000000000E+000
  0.000000000000000E+000
  0.000000000000000E+000
  0.000000000000000E+000
  0.000000000000000E+000
  0.000000000000000E+000
  0.000000000000000E+000
  0.000000000000000E+000
  0.000000000000000E+000
  0.000000000000000E+000
  0.000000000000000E+000
  0.000000000000000E+000
  0.000000000000000E+000
  0.000000000000000E+000
  0.000000000000000E+000
  0.000000000000000E+000
  0.000000000000000E+000
  0.000000000000000E+000
  0.000000000000000E+000
  0.000000000000000E+000
  0.000000000000000E+000
  0.000000000000000E+000
  0.000000000000000E+000
  0.000000000000000E+000
  0.000000000000000E+000
  0.000000000000000E+000
  0.000000000000000E+000
  0.000000000000000E+000
  0.000000000000000E+000
  0.000000000000000E+000
  0.000000000000000E+000
  0.000000000000000E+000
  0.000000000000000E+000
  0.000000000000000E+000
  0.000000000000000E+000
  0.000000000000000E+000
  0.000000000000000E+000
  0.000000000000000E+000
  0.000000000000000E+000
  0.000000000000000E+000
  0.000000000000000E+000
  0.000000000000000E+000
  0.000000000000000E+000
  0.000000000000000E+000
  0.000000000000000E+000
  0.000000000000000E+000
  0.000000000000000E+000
  0.000000000000000E+000
  0.000000000000000E+000
  0.000000000000000E+000
  0.000000000000000E+000
  0.000000000000000E+000
  0.000000000000000E+000
  0.000000000000000E+000
  0.000000000000000E+000
  0.000000000000000E+000
  0.000000000000000E+000
  0.000000000000000E+000
  0.000000000000000E+000
  0.000000000000000E+000
  0.000000000000000E+000
  0.000000000000000E+000
  0.000000000000000E+000
  0.000000000000000E+000
  0.000000000000000E+000
  0.000000000000000E+000
  0.000000000000000E+000
  0.000000000000000E+000
  0.000000000000000E+000
  0.000000000000000E+000
  0.000000000000000E+000
  0.000000000000000E+000
  0.000000000000000E+000
  0.000000000000000E+000
  0.000000000000000E+000
  0.000000000000000E+000
  0.000000000000000E+000
  0.000000000000000E+000
  0.000000000000000E+000
  0.000000000000000E+000
  0.000000000000000E+000
  0.000000000000000E+000
  0.000000000000000E+000
  0.000000000000000E+000
  0.000000000000000E+000
  0.000000000000000E+000
  0.000000000000000E+000
  0.000000000000000E+000
  0.000000000000000E+000
  0.000000000000000E+000
  0.000000000000000E+000
  0.000000000000000E+000
  0.000000000000000E+000
  0.000000000000000E+000
  0.000000000000000E+000
  0.000000000000000E+000
  0.000000000000000E+000
  0.000000000000000E+000
  0.000000000000000E+000
  0.000000000000000E+000
  0.000000000000000E+000
  0.000000000000000E+000
  0.000000000000000E+000
  0.000000000000000E+000
  0.000000000000000E+000
  0.000000000000000E+000
  0.000000000000000E+000
  0.000000000000000E+000
  0.000000000000000E+000
  0.000000000000000E+000
  0.000000000000000E+000
  0.000000000000000E+000
  0.000000000000000E+000
  0.000000000000000E+000
  0.000000000000000E+000
  0.000000000000000E+000
  0.000000000000000E+000
  0.000000000000000E+000
  0.000000000000000E+000
  0.000000000000000E+000
  0.000000000000000E+000
  0.000000000000000E+000
  0.000000000000000E+000
  0.000000000000000E+000
  0.000000000000000E+000
  0.000000000000000E+000
  0.000000000000000E+000
  0.000000000000000E+000
  0.000000000000000E+000
  0.000000000000000E+000
  0.000000000000000E+000
  0.000000000000000E+000
  0.000000000000000E+000
  0.000000000000000E+000
  0.000000000000000E+000
  0.000000000000000E+000
  0.000000000000000E+000
  0.000000000000000E+000
  0.000000000000000E+000
  0.000000000000000E+000
  0.000000000000000E+000
  0.000000000000000E+000
  0.000000000000000E+000
  0.000000000000000E+000
  0.000000000000000E+000
  0.000000000000000E+000
  0.000000000000000E+000
  0.000000000000000E+000
  0.000000000000000E+000
  0.000000000000000E+000
  0.000000000000000E+000
  0.000000000000000E+000
  0.000000000000000E+000
  0.000000000000000E+000
  0.000000000000000E+000
  0.000000000000000E+000
  0.000000000000000E+000
  0.000000000000000E+000
  0.000000000000000E+000
  0.000000000000000E+000
  0.000000000000000E+000
  0.000000000000000E+000
  0.000000000000000E+000
  0.000000000000000E+000
  0.000000000000000E+000
  0.000000000000000E+000
  0.000000000000000E+000
  0.000000000000000E+000
  0.000000000000000E+000
  0.000000000000000E+000
  0.000000000000000E+000
  0.000000000000000E+000
  0.000000000000000E+000
  0.000000000000000E+000
  0.000000000000000E+000
  0.000000000000000E+000
  0.000000000000000E+000
  0.000000000000000E+000
  0.000000000000000E+000
  0.000000000000000E+000
  0.000000000000000E+000
  0.000000000000000E+000
  0.000000000000000E+000
  0.000000000000000E+000
  0.000000000000000E+000
  0.000000000000000E+000
  0.000000000000000E+000
  0.000000000000000E+000
  0.000000000000000E+000
  0.000000000000000E+000
  0.000000000000000E+000
  0.000000000000000E+000
  0.000000000000000E+000
  0.000000000000000E+000
  0.000000000000000E+000
  0.000000000000000E+000
  0.000000000000000E+000
  0.000000000000000E+000
  0.000000000000000E+000
  0.000000000000000E+000
  0.000000000000000E+000
  0.000000000000000E+000
  0.000000000000000E+000
  0.000000000000000E+000
  0.000000000000000E+000
  0.000000000000000E+000
  0.000000000000000E+000
  0.000000000000000E+000
  0.000000000000000E+000
  0.000000000000000E+000
  0.000000000000000E+000
  0.000000000000000E+000
  0.000000000000000E+000
  0.000000000000000E+000
  0.000000000000000E+000
  0.000000000000000E+000
  0.000000000000000E+000
  0.000000000000000E+000
  0.000000000000000E+000
  0.000000000000000E+000
  0.000000000000000E+000
  0.000000000000000E+000
  0.000000000000000E+000
  0.000000000000000E+000
  0.000000000000000E+000
  0.000000000000000E+000
  0.000000000000000E+000
  0.000000000000000E+000
  0.000000000000000E+000
  0.000000000000000E+000
  0.000000000000000E+000
  0.000000000000000E+000
  0.000000000000000E+000
  0.000000000000000E+000
  0.000000000000000E+000
  0.000000000000000E+000
  0.000000000000000E+000
  0.000000000000000E+000
  0.000000000000000E+000
  0.000000000000000E+000
  0.000000000000000E+000
  0.000000000000000E+000
  0.000000000000000E+000
  0.000000000000000E+000
  0.000000000000000E+000
  0.000000000000000E+000
  0.000000000000000E+000
  0.000000000000000E+000
  0.000000000000000E+000
  0.000000000000000E+000
  0.000000000000000E+000
  0.000000000000000E+000
  0.000000000000000E+000
  0.000000000000000E+000
  0.000000000000000E+000
  0.000000000000000E+000
  0.000000000000000E+000
  0.000000000000000E+000
  0.000000000000000E+000
  0.000000000000000E+000
  0.000000000000000E+000
  0.000000000000000E+000
  0.000000000000000E+000
  0.000000000000000E+000
  0.000000000000000E+000
  0.000000000000000E+000
  0.000000000000000E+000
  0.000000000000000E+000
  0.000000000000000E+000
  0.000000000000000E+000
  0.000000000000000E+000
  0.000000000000000E+000
  0.000000000000000E+000
  0.000000000000000E+000
  0.000000000000000E+000
  0.000000000000000E+000
  0.000000000000000E+000
  0.000000000000000E+000
  0.000000000000000E+000
  0.000000000000000E+000
  0.000000000000000E+000
  0.000000000000000E+000
  0.000000000000000E+000
  0.000000000000000E+000
  0.000000000000000E+000
  0.000000000000000E+000
  0.000000000000000E+000
  0.000000000000000E+000
  0.000000000000000E+000
  0.000000000000000E+000
  0.000000000000000E+000
  0.000000000000000E+000
  0.000000000000000E+000
  0.000000000000000E+000
  0.000000000000000E+000
  0.000000000000000E+000
  0.000000000000000E+000
  0.000000000000000E+000
  0.000000000000000E+000
  0.000000000000000E+000
  0.000000000000000E+000
  0.000000000000000E+000
  0.000000000000000E+000
  0.000000000000000E+000
  0.000000000000000E+000
  0.000000000000000E+000
  0.000000000000000E+000
  0.000000000000000E+000
  0.000000000000000E+000
  0.000000000000000E+000
  0.000000000000000E+000
  0.000000000000000E+000
  0.000000000000000E+000
  0.000000000000000E+000
  0.000000000000000E+000
  0.000000000000000E+000
  0.000000000000000E+000
  0.000000000000000E+000
  0.000000000000000E+000
  0.000000000000000E+000
  0.000000000000000E+000
  0.000000000000000E+000
  0.000000000000000E+000
  0.000000000000000E+000
  0.000000000000000E+000
  0.000000000000000E+000
  0.000000000000000E+000
  0.000000000000000E+000
  0.000000000000000E+000
  0.000000000000000E+000
  0.000000000000000E+000
  0.000000000000000E+000
  0.000000000000000E+000
  0.000000000000000E+000
  0.000000000000000E+000
  0.000000000000000E+000
  0.000000000000000E+000
  0.000000000000000E+000
  0.000000000000000E+000
  0.000000000000000E+000
  0.000000000000000E+000
  0.000000000000000E+000
  0.000000000000000E+000
  0.000000000000000E+000
  0.000000000000000E+000
  0.000000000000000E+000
  0.000000000000000E+000
  0.000000000000000E+000
  0.000000000000000E+000
  0.000000000000000E+000
  0.000000000000000E+000
  0.000000000000000E+000
  0.000000000000000E+000
  0.000000000000000E+000
  0.000000000000000E+000
  0.000000000000000E+000
  0.000000000000000E+000
  0.000000000000000E+000
  0.000000000000000E+000
  0.000000000000000E+000
  0.000000000000000E+000
  0.000000000000000E+000
  0.000000000000000E+000
  0.000000000000000E+000
  0.000000000000000E+000
  0.000000000000000E+000
  0.000000000000000E+000
  0.000000000000000E+000
  0.000000000000000E+000
  0.000000000000000E+000
  0.000000000000000E+000
  0.000000000000000E+000
  0.000000000000000E+000
  0.000000000000000E+000
  0.000000000000000E+000
  0.000000000000000E+000
  0.000000000000000E+000
  0.000000000000000E+000
  0.000000000000000E+000
  0.000000000000000E+000
  0.000000000000000E+000
  0.000000000000000E+000
  0.000000000000000E+000
  0.000000000000000E+000
  0.000000000000000E+000
  0.000000000000000E+000
  0.000000000000000E+000
  0.000000000000000E+000
  0.000000000000000E+000
  0.000000000000000E+000
  0.000000000000000E+000
  0.000000000000000E+000
  0.000000000000000E+000
  0.000000000000000E+000
  0.000000000000000E+000
  0.000000000000000E+000
  0.000000000000000E+000
  0.000000000000000E+000
  0.000000000000000E+000
  0.000000000000000E+000
  0.000000000000000E+000
  0.000000000000000E+000
  0.000000000000000E+000
  0.000000000000000E+000
  0.000000000000000E+000
  0.000000000000000E+000
  0.000000000000000E+000
  0.000000000000000E+000
  0.000000000000000E+000
  0.000000000000000E+000
  0.000000000000000E+000
  0.000000000000000E+000
  0.000000000000000E+000
  0.000000000000000E+000
  0.000000000000000E+000
  0.000000000000000E+000
  0.000000000000000E+000
  0.000000000000000E+000
  0.000000000000000E+000
  0.000000000000000E+000
  0.000000000000000E+000
  0.000000000000000E+000
  0.000000000000000E+000
  0.000000000000000E+000
  0.000000000000000E+000
  0.000000000000000E+000
  0.000000000000000E+000
  0.000000000000000E+000
  0.000000000000000E+000
  0.000000000000000E+000
  0.000000000000000E+000
  0.000000000000000E+000
  0.000000000000000E+000
  0.000000000000000E+000
  0.000000000000000E+000
  0.000000000000000E+000
  0.000000000000000E+000
  0.000000000000000E+000
  0.000000000000000E+000
  0.000000000000000E+000
  0.000000000000000E+000
  0.000000000000000E+000
  0.000000000000000E+000
  0.000000000000000E+000
  0.000000000000000E+000
  0.000000000000000E+000
  0.000000000000000E+000
  0.000000000000000E+000
  0.000000000000000E+000
  0.000000000000000E+000
  0.000000000000000E+000
  0.000000000000000E+000
  0.000000000000000E+000
  0.000000000000000E+000
  0.000000000000000E+000
  0.000000000000000E+000
  0.000000000000000E+000
  0.000000000000000E+000
  0.000000000000000E+000
  0.000000000000000E+000
  0.000000000000000E+000
  0.000000000000000E+000
  0.000000000000000E+000
  0.000000000000000E+000
  0.000000000000000E+000
  0.000000000000000E+000
  0.000000000000000E+000
  0.000000000000000E+000
  0.000000000000000E+000
  0.000000000000000E+000
  0.000000000000000E+000
  0.000000000000000E+000
  0.000000000000000E+000
  0.000000000000000E+000
  0.000000000000000E+000
  0.000000000000000E+000
  0.000000000000000E+000
  0.000000000000000E+000
  0.000000000000000E+000
  0.000000000000000E+000
  0.000000000000000E+000
  0.000000000000000E+000
  0.000000000000000E+000
  0.000000000000000E+000
  0.000000000000000E+000
  0.000000000000000E+000
  0.000000000000000E+000
  0.000000000000000E+000
  0.000000000000000E+000
  0.000000000000000E+000
  0.000000000000000E+000
  0.000000000000000E+000
  0.000000000000000E+000
  0.000000000000000E+000
  0.000000000000000E+000
  0.000000000000000E+000
  0.000000000000000E+000
  0.000000000000000E+000
  0.000000000000000E+000
  0.000000000000000E+000
  0.000000000000000E+000
  0.000000000000000E+000
  0.000000000000000E+000
  0.000000000000000E+000
  0.000000000000000E+000
  0.000000000000000E+000
  0.000000000000000E+000
  0.000000000000000E+000
  0.000000000000000E+000
  0.000000000000000E+000
  0.000000000000000E+000
  0.000000000000000E+000
  0.000000000000000E+000
  0.000000000000000E+000
  0.000000000000000E+000
  0.000000000000000E+000
  0.000000000000000E+000
  0.000000000000000E+000
  0.000000000000000E+000
  0.000000000000000E+000
  0.000000000000000E+000
  0.000000000000000E+000
  0.000000000000000E+000
  0.000000000000000E+000
  0.000000000000000E+000
  0.000000000000000E+000
  0.000000000000000E+000
  0.000000000000000E+000
  0.000000000000000E+000
  0.000000000000000E+000
  0.000000000000000E+000
  0.000000000000000E+000
  0.000000000000000E+000
  0.000000000000000E+000
  0.000000000000000E+000
  0.000000000000000E+000
  0.000000000000000E+000
  0.000000000000000E+000
  0.000000000000000E+000
  0.000000000000000E+000
  0.000000000000000E+000
  0.000000000000000E+000
  0.000000000000000E+000
  0.000000000000000E+000
  0.000000000000000E+000
  0.000000000000000E+000
  0.000000000000000E+000
  0.000000000000000E+000
  0.000000000000000E+000
  0.000000000000000E+000
  0.000000000000000E+000
  0.000000000000000E+000
  0.000000000000000E+000
  0.000000000000000E+000
  0.000000000000000E+000
  0.000000000000000E+000
  0.000000000000000E+000
  0.000000000000000E+000
  0.000000000000000E+000
  0.000000000000000E+000
  0.000000000000000E+000
  0.000000000000000E+000
  0.000000000000000E+000
  0.000000000000000E+000
  0.000000000000000E+000
  0.000000000000000E+000
  0.000000000000000E+000
  0.000000000000000E+000
  0.000000000000000E+000
  0.000000000000000E+000
  0.000000000000000E+000
  0.000000000000000E+000
  0.000000000000000E+000
  0.000000000000000E+000
  0.000000000000000E+000
  0.000000000000000E+000
  0.000000000000000E+000
  0.000000000000000E+000
  0.000000000000000E+000
  0.000000000000000E+000
  0.000000000000000E+000
  0.000000000000000E+000
  0.000000000000000E+000
  0.000000000000000E+000
  0.000000000000000E+000
  0.000000000000000E+000
  0.000000000000000E+000
  0.000000000000000E+000
  0.000000000000000E+000
  0.000000000000000E+000
  0.000000000000000E+000
  0.000000000000000E+000
  0.000000000000000E+000
  0.000000000000000E+000
  0.000000000000000E+000
  0.000000000000000E+000
  0.000000000000000E+000
  0.000000000000000E+000
  0.000000000000000E+000
  0.000000000000000E+000
  0.000000000000000E+000
  0.000000000000000E+000
  0.000000000000000E+000
  0.000000000000000E+000
  0.000000000000000E+000
  0.000000000000000E+000
  0.000000000000000E+000
  0.000000000000000E+000
  0.000000000000000E+000
  0.000000000000000E+000
  0.000000000000000E+000
  0.000000000000000E+000
  0.000000000000000E+000
  0.000000000000000E+000
  0.000000000000000E+000
  0.000000000000000E+000
  0.000000000000000E+000
  0.000000000000000E+000
  0.000000000000000E+000
  0.000000000000000E+000
  0.000000000000000E+000
  0.000000000000000E+000
  0.000000000000000E+000
  0.000000000000000E+000
  0.000000000000000E+000
  0.000000000000000E+000
  0.000000000000000E+000
  0.000000000000000E+000
  0.000000000000000E+000
  0.000000000000000E+000
  0.000000000000000E+000
  0.000000000000000E+000
  0.000000000000000E+000
  0.000000000000000E+000
  0.000000000000000E+000
  0.000000000000000E+000
  0.000000000000000E+000
  0.000000000000000E+000
  0.000000000000000E+000
  0.000000000000000E+000
  0.000000000000000E+000
  0.000000000000000E+000
  0.000000000000000E+000
  0.000000000000000E+000
  0.000000000000000E+000
  0.000000000000000E+000
  0.000000000000000E+000
  0.000000000000000E+000
  0.000000000000000E+000
  0.000000000000000E+000
  0.000000000000000E+000
  0.000000000000000E+000
  0.000000000000000E+000
  0.000000000000000E+000
  0.000000000000000E+000
  0.000000000000000E+000
  0.000000000000000E+000
  0.000000000000000E+000
  0.000000000000000E+000
  0.000000000000000E+000
  0.000000000000000E+000
  0.000000000000000E+000
  0.000000000000000E+000
  0.000000000000000E+000
  0.000000000000000E+000
  0.000000000000000E+000
  0.000000000000000E+000
  0.000000000000000E+000
  0.000000000000000E+000
  0.000000000000000E+000
  0.000000000000000E+000
  0.000000000000000E+000
  0.000000000000000E+000
  0.000000000000000E+000
  0.000000000000000E+000
  0.000000000000000E+000
  0.000000000000000E+000
  0.000000000000000E+000
  0.000000000000000E+000
  0.000000000000000E+000
  0.000000000000000E+000
  0.000000000000000E+000
  0.000000000000000E+000
  0.000000000000000E+000
  0.000000000000000E+000
  0.000000000000000E+000
  0.000000000000000E+000
  0.000000000000000E+000
  0.000000000000000E+000
  0.000000000000000E+000
  0.000000000000000E+000
  0.000000000000000E+000
  0.000000000000000E+000
  0.000000000000000E+000
  0.000000000000000E+000
  0.000000000000000E+000
  0.000000000000000E+000
  0.000000000000000E+000
  0.000000000000000E+000
  0.000000000000000E+000
  0.000000000000000E+000
  0.000000000000000E+000
  0.000000000000000E+000
  0.000000000000000E+000
  0.000000000000000E+000
  0.000000000000000E+000
  0.000000000000000E+000
  0.000000000000000E+000
  0.000000000000000E+000
  0.000000000000000E+000
  0.000000000000000E+000
  0.000000000000000E+000
  0.000000000000000E+000
  0.000000000000000E+000
  0.000000000000000E+000
  0.000000000000000E+000
  0.000000000000000E+000
  0.000000000000000E+000
  0.000000000000000E+000
  0.000000000000000E+000
  0.000000000000000E+000
  0.000000000000000E+000
  0.000000000000000E+000
  0.000000000000000E+000
  0.000000000000000E+000
  0.000000000000000E+000
  0.000000000000000E+000
  0.000000000000000E+000
  0.000000000000000E+000
  0.000000000000000E+000
  0.000000000000000E+000
  0.000000000000000E+000
  0.000000000000000E+000
  0.000000000000000E+000
  0.000000000000000E+000
  0.000000000000000E+000
  0.000000000000000E+000
  0.000000000000000E+000
  0.000000000000000E+000
  0.000000000000000E+000
  0.000000000000000E+000
  0.000000000000000E+000
  0.000000000000000E+000
  0.000000000000000E+000
  0.000000000000000E+000
  0.000000000000000E+000
  0.000000000000000E+000
  0.000000000000000E+000
  0.000000000000000E+000
  0.000000000000000E+000
  0.000000000000000E+000
  0.000000000000000E+000
  0.000000000000000E+000
  0.000000000000000E+000
  0.000000000000000E+000
  0.000000000000000E+000
  0.000000000000000E+000
  0.000000000000000E+000
  0.000000000000000E+000
  0.000000000000000E+000
  0.000000000000000E+000
  0.000000000000000E+000
  0.000000000000000E+000
  0.000000000000000E+000
  0.000000000000000E+000
  0.000000000000000E+000
  0.000000000000000E+000
  0.000000000000000E+000
  0.000000000000000E+000
  0.000000000000000E+000
  0.000000000000000E+000
  0.000000000000000E+000
  0.000000000000000E+000
  0.000000000000000E+000
  0.000000000000000E+000
  0.000000000000000E+000
  0.000000000000000E+000
  0.000000000000000E+000
  0.000000000000000E+000
  0.000000000000000E+000
  0.000000000000000E+000
  0.000000000000000E+000
  0.000000000000000E+000
  0.000000000000000E+000
  0.000000000000000E+000
  0.000000000000000E+000
  0.000000000000000E+000
  0.000000000000000E+000
  0.000000000000000E+000
  0.000000000000000E+000
  0.000000000000000E+000
  0.000000000000000E+000
  0.000000000000000E+000
  0.000000000000000E+000
  0.000000000000000E+000
  0.000000000000000E+000
  0.000000000000000E+000
  0.000000000000000E+000
  0.000000000000000E+000
  0.000000000000000E+000
  0.000000000000000E+000
  0.000000000000000E+000
  0.000000000000000E+000
  0.000000000000000E+000
  0.000000000000000E+000
  0.000000000000000E+000
  0.000000000000000E+000
  0.000000000000000E+000
  0.000000000000000E+000
  0.000000000000000E+000
  0.000000000000000E+000
  0.000000000000000E+000
  0.000000000000000E+000
  0.000000000000000E+000
  0.000000000000000E+000
  0.000000000000000E+000
  0.000000000000000E+000
  0.000000000000000E+000
  0.000000000000000E+000
  0.000000000000000E+000
  0.000000000000000E+000
  0.000000000000000E+000
  0.000000000000000E+000
  0.000000000000000E+000
  0.000000000000000E+000
  0.000000000000000E+000
  0.000000000000000E+000
  0.000000000000000E+000
  0.000000000000000E+000
  0.000000000000000E+000
  0.000000000000000E+000
  0.000000000000000E+000
  0.000000000000000E+000
  0.000000000000000E+000
  0.000000000000000E+000
  0.000000000000000E+000
  0.000000000000000E+000
  0.000000000000000E+000
  0.000000000000000E+000
  0.000000000000000E+000
  0.000000000000000E+000
  0.000000000000000E+000
  0.000000000000000E+000
  0.000000000000000E+000
  0.000000000000000E+000
  0.000000000000000E+000
  0.000000000000000E+000
  0.000000000000000E+000
  0.000000000000000E+000
  0.000000000000000E+000
  0.000000000000000E+000
  0.000000000000000E+000
  0.000000000000000E+000
  0.000000000000000E+000
  0.000000000000000E+000
  0.000000000000000E+000
  0.000000000000000E+000
  0.000000000000000E+000
  0.000000000000000E+000
  0.000000000000000E+000
  0.000000000000000E+000
  0.000000000000000E+000
  0.000000000000000E+000
  0.000000000000000E+000
  0.000000000000000E+000
  0.000000000000000E+000
  0.000000000000000E+000
  0.000000000000000E+000
  0.000000000000000E+000
  0.000000000000000E+000
  0.000000000000000E+000
  0.000000000000000E+000
  0.000000000000000E+000
  0.000000000000000E+000
  0.000000000000000E+000
  0.000000000000000E+000
  0.000000000000000E+000
  0.000000000000000E+000
  0.000000000000000E+000
  0.000000000000000E+000
  0.000000000000000E+000
  0.000000000000000E+000
  0.000000000000000E+000
  0.000000000000000E+000
  0.000000000000000E+000
  0.000000000000000E+000
  0.000000000000000E+000
  0.000000000000000E+000
  0.000000000000000E+000
  0.000000000000000E+000
  0.000000000000000E+000
  0.000000000000000E+000
  0.000000000000000E+000
  0.000000000000000E+000
  0.000000000000000E+000
  0.000000000000000E+000
  0.000000000000000E+000
  0.000000000000000E+000
  0.000000000000000E+000
  0.000000000000000E+000
  0.000000000000000E+000
  0.000000000000000E+000
  0.000000000000000E+000
  0.000000000000000E+000
  0.000000000000000E+000
  0.000000000000000E+000
  0.000000000000000E+000
  0.000000000000000E+000
  0.000000000000000E+000
  0.000000000000000E+000
  0.000000000000000E+000
  0.000000000000000E+000
  0.000000000000000E+000
  0.000000000000000E+000
  0.000000000000000E+000
  0.000000000000000E+000
  0.000000000000000E+000
  0.000000000000000E+000
  0.000000000000000E+000
  0.000000000000000E+000
  0.000000000000000E+000
  0.000000000000000E+000
  0.000000000000000E+000
  0.000000000000000E+000
  0.000000000000000E+000
  0.000000000000000E+000
  0.000000000000000E+000
  0.000000000000000E+000
  0.000000000000000E+000
  0.000000000000000E+000
  0.000000000000000E+000
  0.000000000000000E+000
  0.000000000000000E+000
  0.000000000000000E+000
  0.000000000000000E+000
  0.000000000000000E+000
  0.000000000000000E+000
  0.000000000000000E+000
  0.000000000000000E+000
  0.000000000000000E+000
  0.000000000000000E+000
  0.000000000000000E+000
  0.000000000000000E+000
  0.000000000000000E+000
  0.000000000000000E+000
  0.000000000000000E+000
  0.000000000000000E+000
  0.000000000000000E+000
  0.000000000000000E+000
  0.000000000000000E+000
  0.000000000000000E+000
  0.000000000000000E+000
  0.000000000000000E+000
  0.000000000000000E+000
  0.000000000000000E+000
  0.000000000000000E+000
  0.000000000000000E+000
  0.000000000000000E+000
  0.000000000000000E+000
  0.000000000000000E+000
  0.000000000000000E+000
  0.000000000000000E+000
  0.000000000000000E+000
  0.000000000000000E+000
  0.000000000000000E+000
  0.000000000000000E+000
  0.000000000000000E+000
  0.000000000000000E+000
  0.000000000000000E+000
  0.000000000000000E+000
  0.000000000000000E+000
  0.000000000000000E+000
  0.000000000000000E+000
  0.000000000000000E+000
  0.000000000000000E+000
  0.000000000000000E+000
  0.000000000000000E+000
  0.000000000000000E+000
  0.000000000000000E+000
  0.000000000000000E+000
  0.000000000000000E+000
  0.000000000000000E+000
  0.000000000000000E+000
  0.000000000000000E+000
  0.000000000000000E+000
  0.000000000000000E+000
  0.000000000000000E+000
  0.000000000000000E+000
  0.000000000000000E+000
  0.000000000000000E+000
  0.000000000000000E+000
  0.000000000000000E+000
  0.000000000000000E+000
  0.000000000000000E+000
  0.000000000000000E+000
  0.000000000000000E+000
  0.000000000000000E+000
  0.000000000000000E+000
  0.000000000000000E+000
  0.000000000000000E+000
  0.000000000000000E+000
  0.000000000000000E+000
  0.000000000000000E+000
  0.000000000000000E+000
  0.000000000000000E+000
  0.000000000000000E+000
  0.000000000000000E+000
  0.000000000000000E+000
  0.000000000000000E+000
  0.000000000000000E+000
  0.000000000000000E+000
  0.000000000000000E+000
  0.000000000000000E+000
  0.000000000000000E+000
  0.000000000000000E+000
  0.000000000000000E+000
  0.000000000000000E+000
  0.000000000000000E+000
  0.000000000000000E+000
  0.000000000000000E+000
  0.000000000000000E+000
  0.000000000000000E+000
  0.000000000000000E+000
  0.000000000000000E+000
  0.000000000000000E+000
  0.000000000000000E+000
  0.000000000000000E+000
  0.000000000000000E+000
  0.000000000000000E+000
  0.000000000000000E+000
  0.000000000000000E+000
  0.000000000000000E+000
  0.000000000000000E+000
  0.000000000000000E+000
  0.000000000000000E+000
  0.000000000000000E+000
  0.000000000000000E+000
  0.000000000000000E+000
  0.000000000000000E+000
  0.000000000000000E+000
  0.000000000000000E+000
  0.000000000000000E+000
  0.000000000000000E+000
  0.000000000000000E+000
  0.000000000000000E+000
  0.000000000000000E+000
  0.000000000000000E+000
  0.000000000000000E+000
  0.000000000000000E+000
  0.000000000000000E+000
  0.000000000000000E+000
  0.000000000000000E+000
  0.000000000000000E+000
  0.000000000000000E+000
  0.000000000000000E+000
  0.000000000000000E+000
  0.000000000000000E+000
  0.000000000000000E+000
  0.000000000000000E+000
  0.000000000000000E+000
  0.000000000000000E+000
  0.000000000000000E+000
  0.000000000000000E+000
  0.000000000000000E+000
  0.000000000000000E+000
  0.000000000000000E+000
  0.000000000000000E+000
  0.000000000000000E+000
  0.000000000000000E+000
  0.000000000000000E+000
  0.000000000000000E+000
  0.000000000000000E+000
  0.000000000000000E+000
  0.000000000000000E+000
  0.000000000000000E+000
  0.000000000000000E+000
  0.000000000000000E+000
  0.000000000000000E+000
  0.000000000000000E+000
  0.000000000000000E+000
  0.000000000000000E+000
  0.000000000000000E+000
  0.000000000000000E+000
  0.000000000000000E+000
  0.000000000000000E+000
  0.000000000000000E+000
  0.000000000000000E+000
  0.000000000000000E+000
  0.000000000000000E+000
  0.000000000000000E+000
  0.000000000000000E+000
  0.000000000000000E+000
  0.000000000000000E+000
  0.000000000000000E+000
  0.000000000000000E+000
  0.000000000000000E+000
  0.000000000000000E+000
  0.000000000000000E+000
  0.000000000000000E+000
  0.000000000000000E+000
  0.000000000000000E+000
  0.000000000000000E+000
  0.000000000000000E+000
  0.000000000000000E+000
  0.000000000000000E+000
  0.000000000000000E+000
  0.000000000000000E+000
  0.000000000000000E+000
  0.000000000000000E+000
  0.000000000000000E+000
  0.000000000000000E+000
  0.000000000000000E+000
  0.000000000000000E+000
  0.000000000000000E+000
  0.000000000000000E+000
  0.000000000000000E+000
  0.000000000000000E+000
  0.000000000000000E+000
  0.000000000000000E+000
  0.000000000000000E+000
  0.000000000000000E+000
  0.000000000000000E+000
  0.000000000000000E+000
  0.000000000000000E+000
  0.000000000000000E+000
  0.000000000000000E+000
  0.000000000000000E+000
  0.000000000000000E+000
  0.000000000000000E+000
  0.000000000000000E+000
  0.000000000000000E+000
  0.000000000000000E+000
  0.000000000000000E+000
  0.000000000000000E+000
  0.000000000000000E+000
  0.000000000000000E+000
  0.000000000000000E+000
  0.000000000000000E+000
  0.000000000000000E+000
  0.000000000000000E+000
  0.000000000000000E+000
  0.000000000000000E+000
  0.000000000000000E+000
  0.000000000000000E+000
  0.000000000000000E+000
  0.000000000000000E+000
  0.000000000000000E+000
  0.000000000000000E+000
  0.000000000000000E+000
  0.000000000000000E+000
  0.000000000000000E+000
  0.000000000000000E+000
  0.000000000000000E+000
  0.000000000000000E+000
  0.000000000000000E+000
  0.000000000000000E+000
  0.000000000000000E+000
  0.000000000000000E+000
  0.000000000000000E+000
  0.000000000000000E+000
  0.000000000000000E+000
  0.000000000000000E+000
  0.000000000000000E+000
  0.000000000000000E+000
  0.000000000000000E+000
  0.000000000000000E+000
  0.000000000000000E+000
  0.000000000000000E+000
  0.000000000000000E+000
  0.000000000000000E+000
  0.000000000000000E+000
  0.000000000000000E+000
  0.000000000000000E+000
  0.000000000000000E+000
  0.000000000000000E+000
  0.000000000000000E+000
  0.000000000000000E+000
  0.000000000000000E+000
  0.000000000000000E+000
  0.000000000000000E+000
  0.000000000000000E+000
  0.000000000000000E+000
  0.000000000000000E+000
  0.000000000000000E+000
  0.000000000000000E+000
  0.000000000000000E+000
  0.000000000000000E+000
  0.000000000000000E+000
  0.000000000000000E+000
  0.000000000000000E+000
  0.000000000000000E+000
  0.000000000000000E+000
  0.000000000000000E+000
  0.000000000000000E+000
  0.000000000000000E+000
  0.000000000000000E+000
  0.000000000000000E+000
  0.000000000000000E+000
  0.000000000000000E+000
  0.000000000000000E+000
  0.000000000000000E+000
  0.000000000000000E+000
  0.000000000000000E+000
  0.000000000000000E+000
  0.000000000000000E+000
  0.000000000000000E+000
  0.000000000000000E+000
  0.000000000000000E+000
  0.000000000000000E+000
  0.000000000000000E+000
  0.000000000000000E+000
  0.000000000000000E+000
  0.000000000000000E+000
  0.000000000000000E+000
  0.000000000000000E+000
  0.000000000000000E+000
  0.000000000000000E+000
  0.000000000000000E+000
  0.000000000000000E+000
  0.000000000000000E+000
  0.000000000000000E+000
  0.000000000000000E+000
  0.000000000000000E+000
  0.000000000000000E+000
  0.000000000000000E+000
  0.000000000000000E+000
  0.000000000000000E+000
  0.000000000000000E+000
  0.000000000000000E+000
  0.000000000000000E+000
  0.000000000000000E+000
  0.000000000000000E+000
  0.000000000000000E+000
  0.000000000000000E+000
  0.000000000000000E+000
  0.000000000000000E+000
  0.000000000000000E+000
  0.000000000000000E+000
  0.000000000000000E+000
  0.000000000000000E+000
  0.000000000000000E+000
  0.000000000000000E+000
  0.000000000000000E+000
  0.000000000000000E+000
  0.000000000000000E+000
  0.000000000000000E+000
  0.000000000000000E+000
  0.000000000000000E+000
  0.000000000000000E+000
  0.000000000000000E+000
  0.000000000000000E+000
  0.000000000000000E+000
  0.000000000000000E+000
  0.000000000000000E+000
  0.000000000000000E+000
  0.000000000000000E+000
  0.000000000000000E+000
  0.000000000000000E+000
  0.000000000000000E+000
  0.000000000000000E+000
  0.000000000000000E+000
  0.000000000000000E+000
  0.000000000000000E+000
  0.000000000000000E+000
  0.000000000000000E+000
  0.000000000000000E+000
  0.000000000000000E+000
  0.000000000000000E+000
  0.000000000000000E+000
  0.000000000000000E+000
  0.000000000000000E+000
  0.000000000000000E+000
  0.000000000000000E+000
  0.000000000000000E+000
  0.000000000000000E+000
  0.000000000000000E+000
  0.000000000000000E+000
  0.000000000000000E+000
  0.000000000000000E+000
  0.000000000000000E+000
  0.000000000000000E+000
  0.000000000000000E+000
  0.000000000000000E+000
  0.000000000000000E+000
  0.000000000000000E+000
  0.000000000000000E+000
  0.000000000000000E+000
  0.000000000000000E+000
  0.000000000000000E+000
  0.000000000000000E+000
  0.000000000000000E+000
  0.000000000000000E+000
  0.000000000000000E+000
  0.000000000000000E+000
  0.000000000000000E+000
  0.000000000000000E+000
  0.000000000000000E+000
  0.000000000000000E+000
  0.000000000000000E+000
  0.000000000000000E+000
  0.000000000000000E+000
  0.000000000000000E+000
  0.000000000000000E+000
  0.000000000000000E+000
  0.000000000000000E+000
  0.000000000000000E+000
  0.000000000000000E+000
  0.000000000000000E+000
  0.000000000000000E+000
  0.000000000000000E+000
  0.000000000000000E+000
  0.000000000000000E+000
  0.000000000000000E+000
  0.000000000000000E+000
  0.000000000000000E+000
  0.000000000000000E+000
  0.000000000000000E+000
  0.000000000000000E+000
  0.000000000000000E+000
  0.000000000000000E+000
  0.000000000000000E+000
  0.000000000000000E+000
  0.000000000000000E+000
  0.000000000000000E+000
  0.000000000000000E+000
  0.000000000000000E+000
  0.000000000000000E+000
  0.000000000000000E+000
  0.000000000000000E+000
  0.000000000000000E+000
  0.000000000000000E+000
  0.000000000000000E+000
  0.000000000000000E+000
  0.000000000000000E+000
  0.000000000000000E+000
  0.000000000000000E+000
  0.000000000000000E+000
  0.000000000000000E+000
  0.000000000000000E+000
  0.000000000000000E+000
  0.000000000000000E+000
  0.000000000000000E+000
  0.000000000000000E+000
  0.000000000000000E+000
  0.000000000000000E+000
  0.000000000000000E+000
  0.000000000000000E+000
  0.000000000000000E+000
  0.000000000000000E+000
  0.000000000000000E+000
  0.000000000000000E+000
  0.000000000000000E+000
  0.000000000000000E+000
  0.000000000000000E+000
  0.000000000000000E+000
  0.000000000000000E+000
  0.000000000000000E+000
  0.000000000000000E+000
  0.000000000000000E+000
  0.000000000000000E+000
  0.000000000000000E+000
  0.000000000000000E+000
  0.000000000000000E+000
  0.000000000000000E+000
  0.000000000000000E+000
  0.000000000000000E+000
  0.000000000000000E+000
  0.000000000000000E+000
  0.000000000000000E+000
  0.000000000000000E+000
  0.000000000000000E+000
  0.000000000000000E+000
  0.000000000000000E+000
  0.000000000000000E+000
  0.000000000000000E+000
  0.000000000000000E+000
  0.000000000000000E+000
  0.000000000000000E+000
  0.000000000000000E+000
  0.000000000000000E+000
  0.000000000000000E+000
  0.000000000000000E+000
  0.000000000000000E+000
  0.000000000000000E+000
  0.000000000000000E+000
  0.000000000000000E+000
  0.000000000000000E+000
  0.000000000000000E+000
  0.000000000000000E+000
  0.000000000000000E+000
  0.000000000000000E+000
  0.000000000000000E+000
  0.000000000000000E+000
  0.000000000000000E+000
  0.000000000000000E+000
  0.000000000000000E+000
  0.000000000000000E+000
  0.000000000000000E+000
  0.000000000000000E+000
  0.000000000000000E+000
  0.000000000000000E+000
  0.000000000000000E+000
  0.000000000000000E+000
  0.000000000000000E+000
  0.000000000000000E+000
  0.000000000000000E+000
  0.000000000000000E+000
  0.000000000000000E+000
  0.000000000000000E+000
  0.000000000000000E+000
  0.000000000000000E+000
  0.000000000000000E+000
  0.000000000000000E+000
  0.000000000000000E+000
  0.000000000000000E+000
  0.000000000000000E+000
  0.000000000000000E+000
  0.000000000000000E+000
  0.000000000000000E+000
  0.000000000000000E+000
  0.000000000000000E+000
  0.000000000000000E+000
  0.000000000000000E+000
  0.000000000000000E+000
  0.000000000000000E+000
  0.000000000000000E+000
  0.000000000000000E+000
  0.000000000000000E+000
  0.000000000000000E+000
  0.000000000000000E+000
  0.000000000000000E+000
  0.000000000000000E+000
  0.000000000000000E+000
  0.000000000000000E+000
  0.000000000000000E+000
  0.000000000000000E+000
  0.000000000000000E+000
  0.000000000000000E+000
  0.000000000000000E+000
  0.000000000000000E+000
  0.000000000000000E+000
  0.000000000000000E+000
  0.000000000000000E+000
  0.000000000000000E+000
  0.000000000000000E+000
  0.000000000000000E+000
  0.000000000000000E+000
  0.000000000000000E+000
  0.000000000000000E+000
  0.000000000000000E+000
  0.000000000000000E+000
  0.000000000000000E+000
  0.000000000000000E+000
  0.000000000000000E+000
  0.000000000000000E+000
  0.000000000000000E+000
  0.000000000000000E+000
  0.000000000000000E+000
  0.000000000000000E+000
  0.000000000000000E+000
  0.000000000000000E+000
  0.000000000000000E+000
  0.000000000000000E+000
  0.000000000000000E+000
  0.000000000000000E+000
  0.000000000000000E+000
  0.000000000000000E+000
  0.000000000000000E+000
  0.000000000000000E+000
  0.000000000000000E+000
  0.000000000000000E+000
  0.000000000000000E+000
  0.000000000000000E+000
  0.000000000000000E+000
  0.000000000000000E+000
  0.000000000000000E+000
  0.000000000000000E+000
  0.000000000000000E+000
  0.000000000000000E+000
  0.000000000000000E+000
  0.000000000000000E+000
  0.000000000000000E+000
  0.000000000000000E+000
  0.000000000000000E+000
  0.000000000000000E+000
  0.000000000000000E+000
  0.000000000000000E+000
  0.000000000000000E+000
  0.000000000000000E+000
  0.000000000000000E+000
  0.000000000000000E+000
  0.000000000000000E+000
  0.000000000000000E+000
  0.000000000000000E+000
  0.000000000000000E+000
  0.000000000000000E+000
  0.000000000000000E+000
  0.000000000000000E+000
  0.000000000000000E+000
  0.000000000000000E+000
  0.000000000000000E+000
  0.000000000000000E+000
  0.000000000000000E+000
  0.000000000000000E+000
  0.000000000000000E+000
  0.000000000000000E+000
  0.000000000000000E+000
  0.000000000000000E+000
  0.000000000000000E+000
  0.000000000000000E+000
  0.000000000000000E+000
  0.000000000000000E+000
  0.000000000000000E+000
  0.000000000000000E+000
  0.000000000000000E+000
  0.000000000000000E+000
  0.000000000000000E+000
  0.000000000000000E+000
  0.000000000000000E+000
  0.000000000000000E+000
  0.000000000000000E+000
  0.000000000000000E+000
  0.000000000000000E+000
  0.000000000000000E+000
  0.000000000000000E+000
  0.000000000000000E+000
  0.000000000000000E+000
  0.000000000000000E+000
  0.000000000000000E+000
  0.000000000000000E+000
  0.000000000000000E+000
  0.000000000000000E+000
  0.000000000000000E+000
  0.000000000000000E+000
  0.000000000000000E+000
  0.000000000000000E+000
  0.000000000000000E+000
  0.000000000000000E+000
  0.000000000000000E+000
  0.000000000000000E+000
  0.000000000000000E+000
  0.000000000000000E+000
  0.000000000000000E+000
  0.000000000000000E+000
  0.000000000000000E+000
  0.000000000000000E+000
  0.000000000000000E+000
  0.000000000000000E+000
  0.000000000000000E+000
  0.000000000000000E+000
  0.000000000000000E+000
  0.000000000000000E+000
  0.000000000000000E+000
  0.000000000000000E+000
  0.000000000000000E+000
  0.000000000000000E+000
  0.000000000000000E+000
  0.000000000000000E+000
  0.000000000000000E+000
  0.000000000000000E+000
  0.000000000000000E+000
  0.000000000000000E+000
  0.000000000000000E+000
  0.000000000000000E+000
  0.000000000000000E+000
  0.000000000000000E+000
  0.000000000000000E+000
  0.000000000000000E+000
  0.000000000000000E+000
  0.000000000000000E+000
  0.000000000000000E+000
  0.000000000000000E+000
  0.000000000000000E+000
  0.000000000000000E+000
  0.000000000000000E+000
  0.000000000000000E+000
  0.000000000000000E+000
  0.000000000000000E+000
  0.000000000000000E+000
  0.000000000000000E+000
  0.000000000000000E+000
  0.000000000000000E+000
  0.000000000000000E+000
  0.000000000000000E+000
  0.000000000000000E+000
  0.000000000000000E+000
  0.000000000000000E+000
  0.000000000000000E+000
  0.000000000000000E+000
  0.000000000000000E+000
  0.000000000000000E+000
  0.000000000000000E+000
  0.000000000000000E+000
  0.000000000000000E+000
  0.000000000000000E+000
  0.000000000000000E+000
  0.000000000000000E+000
  0.000000000000000E+000
  0.000000000000000E+000
  0.000000000000000E+000
  0.000000000000000E+000
  0.000000000000000E+000
  0.000000000000000E+000
  0.000000000000000E+000
  0.000000000000000E+000
  0.000000000000000E+000
  0.000000000000000E+000
  0.000000000000000E+000
  0.000000000000000E+000
  0.000000000000000E+000
  0.000000000000000E+000
  0.000000000000000E+000
  0.000000000000000E+000
  0.000000000000000E+000
  0.000000000000000E+000
  0.000000000000000E+000
  0.000000000000000E+000
  0.000000000000000E+000
  0.000000000000000E+000
  0.000000000000000E+000
  0.000000000000000E+000
  0.000000000000000E+000
  0.000000000000000E+000
  0.000000000000000E+000
  0.000000000000000E+000
  0.000000000000000E+000
  0.000000000000000E+000
  0.000000000000000E+000
  0.000000000000000E+000
  0.000000000000000E+000
  0.000000000000000E+000
  0.000000000000000E+000
  0.000000000000000E+000
  0.000000000000000E+000
  0.000000000000000E+000
  0.000000000000000E+000
  0.000000000000000E+000
  0.000000000000000E+000
  0.000000000000000E+000
  0.000000000000000E+000
  0.000000000000000E+000
  0.000000000000000E+000
  0.000000000000000E+000
  0.000000000000000E+000
  0.000000000000000E+000
  0.000000000000000E+000
  0.000000000000000E+000
  0.000000000000000E+000
  0.000000000000000E+000
  0.000000000000000E+000
  0.000000000000000E+000
  0.000000000000000E+000
  0.000000000000000E+000
  0.000000000000000E+000
  0.000000000000000E+000
  0.000000000000000E+000
  0.000000000000000E+000
  0.000000000000000E+000
  0.000000000000000E+000
  0.000000000000000E+000
  0.000000000000000E+000
  0.000000000000000E+000
  0.000000000000000E+000
  0.000000000000000E+000
  0.000000000000000E+000
  0.000000000000000E+000
  0.000000000000000E+000
  0.000000000000000E+000
  0.000000000000000E+000
  0.000000000000000E+000
  0.000000000000000E+000
  0.000000000000000E+000
  0.000000000000000E+000
  0.000000000000000E+000
  0.000000000000000E+000
  0.000000000000000E+000
  0.000000000000000E+000
  0.000000000000000E+000
  0.000000000000000E+000
  0.000000000000000E+000
  0.000000000000000E+000
  0.000000000000000E+000
  0.000000000000000E+000
  0.000000000000000E+000
  0.000000000000000E+000
  0.000000000000000E+000
  0.000000000000000E+000
  0.000000000000000E+000
  0.000000000000000E+000
  0.000000000000000E+000
  0.000000000000000E+000
  0.000000000000000E+000
  0.000000000000000E+000
  0.000000000000000E+000
  0.000000000000000E+000
  0.000000000000000E+000
  0.000000000000000E+000
  0.000000000000000E+000
  0.000000000000000E+000
  0.000000000000000E+000
  0.000000000000000E+000
  0.000000000000000E+000
  0.000000000000000E+000
  0.000000000000000E+000
  0.000000000000000E+000
  0.000000000000000E+000
  0.000000000000000E+000
  0.000000000000000E+000
  0.000000000000000E+000
  0.000000000000000E+000
  0.000000000000000E+000
  0.000000000000000E+000
  0.000000000000000E+000
  0.000000000000000E+000
  0.000000000000000E+000
  0.000000000000000E+000
  0.000000000000000E+000
  0.000000000000000E+000
  0.000000000000000E+000
  0.000000000000000E+000
  0.000000000000000E+000
  0.000000000000000E+000
  0.000000000000000E+000
  0.000000000000000E+000
  0.000000000000000E+000
  0.000000000000000E+000
  0.000000000000000E+000
  0.000000000000000E+000
  0.000000000000000E+000
  0.000000000000000E+000
  0.000000000000000E+000
  0.000000000000000E+000
  0.000000000000000E+000
  0.000000000000000E+000
  0.000000000000000E+000
  0.000000000000000E+000
  0.000000000000000E+000
  0.000000000000000E+000
  0.000000000000000E+000
  0.000000000000000E+000
  0.000000000000000E+000
  0.000000000000000E+000
  0.000000000000000E+000
  0.000000000000000E+000
  0.000000000000000E+000
  0.000000000000000E+000
  0.000000000000000E+000
  0.000000000000000E+000
  0.000000000000000E+000
  0.000000000000000E+000
  0.000000000000000E+000
  0.000000000000000E+000
  0.000000000000000E+000
  0.000000000000000E+000
  0.000000000000000E+000
  0.000000000000000E+000
  0.000000000000000E+000
  0.000000000000000E+000
  0.000000000000000E+000
  0.000000000000000E+000
  0.000000000000000E+000
  0.000000000000000E+000
  0.000000000000000E+000
  0.000000000000000E+000
  0.000000000000000E+000
  0.000000000000000E+000
  0.000000000000000E+000
  0.000000000000000E+000
  0.000000000000000E+000
  0.000000000000000E+000
  0.000000000000000E+000
  0.000000000000000E+000
  0.000000000000000E+000
  0.000000000000000E+000
  0.000000000000000E+000
  0.000000000000000E+000
  0.000000000000000E+000
  0.000000000000000E+000
  0.000000000000000E+000
  0.000000000000000E+000
  0.000000000000000E+000
  0.000000000000000E+000
  0.000000000000000E+000
  0.000000000000000E+000
  0.000000000000000E+000
  0.000000000000000E+000
  0.000000000000000E+000
  0.000000000000000E+000
  0.000000000000000E+000
  0.000000000000000E+000
  0.000000000000000E+000
  0.000000000000000E+000
  0.000000000000000E+000
  0.000000000000000E+000
  0.000000000000000E+000
  0.000000000000000E+000
  0.000000000000000E+000
  0.000000000000000E+000
  0.000000000000000E+000
  0.000000000000000E+000
  0.000000000000000E+000
  0.000000000000000E+000
  0.000000000000000E+000
  0.000000000000000E+000
  0.000000000000000E+000
  0.000000000000000E+000
  0.000000000000000E+000
  0.000000000000000E+000
  0.000000000000000E+000
  0.000000000000000E+000
  0.000000000000000E+000
  0.000000000000000E+000
  0.000000000000000E+000
  0.000000000000000E+000
  0.000000000000000E+000
  0.000000000000000E+000
  0.000000000000000E+000
  0.000000000000000E+000
  0.000000000000000E+000
  0.000000000000000E+000
  0.000000000000000E+000
  0.000000000000000E+000
  0.000000000000000E+000
  0.000000000000000E+000
  0.000000000000000E+000
  0.000000000000000E+000
  0.000000000000000E+000
  0.000000000000000E+000
  0.000000000000000E+000
  0.000000000000000E+000
  0.000000000000000E+000
  0.000000000000000E+000
  0.000000000000000E+000
  0.000000000000000E+000
  0.000000000000000E+000
  0.000000000000000E+000
  0.000000000000000E+000
  0.000000000000000E+000
  0.000000000000000E+000
  0.000000000000000E+000
  0.000000000000000E+000
  0.000000000000000E+000
  0.000000000000000E+000
  0.000000000000000E+000
  0.000000000000000E+000
  0.000000000000000E+000
  0.000000000000000E+000
  0.000000000000000E+000
  0.000000000000000E+000
  0.000000000000000E+000
  0.000000000000000E+000
  0.000000000000000E+000
  0.000000000000000E+000
  0.000000000000000E+000
  0.000000000000000E+000
  0.000000000000000E+000
  0.000000000000000E+000
  0.000000000000000E+000
  0.000000000000000E+000
  0.000000000000000E+000
  0.000000000000000E+000
  0.000000000000000E+000
  0.000000000000000E+000
  0.000000000000000E+000
  0.000000000000000E+000
  0.000000000000000E+000
  0.000000000000000E+000
  0.000000000000000E+000
  0.000000000000000E+000
  0.000000000000000E+000
  0.000000000000000E+000
  0.000000000000000E+000
  0.000000000000000E+000
  0.000000000000000E+000
  0.000000000000000E+000
  0.000000000000000E+000
  0.000000000000000E+000
  0.000000000000000E+000
  0.000000000000000E+000
  0.000000000000000E+000
  0.000000000000000E+000
  0.000000000000000E+000
  0.000000000000000E+000
  0.000000000000000E+000
  0.000000000000000E+000
  0.000000000000000E+000
  0.000000000000000E+000
  0.000000000000000E+000
  0.000000000000000E+000
  0.000000000000000E+000
  0.000000000000000E+000
  0.000000000000000E+000
  0.000000000000000E+000
  0.000000000000000E+000
  0.000000000000000E+000
  0.000000000000000E+000
  0.000000000000000E+000
  0.000000000000000E+000
  0.000000000000000E+000
  0.000000000000000E+000
  0.000000000000000E+000
  0.000000000000000E+000
  0.000000000000000E+000
  0.000000000000000E+000
  0.000000000000000E+000
  0.000000000000000E+000
  0.000000000000000E+000
  0.000000000000000E+000
  0.000000000000000E+000
  0.000000000000000E+000
  0.000000000000000E+000
  0.000000000000000E+000
  0.000000000000000E+000
  0.000000000000000E+000
  0.000000000000000E+000
  0.000000000000000E+000
  0.000000000000000E+000
  0.000000000000000E+000
  0.000000000000000E+000
  0.000000000000000E+000
  0.000000000000000E+000
  0.000000000000000E+000
  0.000000000000000E+000
  0.000000000000000E+000
  0.000000000000000E+000
  0.000000000000000E+000
  0.000000000000000E+000
  0.000000000000000E+000
  0.000000000000000E+000
  0.000000000000000E+000
  0.000000000000000E+000
  0.000000000000000E+000
  0.000000000000000E+000
  0.000000000000000E+000
  0.000000000000000E+000
  0.000000000000000E+000
  0.000000000000000E+000
  0.000000000000000E+000
  0.000000000000000E+000
  0.000000000000000E+000
  0.000000000000000E+000
  0.000000000000000E+000
  0.000000000000000E+000
  0.000000000000000E+000
  0.000000000000000E+000
  0.000000000000000E+000
  0.000000000000000E+000
  0.000000000000000E+000
  0.000000000000000E+000
  0.000000000000000E+000
  0.000000000000000E+000
  0.000000000000000E+000
  0.000000000000000E+000
  0.000000000000000E+000
  0.000000000000000E+000
  0.000000000000000E+000
  0.000000000000000E+000
  0.000000000000000E+000
  0.000000000000000E+000
  0.000000000000000E+000
  0.000000000000000E+000
  0.000000000000000E+000
  0.000000000000000E+000
  0.000000000000000E+000
  0.000000000000000E+000
  0.000000000000000E+000
  0.000000000000000E+000
  0.000000000000000E+000
  0.000000000000000E+000
  0.000000000000000E+000
  0.000000000000000E+000
  0.000000000000000E+000
  0.000000000000000E+000
  0.000000000000000E+000
  0.000000000000000E+000
  0.000000000000000E+000
  0.000000000000000E+000
  0.000000000000000E+000
  0.000000000000000E+000
  0.000000000000000E+000
  0.000000000000000E+000
  0.000000000000000E+000
  0.000000000000000E+000
  0.000000000000000E+000
  0.000000000000000E+000
  0.000000000000000E+000
  0.000000000000000E+000
  0.000000000000000E+000
  0.000000000000000E+000
  0.000000000000000E+000
  0.000000000000000E+000
  0.000000000000000E+000
  0.000000000000000E+000
  0.000000000000000E+000
  0.000000000000000E+000
  0.000000000000000E+000
  0.000000000000000E+000
  0.000000000000000E+000
  0.000000000000000E+000
  0.000000000000000E+000
  0.000000000000000E+000
  0.000000000000000E+000
  0.000000000000000E+000
  0.000000000000000E+000
  0.000000000000000E+000
  0.000000000000000E+000
  0.000000000000000E+000
  0.000000000000000E+000
  0.000000000000000E+000
  0.000000000000000E+000
  0.000000000000000E+000
  0.000000000000000E+000
  0.000000000000000E+000
  0.000000000000000E+000
  0.000000000000000E+000
  0.000000000000000E+000
  0.000000000000000E+000
  0.000000000000000E+000
  0.000000000000000E+000
  0.000000000000000E+000
  0.000000000000000E+000
  0.000000000000000E+000
  0.000000000000000E+000
  0.000000000000000E+000
  0.000000000000000E+000
  0.000000000000000E+000
  0.000000000000000E+000
  0.000000000000000E+000
  0.000000000000000E+000
  0.000000000000000E+000
  0.000000000000000E+000
  0.000000000000000E+000
  0.000000000000000E+000
  0.000000000000000E+000
  0.000000000000000E+000
  0.000000000000000E+000
  0.000000000000000E+000
  0.000000000000000E+000
  0.000000000000000E+000
  0.000000000000000E+000
  0.000000000000000E+000
  0.000000000000000E+000
  0.000000000000000E+000
  0.000000000000000E+000
  0.000000000000000E+000
  0.000000000000000E+000
  0.000000000000000E+000
  0.000000000000000E+000
  0.000000000000000E+000
  0.000000000000000E+000
  0.000000000000000E+000
  0.000000000000000E+000
  0.000000000000000E+000
  0.000000000000000E+000
  0.000000000000000E+000
  0.000000000000000E+000
  0.000000000000000E+000
  0.000000000000000E+000
  0.000000000000000E+000
  0.000000000000000E+000
  0.000000000000000E+000
  0.000000000000000E+000
  0.000000000000000E+000
  0.000000000000000E+000
  0.000000000000000E+000
  0.000000000000000E+000
  0.000000000000000E+000
  0.000000000000000E+000
  0.000000000000000E+000
  0.000000000000000E+000
  0.000000000000000E+000
  0.000000000000000E+000
  0.000000000000000E+000
  0.000000000000000E+000
  0.000000000000000E+000
  0.000000000000000E+000
  0.000000000000000E+000
  0.000000000000000E+000
  0.000000000000000E+000
  0.000000000000000E+000
  0.000000000000000E+000
  0.000000000000000E+000
  0.000000000000000E+000
  0.000000000000000E+000
  0.000000000000000E+000
  0.000000000000000E+000
  0.000000000000000E+000
  0.000000000000000E+000
  0.000000000000000E+000
  0.000000000000000E+000
  0.000000000000000E+000
  0.000000000000000E+000
  0.000000000000000E+000
  0.000000000000000E+000
  0.000000000000000E+000
  0.000000000000000E+000
  0.000000000000000E+000
  0.000000000000000E+000
  0.000000000000000E+000
  0.000000000000000E+000
  0.000000000000000E+000
  0.000000000000000E+000
  0.000000000000000E+000
  0.000000000000000E+000
  0.000000000000000E+000
  0.000000000000000E+000
  0.000000000000000E+000
  0.000000000000000E+000
  0.000000000000000E+000
  0.000000000000000E+000
  0.000000000000000E+000
  0.000000000000000E+000
  0.000000000000000E+000
  0.000000000000000E+000
  0.000000000000000E+000
  0.000000000000000E+000
  0.000000000000000E+000
  0.000000000000000E+000
  0.000000000000000E+000
  0.000000000000000E+000
  0.000000000000000E+000
  0.000000000000000E+000
  0.000000000000000E+000
  0.000000000000000E+000
  0.000000000000000E+000
  0.000000000000000E+000
  0.000000000000000E+000
  0.000000000000000E+000
  0.000000000000000E+000
  0.000000000000000E+000
  0.000000000000000E+000
  0.000000000000000E+000
  0.000000000000000E+000
  0.000000000000000E+000
  0.000000000000000E+000
  0.000000000000000E+000
  0.000000000000000E+000
  0.000000000000000E+000
  0.000000000000000E+000
  0.000000000000000E+000
  0.000000000000000E+000
  0.000000000000000E+000
  0.000000000000000E+000
  0.000000000000000E+000
  0.000000000000000E+000
  0.000000000000000E+000
  0.000000000000000E+000
  0.000000000000000E+000
  0.000000000000000E+000
  0.000000000000000E+000
  0.000000000000000E+000
  0.000000000000000E+000
  0.000000000000000E+000
  0.000000000000000E+000
  0.000000000000000E+000
  0.000000000000000E+000
  0.000000000000000E+000
  0.000000000000000E+000
  0.000000000000000E+000
  0.000000000000000E+000
  0.000000000000000E+000
  0.000000000000000E+000
  0.000000000000000E+000
  0.000000000000000E+000
  0.000000000000000E+000
  0.000000000000000E+000
  0.000000000000000E+000
  0.000000000000000E+000
  0.000000000000000E+000
  0.000000000000000E+000
  0.000000000000000E+000
  0.000000000000000E+000
  0.000000000000000E+000
  0.000000000000000E+000
  0.000000000000000E+000
  0.000000000000000E+000
  0.000000000000000E+000
  0.000000000000000E+000
  0.000000000000000E+000
  0.000000000000000E+000
  0.000000000000000E+000
  0.000000000000000E+000
  0.000000000000000E+000
  0.000000000000000E+000
  0.000000000000000E+000
  0.000000000000000E+000
  0.000000000000000E+000
  0.000000000000000E+000
  0.000000000000000E+000
  0.000000000000000E+000
  0.000000000000000E+000
  0.000000000000000E+000
  0.000000000000000E+000
  0.000000000000000E+000
  0.000000000000000E+000
  0.000000000000000E+000
  0.000000000000000E+000
  0.000000000000000E+000
  0.000000000000000E+000
  0.000000000000000E+000
  0.000000000000000E+000
  0.000000000000000E+000
  0.000000000000000E+000
  0.000000000000000E+000
  0.000000000000000E+000
  0.000000000000000E+000
  0.000000000000000E+000
  0.000000000000000E+000
  0.000000000000000E+000
  0.000000000000000E+000
  0.000000000000000E+000
  0.000000000000000E+000
  0.000000000000000E+000
  0.000000000000000E+000
  0.000000000000000E+000
  0.000000000000000E+000
  0.000000000000000E+000
  0.000000000000000E+000
  0.000000000000000E+000
  0.000000000000000E+000
  0.000000000000000E+000
  0.000000000000000E+000
  0.000000000000000E+000
  0.000000000000000E+000
  0.000000000000000E+000
  0.000000000000000E+000
  0.000000000000000E+000
  0.000000000000000E+000
  0.000000000000000E+000
  0.000000000000000E+000
  0.000000000000000E+000
  0.000000000000000E+000
  0.000000000000000E+000
  0.000000000000000E+000
  0.000000000000000E+000
  0.000000000000000E+000
  0.000000000000000E+000
  0.000000000000000E+000
  0.000000000000000E+000
  0.000000000000000E+000
  0.000000000000000E+000
  0.000000000000000E+000
  0.000000000000000E+000
  0.000000000000000E+000
  0.000000000000000E+000
  0.000000000000000E+000
  0.000000000000000E+000
  0.000000000000000E+000
  0.000000000000000E+000
  0.000000000000000E+000
  0.000000000000000E+000
  0.000000000000000E+000
  0.000000000000000E+000
  0.000000000000000E+000
  0.000000000000000E+000
  0.000000000000000E+000
  0.000000000000000E+000
  0.000000000000000E+000
  0.000000000000000E+000
  0.000000000000000E+000
  0.000000000000000E+000
  0.000000000000000E+000
  0.000000000000000E+000
  0.000000000000000E+000
  0.000000000000000E+000
  0.000000000000000E+000
  0.000000000000000E+000
  0.000000000000000E+000
  0.000000000000000E+000
  0.000000000000000E+000
  0.000000000000000E+000
  0.000000000000000E+000
  0.000000000000000E+000
  0.000000000000000E+000
  0.000000000000000E+000
  0.000000000000000E+000
  0.000000000000000E+000
  0.000000000000000E+000
  0.000000000000000E+000
  0.000000000000000E+000
  0.000000000000000E+000
  0.000000000000000E+000
  0.000000000000000E+000
  0.000000000000000E+000
  0.000000000000000E+000
  0.000000000000000E+000
  0.000000000000000E+000
  0.000000000000000E+000
  0.000000000000000E+000
  0.000000000000000E+000
  0.000000000000000E+000
  0.000000000000000E+000
  0.000000000000000E+000
  0.000000000000000E+000
  0.000000000000000E+000
  0.000000000000000E+000
  0.000000000000000E+000
  0.000000000000000E+000
  0.000000000000000E+000
  0.000000000000000E+000
  0.000000000000000E+000
  0.000000000000000E+000
  0.000000000000000E+000
  0.000000000000000E+000
  0.000000000000000E+000
  0.000000000000000E+000
  0.000000000000000E+000
  0.000000000000000E+000
  0.000000000000000E+000
  0.000000000000000E+000
  0.000000000000000E+000
  0.000000000000000E+000
  0.000000000000000E+000
  0.000000000000000E+000
  0.000000000000000E+000
  0.000000000000000E+000
  0.000000000000000E+000
  0.000000000000000E+000
  0.000000000000000E+000
  0.000000000000000E+000
  0.000000000000000E+000
  0.000000000000000E+000
  0.000000000000000E+000
  0.000000000000000E+000
  0.000000000000000E+000
  0.000000000000000E+000
  0.000000000000000E+000
  0.000000000000000E+000
  0.000000000000000E+000
  0.000000000000000E+000
  0.000000000000000E+000
  0.000000000000000E+000
  0.000000000000000E+000
  0.000000000000000E+000
  0.000000000000000E+000
  0.000000000000000E+000
  0.000000000000000E+000
  0.000000000000000E+000
  0.000000000000000E+000
  0.000000000000000E+000
  0.000000000000000E+000
  0.000000000000000E+000
  0.000000000000000E+000
  0.000000000000000E+000
  0.000000000000000E+000
  0.000000000000000E+000
  0.000000000000000E+000
  0.000000000000000E+000
  0.000000000000000E+000
  0.000000000000000E+000
  0.000000000000000E+000
  0.000000000000000E+000
  0.000000000000000E+000
  0.000000000000000E+000
  0.000000000000000E+000
  0.000000000000000E+000
  0.000000000000000E+000
  0.000000000000000E+000
  0.000000000000000E+000
  0.000000000000000E+000
  0.000000000000000E+000
  0.000000000000000E+000
  0.000000000000000E+000
  0.000000000000000E+000
  0.000000000000000E+000
  0.000000000000000E+000
  0.000000000000000E+000
  0.000000000000000E+000
  0.000000000000000E+000
  0.000000000000000E+000
  0.000000000000000E+000
  0.000000000000000E+000
  0.000000000000000E+000
  0.000000000000000E+000
  0.000000000000000E+000
  0.000000000000000E+000
  0.000000000000000E+000
  0.000000000000000E+000
  0.000000000000000E+000
  0.000000000000000E+000
  0.000000000000000E+000
  0.000000000000000E+000
  0.000000000000000E+000
  0.000000000000000E+000
  0.000000000000000E+000
  0.000000000000000E+000
  0.000000000000000E+000
  0.000000000000000E+000
  0.000000000000000E+000
  0.000000000000000E+000
  0.000000000000000E+000
  0.000000000000000E+000
  0.000000000000000E+000
  0.000000000000000E+000
  0.000000000000000E+000
  0.000000000000000E+000
  0.000000000000000E+000
  0.000000000000000E+000
  0.000000000000000E+000
  0.000000000000000E+000
  0.000000000000000E+000
  0.000000000000000E+000
  0.000000000000000E+000
  0.000000000000000E+000
  0.000000000000000E+000
  0.000000000000000E+000
  0.000000000000000E+000
  0.000000000000000E+000
  0.000000000000000E+000
  0.000000000000000E+000
  0.000000000000000E+000
  0.000000000000000E+000
  0.000000000000000E+000
  0.000000000000000E+000
  0.000000000000000E+000
  0.000000000000000E+000
  0.000000000000000E+000
  0.000000000000000E+000
  0.000000000000000E+000
  0.000000000000000E+000
  0.000000000000000E+000
  0.000000000000000E+000
  0.000000000000000E+000
  0.000000000000000E+000
  0.000000000000000E+000
  0.000000000000000E+000
  0.000000000000000E+000
  0.000000000000000E+000
  0.000000000000000E+000
  0.000000000000000E+000
  0.000000000000000E+000
  0.000000000000000E+000
  0.000000000000000E+000
  0.000000000000000E+000
  0.000000000000000E+000
  0.000000000000000E+000
  0.000000000000000E+000
  0.000000000000000E+000
  0.000000000000000E+000
  0.000000000000000E+000
  0.000000000000000E+000
  0.000000000000000E+000
  0.000000000000000E+000
  0.000000000000000E+000
  0.000000000000000E+000
  0.000000000000000E+000
  0.000000000000000E+000
  0.000000000000000E+000
  0.000000000000000E+000
  0.000000000000000E+000
  0.000000000000000E+000
  0.000000000000000E+000
  0.000000000000000E+000
  0.000000000000000E+000
  0.000000000000000E+000
  0.000000000000000E+000
  0.000000000000000E+000
  0.000000000000000E+000
  0.000000000000000E+000
  0.000000000000000E+000
  0.000000000000000E+000
  0.000000000000000E+000
  0.000000000000000E+000
  0.000000000000000E+000
  0.000000000000000E+000
  0.000000000000000E+000
  0.000000000000000E+000
  0.000000000000000E+000
  0.000000000000000E+000
  0.000000000000000E+000
  0.000000000000000E+000
  0.000000000000000E+000
  0.000000000000000E+000
  0.000000000000000E+000
  0.000000000000000E+000
  0.000000000000000E+000
  0.000000000000000E+000
  0.000000000000000E+000
  0.000000000000000E+000
  0.000000000000000E+000
  0.000000000000000E+000
  0.000000000000000E+000
  0.000000000000000E+000
  0.000000000000000E+000
  0.000000000000000E+000
  0.000000000000000E+000
  0.000000000000000E+000
  0.000000000000000E+000
  0.000000000000000E+000
  0.000000000000000E+000
  0.000000000000000E+000
  0.000000000000000E+000
  0.000000000000000E+000
  0.000000000000000E+000
  0.000000000000000E+000
  0.000000000000000E+000
  0.000000000000000E+000
  0.000000000000000E+000
  0.000000000000000E+000
  0.000000000000000E+000
  0.000000000000000E+000
  0.000000000000000E+000
  0.000000000000000E+000
  0.000000000000000E+000
  0.000000000000000E+000
  0.000000000000000E+000
  0.000000000000000E+000
  0.000000000000000E+000
  0.000000000000000E+000
  0.000000000000000E+000
  0.000000000000000E+000
  0.000000000000000E+000
  0.000000000000000E+000
  0.000000000000000E+000
  0.000000000000000E+000
  0.000000000000000E+000
  0.000000000000000E+000
  0.000000000000000E+000
  0.000000000000000E+000
  0.000000000000000E+000
  0.000000000000000E+000
  0.000000000000000E+000
  0.000000000000000E+000
  0.000000000000000E+000
  0.000000000000000E+000
  0.000000000000000E+000
  0.000000000000000E+000
  0.000000000000000E+000
  0.000000000000000E+000
  0.000000000000000E+000
  0.000000000000000E+000
  0.000000000000000E+000
  0.000000000000000E+000
  0.000000000000000E+000
  0.000000000000000E+000
  0.000000000000000E+000
  0.000000000000000E+000
  0.000000000000000E+000
  0.000000000000000E+000
  0.000000000000000E+000
  0.000000000000000E+000
  0.000000000000000E+000
  0.000000000000000E+000
  0.000000000000000E+000
  0.000000000000000E+000
  0.000000000000000E+000
  0.000000000000000E+000
  0.000000000000000E+000
  0.000000000000000E+000
  0.000000000000000E+000
  0.000000000000000E+000
  0.000000000000000E+000
  0.000000000000000E+000
  0.000000000000000E+000
  0.000000000000000E+000
  0.000000000000000E+000
  0.000000000000000E+000
  0.000000000000000E+000
  0.000000000000000E+000
  0.000000000000000E+000
  0.000000000000000E+000
  0.000000000000000E+000
  0.000000000000000E+000
  0.000000000000000E+000
  0.000000000000000E+000
  0.000000000000000E+000
  0.000000000000000E+000
  0.000000000000000E+000
  0.000000000000000E+000
  0.000000000000000E+000
  0.000000000000000E+000
  0.000000000000000E+000
  0.000000000000000E+000
  0.000000000000000E+000
  0.000000000000000E+000
  0.000000000000000E+000
  0.000000000000000E+000
  0.000000000000000E+000
  0.000000000000000E+000
  0.000000000000000E+000
  0.000000000000000E+000
  0.000000000000000E+000
  0.000000000000000E+000
  0.000000000000000E+000
  0.000000000000000E+000
  0.000000000000000E+000
  0.000000000000000E+000
  0.000000000000000E+000
  0.000000000000000E+000
  0.000000000000000E+000
  0.000000000000000E+000
  0.000000000000000E+000
  0.000000000000000E+000
  0.000000000000000E+000
  0.000000000000000E+000
  0.000000000000000E+000
  0.000000000000000E+000
  0.000000000000000E+000
  0.000000000000000E+000
  0.000000000000000E+000
  0.000000000000000E+000
  0.000000000000000E+000
  0.000000000000000E+000
  0.000000000000000E+000
  0.000000000000000E+000
  0.000000000000000E+000
  0.000000000000000E+000
  0.000000000000000E+000
  0.000000000000000E+000
  0.000000000000000E+000
  0.000000000000000E+000
  0.000000000000000E+000
  0.000000000000000E+000
  0.000000000000000E+000
  0.000000000000000E+000
  0.000000000000000E+000
  0.000000000000000E+000
  0.000000000000000E+000
  0.000000000000000E+000
  0.000000000000000E+000
  0.000000000000000E+000
  0.000000000000000E+000
  0.000000000000000E+000
  0.000000000000000E+000
  0.000000000000000E+000
  0.000000000000000E+000
  0.000000000000000E+000
  0.000000000000000E+000
  0.000000000000000E+000
  0.000000000000000E+000
  0.000000000000000E+000
  0.000000000000000E+000
  0.000000000000000E+000
  0.000000000000000E+000
  0.000000000000000E+000
  0.000000000000000E+000
  0.000000000000000E+000
  0.000000000000000E+000
  0.000000000000000E+000
  0.000000000000000E+000
  0.000000000000000E+000
  0.000000000000000E+000
  0.000000000000000E+000
  0.000000000000000E+000
  0.000000000000000E+000
  0.000000000000000E+000
  0.000000000000000E+000
  0.000000000000000E+000
  0.000000000000000E+000
  0.000000000000000E+000
  0.000000000000000E+000
  0.000000000000000E+000
  0.000000000000000E+000
  0.000000000000000E+000
  0.000000000000000E+000
  0.000000000000000E+000
  0.000000000000000E+000
  0.000000000000000E+000
  0.000000000000000E+000
  0.000000000000000E+000
  0.000000000000000E+000
  0.000000000000000E+000
  0.000000000000000E+000
  0.000000000000000E+000
  0.000000000000000E+000
  0.000000000000000E+000
  0.000000000000000E+000
  0.000000000000000E+000
  0.000000000000000E+000
  0.000000000000000E+000
  0.000000000000000E+000
  0.000000000000000E+000
  0.000000000000000E+000
  0.000000000000000E+000
  0.000000000000000E+000
  0.000000000000000E+000
  0.000000000000000E+000
  0.000000000000000E+000
  0.000000000000000E+000
  0.000000000000000E+000
  0.000000000000000E+000
  0.000000000000000E+000
  0.000000000000000E+000
  0.000000000000000E+000
  0.000000000000000E+000
  0.000000000000000E+000
  0.000000000000000E+000
  0.000000000000000E+000
  0.000000000000000E+000
  0.000000000000000E+000
  0.000000000000000E+000
  0.000000000000000E+000
  0.000000000000000E+000
  0.000000000000000E+000
  0.000000000000000E+000
  0.000000000000000E+000
  0.000000000000000E+000
  0.000000000000000E+000
  0.000000000000000E+000
  0.000000000000000E+000
  0.000000000000000E+000
  0.000000000000000E+000
  0.000000000000000E+000
  0.000000000000000E+000
  0.000000000000000E+000
  0.000000000000000E+000
  0.000000000000000E+000
  0.000000000000000E+000
  0.000000000000000E+000
  0.000000000000000E+000
  0.000000000000000E+000
  0.000000000000000E+000
  0.000000000000000E+000
  0.000000000000000E+000
  0.000000000000000E+000
  0.000000000000000E+000
  0.000000000000000E+000
  0.000000000000000E+000
  0.000000000000000E+000
  0.000000000000000E+000
  0.000000000000000E+000
  0.000000000000000E+000
  0.000000000000000E+000
  0.000000000000000E+000
  0.000000000000000E+000
  0.000000000000000E+000
  0.000000000000000E+000
  0.000000000000000E+000
  0.000000000000000E+000
  0.000000000000000E+000
  0.000000000000000E+000
  0.000000000000000E+000
  0.000000000000000E+000
  0.000000000000000E+000
  0.000000000000000E+000
  0.000000000000000E+000
  0.000000000000000E+000
  0.000000000000000E+000
  0.000000000000000E+000
  0.000000000000000E+000
  0.000000000000000E+000
  0.000000000000000E+000
  0.000000000000000E+000
  0.000000000000000E+000
  0.000000000000000E+000
  0.000000000000000E+000
  0.000000000000000E+000
  0.000000000000000E+000
  0.000000000000000E+000
  0.000000000000000E+000
  0.000000000000000E+000
  0.000000000000000E+000
  0.000000000000000E+000
  0.000000000000000E+000
  0.000000000000000E+000
  0.000000000000000E+000
  0.000000000000000E+000
  0.000000000000000E+000
  0.000000000000000E+000
  0.000000000000000E+000
  0.000000000000000E+000
  0.000000000000000E+000
  0.000000000000000E+000
  0.000000000000000E+000
  0.000000000000000E+000
  0.000000000000000E+000
  0.000000000000000E+000
  0.000000000000000E+000
  0.000000000000000E+000
  0.000000000000000E+000
  0.000000000000000E+000
  0.000000000000000E+000
  0.000000000000000E+000
  0.000000000000000E+000
  0.000000000000000E+000
  0.000000000000000E+000
  0.000000000000000E+000
  0.000000000000000E+000
  0.000000000000000E+000
  0.000000000000000E+000
  0.000000000000000E+000
  0.000000000000000E+000
  0.000000000000000E+000
  0.000000000000000E+000
  0.000000000000000E+000
  0.000000000000000E+000
  0.000000000000000E+000
  0.000000000000000E+000
  0.000000000000000E+000
  0.000000000000000E+000
  0.000000000000000E+000
  0.000000000000000E+000
  0.000000000000000E+000
  0.000000000000000E+000
  0.000000000000000E+000
  0.000000000000000E+000
  0.000000000000000E+000
  0.000000000000000E+000
  0.000000000000000E+000
  0.000000000000000E+000
  0.000000000000000E+000
  0.000000000000000E+000
  0.000000000000000E+000
  0.000000000000000E+000
  0.000000000000000E+000
  0.000000000000000E+000
  0.000000000000000E+000
  0.000000000000000E+000
  0.000000000000000E+000
  0.000000000000000E+000
  0.000000000000000E+000
  0.000000000000000E+000
  0.000000000000000E+000
  0.000000000000000E+000
  0.000000000000000E+000
  0.000000000000000E+000
  0.000000000000000E+000
  0.000000000000000E+000
  0.000000000000000E+000
  0.000000000000000E+000
  0.000000000000000E+000
  0.000000000000000E+000
  0.000000000000000E+000
  0.000000000000000E+000
  0.000000000000000E+000
  0.000000000000000E+000
  0.000000000000000E+000
  0.000000000000000E+000
  0.000000000000000E+000
  0.000000000000000E+000
  0.000000000000000E+000
  0.000000000000000E+000
  0.000000000000000E+000
  0.000000000000000E+000
  0.000000000000000E+000
  0.000000000000000E+000
  0.000000000000000E+000
  0.000000000000000E+000
  0.000000000000000E+000
  0.000000000000000E+000
  0.000000000000000E+000
  0.000000000000000E+000
  0.000000000000000E+000
  0.000000000000000E+000
  0.000000000000000E+000
  0.000000000000000E+000
  0.000000000000000E+000
  0.000000000000000E+000
  0.000000000000000E+000
  0.000000000000000E+000
  0.000000000000000E+000
  0.000000000000000E+000
  0.000000000000000E+000
  0.000000000000000E+000
  0.000000000000000E+000
  0.000000000000000E+000
  0.000000000000000E+000
  0.000000000000000E+000
  0.000000000000000E+000
  0.000000000000000E+000
  0.000000000000000E+000
  0.000000000000000E+000
  0.000000000000000E+000
  0.000000000000000E+000
  0.000000000000000E+000
  0.000000000000000E+000
  0.000000000000000E+000
  0.000000000000000E+000
  0.000000000000000E+000
  0.000000000000000E+000
  0.000000000000000E+000
  0.000000000000000E+000
  0.000000000000000E+000
  0.000000000000000E+000
  0.000000000000000E+000
  0.000000000000000E+000
  0.000000000000000E+000
  0.000000000000000E+000
  0.000000000000000E+000
  0.000000000000000E+000
  0.000000000000000E+000
  0.000000000000000E+000
  0.000000000000000E+000
  0.000000000000000E+000
  0.000000000000000E+000
  0.000000000000000E+000
  0.000000000000000E+000
  0.000000000000000E+000
  0.000000000000000E+000
  0.000000000000000E+000
  0.000000000000000E+000
  0.000000000000000E+000
  0.000000000000000E+000
  0.000000000000000E+000
  0.000000000000000E+000
  0.000000000000000E+000
  0.000000000000000E+000
  0.000000000000000E+000
  0.000000000000000E+000
  0.000000000000000E+000
  0.000000000000000E+000
  0.000000000000000E+000
  0.000000000000000E+000
  0.000000000000000E+000
  0.000000000000000E+000
  0.000000000000000E+000
  0.000000000000000E+000
  0.000000000000000E+000
  0.000000000000000E+000
  0.000000000000000E+000
  0.000000000000000E+000
  0.000000000000000E+000
  0.000000000000000E+000
  0.000000000000000E+000
  0.000000000000000E+000
  0.000000000000000E+000
  0.000000000000000E+000
  0.000000000000000E+000
  0.000000000000000E+000
  0.000000000000000E+000
  0.000000000000000E+000
  0.000000000000000E+000
  0.000000000000000E+000
  0.000000000000000E+000
  0.000000000000000E+000
  0.000000000000000E+000
  0.000000000000000E+000
  0.000000000000000E+000
  0.000000000000000E+000
  0.000000000000000E+000
  0.000000000000000E+000
  0.000000000000000E+000
  0.000000000000000E+000
  0.000000000000000E+000
  0.000000000000000E+000
  0.000000000000000E+000
  0.000000000000000E+000
  0.000000000000000E+000
  0.000000000000000E+000
  0.000000000000000E+000
  0.000000000000000E+000
  0.000000000000000E+000
  0.000000000000000E+000
  0.000000000000000E+000
  0.000000000000000E+000
  0.000000000000000E+000
  0.000000000000000E+000
  0.000000000000000E+000
  0.000000000000000E+000
  0.000000000000000E+000
  0.000000000000000E+000
  0.000000000000000E+000
  0.000000000000000E+000
  0.000000000000000E+000
  0.000000000000000E+000
  0.000000000000000E+000
  0.000000000000000E+000
  0.000000000000000E+000
  0.000000000000000E+000
  0.000000000000000E+000
  0.000000000000000E+000
  0.000000000000000E+000
  0.000000000000000E+000
  0.000000000000000E+000
  0.000000000000000E+000
  0.000000000000000E+000
  0.000000000000000E+000
  0.000000000000000E+000
  0.000000000000000E+000
  0.000000000000000E+000
  0.000000000000000E+000
  0.000000000000000E+000
  0.000000000000000E+000
  0.000000000000000E+000
  0.000000000000000E+000
  0.000000000000000E+000
  0.000000000000000E+000
  0.000000000000000E+000
  0.000000000000000E+000
  0.000000000000000E+000
  0.000000000000000E+000
  0.000000000000000E+000
  0.000000000000000E+000
  0.000000000000000E+000
  0.000000000000000E+000
  0.000000000000000E+000
  0.000000000000000E+000
  0.000000000000000E+000
  0.000000000000000E+000
  0.000000000000000E+000
  0.000000000000000E+000
  0.000000000000000E+000
  0.000000000000000E+000
  0.000000000000000E+000
  0.000000000000000E+000
  0.000000000000000E+000
  0.000000000000000E+000
  0.000000000000000E+000
  0.000000000000000E+000
  0.000000000000000E+000
  0.000000000000000E+000
  0.000000000000000E+000
  0.000000000000000E+000
  0.000000000000000E+000
  0.000000000000000E+000
  0.000000000000000E+000
  0.000000000000000E+000
  0.000000000000000E+000
  0.000000000000000E+000
  0.000000000000000E+000
  0.000000000000000E+000
  0.000000000000000E+000
  0.000000000000000E+000
  0.000000000000000E+000
  0.000000000000000E+000
  0.000000000000000E+000
  0.000000000000000E+000
  0.000000000000000E+000
  0.000000000000000E+000
  0.000000000000000E+000
  0.000000000000000E+000
  0.000000000000000E+000
  0.000000000000000E+000
  0.000000000000000E+000
  0.000000000000000E+000
  0.000000000000000E+000
  0.000000000000000E+000
  0.000000000000000E+000
  0.000000000000000E+000
  0.000000000000000E+000
  0.000000000000000E+000
  0.000000000000000E+000
  0.000000000000000E+000
  0.000000000000000E+000
  0.000000000000000E+000
  0.000000000000000E+000
  0.000000000000000E+000
  0.000000000000000E+000
  0.000000000000000E+000
  0.000000000000000E+000
  0.000000000000000E+000
  0.000000000000000E+000
  0.000000000000000E+000
  0.000000000000000E+000
  0.000000000000000E+000
  0.000000000000000E+000
  0.000000000000000E+000
  0.000000000000000E+000
  0.000000000000000E+000
  0.000000000000000E+000
  0.000000000000000E+000
  0.000000000000000E+000
  0.000000000000000E+000
  0.000000000000000E+000
  0.000000000000000E+000
  0.000000000000000E+000
  0.000000000000000E+000
  0.000000000000000E+000
  0.000000000000000E+000
  0.000000000000000E+000
  0.000000000000000E+000
  0.000000000000000E+000
  0.000000000000000E+000
  0.000000000000000E+000
  0.000000000000000E+000
  0.000000000000000E+000
  0.000000000000000E+000
  0.000000000000000E+000
  0.000000000000000E+000
  0.000000000000000E+000
  0.000000000000000E+000
  0.000000000000000E+000
  0.000000000000000E+000
  0.000000000000000E+000
  0.000000000000000E+000
  0.000000000000000E+000
  0.000000000000000E+000
  0.000000000000000E+000
  0.000000000000000E+000
  0.000000000000000E+000
  0.000000000000000E+000
  0.000000000000000E+000
  0.000000000000000E+000
  0.000000000000000E+000
  0.000000000000000E+000
  0.000000000000000E+000
  0.000000000000000E+000
  0.000000000000000E+000
  0.000000000000000E+000
  0.000000000000000E+000
  0.000000000000000E+000
  0.000000000000000E+000
  0.000000000000000E+000
  0.000000000000000E+000
  0.000000000000000E+000
  0.000000000000000E+000
  0.000000000000000E+000
  0.000000000000000E+000
  0.000000000000000E+000
  0.000000000000000E+000
  0.000000000000000E+000
  0.000000000000000E+000
  0.000000000000000E+000
  0.000000000000000E+000
  0.000000000000000E+000
  0.000000000000000E+000
  0.000000000000000E+000
  0.000000000000000E+000
  0.000000000000000E+000
  0.000000000000000E+000
  0.000000000000000E+000
  0.000000000000000E+000
  0.000000000000000E+000
  0.000000000000000E+000
  0.000000000000000E+000
  0.000000000000000E+000
  0.000000000000000E+000
  0.000000000000000E+000
  0.000000000000000E+000
  0.000000000000000E+000
  0.000000000000000E+000
  0.000000000000000E+000
  0.000000000000000E+000
  0.000000000000000E+000
  0.000000000000000E+000
  0.000000000000000E+000
  0.000000000000000E+000
  0.000000000000000E+000
  0.000000000000000E+000
  0.000000000000000E+000
  0.000000000000000E+000
  0.000000000000000E+000
  0.000000000000000E+000
  0.000000000000000E+000
  0.000000000000000E+000
  0.000000000000000E+000
  0.000000000000000E+000
  0.000000000000000E+000
  0.000000000000000E+000
  0.000000000000000E+000
  0.000000000000000E+000
  0.000000000000000E+000
  0.000000000000000E+000
  0.000000000000000E+000
  0.000000000000000E+000
  0.000000000000000E+000
  0.000000000000000E+000
  0.000000000000000E+000
  0.000000000000000E+000
  0.000000000000000E+000
  0.000000000000000E+000
  0.000000000000000E+000
  0.000000000000000E+000
  0.000000000000000E+000
  0.000000000000000E+000
  0.000000000000000E+000
  0.000000000000000E+000
  0.000000000000000E+000
  0.000000000000000E+000
  0.000000000000000E+000
  0.000000000000000E+000
  0.000000000000000E+000
  0.000000000000000E+000
  0.000000000000000E+000
  0.000000000000000E+000
  0.000000000000000E+000
  0.000000000000000E+000
  0.000000000000000E+000
  0.000000000000000E+000
  0.000000000000000E+000
  0.000000000000000E+000
  0.000000000000000E+000
  0.000000000000000E+000
  0.000000000000000E+000
  0.000000000000000E+000
  0.000000000000000E+000
  0.000000000000000E+000
  0.000000000000000E+000
  0.000000000000000E+000
  0.000000000000000E+000
  0.000000000000000E+000
  0.000000000000000E+000
  0.000000000000000E+000
  0.000000000000000E+000
  0.000000000000000E+000
  0.000000000000000E+000
  0.000000000000000E+000
  0.000000000000000E+000
  0.000000000000000E+000
  0.000000000000000E+000
  0.000000000000000E+000
  0.000000000000000E+000
  0.000000000000000E+000
  0.000000000000000E+000
  0.000000000000000E+000
  0.000000000000000E+000
  0.000000000000000E+000
  0.000000000000000E+000
  0.000000000000000E+000
  0.000000000000000E+000
  0.000000000000000E+000
  0.000000000000000E+000
  0.000000000000000E+000
  0.000000000000000E+000
  0.000000000000000E+000
  0.000000000000000E+000
  0.000000000000000E+000
  0.000000000000000E+000
  0.000000000000000E+000
  0.000000000000000E+000
  0.000000000000000E+000
  0.000000000000000E+000
  0.000000000000000E+000
  0.000000000000000E+000
  0.000000000000000E+000
  0.000000000000000E+000
  0.000000000000000E+000
  0.000000000000000E+000
  0.000000000000000E+000
  0.000000000000000E+000
  0.000000000000000E+000
  0.000000000000000E+000
  0.000000000000000E+000
  0.000000000000000E+000
  0.000000000000000E+000
  0.000000000000000E+000
  0.000000000000000E+000
  0.000000000000000E+000
  0.000000000000000E+000
  0.000000000000000E+000
  0.000000000000000E+000
  0.000000000000000E+000
  0.000000000000000E+000
  0.000000000000000E+000
  0.000000000000000E+000
  0.000000000000000E+000
  0.000000000000000E+000
  0.000000000000000E+000
  0.000000000000000E+000
  0.000000000000000E+000
  0.000000000000000E+000
  0.000000000000000E+000
  0.000000000000000E+000
  0.000000000000000E+000
  0.000000000000000E+000
  0.000000000000000E+000
  0.000000000000000E+000
  0.000000000000000E+000
  0.000000000000000E+000
  0.000000000000000E+000
  0.000000000000000E+000
  0.000000000000000E+000
  0.000000000000000E+000
  0.000000000000000E+000
  0.000000000000000E+000
  0.000000000000000E+000
  0.000000000000000E+000
  0.000000000000000E+000
  0.000000000000000E+000
  0.000000000000000E+000
  0.000000000000000E+000
  0.000000000000000E+000
  0.000000000000000E+000
  0.000000000000000E+000
  0.000000000000000E+000
  0.000000000000000E+000
  0.000000000000000E+000
  0.000000000000000E+000
  0.000000000000000E+000
  0.000000000000000E+000
  0.000000000000000E+000
  0.000000000000000E+000
  0.000000000000000E+000
  0.000000000000000E+000
  0.000000000000000E+000
  0.000000000000000E+000
  0.000000000000000E+000
  0.000000000000000E+000
  0.000000000000000E+000
  0.000000000000000E+000
  0.000000000000000E+000
  0.000000000000000E+000
  0.000000000000000E+000
  0.000000000000000E+000
  0.000000000000000E+000
  0.000000000000000E+000
  0.000000000000000E+000
  0.000000000000000E+000
  0.000000000000000E+000
  0.000000000000000E+000
  0.000000000000000E+000
  0.000000000000000E+000
  0.000000000000000E+000
  0.000000000000000E+000
  0.000000000000000E+000
  0.000000000000000E+000
  0.000000000000000E+000
  0.000000000000000E+000
  0.000000000000000E+000
  0.000000000000000E+000
  0.000000000000000E+000
  0.000000000000000E+000
  0.000000000000000E+000
  0.000000000000000E+000
  0.000000000000000E+000
  0.000000000000000E+000
  0.000000000000000E+000
  0.000000000000000E+000
  0.000000000000000E+000
  0.000000000000000E+000
  0.000000000000000E+000
  0.000000000000000E+000
  0.000000000000000E+000
  0.000000000000000E+000
  0.000000000000000E+000
  0.000000000000000E+000
  0.000000000000000E+000
  0.000000000000000E+000
  0.000000000000000E+000
  0.000000000000000E+000
  0.000000000000000E+000
  0.000000000000000E+000
  0.000000000000000E+000
  0.000000000000000E+000
  0.000000000000000E+000
  0.000000000000000E+000
  0.000000000000000E+000
  0.000000000000000E+000
  0.000000000000000E+000
  0.000000000000000E+000
  0.000000000000000E+000
  0.000000000000000E+000
  0.000000000000000E+000
  0.000000000000000E+000
  0.000000000000000E+000
  0.000000000000000E+000
  0.000000000000000E+000
  0.000000000000000E+000
  0.000000000000000E+000
  0.000000000000000E+000
  0.000000000000000E+000
  0.000000000000000E+000
  0.000000000000000E+000
  0.000000000000000E+000
  0.000000000000000E+000
  0.000000000000000E+000
  0.000000000000000E+000
  0.000000000000000E+000
  0.000000000000000E+000
  0.000000000000000E+000
  0.000000000000000E+000
  0.000000000000000E+000
  0.000000000000000E+000
  0.000000000000000E+000
  0.000000000000000E+000
  0.000000000000000E+000
  0.000000000000000E+000
  0.000000000000000E+000
  0.000000000000000E+000
  0.000000000000000E+000
  0.000000000000000E+000
  0.000000000000000E+000
  0.000000000000000E+000
  0.000000000000000E+000
  0.000000000000000E+000
  0.000000000000000E+000
  0.000000000000000E+000
  0.000000000000000E+000
  0.000000000000000E+000
  0.000000000000000E+000
  0.000000000000000E+000
  0.000000000000000E+000
  0.000000000000000E+000
  0.000000000000000E+000
  0.000000000000000E+000
  0.000000000000000E+000
  0.000000000000000E+000
  0.000000000000000E+000
  0.000000000000000E+000
  0.000000000000000E+000
  0.000000000000000E+000
  0.000000000000000E+000
  0.000000000000000E+000
  0.000000000000000E+000
  0.000000000000000E+000
  0.000000000000000E+000
  0.000000000000000E+000
  0.000000000000000E+000
  0.000000000000000E+000
  0.000000000000000E+000
  0.000000000000000E+000
  0.000000000000000E+000
  0.000000000000000E+000
  0.000000000000000E+000
  0.000000000000000E+000
  0.000000000000000E+000
  0.000000000000000E+000
  0.000000000000000E+000
  0.000000000000000E+000
  0.000000000000000E+000
  0.000000000000000E+000
  0.000000000000000E+000
  0.000000000000000E+000
  0.000000000000000E+000
  0.000000000000000E+000
  0.000000000000000E+000
  0.000000000000000E+000
  0.000000000000000E+000
  0.000000000000000E+000
  0.000000000000000E+000
  0.000000000000000E+000
  0.000000000000000E+000
  0.000000000000000E+000
  0.000000000000000E+000
  0.000000000000000E+000
  0.000000000000000E+000
  0.000000000000000E+000
  0.000000000000000E+000
  0.000000000000000E+000
  0.000000000000000E+000
  0.000000000000000E+000
  0.000000000000000E+000
  0.000000000000000E+000
  0.000000000000000E+000
  0.000000000000000E+000
  0.000000000000000E+000
  0.000000000000000E+000
  0.000000000000000E+000
  0.000000000000000E+000
  0.000000000000000E+000
  0.000000000000000E+000
  0.000000000000000E+000
  0.000000000000000E+000
  0.000000000000000E+000
  0.000000000000000E+000
  0.000000000000000E+000
  0.000000000000000E+000
  0.000000000000000E+000
  0.000000000000000E+000
  0.000000000000000E+000
  0.000000000000000E+000
  0.000000000000000E+000
  0.000000000000000E+000
  0.000000000000000E+000
  0.000000000000000E+000
  0.000000000000000E+000
  0.000000000000000E+000
  0.000000000000000E+000
  0.000000000000000E+000
  0.000000000000000E+000
  0.000000000000000E+000
  0.000000000000000E+000
  0.000000000000000E+000
  0.000000000000000E+000
  0.000000000000000E+000
  0.000000000000000E+000
  0.000000000000000E+000
  0.000000000000000E+000
  0.000000000000000E+000
  0.000000000000000E+000
  0.000000000000000E+000
  0.000000000000000E+000
  0.000000000000000E+000
  0.000000000000000E+000
  0.000000000000000E+000
  0.000000000000000E+000
  0.000000000000000E+000
  0.000000000000000E+000
  0.000000000000000E+000
  0.000000000000000E+000
  0.000000000000000E+000
  0.000000000000000E+000
  0.000000000000000E+000
  0.000000000000000E+000
  0.000000000000000E+000
  0.000000000000000E+000
  0.000000000000000E+000
  0.000000000000000E+000
  0.000000000000000E+000
  0.000000000000000E+000
  0.000000000000000E+000
  0.000000000000000E+000
  0.000000000000000E+000
  0.000000000000000E+000
  0.000000000000000E+000
  0.000000000000000E+000
  0.000000000000000E+000
  0.000000000000000E+000
  0.000000000000000E+000
  0.000000000000000E+000
  0.000000000000000E+000
  0.000000000000000E+000
  0.000000000000000E+000
  0.000000000000000E+000
  0.000000000000000E+000
  0.000000000000000E+000
  0.000000000000000E+000
  0.000000000000000E+000
  0.000000000000000E+000
  0.000000000000000E+000
  0.000000000000000E+000
  0.000000000000000E+000
  0.000000000000000E+000
  0.000000000000000E+000
  0.000000000000000E+000
  0.000000000000000E+000
  0.000000000000000E+000
  0.000000000000000E+000
  0.000000000000000E+000
  0.000000000000000E+000
  0.000000000000000E+000
  0.000000000000000E+000
  0.000000000000000E+000
  0.000000000000000E+000
  0.000000000000000E+000
  0.000000000000000E+000
  0.000000000000000E+000
  0.000000000000000E+000
  0.000000000000000E+000
  0.000000000000000E+000
  0.000000000000000E+000
  0.000000000000000E+000
  0.000000000000000E+000
  0.000000000000000E+000
  0.000000000000000E+000
  0.000000000000000E+000
  0.000000000000000E+000
  0.000000000000000E+000
  0.000000000000000E+000
  0.000000000000000E+000
  0.000000000000000E+000
  0.000000000000000E+000
  0.000000000000000E+000
  0.000000000000000E+000
  0.000000000000000E+000
  0.000000000000000E+000
  0.000000000000000E+000
  0.000000000000000E+000
  0.000000000000000E+000
  0.000000000000000E+000
  0.000000000000000E+000
  0.000000000000000E+000
  0.000000000000000E+000
  0.000000000000000E+000
  0.000000000000000E+000
  0.000000000000000E+000
  0.000000000000000E+000
  0.000000000000000E+000
  0.000000000000000E+000
  0.000000000000000E+000
  0.000000000000000E+000
  0.000000000000000E+000
  0.000000000000000E+000
  0.000000000000000E+000
  0.000000000000000E+000
  0.000000000000000E+000
  0.000000000000000E+000
  0.000000000000000E+000
  0.000000000000000E+000
  0.000000000000000E+000
  0.000000000000000E+000
  0.000000000000000E+000
  0.000000000000000E+000
  0.000000000000000E+000
  0.000000000000000E+000
  0.000000000000000E+000
  0.000000000000000E+000
  0.000000000000000E+000
  0.000000000000000E+000
  0.000000000000000E+000
  0.000000000000000E+000
  0.000000000000000E+000
  0.000000000000000E+000
  0.000000000000000E+000
  0.000000000000000E+000
  0.000000000000000E+000
  0.000000000000000E+000
  0.000000000000000E+000
  0.000000000000000E+000
  0.000000000000000E+000
  0.000000000000000E+000
  0.000000000000000E+000
  0.000000000000000E+000
  0.000000000000000E+000
  0.000000000000000E+000
  0.000000000000000E+000
  0.000000000000000E+000
  0.000000000000000E+000
  0.000000000000000E+000
  0.000000000000000E+000
  0.000000000000000E+000
  0.000000000000000E+000
  0.000000000000000E+000
  0.000000000000000E+000
  0.000000000000000E+000
  0.000000000000000E+000
  0.000000000000000E+000
  0.000000000000000E+000
  0.000000000000000E+000
  0.000000000000000E+000
  0.000000000000000E+000
  0.000000000000000E+000
  0.000000000000000E+000
  0.000000000000000E+000
  0.000000000000000E+000
  0.000000000000000E+000
  0.000000000000000E+000
  0.000000000000000E+000
  0.000000000000000E+000
  0.000000000000000E+000
  0.000000000000000E+000
  0.000000000000000E+000
  0.000000000000000E+000
  0.000000000000000E+000
  0.000000000000000E+000
  0.000000000000000E+000
  0.000000000000000E+000
  0.000000000000000E+000
  0.000000000000000E+000
  0.000000000000000E+000
  0.000000000000000E+000
  0.000000000000000E+000
  0.000000000000000E+000
  0.000000000000000E+000
  0.000000000000000E+000
  0.000000000000000E+000
  0.000000000000000E+000
  0.000000000000000E+000
  0.000000000000000E+000
  0.000000000000000E+000
  0.000000000000000E+000
  0.000000000000000E+000
