# vtk DataFile Version 3.0
vtk output
ASCII
DATASET UNSTRUCTURED_GRID
POINTS      5151 double 
  0.00000000E+00  1.00000000E+02  0.00000000E+00
  0.00000000E+00  9.80000000E+01  0.00000000E+00
  0.00000000E+00  9.60000000E+01  0.00000000E+00
  0.00000000E+00  9.40000000E+01  0.00000000E+00
  0.00000000E+00  9.20000000E+01  0.00000000E+00
  0.00000000E+00  9.00000000E+01  0.00000000E+00
  0.00000000E+00  8.80000000E+01  0.00000000E+00
  0.00000000E+00  8.60000000E+01  0.00000000E+00
  0.00000000E+00  8.40000000E+01  0.00000000E+00
  0.00000000E+00  8.20000000E+01  0.00000000E+00
  0.00000000E+00  8.00000000E+01  0.00000000E+00
  0.00000000E+00  7.80000000E+01  0.00000000E+00
  0.00000000E+00  7.60000000E+01  0.00000000E+00
  0.00000000E+00  7.40000000E+01  0.00000000E+00
  0.00000000E+00  7.20000000E+01  0.00000000E+00
  0.00000000E+00  7.00000000E+01  0.00000000E+00
  0.00000000E+00  6.80000000E+01  0.00000000E+00
  0.00000000E+00  6.60000000E+01  0.00000000E+00
  0.00000000E+00  6.40000000E+01  0.00000000E+00
  0.00000000E+00  6.20000000E+01  0.00000000E+00
  0.00000000E+00  6.00000000E+01  0.00000000E+00
  0.00000000E+00  5.80000000E+01  0.00000000E+00
  0.00000000E+00  5.60000000E+01  0.00000000E+00
  0.00000000E+00  5.40000000E+01  0.00000000E+00
  0.00000000E+00  5.20000000E+01  0.00000000E+00
  0.00000000E+00  5.00000000E+01  0.00000000E+00
  0.00000000E+00  4.80000000E+01  0.00000000E+00
  0.00000000E+00  4.60000000E+01  0.00000000E+00
  0.00000000E+00  4.40000000E+01  0.00000000E+00
  0.00000000E+00  4.20000000E+01  0.00000000E+00
  0.00000000E+00  4.00000000E+01  0.00000000E+00
  0.00000000E+00  3.80000000E+01  0.00000000E+00
  0.00000000E+00  3.60000000E+01  0.00000000E+00
  0.00000000E+00  3.40000000E+01  0.00000000E+00
  0.00000000E+00  3.20000000E+01  0.00000000E+00
  0.00000000E+00  3.00000000E+01  0.00000000E+00
  0.00000000E+00  2.80000000E+01  0.00000000E+00
  0.00000000E+00  2.60000000E+01  0.00000000E+00
  0.00000000E+00  2.40000000E+01  0.00000000E+00
  0.00000000E+00  2.20000000E+01  0.00000000E+00
  0.00000000E+00  2.00000000E+01  0.00000000E+00
  0.00000000E+00  1.80000000E+01  0.00000000E+00
  0.00000000E+00  1.60000000E+01  0.00000000E+00
  0.00000000E+00  1.40000000E+01  0.00000000E+00
  0.00000000E+00  1.20000000E+01  0.00000000E+00
  0.00000000E+00  1.00000000E+01  0.00000000E+00
  0.00000000E+00  8.00000000E+00  0.00000000E+00
  0.00000000E+00  6.00000000E+00  0.00000000E+00
  0.00000000E+00  4.00000000E+00  0.00000000E+00
  0.00000000E+00  2.00000000E+00  0.00000000E+00
  0.00000000E+00 -3.33066907E-14  0.00000000E+00
  1.00000000E+01  1.00000000E+02  0.00000000E+00
  1.00000000E+01  9.80000000E+01  0.00000000E+00
  1.00000000E+01  9.60000000E+01  0.00000000E+00
  1.00000000E+01  9.40000000E+01  0.00000000E+00
  1.00000000E+01  9.20000000E+01  0.00000000E+00
  1.00000000E+01  9.00000000E+01  0.00000000E+00
  1.00000000E+01  8.80000000E+01  0.00000000E+00
  1.00000000E+01  8.60000000E+01  0.00000000E+00
  1.00000000E+01  8.40000000E+01  0.00000000E+00
  1.00000000E+01  8.20000000E+01  0.00000000E+00
  1.00000000E+01  8.00000000E+01  0.00000000E+00
  1.00000000E+01  7.80000000E+01  0.00000000E+00
  1.00000000E+01  7.60000000E+01  0.00000000E+00
  1.00000000E+01  7.40000000E+01  0.00000000E+00
  1.00000000E+01  7.20000000E+01  0.00000000E+00
  1.00000000E+01  7.00000000E+01  0.00000000E+00
  1.00000000E+01  6.80000000E+01  0.00000000E+00
  1.00000000E+01  6.60000000E+01  0.00000000E+00
  1.00000000E+01  6.40000000E+01  0.00000000E+00
  1.00000000E+01  6.20000000E+01  0.00000000E+00
  1.00000000E+01  6.00000000E+01  0.00000000E+00
  1.00000000E+01  5.80000000E+01  0.00000000E+00
  1.00000000E+01  5.60000000E+01  0.00000000E+00
  1.00000000E+01  5.40000000E+01  0.00000000E+00
  1.00000000E+01  5.20000000E+01  0.00000000E+00
  1.00000000E+01  5.00000000E+01  0.00000000E+00
  1.00000000E+01  4.80000000E+01  0.00000000E+00
  1.00000000E+01  4.60000000E+01  0.00000000E+00
  1.00000000E+01  4.40000000E+01  0.00000000E+00
  1.00000000E+01  4.20000000E+01  0.00000000E+00
  1.00000000E+01  4.00000000E+01  0.00000000E+00
  1.00000000E+01  3.80000000E+01  0.00000000E+00
  1.00000000E+01  3.60000000E+01  0.00000000E+00
  1.00000000E+01  3.40000000E+01  0.00000000E+00
  1.00000000E+01  3.20000000E+01  0.00000000E+00
  1.00000000E+01  3.00000000E+01  0.00000000E+00
  1.00000000E+01  2.80000000E+01  0.00000000E+00
  1.00000000E+01  2.60000000E+01  0.00000000E+00
  1.00000000E+01  2.40000000E+01  0.00000000E+00
  1.00000000E+01  2.20000000E+01  0.00000000E+00
  1.00000000E+01  2.00000000E+01  0.00000000E+00
  1.00000000E+01  1.80000000E+01  0.00000000E+00
  1.00000000E+01  1.60000000E+01  0.00000000E+00
  1.00000000E+01  1.40000000E+01  0.00000000E+00
  1.00000000E+01  1.20000000E+01  0.00000000E+00
  1.00000000E+01  1.00000000E+01  0.00000000E+00
  1.00000000E+01  8.00000000E+00  0.00000000E+00
  1.00000000E+01  6.00000000E+00  0.00000000E+00
  1.00000000E+01  4.00000000E+00  0.00000000E+00
  1.00000000E+01  2.00000000E+00  0.00000000E+00
  1.00000000E+01 -3.33066907E-14  0.00000000E+00
  2.00000000E+01  1.00000000E+02  0.00000000E+00
  2.00000000E+01  9.80000000E+01  0.00000000E+00
  2.00000000E+01  9.60000000E+01  0.00000000E+00
  2.00000000E+01  9.40000000E+01  0.00000000E+00
  2.00000000E+01  9.20000000E+01  0.00000000E+00
  2.00000000E+01  9.00000000E+01  0.00000000E+00
  2.00000000E+01  8.80000000E+01  0.00000000E+00
  2.00000000E+01  8.60000000E+01  0.00000000E+00
  2.00000000E+01  8.40000000E+01  0.00000000E+00
  2.00000000E+01  8.20000000E+01  0.00000000E+00
  2.00000000E+01  8.00000000E+01  0.00000000E+00
  2.00000000E+01  7.80000000E+01  0.00000000E+00
  2.00000000E+01  7.60000000E+01  0.00000000E+00
  2.00000000E+01  7.40000000E+01  0.00000000E+00
  2.00000000E+01  7.20000000E+01  0.00000000E+00
  2.00000000E+01  7.00000000E+01  0.00000000E+00
  2.00000000E+01  6.80000000E+01  0.00000000E+00
  2.00000000E+01  6.60000000E+01  0.00000000E+00
  2.00000000E+01  6.40000000E+01  0.00000000E+00
  2.00000000E+01  6.20000000E+01  0.00000000E+00
  2.00000000E+01  6.00000000E+01  0.00000000E+00
  2.00000000E+01  5.80000000E+01  0.00000000E+00
  2.00000000E+01  5.60000000E+01  0.00000000E+00
  2.00000000E+01  5.40000000E+01  0.00000000E+00
  2.00000000E+01  5.20000000E+01  0.00000000E+00
  2.00000000E+01  5.00000000E+01  0.00000000E+00
  2.00000000E+01  4.80000000E+01  0.00000000E+00
  2.00000000E+01  4.60000000E+01  0.00000000E+00
  2.00000000E+01  4.40000000E+01  0.00000000E+00
  2.00000000E+01  4.20000000E+01  0.00000000E+00
  2.00000000E+01  4.00000000E+01  0.00000000E+00
  2.00000000E+01  3.80000000E+01  0.00000000E+00
  2.00000000E+01  3.60000000E+01  0.00000000E+00
  2.00000000E+01  3.40000000E+01  0.00000000E+00
  2.00000000E+01  3.20000000E+01  0.00000000E+00
  2.00000000E+01  3.00000000E+01  0.00000000E+00
  2.00000000E+01  2.80000000E+01  0.00000000E+00
  2.00000000E+01  2.60000000E+01  0.00000000E+00
  2.00000000E+01  2.40000000E+01  0.00000000E+00
  2.00000000E+01  2.20000000E+01  0.00000000E+00
  2.00000000E+01  2.00000000E+01  0.00000000E+00
  2.00000000E+01  1.80000000E+01  0.00000000E+00
  2.00000000E+01  1.60000000E+01  0.00000000E+00
  2.00000000E+01  1.40000000E+01  0.00000000E+00
  2.00000000E+01  1.20000000E+01  0.00000000E+00
  2.00000000E+01  1.00000000E+01  0.00000000E+00
  2.00000000E+01  8.00000000E+00  0.00000000E+00
  2.00000000E+01  6.00000000E+00  0.00000000E+00
  2.00000000E+01  4.00000000E+00  0.00000000E+00
  2.00000000E+01  2.00000000E+00  0.00000000E+00
  2.00000000E+01 -3.33066907E-14  0.00000000E+00
  3.00000000E+01  1.00000000E+02  0.00000000E+00
  3.00000000E+01  9.80000000E+01  0.00000000E+00
  3.00000000E+01  9.60000000E+01  0.00000000E+00
  3.00000000E+01  9.40000000E+01  0.00000000E+00
  3.00000000E+01  9.20000000E+01  0.00000000E+00
  3.00000000E+01  9.00000000E+01  0.00000000E+00
  3.00000000E+01  8.80000000E+01  0.00000000E+00
  3.00000000E+01  8.60000000E+01  0.00000000E+00
  3.00000000E+01  8.40000000E+01  0.00000000E+00
  3.00000000E+01  8.20000000E+01  0.00000000E+00
  3.00000000E+01  8.00000000E+01  0.00000000E+00
  3.00000000E+01  7.80000000E+01  0.00000000E+00
  3.00000000E+01  7.60000000E+01  0.00000000E+00
  3.00000000E+01  7.40000000E+01  0.00000000E+00
  3.00000000E+01  7.20000000E+01  0.00000000E+00
  3.00000000E+01  7.00000000E+01  0.00000000E+00
  3.00000000E+01  6.80000000E+01  0.00000000E+00
  3.00000000E+01  6.60000000E+01  0.00000000E+00
  3.00000000E+01  6.40000000E+01  0.00000000E+00
  3.00000000E+01  6.20000000E+01  0.00000000E+00
  3.00000000E+01  6.00000000E+01  0.00000000E+00
  3.00000000E+01  5.80000000E+01  0.00000000E+00
  3.00000000E+01  5.60000000E+01  0.00000000E+00
  3.00000000E+01  5.40000000E+01  0.00000000E+00
  3.00000000E+01  5.20000000E+01  0.00000000E+00
  3.00000000E+01  5.00000000E+01  0.00000000E+00
  3.00000000E+01  4.80000000E+01  0.00000000E+00
  3.00000000E+01  4.60000000E+01  0.00000000E+00
  3.00000000E+01  4.40000000E+01  0.00000000E+00
  3.00000000E+01  4.20000000E+01  0.00000000E+00
  3.00000000E+01  4.00000000E+01  0.00000000E+00
  3.00000000E+01  3.80000000E+01  0.00000000E+00
  3.00000000E+01  3.60000000E+01  0.00000000E+00
  3.00000000E+01  3.40000000E+01  0.00000000E+00
  3.00000000E+01  3.20000000E+01  0.00000000E+00
  3.00000000E+01  3.00000000E+01  0.00000000E+00
  3.00000000E+01  2.80000000E+01  0.00000000E+00
  3.00000000E+01  2.60000000E+01  0.00000000E+00
  3.00000000E+01  2.40000000E+01  0.00000000E+00
  3.00000000E+01  2.20000000E+01  0.00000000E+00
  3.00000000E+01  2.00000000E+01  0.00000000E+00
  3.00000000E+01  1.80000000E+01  0.00000000E+00
  3.00000000E+01  1.60000000E+01  0.00000000E+00
  3.00000000E+01  1.40000000E+01  0.00000000E+00
  3.00000000E+01  1.20000000E+01  0.00000000E+00
  3.00000000E+01  1.00000000E+01  0.00000000E+00
  3.00000000E+01  8.00000000E+00  0.00000000E+00
  3.00000000E+01  6.00000000E+00  0.00000000E+00
  3.00000000E+01  4.00000000E+00  0.00000000E+00
  3.00000000E+01  2.00000000E+00  0.00000000E+00
  3.00000000E+01 -3.33066907E-14  0.00000000E+00
  4.00000000E+01  1.00000000E+02  0.00000000E+00
  4.00000000E+01  9.80000000E+01  0.00000000E+00
  4.00000000E+01  9.60000000E+01  0.00000000E+00
  4.00000000E+01  9.40000000E+01  0.00000000E+00
  4.00000000E+01  9.20000000E+01  0.00000000E+00
  4.00000000E+01  9.00000000E+01  0.00000000E+00
  4.00000000E+01  8.80000000E+01  0.00000000E+00
  4.00000000E+01  8.60000000E+01  0.00000000E+00
  4.00000000E+01  8.40000000E+01  0.00000000E+00
  4.00000000E+01  8.20000000E+01  0.00000000E+00
  4.00000000E+01  8.00000000E+01  0.00000000E+00
  4.00000000E+01  7.80000000E+01  0.00000000E+00
  4.00000000E+01  7.60000000E+01  0.00000000E+00
  4.00000000E+01  7.40000000E+01  0.00000000E+00
  4.00000000E+01  7.20000000E+01  0.00000000E+00
  4.00000000E+01  7.00000000E+01  0.00000000E+00
  4.00000000E+01  6.80000000E+01  0.00000000E+00
  4.00000000E+01  6.60000000E+01  0.00000000E+00
  4.00000000E+01  6.40000000E+01  0.00000000E+00
  4.00000000E+01  6.20000000E+01  0.00000000E+00
  4.00000000E+01  6.00000000E+01  0.00000000E+00
  4.00000000E+01  5.80000000E+01  0.00000000E+00
  4.00000000E+01  5.60000000E+01  0.00000000E+00
  4.00000000E+01  5.40000000E+01  0.00000000E+00
  4.00000000E+01  5.20000000E+01  0.00000000E+00
  4.00000000E+01  5.00000000E+01  0.00000000E+00
  4.00000000E+01  4.80000000E+01  0.00000000E+00
  4.00000000E+01  4.60000000E+01  0.00000000E+00
  4.00000000E+01  4.40000000E+01  0.00000000E+00
  4.00000000E+01  4.20000000E+01  0.00000000E+00
  4.00000000E+01  4.00000000E+01  0.00000000E+00
  4.00000000E+01  3.80000000E+01  0.00000000E+00
  4.00000000E+01  3.60000000E+01  0.00000000E+00
  4.00000000E+01  3.40000000E+01  0.00000000E+00
  4.00000000E+01  3.20000000E+01  0.00000000E+00
  4.00000000E+01  3.00000000E+01  0.00000000E+00
  4.00000000E+01  2.80000000E+01  0.00000000E+00
  4.00000000E+01  2.60000000E+01  0.00000000E+00
  4.00000000E+01  2.40000000E+01  0.00000000E+00
  4.00000000E+01  2.20000000E+01  0.00000000E+00
  4.00000000E+01  2.00000000E+01  0.00000000E+00
  4.00000000E+01  1.80000000E+01  0.00000000E+00
  4.00000000E+01  1.60000000E+01  0.00000000E+00
  4.00000000E+01  1.40000000E+01  0.00000000E+00
  4.00000000E+01  1.20000000E+01  0.00000000E+00
  4.00000000E+01  1.00000000E+01  0.00000000E+00
  4.00000000E+01  8.00000000E+00  0.00000000E+00
  4.00000000E+01  6.00000000E+00  0.00000000E+00
  4.00000000E+01  4.00000000E+00  0.00000000E+00
  4.00000000E+01  2.00000000E+00  0.00000000E+00
  4.00000000E+01 -3.33066907E-14  0.00000000E+00
  5.00000000E+01  1.00000000E+02  0.00000000E+00
  5.00000000E+01  9.80000000E+01  0.00000000E+00
  5.00000000E+01  9.60000000E+01  0.00000000E+00
  5.00000000E+01  9.40000000E+01  0.00000000E+00
  5.00000000E+01  9.20000000E+01  0.00000000E+00
  5.00000000E+01  9.00000000E+01  0.00000000E+00
  5.00000000E+01  8.80000000E+01  0.00000000E+00
  5.00000000E+01  8.60000000E+01  0.00000000E+00
  5.00000000E+01  8.40000000E+01  0.00000000E+00
  5.00000000E+01  8.20000000E+01  0.00000000E+00
  5.00000000E+01  8.00000000E+01  0.00000000E+00
  5.00000000E+01  7.80000000E+01  0.00000000E+00
  5.00000000E+01  7.60000000E+01  0.00000000E+00
  5.00000000E+01  7.40000000E+01  0.00000000E+00
  5.00000000E+01  7.20000000E+01  0.00000000E+00
  5.00000000E+01  7.00000000E+01  0.00000000E+00
  5.00000000E+01  6.80000000E+01  0.00000000E+00
  5.00000000E+01  6.60000000E+01  0.00000000E+00
  5.00000000E+01  6.40000000E+01  0.00000000E+00
  5.00000000E+01  6.20000000E+01  0.00000000E+00
  5.00000000E+01  6.00000000E+01  0.00000000E+00
  5.00000000E+01  5.80000000E+01  0.00000000E+00
  5.00000000E+01  5.60000000E+01  0.00000000E+00
  5.00000000E+01  5.40000000E+01  0.00000000E+00
  5.00000000E+01  5.20000000E+01  0.00000000E+00
  5.00000000E+01  5.00000000E+01  0.00000000E+00
  5.00000000E+01  4.80000000E+01  0.00000000E+00
  5.00000000E+01  4.60000000E+01  0.00000000E+00
  5.00000000E+01  4.40000000E+01  0.00000000E+00
  5.00000000E+01  4.20000000E+01  0.00000000E+00
  5.00000000E+01  4.00000000E+01  0.00000000E+00
  5.00000000E+01  3.80000000E+01  0.00000000E+00
  5.00000000E+01  3.60000000E+01  0.00000000E+00
  5.00000000E+01  3.40000000E+01  0.00000000E+00
  5.00000000E+01  3.20000000E+01  0.00000000E+00
  5.00000000E+01  3.00000000E+01  0.00000000E+00
  5.00000000E+01  2.80000000E+01  0.00000000E+00
  5.00000000E+01  2.60000000E+01  0.00000000E+00
  5.00000000E+01  2.40000000E+01  0.00000000E+00
  5.00000000E+01  2.20000000E+01  0.00000000E+00
  5.00000000E+01  2.00000000E+01  0.00000000E+00
  5.00000000E+01  1.80000000E+01  0.00000000E+00
  5.00000000E+01  1.60000000E+01  0.00000000E+00
  5.00000000E+01  1.40000000E+01  0.00000000E+00
  5.00000000E+01  1.20000000E+01  0.00000000E+00
  5.00000000E+01  1.00000000E+01  0.00000000E+00
  5.00000000E+01  8.00000000E+00  0.00000000E+00
  5.00000000E+01  6.00000000E+00  0.00000000E+00
  5.00000000E+01  4.00000000E+00  0.00000000E+00
  5.00000000E+01  2.00000000E+00  0.00000000E+00
  5.00000000E+01 -3.33066907E-14  0.00000000E+00
  6.00000000E+01  1.00000000E+02  0.00000000E+00
  6.00000000E+01  9.80000000E+01  0.00000000E+00
  6.00000000E+01  9.60000000E+01  0.00000000E+00
  6.00000000E+01  9.40000000E+01  0.00000000E+00
  6.00000000E+01  9.20000000E+01  0.00000000E+00
  6.00000000E+01  9.00000000E+01  0.00000000E+00
  6.00000000E+01  8.80000000E+01  0.00000000E+00
  6.00000000E+01  8.60000000E+01  0.00000000E+00
  6.00000000E+01  8.40000000E+01  0.00000000E+00
  6.00000000E+01  8.20000000E+01  0.00000000E+00
  6.00000000E+01  8.00000000E+01  0.00000000E+00
  6.00000000E+01  7.80000000E+01  0.00000000E+00
  6.00000000E+01  7.60000000E+01  0.00000000E+00
  6.00000000E+01  7.40000000E+01  0.00000000E+00
  6.00000000E+01  7.20000000E+01  0.00000000E+00
  6.00000000E+01  7.00000000E+01  0.00000000E+00
  6.00000000E+01  6.80000000E+01  0.00000000E+00
  6.00000000E+01  6.60000000E+01  0.00000000E+00
  6.00000000E+01  6.40000000E+01  0.00000000E+00
  6.00000000E+01  6.20000000E+01  0.00000000E+00
  6.00000000E+01  6.00000000E+01  0.00000000E+00
  6.00000000E+01  5.80000000E+01  0.00000000E+00
  6.00000000E+01  5.60000000E+01  0.00000000E+00
  6.00000000E+01  5.40000000E+01  0.00000000E+00
  6.00000000E+01  5.20000000E+01  0.00000000E+00
  6.00000000E+01  5.00000000E+01  0.00000000E+00
  6.00000000E+01  4.80000000E+01  0.00000000E+00
  6.00000000E+01  4.60000000E+01  0.00000000E+00
  6.00000000E+01  4.40000000E+01  0.00000000E+00
  6.00000000E+01  4.20000000E+01  0.00000000E+00
  6.00000000E+01  4.00000000E+01  0.00000000E+00
  6.00000000E+01  3.80000000E+01  0.00000000E+00
  6.00000000E+01  3.60000000E+01  0.00000000E+00
  6.00000000E+01  3.40000000E+01  0.00000000E+00
  6.00000000E+01  3.20000000E+01  0.00000000E+00
  6.00000000E+01  3.00000000E+01  0.00000000E+00
  6.00000000E+01  2.80000000E+01  0.00000000E+00
  6.00000000E+01  2.60000000E+01  0.00000000E+00
  6.00000000E+01  2.40000000E+01  0.00000000E+00
  6.00000000E+01  2.20000000E+01  0.00000000E+00
  6.00000000E+01  2.00000000E+01  0.00000000E+00
  6.00000000E+01  1.80000000E+01  0.00000000E+00
  6.00000000E+01  1.60000000E+01  0.00000000E+00
  6.00000000E+01  1.40000000E+01  0.00000000E+00
  6.00000000E+01  1.20000000E+01  0.00000000E+00
  6.00000000E+01  1.00000000E+01  0.00000000E+00
  6.00000000E+01  8.00000000E+00  0.00000000E+00
  6.00000000E+01  6.00000000E+00  0.00000000E+00
  6.00000000E+01  4.00000000E+00  0.00000000E+00
  6.00000000E+01  2.00000000E+00  0.00000000E+00
  6.00000000E+01 -3.33066907E-14  0.00000000E+00
  7.00000000E+01  1.00000000E+02  0.00000000E+00
  7.00000000E+01  9.80000000E+01  0.00000000E+00
  7.00000000E+01  9.60000000E+01  0.00000000E+00
  7.00000000E+01  9.40000000E+01  0.00000000E+00
  7.00000000E+01  9.20000000E+01  0.00000000E+00
  7.00000000E+01  9.00000000E+01  0.00000000E+00
  7.00000000E+01  8.80000000E+01  0.00000000E+00
  7.00000000E+01  8.60000000E+01  0.00000000E+00
  7.00000000E+01  8.40000000E+01  0.00000000E+00
  7.00000000E+01  8.20000000E+01  0.00000000E+00
  7.00000000E+01  8.00000000E+01  0.00000000E+00
  7.00000000E+01  7.80000000E+01  0.00000000E+00
  7.00000000E+01  7.60000000E+01  0.00000000E+00
  7.00000000E+01  7.40000000E+01  0.00000000E+00
  7.00000000E+01  7.20000000E+01  0.00000000E+00
  7.00000000E+01  7.00000000E+01  0.00000000E+00
  7.00000000E+01  6.80000000E+01  0.00000000E+00
  7.00000000E+01  6.60000000E+01  0.00000000E+00
  7.00000000E+01  6.40000000E+01  0.00000000E+00
  7.00000000E+01  6.20000000E+01  0.00000000E+00
  7.00000000E+01  6.00000000E+01  0.00000000E+00
  7.00000000E+01  5.80000000E+01  0.00000000E+00
  7.00000000E+01  5.60000000E+01  0.00000000E+00
  7.00000000E+01  5.40000000E+01  0.00000000E+00
  7.00000000E+01  5.20000000E+01  0.00000000E+00
  7.00000000E+01  5.00000000E+01  0.00000000E+00
  7.00000000E+01  4.80000000E+01  0.00000000E+00
  7.00000000E+01  4.60000000E+01  0.00000000E+00
  7.00000000E+01  4.40000000E+01  0.00000000E+00
  7.00000000E+01  4.20000000E+01  0.00000000E+00
  7.00000000E+01  4.00000000E+01  0.00000000E+00
  7.00000000E+01  3.80000000E+01  0.00000000E+00
  7.00000000E+01  3.60000000E+01  0.00000000E+00
  7.00000000E+01  3.40000000E+01  0.00000000E+00
  7.00000000E+01  3.20000000E+01  0.00000000E+00
  7.00000000E+01  3.00000000E+01  0.00000000E+00
  7.00000000E+01  2.80000000E+01  0.00000000E+00
  7.00000000E+01  2.60000000E+01  0.00000000E+00
  7.00000000E+01  2.40000000E+01  0.00000000E+00
  7.00000000E+01  2.20000000E+01  0.00000000E+00
  7.00000000E+01  2.00000000E+01  0.00000000E+00
  7.00000000E+01  1.80000000E+01  0.00000000E+00
  7.00000000E+01  1.60000000E+01  0.00000000E+00
  7.00000000E+01  1.40000000E+01  0.00000000E+00
  7.00000000E+01  1.20000000E+01  0.00000000E+00
  7.00000000E+01  1.00000000E+01  0.00000000E+00
  7.00000000E+01  8.00000000E+00  0.00000000E+00
  7.00000000E+01  6.00000000E+00  0.00000000E+00
  7.00000000E+01  4.00000000E+00  0.00000000E+00
  7.00000000E+01  2.00000000E+00  0.00000000E+00
  7.00000000E+01 -3.33066907E-14  0.00000000E+00
  8.00000000E+01  1.00000000E+02  0.00000000E+00
  8.00000000E+01  9.80000000E+01  0.00000000E+00
  8.00000000E+01  9.60000000E+01  0.00000000E+00
  8.00000000E+01  9.40000000E+01  0.00000000E+00
  8.00000000E+01  9.20000000E+01  0.00000000E+00
  8.00000000E+01  9.00000000E+01  0.00000000E+00
  8.00000000E+01  8.80000000E+01  0.00000000E+00
  8.00000000E+01  8.60000000E+01  0.00000000E+00
  8.00000000E+01  8.40000000E+01  0.00000000E+00
  8.00000000E+01  8.20000000E+01  0.00000000E+00
  8.00000000E+01  8.00000000E+01  0.00000000E+00
  8.00000000E+01  7.80000000E+01  0.00000000E+00
  8.00000000E+01  7.60000000E+01  0.00000000E+00
  8.00000000E+01  7.40000000E+01  0.00000000E+00
  8.00000000E+01  7.20000000E+01  0.00000000E+00
  8.00000000E+01  7.00000000E+01  0.00000000E+00
  8.00000000E+01  6.80000000E+01  0.00000000E+00
  8.00000000E+01  6.60000000E+01  0.00000000E+00
  8.00000000E+01  6.40000000E+01  0.00000000E+00
  8.00000000E+01  6.20000000E+01  0.00000000E+00
  8.00000000E+01  6.00000000E+01  0.00000000E+00
  8.00000000E+01  5.80000000E+01  0.00000000E+00
  8.00000000E+01  5.60000000E+01  0.00000000E+00
  8.00000000E+01  5.40000000E+01  0.00000000E+00
  8.00000000E+01  5.20000000E+01  0.00000000E+00
  8.00000000E+01  5.00000000E+01  0.00000000E+00
  8.00000000E+01  4.80000000E+01  0.00000000E+00
  8.00000000E+01  4.60000000E+01  0.00000000E+00
  8.00000000E+01  4.40000000E+01  0.00000000E+00
  8.00000000E+01  4.20000000E+01  0.00000000E+00
  8.00000000E+01  4.00000000E+01  0.00000000E+00
  8.00000000E+01  3.80000000E+01  0.00000000E+00
  8.00000000E+01  3.60000000E+01  0.00000000E+00
  8.00000000E+01  3.40000000E+01  0.00000000E+00
  8.00000000E+01  3.20000000E+01  0.00000000E+00
  8.00000000E+01  3.00000000E+01  0.00000000E+00
  8.00000000E+01  2.80000000E+01  0.00000000E+00
  8.00000000E+01  2.60000000E+01  0.00000000E+00
  8.00000000E+01  2.40000000E+01  0.00000000E+00
  8.00000000E+01  2.20000000E+01  0.00000000E+00
  8.00000000E+01  2.00000000E+01  0.00000000E+00
  8.00000000E+01  1.80000000E+01  0.00000000E+00
  8.00000000E+01  1.60000000E+01  0.00000000E+00
  8.00000000E+01  1.40000000E+01  0.00000000E+00
  8.00000000E+01  1.20000000E+01  0.00000000E+00
  8.00000000E+01  1.00000000E+01  0.00000000E+00
  8.00000000E+01  8.00000000E+00  0.00000000E+00
  8.00000000E+01  6.00000000E+00  0.00000000E+00
  8.00000000E+01  4.00000000E+00  0.00000000E+00
  8.00000000E+01  2.00000000E+00  0.00000000E+00
  8.00000000E+01 -3.33066907E-14  0.00000000E+00
  9.00000000E+01  1.00000000E+02  0.00000000E+00
  9.00000000E+01  9.80000000E+01  0.00000000E+00
  9.00000000E+01  9.60000000E+01  0.00000000E+00
  9.00000000E+01  9.40000000E+01  0.00000000E+00
  9.00000000E+01  9.20000000E+01  0.00000000E+00
  9.00000000E+01  9.00000000E+01  0.00000000E+00
  9.00000000E+01  8.80000000E+01  0.00000000E+00
  9.00000000E+01  8.60000000E+01  0.00000000E+00
  9.00000000E+01  8.40000000E+01  0.00000000E+00
  9.00000000E+01  8.20000000E+01  0.00000000E+00
  9.00000000E+01  8.00000000E+01  0.00000000E+00
  9.00000000E+01  7.80000000E+01  0.00000000E+00
  9.00000000E+01  7.60000000E+01  0.00000000E+00
  9.00000000E+01  7.40000000E+01  0.00000000E+00
  9.00000000E+01  7.20000000E+01  0.00000000E+00
  9.00000000E+01  7.00000000E+01  0.00000000E+00
  9.00000000E+01  6.80000000E+01  0.00000000E+00
  9.00000000E+01  6.60000000E+01  0.00000000E+00
  9.00000000E+01  6.40000000E+01  0.00000000E+00
  9.00000000E+01  6.20000000E+01  0.00000000E+00
  9.00000000E+01  6.00000000E+01  0.00000000E+00
  9.00000000E+01  5.80000000E+01  0.00000000E+00
  9.00000000E+01  5.60000000E+01  0.00000000E+00
  9.00000000E+01  5.40000000E+01  0.00000000E+00
  9.00000000E+01  5.20000000E+01  0.00000000E+00
  9.00000000E+01  5.00000000E+01  0.00000000E+00
  9.00000000E+01  4.80000000E+01  0.00000000E+00
  9.00000000E+01  4.60000000E+01  0.00000000E+00
  9.00000000E+01  4.40000000E+01  0.00000000E+00
  9.00000000E+01  4.20000000E+01  0.00000000E+00
  9.00000000E+01  4.00000000E+01  0.00000000E+00
  9.00000000E+01  3.80000000E+01  0.00000000E+00
  9.00000000E+01  3.60000000E+01  0.00000000E+00
  9.00000000E+01  3.40000000E+01  0.00000000E+00
  9.00000000E+01  3.20000000E+01  0.00000000E+00
  9.00000000E+01  3.00000000E+01  0.00000000E+00
  9.00000000E+01  2.80000000E+01  0.00000000E+00
  9.00000000E+01  2.60000000E+01  0.00000000E+00
  9.00000000E+01  2.40000000E+01  0.00000000E+00
  9.00000000E+01  2.20000000E+01  0.00000000E+00
  9.00000000E+01  2.00000000E+01  0.00000000E+00
  9.00000000E+01  1.80000000E+01  0.00000000E+00
  9.00000000E+01  1.60000000E+01  0.00000000E+00
  9.00000000E+01  1.40000000E+01  0.00000000E+00
  9.00000000E+01  1.20000000E+01  0.00000000E+00
  9.00000000E+01  1.00000000E+01  0.00000000E+00
  9.00000000E+01  8.00000000E+00  0.00000000E+00
  9.00000000E+01  6.00000000E+00  0.00000000E+00
  9.00000000E+01  4.00000000E+00  0.00000000E+00
  9.00000000E+01  2.00000000E+00  0.00000000E+00
  9.00000000E+01 -3.33066907E-14  0.00000000E+00
  1.00000000E+02  1.00000000E+02  0.00000000E+00
  1.00000000E+02  9.80000000E+01  0.00000000E+00
  1.00000000E+02  9.60000000E+01  0.00000000E+00
  1.00000000E+02  9.40000000E+01  0.00000000E+00
  1.00000000E+02  9.20000000E+01  0.00000000E+00
  1.00000000E+02  9.00000000E+01  0.00000000E+00
  1.00000000E+02  8.80000000E+01  0.00000000E+00
  1.00000000E+02  8.60000000E+01  0.00000000E+00
  1.00000000E+02  8.40000000E+01  0.00000000E+00
  1.00000000E+02  8.20000000E+01  0.00000000E+00
  1.00000000E+02  8.00000000E+01  0.00000000E+00
  1.00000000E+02  7.80000000E+01  0.00000000E+00
  1.00000000E+02  7.60000000E+01  0.00000000E+00
  1.00000000E+02  7.40000000E+01  0.00000000E+00
  1.00000000E+02  7.20000000E+01  0.00000000E+00
  1.00000000E+02  7.00000000E+01  0.00000000E+00
  1.00000000E+02  6.80000000E+01  0.00000000E+00
  1.00000000E+02  6.60000000E+01  0.00000000E+00
  1.00000000E+02  6.40000000E+01  0.00000000E+00
  1.00000000E+02  6.20000000E+01  0.00000000E+00
  1.00000000E+02  6.00000000E+01  0.00000000E+00
  1.00000000E+02  5.80000000E+01  0.00000000E+00
  1.00000000E+02  5.60000000E+01  0.00000000E+00
  1.00000000E+02  5.40000000E+01  0.00000000E+00
  1.00000000E+02  5.20000000E+01  0.00000000E+00
  1.00000000E+02  5.00000000E+01  0.00000000E+00
  1.00000000E+02  4.80000000E+01  0.00000000E+00
  1.00000000E+02  4.60000000E+01  0.00000000E+00
  1.00000000E+02  4.40000000E+01  0.00000000E+00
  1.00000000E+02  4.20000000E+01  0.00000000E+00
  1.00000000E+02  4.00000000E+01  0.00000000E+00
  1.00000000E+02  3.80000000E+01  0.00000000E+00
  1.00000000E+02  3.60000000E+01  0.00000000E+00
  1.00000000E+02  3.40000000E+01  0.00000000E+00
  1.00000000E+02  3.20000000E+01  0.00000000E+00
  1.00000000E+02  3.00000000E+01  0.00000000E+00
  1.00000000E+02  2.80000000E+01  0.00000000E+00
  1.00000000E+02  2.60000000E+01  0.00000000E+00
  1.00000000E+02  2.40000000E+01  0.00000000E+00
  1.00000000E+02  2.20000000E+01  0.00000000E+00
  1.00000000E+02  2.00000000E+01  0.00000000E+00
  1.00000000E+02  1.80000000E+01  0.00000000E+00
  1.00000000E+02  1.60000000E+01  0.00000000E+00
  1.00000000E+02  1.40000000E+01  0.00000000E+00
  1.00000000E+02  1.20000000E+01  0.00000000E+00
  1.00000000E+02  1.00000000E+01  0.00000000E+00
  1.00000000E+02  8.00000000E+00  0.00000000E+00
  1.00000000E+02  6.00000000E+00  0.00000000E+00
  1.00000000E+02  4.00000000E+00  0.00000000E+00
  1.00000000E+02  2.00000000E+00  0.00000000E+00
  1.00000000E+02 -3.33066907E-14  0.00000000E+00
  1.10000000E+02  1.00000000E+02  0.00000000E+00
  1.10000000E+02  9.80000000E+01  0.00000000E+00
  1.10000000E+02  9.60000000E+01  0.00000000E+00
  1.10000000E+02  9.40000000E+01  0.00000000E+00
  1.10000000E+02  9.20000000E+01  0.00000000E+00
  1.10000000E+02  9.00000000E+01  0.00000000E+00
  1.10000000E+02  8.80000000E+01  0.00000000E+00
  1.10000000E+02  8.60000000E+01  0.00000000E+00
  1.10000000E+02  8.40000000E+01  0.00000000E+00
  1.10000000E+02  8.20000000E+01  0.00000000E+00
  1.10000000E+02  8.00000000E+01  0.00000000E+00
  1.10000000E+02  7.80000000E+01  0.00000000E+00
  1.10000000E+02  7.60000000E+01  0.00000000E+00
  1.10000000E+02  7.40000000E+01  0.00000000E+00
  1.10000000E+02  7.20000000E+01  0.00000000E+00
  1.10000000E+02  7.00000000E+01  0.00000000E+00
  1.10000000E+02  6.80000000E+01  0.00000000E+00
  1.10000000E+02  6.60000000E+01  0.00000000E+00
  1.10000000E+02  6.40000000E+01  0.00000000E+00
  1.10000000E+02  6.20000000E+01  0.00000000E+00
  1.10000000E+02  6.00000000E+01  0.00000000E+00
  1.10000000E+02  5.80000000E+01  0.00000000E+00
  1.10000000E+02  5.60000000E+01  0.00000000E+00
  1.10000000E+02  5.40000000E+01  0.00000000E+00
  1.10000000E+02  5.20000000E+01  0.00000000E+00
  1.10000000E+02  5.00000000E+01  0.00000000E+00
  1.10000000E+02  4.80000000E+01  0.00000000E+00
  1.10000000E+02  4.60000000E+01  0.00000000E+00
  1.10000000E+02  4.40000000E+01  0.00000000E+00
  1.10000000E+02  4.20000000E+01  0.00000000E+00
  1.10000000E+02  4.00000000E+01  0.00000000E+00
  1.10000000E+02  3.80000000E+01  0.00000000E+00
  1.10000000E+02  3.60000000E+01  0.00000000E+00
  1.10000000E+02  3.40000000E+01  0.00000000E+00
  1.10000000E+02  3.20000000E+01  0.00000000E+00
  1.10000000E+02  3.00000000E+01  0.00000000E+00
  1.10000000E+02  2.80000000E+01  0.00000000E+00
  1.10000000E+02  2.60000000E+01  0.00000000E+00
  1.10000000E+02  2.40000000E+01  0.00000000E+00
  1.10000000E+02  2.20000000E+01  0.00000000E+00
  1.10000000E+02  2.00000000E+01  0.00000000E+00
  1.10000000E+02  1.80000000E+01  0.00000000E+00
  1.10000000E+02  1.60000000E+01  0.00000000E+00
  1.10000000E+02  1.40000000E+01  0.00000000E+00
  1.10000000E+02  1.20000000E+01  0.00000000E+00
  1.10000000E+02  1.00000000E+01  0.00000000E+00
  1.10000000E+02  8.00000000E+00  0.00000000E+00
  1.10000000E+02  6.00000000E+00  0.00000000E+00
  1.10000000E+02  4.00000000E+00  0.00000000E+00
  1.10000000E+02  2.00000000E+00  0.00000000E+00
  1.10000000E+02 -3.33066907E-14  0.00000000E+00
  1.20000000E+02  1.00000000E+02  0.00000000E+00
  1.20000000E+02  9.80000000E+01  0.00000000E+00
  1.20000000E+02  9.60000000E+01  0.00000000E+00
  1.20000000E+02  9.40000000E+01  0.00000000E+00
  1.20000000E+02  9.20000000E+01  0.00000000E+00
  1.20000000E+02  9.00000000E+01  0.00000000E+00
  1.20000000E+02  8.80000000E+01  0.00000000E+00
  1.20000000E+02  8.60000000E+01  0.00000000E+00
  1.20000000E+02  8.40000000E+01  0.00000000E+00
  1.20000000E+02  8.20000000E+01  0.00000000E+00
  1.20000000E+02  8.00000000E+01  0.00000000E+00
  1.20000000E+02  7.80000000E+01  0.00000000E+00
  1.20000000E+02  7.60000000E+01  0.00000000E+00
  1.20000000E+02  7.40000000E+01  0.00000000E+00
  1.20000000E+02  7.20000000E+01  0.00000000E+00
  1.20000000E+02  7.00000000E+01  0.00000000E+00
  1.20000000E+02  6.80000000E+01  0.00000000E+00
  1.20000000E+02  6.60000000E+01  0.00000000E+00
  1.20000000E+02  6.40000000E+01  0.00000000E+00
  1.20000000E+02  6.20000000E+01  0.00000000E+00
  1.20000000E+02  6.00000000E+01  0.00000000E+00
  1.20000000E+02  5.80000000E+01  0.00000000E+00
  1.20000000E+02  5.60000000E+01  0.00000000E+00
  1.20000000E+02  5.40000000E+01  0.00000000E+00
  1.20000000E+02  5.20000000E+01  0.00000000E+00
  1.20000000E+02  5.00000000E+01  0.00000000E+00
  1.20000000E+02  4.80000000E+01  0.00000000E+00
  1.20000000E+02  4.60000000E+01  0.00000000E+00
  1.20000000E+02  4.40000000E+01  0.00000000E+00
  1.20000000E+02  4.20000000E+01  0.00000000E+00
  1.20000000E+02  4.00000000E+01  0.00000000E+00
  1.20000000E+02  3.80000000E+01  0.00000000E+00
  1.20000000E+02  3.60000000E+01  0.00000000E+00
  1.20000000E+02  3.40000000E+01  0.00000000E+00
  1.20000000E+02  3.20000000E+01  0.00000000E+00
  1.20000000E+02  3.00000000E+01  0.00000000E+00
  1.20000000E+02  2.80000000E+01  0.00000000E+00
  1.20000000E+02  2.60000000E+01  0.00000000E+00
  1.20000000E+02  2.40000000E+01  0.00000000E+00
  1.20000000E+02  2.20000000E+01  0.00000000E+00
  1.20000000E+02  2.00000000E+01  0.00000000E+00
  1.20000000E+02  1.80000000E+01  0.00000000E+00
  1.20000000E+02  1.60000000E+01  0.00000000E+00
  1.20000000E+02  1.40000000E+01  0.00000000E+00
  1.20000000E+02  1.20000000E+01  0.00000000E+00
  1.20000000E+02  1.00000000E+01  0.00000000E+00
  1.20000000E+02  8.00000000E+00  0.00000000E+00
  1.20000000E+02  6.00000000E+00  0.00000000E+00
  1.20000000E+02  4.00000000E+00  0.00000000E+00
  1.20000000E+02  2.00000000E+00  0.00000000E+00
  1.20000000E+02 -3.33066907E-14  0.00000000E+00
  1.30000000E+02  1.00000000E+02  0.00000000E+00
  1.30000000E+02  9.80000000E+01  0.00000000E+00
  1.30000000E+02  9.60000000E+01  0.00000000E+00
  1.30000000E+02  9.40000000E+01  0.00000000E+00
  1.30000000E+02  9.20000000E+01  0.00000000E+00
  1.30000000E+02  9.00000000E+01  0.00000000E+00
  1.30000000E+02  8.80000000E+01  0.00000000E+00
  1.30000000E+02  8.60000000E+01  0.00000000E+00
  1.30000000E+02  8.40000000E+01  0.00000000E+00
  1.30000000E+02  8.20000000E+01  0.00000000E+00
  1.30000000E+02  8.00000000E+01  0.00000000E+00
  1.30000000E+02  7.80000000E+01  0.00000000E+00
  1.30000000E+02  7.60000000E+01  0.00000000E+00
  1.30000000E+02  7.40000000E+01  0.00000000E+00
  1.30000000E+02  7.20000000E+01  0.00000000E+00
  1.30000000E+02  7.00000000E+01  0.00000000E+00
  1.30000000E+02  6.80000000E+01  0.00000000E+00
  1.30000000E+02  6.60000000E+01  0.00000000E+00
  1.30000000E+02  6.40000000E+01  0.00000000E+00
  1.30000000E+02  6.20000000E+01  0.00000000E+00
  1.30000000E+02  6.00000000E+01  0.00000000E+00
  1.30000000E+02  5.80000000E+01  0.00000000E+00
  1.30000000E+02  5.60000000E+01  0.00000000E+00
  1.30000000E+02  5.40000000E+01  0.00000000E+00
  1.30000000E+02  5.20000000E+01  0.00000000E+00
  1.30000000E+02  5.00000000E+01  0.00000000E+00
  1.30000000E+02  4.80000000E+01  0.00000000E+00
  1.30000000E+02  4.60000000E+01  0.00000000E+00
  1.30000000E+02  4.40000000E+01  0.00000000E+00
  1.30000000E+02  4.20000000E+01  0.00000000E+00
  1.30000000E+02  4.00000000E+01  0.00000000E+00
  1.30000000E+02  3.80000000E+01  0.00000000E+00
  1.30000000E+02  3.60000000E+01  0.00000000E+00
  1.30000000E+02  3.40000000E+01  0.00000000E+00
  1.30000000E+02  3.20000000E+01  0.00000000E+00
  1.30000000E+02  3.00000000E+01  0.00000000E+00
  1.30000000E+02  2.80000000E+01  0.00000000E+00
  1.30000000E+02  2.60000000E+01  0.00000000E+00
  1.30000000E+02  2.40000000E+01  0.00000000E+00
  1.30000000E+02  2.20000000E+01  0.00000000E+00
  1.30000000E+02  2.00000000E+01  0.00000000E+00
  1.30000000E+02  1.80000000E+01  0.00000000E+00
  1.30000000E+02  1.60000000E+01  0.00000000E+00
  1.30000000E+02  1.40000000E+01  0.00000000E+00
  1.30000000E+02  1.20000000E+01  0.00000000E+00
  1.30000000E+02  1.00000000E+01  0.00000000E+00
  1.30000000E+02  8.00000000E+00  0.00000000E+00
  1.30000000E+02  6.00000000E+00  0.00000000E+00
  1.30000000E+02  4.00000000E+00  0.00000000E+00
  1.30000000E+02  2.00000000E+00  0.00000000E+00
  1.30000000E+02 -3.33066907E-14  0.00000000E+00
  1.40000000E+02  1.00000000E+02  0.00000000E+00
  1.40000000E+02  9.80000000E+01  0.00000000E+00
  1.40000000E+02  9.60000000E+01  0.00000000E+00
  1.40000000E+02  9.40000000E+01  0.00000000E+00
  1.40000000E+02  9.20000000E+01  0.00000000E+00
  1.40000000E+02  9.00000000E+01  0.00000000E+00
  1.40000000E+02  8.80000000E+01  0.00000000E+00
  1.40000000E+02  8.60000000E+01  0.00000000E+00
  1.40000000E+02  8.40000000E+01  0.00000000E+00
  1.40000000E+02  8.20000000E+01  0.00000000E+00
  1.40000000E+02  8.00000000E+01  0.00000000E+00
  1.40000000E+02  7.80000000E+01  0.00000000E+00
  1.40000000E+02  7.60000000E+01  0.00000000E+00
  1.40000000E+02  7.40000000E+01  0.00000000E+00
  1.40000000E+02  7.20000000E+01  0.00000000E+00
  1.40000000E+02  7.00000000E+01  0.00000000E+00
  1.40000000E+02  6.80000000E+01  0.00000000E+00
  1.40000000E+02  6.60000000E+01  0.00000000E+00
  1.40000000E+02  6.40000000E+01  0.00000000E+00
  1.40000000E+02  6.20000000E+01  0.00000000E+00
  1.40000000E+02  6.00000000E+01  0.00000000E+00
  1.40000000E+02  5.80000000E+01  0.00000000E+00
  1.40000000E+02  5.60000000E+01  0.00000000E+00
  1.40000000E+02  5.40000000E+01  0.00000000E+00
  1.40000000E+02  5.20000000E+01  0.00000000E+00
  1.40000000E+02  5.00000000E+01  0.00000000E+00
  1.40000000E+02  4.80000000E+01  0.00000000E+00
  1.40000000E+02  4.60000000E+01  0.00000000E+00
  1.40000000E+02  4.40000000E+01  0.00000000E+00
  1.40000000E+02  4.20000000E+01  0.00000000E+00
  1.40000000E+02  4.00000000E+01  0.00000000E+00
  1.40000000E+02  3.80000000E+01  0.00000000E+00
  1.40000000E+02  3.60000000E+01  0.00000000E+00
  1.40000000E+02  3.40000000E+01  0.00000000E+00
  1.40000000E+02  3.20000000E+01  0.00000000E+00
  1.40000000E+02  3.00000000E+01  0.00000000E+00
  1.40000000E+02  2.80000000E+01  0.00000000E+00
  1.40000000E+02  2.60000000E+01  0.00000000E+00
  1.40000000E+02  2.40000000E+01  0.00000000E+00
  1.40000000E+02  2.20000000E+01  0.00000000E+00
  1.40000000E+02  2.00000000E+01  0.00000000E+00
  1.40000000E+02  1.80000000E+01  0.00000000E+00
  1.40000000E+02  1.60000000E+01  0.00000000E+00
  1.40000000E+02  1.40000000E+01  0.00000000E+00
  1.40000000E+02  1.20000000E+01  0.00000000E+00
  1.40000000E+02  1.00000000E+01  0.00000000E+00
  1.40000000E+02  8.00000000E+00  0.00000000E+00
  1.40000000E+02  6.00000000E+00  0.00000000E+00
  1.40000000E+02  4.00000000E+00  0.00000000E+00
  1.40000000E+02  2.00000000E+00  0.00000000E+00
  1.40000000E+02 -3.33066907E-14  0.00000000E+00
  1.50000000E+02  1.00000000E+02  0.00000000E+00
  1.50000000E+02  9.80000000E+01  0.00000000E+00
  1.50000000E+02  9.60000000E+01  0.00000000E+00
  1.50000000E+02  9.40000000E+01  0.00000000E+00
  1.50000000E+02  9.20000000E+01  0.00000000E+00
  1.50000000E+02  9.00000000E+01  0.00000000E+00
  1.50000000E+02  8.80000000E+01  0.00000000E+00
  1.50000000E+02  8.60000000E+01  0.00000000E+00
  1.50000000E+02  8.40000000E+01  0.00000000E+00
  1.50000000E+02  8.20000000E+01  0.00000000E+00
  1.50000000E+02  8.00000000E+01  0.00000000E+00
  1.50000000E+02  7.80000000E+01  0.00000000E+00
  1.50000000E+02  7.60000000E+01  0.00000000E+00
  1.50000000E+02  7.40000000E+01  0.00000000E+00
  1.50000000E+02  7.20000000E+01  0.00000000E+00
  1.50000000E+02  7.00000000E+01  0.00000000E+00
  1.50000000E+02  6.80000000E+01  0.00000000E+00
  1.50000000E+02  6.60000000E+01  0.00000000E+00
  1.50000000E+02  6.40000000E+01  0.00000000E+00
  1.50000000E+02  6.20000000E+01  0.00000000E+00
  1.50000000E+02  6.00000000E+01  0.00000000E+00
  1.50000000E+02  5.80000000E+01  0.00000000E+00
  1.50000000E+02  5.60000000E+01  0.00000000E+00
  1.50000000E+02  5.40000000E+01  0.00000000E+00
  1.50000000E+02  5.20000000E+01  0.00000000E+00
  1.50000000E+02  5.00000000E+01  0.00000000E+00
  1.50000000E+02  4.80000000E+01  0.00000000E+00
  1.50000000E+02  4.60000000E+01  0.00000000E+00
  1.50000000E+02  4.40000000E+01  0.00000000E+00
  1.50000000E+02  4.20000000E+01  0.00000000E+00
  1.50000000E+02  4.00000000E+01  0.00000000E+00
  1.50000000E+02  3.80000000E+01  0.00000000E+00
  1.50000000E+02  3.60000000E+01  0.00000000E+00
  1.50000000E+02  3.40000000E+01  0.00000000E+00
  1.50000000E+02  3.20000000E+01  0.00000000E+00
  1.50000000E+02  3.00000000E+01  0.00000000E+00
  1.50000000E+02  2.80000000E+01  0.00000000E+00
  1.50000000E+02  2.60000000E+01  0.00000000E+00
  1.50000000E+02  2.40000000E+01  0.00000000E+00
  1.50000000E+02  2.20000000E+01  0.00000000E+00
  1.50000000E+02  2.00000000E+01  0.00000000E+00
  1.50000000E+02  1.80000000E+01  0.00000000E+00
  1.50000000E+02  1.60000000E+01  0.00000000E+00
  1.50000000E+02  1.40000000E+01  0.00000000E+00
  1.50000000E+02  1.20000000E+01  0.00000000E+00
  1.50000000E+02  1.00000000E+01  0.00000000E+00
  1.50000000E+02  8.00000000E+00  0.00000000E+00
  1.50000000E+02  6.00000000E+00  0.00000000E+00
  1.50000000E+02  4.00000000E+00  0.00000000E+00
  1.50000000E+02  2.00000000E+00  0.00000000E+00
  1.50000000E+02 -3.33066907E-14  0.00000000E+00
  1.60000000E+02  1.00000000E+02  0.00000000E+00
  1.60000000E+02  9.80000000E+01  0.00000000E+00
  1.60000000E+02  9.60000000E+01  0.00000000E+00
  1.60000000E+02  9.40000000E+01  0.00000000E+00
  1.60000000E+02  9.20000000E+01  0.00000000E+00
  1.60000000E+02  9.00000000E+01  0.00000000E+00
  1.60000000E+02  8.80000000E+01  0.00000000E+00
  1.60000000E+02  8.60000000E+01  0.00000000E+00
  1.60000000E+02  8.40000000E+01  0.00000000E+00
  1.60000000E+02  8.20000000E+01  0.00000000E+00
  1.60000000E+02  8.00000000E+01  0.00000000E+00
  1.60000000E+02  7.80000000E+01  0.00000000E+00
  1.60000000E+02  7.60000000E+01  0.00000000E+00
  1.60000000E+02  7.40000000E+01  0.00000000E+00
  1.60000000E+02  7.20000000E+01  0.00000000E+00
  1.60000000E+02  7.00000000E+01  0.00000000E+00
  1.60000000E+02  6.80000000E+01  0.00000000E+00
  1.60000000E+02  6.60000000E+01  0.00000000E+00
  1.60000000E+02  6.40000000E+01  0.00000000E+00
  1.60000000E+02  6.20000000E+01  0.00000000E+00
  1.60000000E+02  6.00000000E+01  0.00000000E+00
  1.60000000E+02  5.80000000E+01  0.00000000E+00
  1.60000000E+02  5.60000000E+01  0.00000000E+00
  1.60000000E+02  5.40000000E+01  0.00000000E+00
  1.60000000E+02  5.20000000E+01  0.00000000E+00
  1.60000000E+02  5.00000000E+01  0.00000000E+00
  1.60000000E+02  4.80000000E+01  0.00000000E+00
  1.60000000E+02  4.60000000E+01  0.00000000E+00
  1.60000000E+02  4.40000000E+01  0.00000000E+00
  1.60000000E+02  4.20000000E+01  0.00000000E+00
  1.60000000E+02  4.00000000E+01  0.00000000E+00
  1.60000000E+02  3.80000000E+01  0.00000000E+00
  1.60000000E+02  3.60000000E+01  0.00000000E+00
  1.60000000E+02  3.40000000E+01  0.00000000E+00
  1.60000000E+02  3.20000000E+01  0.00000000E+00
  1.60000000E+02  3.00000000E+01  0.00000000E+00
  1.60000000E+02  2.80000000E+01  0.00000000E+00
  1.60000000E+02  2.60000000E+01  0.00000000E+00
  1.60000000E+02  2.40000000E+01  0.00000000E+00
  1.60000000E+02  2.20000000E+01  0.00000000E+00
  1.60000000E+02  2.00000000E+01  0.00000000E+00
  1.60000000E+02  1.80000000E+01  0.00000000E+00
  1.60000000E+02  1.60000000E+01  0.00000000E+00
  1.60000000E+02  1.40000000E+01  0.00000000E+00
  1.60000000E+02  1.20000000E+01  0.00000000E+00
  1.60000000E+02  1.00000000E+01  0.00000000E+00
  1.60000000E+02  8.00000000E+00  0.00000000E+00
  1.60000000E+02  6.00000000E+00  0.00000000E+00
  1.60000000E+02  4.00000000E+00  0.00000000E+00
  1.60000000E+02  2.00000000E+00  0.00000000E+00
  1.60000000E+02 -3.33066907E-14  0.00000000E+00
  1.70000000E+02  1.00000000E+02  0.00000000E+00
  1.70000000E+02  9.80000000E+01  0.00000000E+00
  1.70000000E+02  9.60000000E+01  0.00000000E+00
  1.70000000E+02  9.40000000E+01  0.00000000E+00
  1.70000000E+02  9.20000000E+01  0.00000000E+00
  1.70000000E+02  9.00000000E+01  0.00000000E+00
  1.70000000E+02  8.80000000E+01  0.00000000E+00
  1.70000000E+02  8.60000000E+01  0.00000000E+00
  1.70000000E+02  8.40000000E+01  0.00000000E+00
  1.70000000E+02  8.20000000E+01  0.00000000E+00
  1.70000000E+02  8.00000000E+01  0.00000000E+00
  1.70000000E+02  7.80000000E+01  0.00000000E+00
  1.70000000E+02  7.60000000E+01  0.00000000E+00
  1.70000000E+02  7.40000000E+01  0.00000000E+00
  1.70000000E+02  7.20000000E+01  0.00000000E+00
  1.70000000E+02  7.00000000E+01  0.00000000E+00
  1.70000000E+02  6.80000000E+01  0.00000000E+00
  1.70000000E+02  6.60000000E+01  0.00000000E+00
  1.70000000E+02  6.40000000E+01  0.00000000E+00
  1.70000000E+02  6.20000000E+01  0.00000000E+00
  1.70000000E+02  6.00000000E+01  0.00000000E+00
  1.70000000E+02  5.80000000E+01  0.00000000E+00
  1.70000000E+02  5.60000000E+01  0.00000000E+00
  1.70000000E+02  5.40000000E+01  0.00000000E+00
  1.70000000E+02  5.20000000E+01  0.00000000E+00
  1.70000000E+02  5.00000000E+01  0.00000000E+00
  1.70000000E+02  4.80000000E+01  0.00000000E+00
  1.70000000E+02  4.60000000E+01  0.00000000E+00
  1.70000000E+02  4.40000000E+01  0.00000000E+00
  1.70000000E+02  4.20000000E+01  0.00000000E+00
  1.70000000E+02  4.00000000E+01  0.00000000E+00
  1.70000000E+02  3.80000000E+01  0.00000000E+00
  1.70000000E+02  3.60000000E+01  0.00000000E+00
  1.70000000E+02  3.40000000E+01  0.00000000E+00
  1.70000000E+02  3.20000000E+01  0.00000000E+00
  1.70000000E+02  3.00000000E+01  0.00000000E+00
  1.70000000E+02  2.80000000E+01  0.00000000E+00
  1.70000000E+02  2.60000000E+01  0.00000000E+00
  1.70000000E+02  2.40000000E+01  0.00000000E+00
  1.70000000E+02  2.20000000E+01  0.00000000E+00
  1.70000000E+02  2.00000000E+01  0.00000000E+00
  1.70000000E+02  1.80000000E+01  0.00000000E+00
  1.70000000E+02  1.60000000E+01  0.00000000E+00
  1.70000000E+02  1.40000000E+01  0.00000000E+00
  1.70000000E+02  1.20000000E+01  0.00000000E+00
  1.70000000E+02  1.00000000E+01  0.00000000E+00
  1.70000000E+02  8.00000000E+00  0.00000000E+00
  1.70000000E+02  6.00000000E+00  0.00000000E+00
  1.70000000E+02  4.00000000E+00  0.00000000E+00
  1.70000000E+02  2.00000000E+00  0.00000000E+00
  1.70000000E+02 -3.33066907E-14  0.00000000E+00
  1.80000000E+02  1.00000000E+02  0.00000000E+00
  1.80000000E+02  9.80000000E+01  0.00000000E+00
  1.80000000E+02  9.60000000E+01  0.00000000E+00
  1.80000000E+02  9.40000000E+01  0.00000000E+00
  1.80000000E+02  9.20000000E+01  0.00000000E+00
  1.80000000E+02  9.00000000E+01  0.00000000E+00
  1.80000000E+02  8.80000000E+01  0.00000000E+00
  1.80000000E+02  8.60000000E+01  0.00000000E+00
  1.80000000E+02  8.40000000E+01  0.00000000E+00
  1.80000000E+02  8.20000000E+01  0.00000000E+00
  1.80000000E+02  8.00000000E+01  0.00000000E+00
  1.80000000E+02  7.80000000E+01  0.00000000E+00
  1.80000000E+02  7.60000000E+01  0.00000000E+00
  1.80000000E+02  7.40000000E+01  0.00000000E+00
  1.80000000E+02  7.20000000E+01  0.00000000E+00
  1.80000000E+02  7.00000000E+01  0.00000000E+00
  1.80000000E+02  6.80000000E+01  0.00000000E+00
  1.80000000E+02  6.60000000E+01  0.00000000E+00
  1.80000000E+02  6.40000000E+01  0.00000000E+00
  1.80000000E+02  6.20000000E+01  0.00000000E+00
  1.80000000E+02  6.00000000E+01  0.00000000E+00
  1.80000000E+02  5.80000000E+01  0.00000000E+00
  1.80000000E+02  5.60000000E+01  0.00000000E+00
  1.80000000E+02  5.40000000E+01  0.00000000E+00
  1.80000000E+02  5.20000000E+01  0.00000000E+00
  1.80000000E+02  5.00000000E+01  0.00000000E+00
  1.80000000E+02  4.80000000E+01  0.00000000E+00
  1.80000000E+02  4.60000000E+01  0.00000000E+00
  1.80000000E+02  4.40000000E+01  0.00000000E+00
  1.80000000E+02  4.20000000E+01  0.00000000E+00
  1.80000000E+02  4.00000000E+01  0.00000000E+00
  1.80000000E+02  3.80000000E+01  0.00000000E+00
  1.80000000E+02  3.60000000E+01  0.00000000E+00
  1.80000000E+02  3.40000000E+01  0.00000000E+00
  1.80000000E+02  3.20000000E+01  0.00000000E+00
  1.80000000E+02  3.00000000E+01  0.00000000E+00
  1.80000000E+02  2.80000000E+01  0.00000000E+00
  1.80000000E+02  2.60000000E+01  0.00000000E+00
  1.80000000E+02  2.40000000E+01  0.00000000E+00
  1.80000000E+02  2.20000000E+01  0.00000000E+00
  1.80000000E+02  2.00000000E+01  0.00000000E+00
  1.80000000E+02  1.80000000E+01  0.00000000E+00
  1.80000000E+02  1.60000000E+01  0.00000000E+00
  1.80000000E+02  1.40000000E+01  0.00000000E+00
  1.80000000E+02  1.20000000E+01  0.00000000E+00
  1.80000000E+02  1.00000000E+01  0.00000000E+00
  1.80000000E+02  8.00000000E+00  0.00000000E+00
  1.80000000E+02  6.00000000E+00  0.00000000E+00
  1.80000000E+02  4.00000000E+00  0.00000000E+00
  1.80000000E+02  2.00000000E+00  0.00000000E+00
  1.80000000E+02 -3.33066907E-14  0.00000000E+00
  1.90000000E+02  1.00000000E+02  0.00000000E+00
  1.90000000E+02  9.80000000E+01  0.00000000E+00
  1.90000000E+02  9.60000000E+01  0.00000000E+00
  1.90000000E+02  9.40000000E+01  0.00000000E+00
  1.90000000E+02  9.20000000E+01  0.00000000E+00
  1.90000000E+02  9.00000000E+01  0.00000000E+00
  1.90000000E+02  8.80000000E+01  0.00000000E+00
  1.90000000E+02  8.60000000E+01  0.00000000E+00
  1.90000000E+02  8.40000000E+01  0.00000000E+00
  1.90000000E+02  8.20000000E+01  0.00000000E+00
  1.90000000E+02  8.00000000E+01  0.00000000E+00
  1.90000000E+02  7.80000000E+01  0.00000000E+00
  1.90000000E+02  7.60000000E+01  0.00000000E+00
  1.90000000E+02  7.40000000E+01  0.00000000E+00
  1.90000000E+02  7.20000000E+01  0.00000000E+00
  1.90000000E+02  7.00000000E+01  0.00000000E+00
  1.90000000E+02  6.80000000E+01  0.00000000E+00
  1.90000000E+02  6.60000000E+01  0.00000000E+00
  1.90000000E+02  6.40000000E+01  0.00000000E+00
  1.90000000E+02  6.20000000E+01  0.00000000E+00
  1.90000000E+02  6.00000000E+01  0.00000000E+00
  1.90000000E+02  5.80000000E+01  0.00000000E+00
  1.90000000E+02  5.60000000E+01  0.00000000E+00
  1.90000000E+02  5.40000000E+01  0.00000000E+00
  1.90000000E+02  5.20000000E+01  0.00000000E+00
  1.90000000E+02  5.00000000E+01  0.00000000E+00
  1.90000000E+02  4.80000000E+01  0.00000000E+00
  1.90000000E+02  4.60000000E+01  0.00000000E+00
  1.90000000E+02  4.40000000E+01  0.00000000E+00
  1.90000000E+02  4.20000000E+01  0.00000000E+00
  1.90000000E+02  4.00000000E+01  0.00000000E+00
  1.90000000E+02  3.80000000E+01  0.00000000E+00
  1.90000000E+02  3.60000000E+01  0.00000000E+00
  1.90000000E+02  3.40000000E+01  0.00000000E+00
  1.90000000E+02  3.20000000E+01  0.00000000E+00
  1.90000000E+02  3.00000000E+01  0.00000000E+00
  1.90000000E+02  2.80000000E+01  0.00000000E+00
  1.90000000E+02  2.60000000E+01  0.00000000E+00
  1.90000000E+02  2.40000000E+01  0.00000000E+00
  1.90000000E+02  2.20000000E+01  0.00000000E+00
  1.90000000E+02  2.00000000E+01  0.00000000E+00
  1.90000000E+02  1.80000000E+01  0.00000000E+00
  1.90000000E+02  1.60000000E+01  0.00000000E+00
  1.90000000E+02  1.40000000E+01  0.00000000E+00
  1.90000000E+02  1.20000000E+01  0.00000000E+00
  1.90000000E+02  1.00000000E+01  0.00000000E+00
  1.90000000E+02  8.00000000E+00  0.00000000E+00
  1.90000000E+02  6.00000000E+00  0.00000000E+00
  1.90000000E+02  4.00000000E+00  0.00000000E+00
  1.90000000E+02  2.00000000E+00  0.00000000E+00
  1.90000000E+02 -3.33066907E-14  0.00000000E+00
  2.00000000E+02  1.00000000E+02  0.00000000E+00
  2.00000000E+02  9.80000000E+01  0.00000000E+00
  2.00000000E+02  9.60000000E+01  0.00000000E+00
  2.00000000E+02  9.40000000E+01  0.00000000E+00
  2.00000000E+02  9.20000000E+01  0.00000000E+00
  2.00000000E+02  9.00000000E+01  0.00000000E+00
  2.00000000E+02  8.80000000E+01  0.00000000E+00
  2.00000000E+02  8.60000000E+01  0.00000000E+00
  2.00000000E+02  8.40000000E+01  0.00000000E+00
  2.00000000E+02  8.20000000E+01  0.00000000E+00
  2.00000000E+02  8.00000000E+01  0.00000000E+00
  2.00000000E+02  7.80000000E+01  0.00000000E+00
  2.00000000E+02  7.60000000E+01  0.00000000E+00
  2.00000000E+02  7.40000000E+01  0.00000000E+00
  2.00000000E+02  7.20000000E+01  0.00000000E+00
  2.00000000E+02  7.00000000E+01  0.00000000E+00
  2.00000000E+02  6.80000000E+01  0.00000000E+00
  2.00000000E+02  6.60000000E+01  0.00000000E+00
  2.00000000E+02  6.40000000E+01  0.00000000E+00
  2.00000000E+02  6.20000000E+01  0.00000000E+00
  2.00000000E+02  6.00000000E+01  0.00000000E+00
  2.00000000E+02  5.80000000E+01  0.00000000E+00
  2.00000000E+02  5.60000000E+01  0.00000000E+00
  2.00000000E+02  5.40000000E+01  0.00000000E+00
  2.00000000E+02  5.20000000E+01  0.00000000E+00
  2.00000000E+02  5.00000000E+01  0.00000000E+00
  2.00000000E+02  4.80000000E+01  0.00000000E+00
  2.00000000E+02  4.60000000E+01  0.00000000E+00
  2.00000000E+02  4.40000000E+01  0.00000000E+00
  2.00000000E+02  4.20000000E+01  0.00000000E+00
  2.00000000E+02  4.00000000E+01  0.00000000E+00
  2.00000000E+02  3.80000000E+01  0.00000000E+00
  2.00000000E+02  3.60000000E+01  0.00000000E+00
  2.00000000E+02  3.40000000E+01  0.00000000E+00
  2.00000000E+02  3.20000000E+01  0.00000000E+00
  2.00000000E+02  3.00000000E+01  0.00000000E+00
  2.00000000E+02  2.80000000E+01  0.00000000E+00
  2.00000000E+02  2.60000000E+01  0.00000000E+00
  2.00000000E+02  2.40000000E+01  0.00000000E+00
  2.00000000E+02  2.20000000E+01  0.00000000E+00
  2.00000000E+02  2.00000000E+01  0.00000000E+00
  2.00000000E+02  1.80000000E+01  0.00000000E+00
  2.00000000E+02  1.60000000E+01  0.00000000E+00
  2.00000000E+02  1.40000000E+01  0.00000000E+00
  2.00000000E+02  1.20000000E+01  0.00000000E+00
  2.00000000E+02  1.00000000E+01  0.00000000E+00
  2.00000000E+02  8.00000000E+00  0.00000000E+00
  2.00000000E+02  6.00000000E+00  0.00000000E+00
  2.00000000E+02  4.00000000E+00  0.00000000E+00
  2.00000000E+02  2.00000000E+00  0.00000000E+00
  2.00000000E+02 -3.33066907E-14  0.00000000E+00
  2.10000000E+02  1.00000000E+02  0.00000000E+00
  2.10000000E+02  9.80000000E+01  0.00000000E+00
  2.10000000E+02  9.60000000E+01  0.00000000E+00
  2.10000000E+02  9.40000000E+01  0.00000000E+00
  2.10000000E+02  9.20000000E+01  0.00000000E+00
  2.10000000E+02  9.00000000E+01  0.00000000E+00
  2.10000000E+02  8.80000000E+01  0.00000000E+00
  2.10000000E+02  8.60000000E+01  0.00000000E+00
  2.10000000E+02  8.40000000E+01  0.00000000E+00
  2.10000000E+02  8.20000000E+01  0.00000000E+00
  2.10000000E+02  8.00000000E+01  0.00000000E+00
  2.10000000E+02  7.80000000E+01  0.00000000E+00
  2.10000000E+02  7.60000000E+01  0.00000000E+00
  2.10000000E+02  7.40000000E+01  0.00000000E+00
  2.10000000E+02  7.20000000E+01  0.00000000E+00
  2.10000000E+02  7.00000000E+01  0.00000000E+00
  2.10000000E+02  6.80000000E+01  0.00000000E+00
  2.10000000E+02  6.60000000E+01  0.00000000E+00
  2.10000000E+02  6.40000000E+01  0.00000000E+00
  2.10000000E+02  6.20000000E+01  0.00000000E+00
  2.10000000E+02  6.00000000E+01  0.00000000E+00
  2.10000000E+02  5.80000000E+01  0.00000000E+00
  2.10000000E+02  5.60000000E+01  0.00000000E+00
  2.10000000E+02  5.40000000E+01  0.00000000E+00
  2.10000000E+02  5.20000000E+01  0.00000000E+00
  2.10000000E+02  5.00000000E+01  0.00000000E+00
  2.10000000E+02  4.80000000E+01  0.00000000E+00
  2.10000000E+02  4.60000000E+01  0.00000000E+00
  2.10000000E+02  4.40000000E+01  0.00000000E+00
  2.10000000E+02  4.20000000E+01  0.00000000E+00
  2.10000000E+02  4.00000000E+01  0.00000000E+00
  2.10000000E+02  3.80000000E+01  0.00000000E+00
  2.10000000E+02  3.60000000E+01  0.00000000E+00
  2.10000000E+02  3.40000000E+01  0.00000000E+00
  2.10000000E+02  3.20000000E+01  0.00000000E+00
  2.10000000E+02  3.00000000E+01  0.00000000E+00
  2.10000000E+02  2.80000000E+01  0.00000000E+00
  2.10000000E+02  2.60000000E+01  0.00000000E+00
  2.10000000E+02  2.40000000E+01  0.00000000E+00
  2.10000000E+02  2.20000000E+01  0.00000000E+00
  2.10000000E+02  2.00000000E+01  0.00000000E+00
  2.10000000E+02  1.80000000E+01  0.00000000E+00
  2.10000000E+02  1.60000000E+01  0.00000000E+00
  2.10000000E+02  1.40000000E+01  0.00000000E+00
  2.10000000E+02  1.20000000E+01  0.00000000E+00
  2.10000000E+02  1.00000000E+01  0.00000000E+00
  2.10000000E+02  8.00000000E+00  0.00000000E+00
  2.10000000E+02  6.00000000E+00  0.00000000E+00
  2.10000000E+02  4.00000000E+00  0.00000000E+00
  2.10000000E+02  2.00000000E+00  0.00000000E+00
  2.10000000E+02 -3.33066907E-14  0.00000000E+00
  2.20000000E+02  1.00000000E+02  0.00000000E+00
  2.20000000E+02  9.80000000E+01  0.00000000E+00
  2.20000000E+02  9.60000000E+01  0.00000000E+00
  2.20000000E+02  9.40000000E+01  0.00000000E+00
  2.20000000E+02  9.20000000E+01  0.00000000E+00
  2.20000000E+02  9.00000000E+01  0.00000000E+00
  2.20000000E+02  8.80000000E+01  0.00000000E+00
  2.20000000E+02  8.60000000E+01  0.00000000E+00
  2.20000000E+02  8.40000000E+01  0.00000000E+00
  2.20000000E+02  8.20000000E+01  0.00000000E+00
  2.20000000E+02  8.00000000E+01  0.00000000E+00
  2.20000000E+02  7.80000000E+01  0.00000000E+00
  2.20000000E+02  7.60000000E+01  0.00000000E+00
  2.20000000E+02  7.40000000E+01  0.00000000E+00
  2.20000000E+02  7.20000000E+01  0.00000000E+00
  2.20000000E+02  7.00000000E+01  0.00000000E+00
  2.20000000E+02  6.80000000E+01  0.00000000E+00
  2.20000000E+02  6.60000000E+01  0.00000000E+00
  2.20000000E+02  6.40000000E+01  0.00000000E+00
  2.20000000E+02  6.20000000E+01  0.00000000E+00
  2.20000000E+02  6.00000000E+01  0.00000000E+00
  2.20000000E+02  5.80000000E+01  0.00000000E+00
  2.20000000E+02  5.60000000E+01  0.00000000E+00
  2.20000000E+02  5.40000000E+01  0.00000000E+00
  2.20000000E+02  5.20000000E+01  0.00000000E+00
  2.20000000E+02  5.00000000E+01  0.00000000E+00
  2.20000000E+02  4.80000000E+01  0.00000000E+00
  2.20000000E+02  4.60000000E+01  0.00000000E+00
  2.20000000E+02  4.40000000E+01  0.00000000E+00
  2.20000000E+02  4.20000000E+01  0.00000000E+00
  2.20000000E+02  4.00000000E+01  0.00000000E+00
  2.20000000E+02  3.80000000E+01  0.00000000E+00
  2.20000000E+02  3.60000000E+01  0.00000000E+00
  2.20000000E+02  3.40000000E+01  0.00000000E+00
  2.20000000E+02  3.20000000E+01  0.00000000E+00
  2.20000000E+02  3.00000000E+01  0.00000000E+00
  2.20000000E+02  2.80000000E+01  0.00000000E+00
  2.20000000E+02  2.60000000E+01  0.00000000E+00
  2.20000000E+02  2.40000000E+01  0.00000000E+00
  2.20000000E+02  2.20000000E+01  0.00000000E+00
  2.20000000E+02  2.00000000E+01  0.00000000E+00
  2.20000000E+02  1.80000000E+01  0.00000000E+00
  2.20000000E+02  1.60000000E+01  0.00000000E+00
  2.20000000E+02  1.40000000E+01  0.00000000E+00
  2.20000000E+02  1.20000000E+01  0.00000000E+00
  2.20000000E+02  1.00000000E+01  0.00000000E+00
  2.20000000E+02  8.00000000E+00  0.00000000E+00
  2.20000000E+02  6.00000000E+00  0.00000000E+00
  2.20000000E+02  4.00000000E+00  0.00000000E+00
  2.20000000E+02  2.00000000E+00  0.00000000E+00
  2.20000000E+02 -3.33066907E-14  0.00000000E+00
  2.30000000E+02  1.00000000E+02  0.00000000E+00
  2.30000000E+02  9.80000000E+01  0.00000000E+00
  2.30000000E+02  9.60000000E+01  0.00000000E+00
  2.30000000E+02  9.40000000E+01  0.00000000E+00
  2.30000000E+02  9.20000000E+01  0.00000000E+00
  2.30000000E+02  9.00000000E+01  0.00000000E+00
  2.30000000E+02  8.80000000E+01  0.00000000E+00
  2.30000000E+02  8.60000000E+01  0.00000000E+00
  2.30000000E+02  8.40000000E+01  0.00000000E+00
  2.30000000E+02  8.20000000E+01  0.00000000E+00
  2.30000000E+02  8.00000000E+01  0.00000000E+00
  2.30000000E+02  7.80000000E+01  0.00000000E+00
  2.30000000E+02  7.60000000E+01  0.00000000E+00
  2.30000000E+02  7.40000000E+01  0.00000000E+00
  2.30000000E+02  7.20000000E+01  0.00000000E+00
  2.30000000E+02  7.00000000E+01  0.00000000E+00
  2.30000000E+02  6.80000000E+01  0.00000000E+00
  2.30000000E+02  6.60000000E+01  0.00000000E+00
  2.30000000E+02  6.40000000E+01  0.00000000E+00
  2.30000000E+02  6.20000000E+01  0.00000000E+00
  2.30000000E+02  6.00000000E+01  0.00000000E+00
  2.30000000E+02  5.80000000E+01  0.00000000E+00
  2.30000000E+02  5.60000000E+01  0.00000000E+00
  2.30000000E+02  5.40000000E+01  0.00000000E+00
  2.30000000E+02  5.20000000E+01  0.00000000E+00
  2.30000000E+02  5.00000000E+01  0.00000000E+00
  2.30000000E+02  4.80000000E+01  0.00000000E+00
  2.30000000E+02  4.60000000E+01  0.00000000E+00
  2.30000000E+02  4.40000000E+01  0.00000000E+00
  2.30000000E+02  4.20000000E+01  0.00000000E+00
  2.30000000E+02  4.00000000E+01  0.00000000E+00
  2.30000000E+02  3.80000000E+01  0.00000000E+00
  2.30000000E+02  3.60000000E+01  0.00000000E+00
  2.30000000E+02  3.40000000E+01  0.00000000E+00
  2.30000000E+02  3.20000000E+01  0.00000000E+00
  2.30000000E+02  3.00000000E+01  0.00000000E+00
  2.30000000E+02  2.80000000E+01  0.00000000E+00
  2.30000000E+02  2.60000000E+01  0.00000000E+00
  2.30000000E+02  2.40000000E+01  0.00000000E+00
  2.30000000E+02  2.20000000E+01  0.00000000E+00
  2.30000000E+02  2.00000000E+01  0.00000000E+00
  2.30000000E+02  1.80000000E+01  0.00000000E+00
  2.30000000E+02  1.60000000E+01  0.00000000E+00
  2.30000000E+02  1.40000000E+01  0.00000000E+00
  2.30000000E+02  1.20000000E+01  0.00000000E+00
  2.30000000E+02  1.00000000E+01  0.00000000E+00
  2.30000000E+02  8.00000000E+00  0.00000000E+00
  2.30000000E+02  6.00000000E+00  0.00000000E+00
  2.30000000E+02  4.00000000E+00  0.00000000E+00
  2.30000000E+02  2.00000000E+00  0.00000000E+00
  2.30000000E+02 -3.33066907E-14  0.00000000E+00
  2.40000000E+02  1.00000000E+02  0.00000000E+00
  2.40000000E+02  9.80000000E+01  0.00000000E+00
  2.40000000E+02  9.60000000E+01  0.00000000E+00
  2.40000000E+02  9.40000000E+01  0.00000000E+00
  2.40000000E+02  9.20000000E+01  0.00000000E+00
  2.40000000E+02  9.00000000E+01  0.00000000E+00
  2.40000000E+02  8.80000000E+01  0.00000000E+00
  2.40000000E+02  8.60000000E+01  0.00000000E+00
  2.40000000E+02  8.40000000E+01  0.00000000E+00
  2.40000000E+02  8.20000000E+01  0.00000000E+00
  2.40000000E+02  8.00000000E+01  0.00000000E+00
  2.40000000E+02  7.80000000E+01  0.00000000E+00
  2.40000000E+02  7.60000000E+01  0.00000000E+00
  2.40000000E+02  7.40000000E+01  0.00000000E+00
  2.40000000E+02  7.20000000E+01  0.00000000E+00
  2.40000000E+02  7.00000000E+01  0.00000000E+00
  2.40000000E+02  6.80000000E+01  0.00000000E+00
  2.40000000E+02  6.60000000E+01  0.00000000E+00
  2.40000000E+02  6.40000000E+01  0.00000000E+00
  2.40000000E+02  6.20000000E+01  0.00000000E+00
  2.40000000E+02  6.00000000E+01  0.00000000E+00
  2.40000000E+02  5.80000000E+01  0.00000000E+00
  2.40000000E+02  5.60000000E+01  0.00000000E+00
  2.40000000E+02  5.40000000E+01  0.00000000E+00
  2.40000000E+02  5.20000000E+01  0.00000000E+00
  2.40000000E+02  5.00000000E+01  0.00000000E+00
  2.40000000E+02  4.80000000E+01  0.00000000E+00
  2.40000000E+02  4.60000000E+01  0.00000000E+00
  2.40000000E+02  4.40000000E+01  0.00000000E+00
  2.40000000E+02  4.20000000E+01  0.00000000E+00
  2.40000000E+02  4.00000000E+01  0.00000000E+00
  2.40000000E+02  3.80000000E+01  0.00000000E+00
  2.40000000E+02  3.60000000E+01  0.00000000E+00
  2.40000000E+02  3.40000000E+01  0.00000000E+00
  2.40000000E+02  3.20000000E+01  0.00000000E+00
  2.40000000E+02  3.00000000E+01  0.00000000E+00
  2.40000000E+02  2.80000000E+01  0.00000000E+00
  2.40000000E+02  2.60000000E+01  0.00000000E+00
  2.40000000E+02  2.40000000E+01  0.00000000E+00
  2.40000000E+02  2.20000000E+01  0.00000000E+00
  2.40000000E+02  2.00000000E+01  0.00000000E+00
  2.40000000E+02  1.80000000E+01  0.00000000E+00
  2.40000000E+02  1.60000000E+01  0.00000000E+00
  2.40000000E+02  1.40000000E+01  0.00000000E+00
  2.40000000E+02  1.20000000E+01  0.00000000E+00
  2.40000000E+02  1.00000000E+01  0.00000000E+00
  2.40000000E+02  8.00000000E+00  0.00000000E+00
  2.40000000E+02  6.00000000E+00  0.00000000E+00
  2.40000000E+02  4.00000000E+00  0.00000000E+00
  2.40000000E+02  2.00000000E+00  0.00000000E+00
  2.40000000E+02 -3.33066907E-14  0.00000000E+00
  2.50000000E+02  1.00000000E+02  0.00000000E+00
  2.50000000E+02  9.80000000E+01  0.00000000E+00
  2.50000000E+02  9.60000000E+01  0.00000000E+00
  2.50000000E+02  9.40000000E+01  0.00000000E+00
  2.50000000E+02  9.20000000E+01  0.00000000E+00
  2.50000000E+02  9.00000000E+01  0.00000000E+00
  2.50000000E+02  8.80000000E+01  0.00000000E+00
  2.50000000E+02  8.60000000E+01  0.00000000E+00
  2.50000000E+02  8.40000000E+01  0.00000000E+00
  2.50000000E+02  8.20000000E+01  0.00000000E+00
  2.50000000E+02  8.00000000E+01  0.00000000E+00
  2.50000000E+02  7.80000000E+01  0.00000000E+00
  2.50000000E+02  7.60000000E+01  0.00000000E+00
  2.50000000E+02  7.40000000E+01  0.00000000E+00
  2.50000000E+02  7.20000000E+01  0.00000000E+00
  2.50000000E+02  7.00000000E+01  0.00000000E+00
  2.50000000E+02  6.80000000E+01  0.00000000E+00
  2.50000000E+02  6.60000000E+01  0.00000000E+00
  2.50000000E+02  6.40000000E+01  0.00000000E+00
  2.50000000E+02  6.20000000E+01  0.00000000E+00
  2.50000000E+02  6.00000000E+01  0.00000000E+00
  2.50000000E+02  5.80000000E+01  0.00000000E+00
  2.50000000E+02  5.60000000E+01  0.00000000E+00
  2.50000000E+02  5.40000000E+01  0.00000000E+00
  2.50000000E+02  5.20000000E+01  0.00000000E+00
  2.50000000E+02  5.00000000E+01  0.00000000E+00
  2.50000000E+02  4.80000000E+01  0.00000000E+00
  2.50000000E+02  4.60000000E+01  0.00000000E+00
  2.50000000E+02  4.40000000E+01  0.00000000E+00
  2.50000000E+02  4.20000000E+01  0.00000000E+00
  2.50000000E+02  4.00000000E+01  0.00000000E+00
  2.50000000E+02  3.80000000E+01  0.00000000E+00
  2.50000000E+02  3.60000000E+01  0.00000000E+00
  2.50000000E+02  3.40000000E+01  0.00000000E+00
  2.50000000E+02  3.20000000E+01  0.00000000E+00
  2.50000000E+02  3.00000000E+01  0.00000000E+00
  2.50000000E+02  2.80000000E+01  0.00000000E+00
  2.50000000E+02  2.60000000E+01  0.00000000E+00
  2.50000000E+02  2.40000000E+01  0.00000000E+00
  2.50000000E+02  2.20000000E+01  0.00000000E+00
  2.50000000E+02  2.00000000E+01  0.00000000E+00
  2.50000000E+02  1.80000000E+01  0.00000000E+00
  2.50000000E+02  1.60000000E+01  0.00000000E+00
  2.50000000E+02  1.40000000E+01  0.00000000E+00
  2.50000000E+02  1.20000000E+01  0.00000000E+00
  2.50000000E+02  1.00000000E+01  0.00000000E+00
  2.50000000E+02  8.00000000E+00  0.00000000E+00
  2.50000000E+02  6.00000000E+00  0.00000000E+00
  2.50000000E+02  4.00000000E+00  0.00000000E+00
  2.50000000E+02  2.00000000E+00  0.00000000E+00
  2.50000000E+02 -3.33066907E-14  0.00000000E+00
  2.60000000E+02  1.00000000E+02  0.00000000E+00
  2.60000000E+02  9.80000000E+01  0.00000000E+00
  2.60000000E+02  9.60000000E+01  0.00000000E+00
  2.60000000E+02  9.40000000E+01  0.00000000E+00
  2.60000000E+02  9.20000000E+01  0.00000000E+00
  2.60000000E+02  9.00000000E+01  0.00000000E+00
  2.60000000E+02  8.80000000E+01  0.00000000E+00
  2.60000000E+02  8.60000000E+01  0.00000000E+00
  2.60000000E+02  8.40000000E+01  0.00000000E+00
  2.60000000E+02  8.20000000E+01  0.00000000E+00
  2.60000000E+02  8.00000000E+01  0.00000000E+00
  2.60000000E+02  7.80000000E+01  0.00000000E+00
  2.60000000E+02  7.60000000E+01  0.00000000E+00
  2.60000000E+02  7.40000000E+01  0.00000000E+00
  2.60000000E+02  7.20000000E+01  0.00000000E+00
  2.60000000E+02  7.00000000E+01  0.00000000E+00
  2.60000000E+02  6.80000000E+01  0.00000000E+00
  2.60000000E+02  6.60000000E+01  0.00000000E+00
  2.60000000E+02  6.40000000E+01  0.00000000E+00
  2.60000000E+02  6.20000000E+01  0.00000000E+00
  2.60000000E+02  6.00000000E+01  0.00000000E+00
  2.60000000E+02  5.80000000E+01  0.00000000E+00
  2.60000000E+02  5.60000000E+01  0.00000000E+00
  2.60000000E+02  5.40000000E+01  0.00000000E+00
  2.60000000E+02  5.20000000E+01  0.00000000E+00
  2.60000000E+02  5.00000000E+01  0.00000000E+00
  2.60000000E+02  4.80000000E+01  0.00000000E+00
  2.60000000E+02  4.60000000E+01  0.00000000E+00
  2.60000000E+02  4.40000000E+01  0.00000000E+00
  2.60000000E+02  4.20000000E+01  0.00000000E+00
  2.60000000E+02  4.00000000E+01  0.00000000E+00
  2.60000000E+02  3.80000000E+01  0.00000000E+00
  2.60000000E+02  3.60000000E+01  0.00000000E+00
  2.60000000E+02  3.40000000E+01  0.00000000E+00
  2.60000000E+02  3.20000000E+01  0.00000000E+00
  2.60000000E+02  3.00000000E+01  0.00000000E+00
  2.60000000E+02  2.80000000E+01  0.00000000E+00
  2.60000000E+02  2.60000000E+01  0.00000000E+00
  2.60000000E+02  2.40000000E+01  0.00000000E+00
  2.60000000E+02  2.20000000E+01  0.00000000E+00
  2.60000000E+02  2.00000000E+01  0.00000000E+00
  2.60000000E+02  1.80000000E+01  0.00000000E+00
  2.60000000E+02  1.60000000E+01  0.00000000E+00
  2.60000000E+02  1.40000000E+01  0.00000000E+00
  2.60000000E+02  1.20000000E+01  0.00000000E+00
  2.60000000E+02  1.00000000E+01  0.00000000E+00
  2.60000000E+02  8.00000000E+00  0.00000000E+00
  2.60000000E+02  6.00000000E+00  0.00000000E+00
  2.60000000E+02  4.00000000E+00  0.00000000E+00
  2.60000000E+02  2.00000000E+00  0.00000000E+00
  2.60000000E+02 -3.33066907E-14  0.00000000E+00
  2.70000000E+02  1.00000000E+02  0.00000000E+00
  2.70000000E+02  9.80000000E+01  0.00000000E+00
  2.70000000E+02  9.60000000E+01  0.00000000E+00
  2.70000000E+02  9.40000000E+01  0.00000000E+00
  2.70000000E+02  9.20000000E+01  0.00000000E+00
  2.70000000E+02  9.00000000E+01  0.00000000E+00
  2.70000000E+02  8.80000000E+01  0.00000000E+00
  2.70000000E+02  8.60000000E+01  0.00000000E+00
  2.70000000E+02  8.40000000E+01  0.00000000E+00
  2.70000000E+02  8.20000000E+01  0.00000000E+00
  2.70000000E+02  8.00000000E+01  0.00000000E+00
  2.70000000E+02  7.80000000E+01  0.00000000E+00
  2.70000000E+02  7.60000000E+01  0.00000000E+00
  2.70000000E+02  7.40000000E+01  0.00000000E+00
  2.70000000E+02  7.20000000E+01  0.00000000E+00
  2.70000000E+02  7.00000000E+01  0.00000000E+00
  2.70000000E+02  6.80000000E+01  0.00000000E+00
  2.70000000E+02  6.60000000E+01  0.00000000E+00
  2.70000000E+02  6.40000000E+01  0.00000000E+00
  2.70000000E+02  6.20000000E+01  0.00000000E+00
  2.70000000E+02  6.00000000E+01  0.00000000E+00
  2.70000000E+02  5.80000000E+01  0.00000000E+00
  2.70000000E+02  5.60000000E+01  0.00000000E+00
  2.70000000E+02  5.40000000E+01  0.00000000E+00
  2.70000000E+02  5.20000000E+01  0.00000000E+00
  2.70000000E+02  5.00000000E+01  0.00000000E+00
  2.70000000E+02  4.80000000E+01  0.00000000E+00
  2.70000000E+02  4.60000000E+01  0.00000000E+00
  2.70000000E+02  4.40000000E+01  0.00000000E+00
  2.70000000E+02  4.20000000E+01  0.00000000E+00
  2.70000000E+02  4.00000000E+01  0.00000000E+00
  2.70000000E+02  3.80000000E+01  0.00000000E+00
  2.70000000E+02  3.60000000E+01  0.00000000E+00
  2.70000000E+02  3.40000000E+01  0.00000000E+00
  2.70000000E+02  3.20000000E+01  0.00000000E+00
  2.70000000E+02  3.00000000E+01  0.00000000E+00
  2.70000000E+02  2.80000000E+01  0.00000000E+00
  2.70000000E+02  2.60000000E+01  0.00000000E+00
  2.70000000E+02  2.40000000E+01  0.00000000E+00
  2.70000000E+02  2.20000000E+01  0.00000000E+00
  2.70000000E+02  2.00000000E+01  0.00000000E+00
  2.70000000E+02  1.80000000E+01  0.00000000E+00
  2.70000000E+02  1.60000000E+01  0.00000000E+00
  2.70000000E+02  1.40000000E+01  0.00000000E+00
  2.70000000E+02  1.20000000E+01  0.00000000E+00
  2.70000000E+02  1.00000000E+01  0.00000000E+00
  2.70000000E+02  8.00000000E+00  0.00000000E+00
  2.70000000E+02  6.00000000E+00  0.00000000E+00
  2.70000000E+02  4.00000000E+00  0.00000000E+00
  2.70000000E+02  2.00000000E+00  0.00000000E+00
  2.70000000E+02 -3.33066907E-14  0.00000000E+00
  2.80000000E+02  1.00000000E+02  0.00000000E+00
  2.80000000E+02  9.80000000E+01  0.00000000E+00
  2.80000000E+02  9.60000000E+01  0.00000000E+00
  2.80000000E+02  9.40000000E+01  0.00000000E+00
  2.80000000E+02  9.20000000E+01  0.00000000E+00
  2.80000000E+02  9.00000000E+01  0.00000000E+00
  2.80000000E+02  8.80000000E+01  0.00000000E+00
  2.80000000E+02  8.60000000E+01  0.00000000E+00
  2.80000000E+02  8.40000000E+01  0.00000000E+00
  2.80000000E+02  8.20000000E+01  0.00000000E+00
  2.80000000E+02  8.00000000E+01  0.00000000E+00
  2.80000000E+02  7.80000000E+01  0.00000000E+00
  2.80000000E+02  7.60000000E+01  0.00000000E+00
  2.80000000E+02  7.40000000E+01  0.00000000E+00
  2.80000000E+02  7.20000000E+01  0.00000000E+00
  2.80000000E+02  7.00000000E+01  0.00000000E+00
  2.80000000E+02  6.80000000E+01  0.00000000E+00
  2.80000000E+02  6.60000000E+01  0.00000000E+00
  2.80000000E+02  6.40000000E+01  0.00000000E+00
  2.80000000E+02  6.20000000E+01  0.00000000E+00
  2.80000000E+02  6.00000000E+01  0.00000000E+00
  2.80000000E+02  5.80000000E+01  0.00000000E+00
  2.80000000E+02  5.60000000E+01  0.00000000E+00
  2.80000000E+02  5.40000000E+01  0.00000000E+00
  2.80000000E+02  5.20000000E+01  0.00000000E+00
  2.80000000E+02  5.00000000E+01  0.00000000E+00
  2.80000000E+02  4.80000000E+01  0.00000000E+00
  2.80000000E+02  4.60000000E+01  0.00000000E+00
  2.80000000E+02  4.40000000E+01  0.00000000E+00
  2.80000000E+02  4.20000000E+01  0.00000000E+00
  2.80000000E+02  4.00000000E+01  0.00000000E+00
  2.80000000E+02  3.80000000E+01  0.00000000E+00
  2.80000000E+02  3.60000000E+01  0.00000000E+00
  2.80000000E+02  3.40000000E+01  0.00000000E+00
  2.80000000E+02  3.20000000E+01  0.00000000E+00
  2.80000000E+02  3.00000000E+01  0.00000000E+00
  2.80000000E+02  2.80000000E+01  0.00000000E+00
  2.80000000E+02  2.60000000E+01  0.00000000E+00
  2.80000000E+02  2.40000000E+01  0.00000000E+00
  2.80000000E+02  2.20000000E+01  0.00000000E+00
  2.80000000E+02  2.00000000E+01  0.00000000E+00
  2.80000000E+02  1.80000000E+01  0.00000000E+00
  2.80000000E+02  1.60000000E+01  0.00000000E+00
  2.80000000E+02  1.40000000E+01  0.00000000E+00
  2.80000000E+02  1.20000000E+01  0.00000000E+00
  2.80000000E+02  1.00000000E+01  0.00000000E+00
  2.80000000E+02  8.00000000E+00  0.00000000E+00
  2.80000000E+02  6.00000000E+00  0.00000000E+00
  2.80000000E+02  4.00000000E+00  0.00000000E+00
  2.80000000E+02  2.00000000E+00  0.00000000E+00
  2.80000000E+02 -3.33066907E-14  0.00000000E+00
  2.90000000E+02  1.00000000E+02  0.00000000E+00
  2.90000000E+02  9.80000000E+01  0.00000000E+00
  2.90000000E+02  9.60000000E+01  0.00000000E+00
  2.90000000E+02  9.40000000E+01  0.00000000E+00
  2.90000000E+02  9.20000000E+01  0.00000000E+00
  2.90000000E+02  9.00000000E+01  0.00000000E+00
  2.90000000E+02  8.80000000E+01  0.00000000E+00
  2.90000000E+02  8.60000000E+01  0.00000000E+00
  2.90000000E+02  8.40000000E+01  0.00000000E+00
  2.90000000E+02  8.20000000E+01  0.00000000E+00
  2.90000000E+02  8.00000000E+01  0.00000000E+00
  2.90000000E+02  7.80000000E+01  0.00000000E+00
  2.90000000E+02  7.60000000E+01  0.00000000E+00
  2.90000000E+02  7.40000000E+01  0.00000000E+00
  2.90000000E+02  7.20000000E+01  0.00000000E+00
  2.90000000E+02  7.00000000E+01  0.00000000E+00
  2.90000000E+02  6.80000000E+01  0.00000000E+00
  2.90000000E+02  6.60000000E+01  0.00000000E+00
  2.90000000E+02  6.40000000E+01  0.00000000E+00
  2.90000000E+02  6.20000000E+01  0.00000000E+00
  2.90000000E+02  6.00000000E+01  0.00000000E+00
  2.90000000E+02  5.80000000E+01  0.00000000E+00
  2.90000000E+02  5.60000000E+01  0.00000000E+00
  2.90000000E+02  5.40000000E+01  0.00000000E+00
  2.90000000E+02  5.20000000E+01  0.00000000E+00
  2.90000000E+02  5.00000000E+01  0.00000000E+00
  2.90000000E+02  4.80000000E+01  0.00000000E+00
  2.90000000E+02  4.60000000E+01  0.00000000E+00
  2.90000000E+02  4.40000000E+01  0.00000000E+00
  2.90000000E+02  4.20000000E+01  0.00000000E+00
  2.90000000E+02  4.00000000E+01  0.00000000E+00
  2.90000000E+02  3.80000000E+01  0.00000000E+00
  2.90000000E+02  3.60000000E+01  0.00000000E+00
  2.90000000E+02  3.40000000E+01  0.00000000E+00
  2.90000000E+02  3.20000000E+01  0.00000000E+00
  2.90000000E+02  3.00000000E+01  0.00000000E+00
  2.90000000E+02  2.80000000E+01  0.00000000E+00
  2.90000000E+02  2.60000000E+01  0.00000000E+00
  2.90000000E+02  2.40000000E+01  0.00000000E+00
  2.90000000E+02  2.20000000E+01  0.00000000E+00
  2.90000000E+02  2.00000000E+01  0.00000000E+00
  2.90000000E+02  1.80000000E+01  0.00000000E+00
  2.90000000E+02  1.60000000E+01  0.00000000E+00
  2.90000000E+02  1.40000000E+01  0.00000000E+00
  2.90000000E+02  1.20000000E+01  0.00000000E+00
  2.90000000E+02  1.00000000E+01  0.00000000E+00
  2.90000000E+02  8.00000000E+00  0.00000000E+00
  2.90000000E+02  6.00000000E+00  0.00000000E+00
  2.90000000E+02  4.00000000E+00  0.00000000E+00
  2.90000000E+02  2.00000000E+00  0.00000000E+00
  2.90000000E+02 -3.33066907E-14  0.00000000E+00
  3.00000000E+02  1.00000000E+02  0.00000000E+00
  3.00000000E+02  9.80000000E+01  0.00000000E+00
  3.00000000E+02  9.60000000E+01  0.00000000E+00
  3.00000000E+02  9.40000000E+01  0.00000000E+00
  3.00000000E+02  9.20000000E+01  0.00000000E+00
  3.00000000E+02  9.00000000E+01  0.00000000E+00
  3.00000000E+02  8.80000000E+01  0.00000000E+00
  3.00000000E+02  8.60000000E+01  0.00000000E+00
  3.00000000E+02  8.40000000E+01  0.00000000E+00
  3.00000000E+02  8.20000000E+01  0.00000000E+00
  3.00000000E+02  8.00000000E+01  0.00000000E+00
  3.00000000E+02  7.80000000E+01  0.00000000E+00
  3.00000000E+02  7.60000000E+01  0.00000000E+00
  3.00000000E+02  7.40000000E+01  0.00000000E+00
  3.00000000E+02  7.20000000E+01  0.00000000E+00
  3.00000000E+02  7.00000000E+01  0.00000000E+00
  3.00000000E+02  6.80000000E+01  0.00000000E+00
  3.00000000E+02  6.60000000E+01  0.00000000E+00
  3.00000000E+02  6.40000000E+01  0.00000000E+00
  3.00000000E+02  6.20000000E+01  0.00000000E+00
  3.00000000E+02  6.00000000E+01  0.00000000E+00
  3.00000000E+02  5.80000000E+01  0.00000000E+00
  3.00000000E+02  5.60000000E+01  0.00000000E+00
  3.00000000E+02  5.40000000E+01  0.00000000E+00
  3.00000000E+02  5.20000000E+01  0.00000000E+00
  3.00000000E+02  5.00000000E+01  0.00000000E+00
  3.00000000E+02  4.80000000E+01  0.00000000E+00
  3.00000000E+02  4.60000000E+01  0.00000000E+00
  3.00000000E+02  4.40000000E+01  0.00000000E+00
  3.00000000E+02  4.20000000E+01  0.00000000E+00
  3.00000000E+02  4.00000000E+01  0.00000000E+00
  3.00000000E+02  3.80000000E+01  0.00000000E+00
  3.00000000E+02  3.60000000E+01  0.00000000E+00
  3.00000000E+02  3.40000000E+01  0.00000000E+00
  3.00000000E+02  3.20000000E+01  0.00000000E+00
  3.00000000E+02  3.00000000E+01  0.00000000E+00
  3.00000000E+02  2.80000000E+01  0.00000000E+00
  3.00000000E+02  2.60000000E+01  0.00000000E+00
  3.00000000E+02  2.40000000E+01  0.00000000E+00
  3.00000000E+02  2.20000000E+01  0.00000000E+00
  3.00000000E+02  2.00000000E+01  0.00000000E+00
  3.00000000E+02  1.80000000E+01  0.00000000E+00
  3.00000000E+02  1.60000000E+01  0.00000000E+00
  3.00000000E+02  1.40000000E+01  0.00000000E+00
  3.00000000E+02  1.20000000E+01  0.00000000E+00
  3.00000000E+02  1.00000000E+01  0.00000000E+00
  3.00000000E+02  8.00000000E+00  0.00000000E+00
  3.00000000E+02  6.00000000E+00  0.00000000E+00
  3.00000000E+02  4.00000000E+00  0.00000000E+00
  3.00000000E+02  2.00000000E+00  0.00000000E+00
  3.00000000E+02 -3.33066907E-14  0.00000000E+00
  3.10000000E+02  1.00000000E+02  0.00000000E+00
  3.10000000E+02  9.80000000E+01  0.00000000E+00
  3.10000000E+02  9.60000000E+01  0.00000000E+00
  3.10000000E+02  9.40000000E+01  0.00000000E+00
  3.10000000E+02  9.20000000E+01  0.00000000E+00
  3.10000000E+02  9.00000000E+01  0.00000000E+00
  3.10000000E+02  8.80000000E+01  0.00000000E+00
  3.10000000E+02  8.60000000E+01  0.00000000E+00
  3.10000000E+02  8.40000000E+01  0.00000000E+00
  3.10000000E+02  8.20000000E+01  0.00000000E+00
  3.10000000E+02  8.00000000E+01  0.00000000E+00
  3.10000000E+02  7.80000000E+01  0.00000000E+00
  3.10000000E+02  7.60000000E+01  0.00000000E+00
  3.10000000E+02  7.40000000E+01  0.00000000E+00
  3.10000000E+02  7.20000000E+01  0.00000000E+00
  3.10000000E+02  7.00000000E+01  0.00000000E+00
  3.10000000E+02  6.80000000E+01  0.00000000E+00
  3.10000000E+02  6.60000000E+01  0.00000000E+00
  3.10000000E+02  6.40000000E+01  0.00000000E+00
  3.10000000E+02  6.20000000E+01  0.00000000E+00
  3.10000000E+02  6.00000000E+01  0.00000000E+00
  3.10000000E+02  5.80000000E+01  0.00000000E+00
  3.10000000E+02  5.60000000E+01  0.00000000E+00
  3.10000000E+02  5.40000000E+01  0.00000000E+00
  3.10000000E+02  5.20000000E+01  0.00000000E+00
  3.10000000E+02  5.00000000E+01  0.00000000E+00
  3.10000000E+02  4.80000000E+01  0.00000000E+00
  3.10000000E+02  4.60000000E+01  0.00000000E+00
  3.10000000E+02  4.40000000E+01  0.00000000E+00
  3.10000000E+02  4.20000000E+01  0.00000000E+00
  3.10000000E+02  4.00000000E+01  0.00000000E+00
  3.10000000E+02  3.80000000E+01  0.00000000E+00
  3.10000000E+02  3.60000000E+01  0.00000000E+00
  3.10000000E+02  3.40000000E+01  0.00000000E+00
  3.10000000E+02  3.20000000E+01  0.00000000E+00
  3.10000000E+02  3.00000000E+01  0.00000000E+00
  3.10000000E+02  2.80000000E+01  0.00000000E+00
  3.10000000E+02  2.60000000E+01  0.00000000E+00
  3.10000000E+02  2.40000000E+01  0.00000000E+00
  3.10000000E+02  2.20000000E+01  0.00000000E+00
  3.10000000E+02  2.00000000E+01  0.00000000E+00
  3.10000000E+02  1.80000000E+01  0.00000000E+00
  3.10000000E+02  1.60000000E+01  0.00000000E+00
  3.10000000E+02  1.40000000E+01  0.00000000E+00
  3.10000000E+02  1.20000000E+01  0.00000000E+00
  3.10000000E+02  1.00000000E+01  0.00000000E+00
  3.10000000E+02  8.00000000E+00  0.00000000E+00
  3.10000000E+02  6.00000000E+00  0.00000000E+00
  3.10000000E+02  4.00000000E+00  0.00000000E+00
  3.10000000E+02  2.00000000E+00  0.00000000E+00
  3.10000000E+02 -3.33066907E-14  0.00000000E+00
  3.20000000E+02  1.00000000E+02  0.00000000E+00
  3.20000000E+02  9.80000000E+01  0.00000000E+00
  3.20000000E+02  9.60000000E+01  0.00000000E+00
  3.20000000E+02  9.40000000E+01  0.00000000E+00
  3.20000000E+02  9.20000000E+01  0.00000000E+00
  3.20000000E+02  9.00000000E+01  0.00000000E+00
  3.20000000E+02  8.80000000E+01  0.00000000E+00
  3.20000000E+02  8.60000000E+01  0.00000000E+00
  3.20000000E+02  8.40000000E+01  0.00000000E+00
  3.20000000E+02  8.20000000E+01  0.00000000E+00
  3.20000000E+02  8.00000000E+01  0.00000000E+00
  3.20000000E+02  7.80000000E+01  0.00000000E+00
  3.20000000E+02  7.60000000E+01  0.00000000E+00
  3.20000000E+02  7.40000000E+01  0.00000000E+00
  3.20000000E+02  7.20000000E+01  0.00000000E+00
  3.20000000E+02  7.00000000E+01  0.00000000E+00
  3.20000000E+02  6.80000000E+01  0.00000000E+00
  3.20000000E+02  6.60000000E+01  0.00000000E+00
  3.20000000E+02  6.40000000E+01  0.00000000E+00
  3.20000000E+02  6.20000000E+01  0.00000000E+00
  3.20000000E+02  6.00000000E+01  0.00000000E+00
  3.20000000E+02  5.80000000E+01  0.00000000E+00
  3.20000000E+02  5.60000000E+01  0.00000000E+00
  3.20000000E+02  5.40000000E+01  0.00000000E+00
  3.20000000E+02  5.20000000E+01  0.00000000E+00
  3.20000000E+02  5.00000000E+01  0.00000000E+00
  3.20000000E+02  4.80000000E+01  0.00000000E+00
  3.20000000E+02  4.60000000E+01  0.00000000E+00
  3.20000000E+02  4.40000000E+01  0.00000000E+00
  3.20000000E+02  4.20000000E+01  0.00000000E+00
  3.20000000E+02  4.00000000E+01  0.00000000E+00
  3.20000000E+02  3.80000000E+01  0.00000000E+00
  3.20000000E+02  3.60000000E+01  0.00000000E+00
  3.20000000E+02  3.40000000E+01  0.00000000E+00
  3.20000000E+02  3.20000000E+01  0.00000000E+00
  3.20000000E+02  3.00000000E+01  0.00000000E+00
  3.20000000E+02  2.80000000E+01  0.00000000E+00
  3.20000000E+02  2.60000000E+01  0.00000000E+00
  3.20000000E+02  2.40000000E+01  0.00000000E+00
  3.20000000E+02  2.20000000E+01  0.00000000E+00
  3.20000000E+02  2.00000000E+01  0.00000000E+00
  3.20000000E+02  1.80000000E+01  0.00000000E+00
  3.20000000E+02  1.60000000E+01  0.00000000E+00
  3.20000000E+02  1.40000000E+01  0.00000000E+00
  3.20000000E+02  1.20000000E+01  0.00000000E+00
  3.20000000E+02  1.00000000E+01  0.00000000E+00
  3.20000000E+02  8.00000000E+00  0.00000000E+00
  3.20000000E+02  6.00000000E+00  0.00000000E+00
  3.20000000E+02  4.00000000E+00  0.00000000E+00
  3.20000000E+02  2.00000000E+00  0.00000000E+00
  3.20000000E+02 -3.33066907E-14  0.00000000E+00
  3.30000000E+02  1.00000000E+02  0.00000000E+00
  3.30000000E+02  9.80000000E+01  0.00000000E+00
  3.30000000E+02  9.60000000E+01  0.00000000E+00
  3.30000000E+02  9.40000000E+01  0.00000000E+00
  3.30000000E+02  9.20000000E+01  0.00000000E+00
  3.30000000E+02  9.00000000E+01  0.00000000E+00
  3.30000000E+02  8.80000000E+01  0.00000000E+00
  3.30000000E+02  8.60000000E+01  0.00000000E+00
  3.30000000E+02  8.40000000E+01  0.00000000E+00
  3.30000000E+02  8.20000000E+01  0.00000000E+00
  3.30000000E+02  8.00000000E+01  0.00000000E+00
  3.30000000E+02  7.80000000E+01  0.00000000E+00
  3.30000000E+02  7.60000000E+01  0.00000000E+00
  3.30000000E+02  7.40000000E+01  0.00000000E+00
  3.30000000E+02  7.20000000E+01  0.00000000E+00
  3.30000000E+02  7.00000000E+01  0.00000000E+00
  3.30000000E+02  6.80000000E+01  0.00000000E+00
  3.30000000E+02  6.60000000E+01  0.00000000E+00
  3.30000000E+02  6.40000000E+01  0.00000000E+00
  3.30000000E+02  6.20000000E+01  0.00000000E+00
  3.30000000E+02  6.00000000E+01  0.00000000E+00
  3.30000000E+02  5.80000000E+01  0.00000000E+00
  3.30000000E+02  5.60000000E+01  0.00000000E+00
  3.30000000E+02  5.40000000E+01  0.00000000E+00
  3.30000000E+02  5.20000000E+01  0.00000000E+00
  3.30000000E+02  5.00000000E+01  0.00000000E+00
  3.30000000E+02  4.80000000E+01  0.00000000E+00
  3.30000000E+02  4.60000000E+01  0.00000000E+00
  3.30000000E+02  4.40000000E+01  0.00000000E+00
  3.30000000E+02  4.20000000E+01  0.00000000E+00
  3.30000000E+02  4.00000000E+01  0.00000000E+00
  3.30000000E+02  3.80000000E+01  0.00000000E+00
  3.30000000E+02  3.60000000E+01  0.00000000E+00
  3.30000000E+02  3.40000000E+01  0.00000000E+00
  3.30000000E+02  3.20000000E+01  0.00000000E+00
  3.30000000E+02  3.00000000E+01  0.00000000E+00
  3.30000000E+02  2.80000000E+01  0.00000000E+00
  3.30000000E+02  2.60000000E+01  0.00000000E+00
  3.30000000E+02  2.40000000E+01  0.00000000E+00
  3.30000000E+02  2.20000000E+01  0.00000000E+00
  3.30000000E+02  2.00000000E+01  0.00000000E+00
  3.30000000E+02  1.80000000E+01  0.00000000E+00
  3.30000000E+02  1.60000000E+01  0.00000000E+00
  3.30000000E+02  1.40000000E+01  0.00000000E+00
  3.30000000E+02  1.20000000E+01  0.00000000E+00
  3.30000000E+02  1.00000000E+01  0.00000000E+00
  3.30000000E+02  8.00000000E+00  0.00000000E+00
  3.30000000E+02  6.00000000E+00  0.00000000E+00
  3.30000000E+02  4.00000000E+00  0.00000000E+00
  3.30000000E+02  2.00000000E+00  0.00000000E+00
  3.30000000E+02 -3.33066907E-14  0.00000000E+00
  3.40000000E+02  1.00000000E+02  0.00000000E+00
  3.40000000E+02  9.80000000E+01  0.00000000E+00
  3.40000000E+02  9.60000000E+01  0.00000000E+00
  3.40000000E+02  9.40000000E+01  0.00000000E+00
  3.40000000E+02  9.20000000E+01  0.00000000E+00
  3.40000000E+02  9.00000000E+01  0.00000000E+00
  3.40000000E+02  8.80000000E+01  0.00000000E+00
  3.40000000E+02  8.60000000E+01  0.00000000E+00
  3.40000000E+02  8.40000000E+01  0.00000000E+00
  3.40000000E+02  8.20000000E+01  0.00000000E+00
  3.40000000E+02  8.00000000E+01  0.00000000E+00
  3.40000000E+02  7.80000000E+01  0.00000000E+00
  3.40000000E+02  7.60000000E+01  0.00000000E+00
  3.40000000E+02  7.40000000E+01  0.00000000E+00
  3.40000000E+02  7.20000000E+01  0.00000000E+00
  3.40000000E+02  7.00000000E+01  0.00000000E+00
  3.40000000E+02  6.80000000E+01  0.00000000E+00
  3.40000000E+02  6.60000000E+01  0.00000000E+00
  3.40000000E+02  6.40000000E+01  0.00000000E+00
  3.40000000E+02  6.20000000E+01  0.00000000E+00
  3.40000000E+02  6.00000000E+01  0.00000000E+00
  3.40000000E+02  5.80000000E+01  0.00000000E+00
  3.40000000E+02  5.60000000E+01  0.00000000E+00
  3.40000000E+02  5.40000000E+01  0.00000000E+00
  3.40000000E+02  5.20000000E+01  0.00000000E+00
  3.40000000E+02  5.00000000E+01  0.00000000E+00
  3.40000000E+02  4.80000000E+01  0.00000000E+00
  3.40000000E+02  4.60000000E+01  0.00000000E+00
  3.40000000E+02  4.40000000E+01  0.00000000E+00
  3.40000000E+02  4.20000000E+01  0.00000000E+00
  3.40000000E+02  4.00000000E+01  0.00000000E+00
  3.40000000E+02  3.80000000E+01  0.00000000E+00
  3.40000000E+02  3.60000000E+01  0.00000000E+00
  3.40000000E+02  3.40000000E+01  0.00000000E+00
  3.40000000E+02  3.20000000E+01  0.00000000E+00
  3.40000000E+02  3.00000000E+01  0.00000000E+00
  3.40000000E+02  2.80000000E+01  0.00000000E+00
  3.40000000E+02  2.60000000E+01  0.00000000E+00
  3.40000000E+02  2.40000000E+01  0.00000000E+00
  3.40000000E+02  2.20000000E+01  0.00000000E+00
  3.40000000E+02  2.00000000E+01  0.00000000E+00
  3.40000000E+02  1.80000000E+01  0.00000000E+00
  3.40000000E+02  1.60000000E+01  0.00000000E+00
  3.40000000E+02  1.40000000E+01  0.00000000E+00
  3.40000000E+02  1.20000000E+01  0.00000000E+00
  3.40000000E+02  1.00000000E+01  0.00000000E+00
  3.40000000E+02  8.00000000E+00  0.00000000E+00
  3.40000000E+02  6.00000000E+00  0.00000000E+00
  3.40000000E+02  4.00000000E+00  0.00000000E+00
  3.40000000E+02  2.00000000E+00  0.00000000E+00
  3.40000000E+02 -3.33066907E-14  0.00000000E+00
  3.50000000E+02  1.00000000E+02  0.00000000E+00
  3.50000000E+02  9.80000000E+01  0.00000000E+00
  3.50000000E+02  9.60000000E+01  0.00000000E+00
  3.50000000E+02  9.40000000E+01  0.00000000E+00
  3.50000000E+02  9.20000000E+01  0.00000000E+00
  3.50000000E+02  9.00000000E+01  0.00000000E+00
  3.50000000E+02  8.80000000E+01  0.00000000E+00
  3.50000000E+02  8.60000000E+01  0.00000000E+00
  3.50000000E+02  8.40000000E+01  0.00000000E+00
  3.50000000E+02  8.20000000E+01  0.00000000E+00
  3.50000000E+02  8.00000000E+01  0.00000000E+00
  3.50000000E+02  7.80000000E+01  0.00000000E+00
  3.50000000E+02  7.60000000E+01  0.00000000E+00
  3.50000000E+02  7.40000000E+01  0.00000000E+00
  3.50000000E+02  7.20000000E+01  0.00000000E+00
  3.50000000E+02  7.00000000E+01  0.00000000E+00
  3.50000000E+02  6.80000000E+01  0.00000000E+00
  3.50000000E+02  6.60000000E+01  0.00000000E+00
  3.50000000E+02  6.40000000E+01  0.00000000E+00
  3.50000000E+02  6.20000000E+01  0.00000000E+00
  3.50000000E+02  6.00000000E+01  0.00000000E+00
  3.50000000E+02  5.80000000E+01  0.00000000E+00
  3.50000000E+02  5.60000000E+01  0.00000000E+00
  3.50000000E+02  5.40000000E+01  0.00000000E+00
  3.50000000E+02  5.20000000E+01  0.00000000E+00
  3.50000000E+02  5.00000000E+01  0.00000000E+00
  3.50000000E+02  4.80000000E+01  0.00000000E+00
  3.50000000E+02  4.60000000E+01  0.00000000E+00
  3.50000000E+02  4.40000000E+01  0.00000000E+00
  3.50000000E+02  4.20000000E+01  0.00000000E+00
  3.50000000E+02  4.00000000E+01  0.00000000E+00
  3.50000000E+02  3.80000000E+01  0.00000000E+00
  3.50000000E+02  3.60000000E+01  0.00000000E+00
  3.50000000E+02  3.40000000E+01  0.00000000E+00
  3.50000000E+02  3.20000000E+01  0.00000000E+00
  3.50000000E+02  3.00000000E+01  0.00000000E+00
  3.50000000E+02  2.80000000E+01  0.00000000E+00
  3.50000000E+02  2.60000000E+01  0.00000000E+00
  3.50000000E+02  2.40000000E+01  0.00000000E+00
  3.50000000E+02  2.20000000E+01  0.00000000E+00
  3.50000000E+02  2.00000000E+01  0.00000000E+00
  3.50000000E+02  1.80000000E+01  0.00000000E+00
  3.50000000E+02  1.60000000E+01  0.00000000E+00
  3.50000000E+02  1.40000000E+01  0.00000000E+00
  3.50000000E+02  1.20000000E+01  0.00000000E+00
  3.50000000E+02  1.00000000E+01  0.00000000E+00
  3.50000000E+02  8.00000000E+00  0.00000000E+00
  3.50000000E+02  6.00000000E+00  0.00000000E+00
  3.50000000E+02  4.00000000E+00  0.00000000E+00
  3.50000000E+02  2.00000000E+00  0.00000000E+00
  3.50000000E+02 -3.33066907E-14  0.00000000E+00
  3.60000000E+02  1.00000000E+02  0.00000000E+00
  3.60000000E+02  9.80000000E+01  0.00000000E+00
  3.60000000E+02  9.60000000E+01  0.00000000E+00
  3.60000000E+02  9.40000000E+01  0.00000000E+00
  3.60000000E+02  9.20000000E+01  0.00000000E+00
  3.60000000E+02  9.00000000E+01  0.00000000E+00
  3.60000000E+02  8.80000000E+01  0.00000000E+00
  3.60000000E+02  8.60000000E+01  0.00000000E+00
  3.60000000E+02  8.40000000E+01  0.00000000E+00
  3.60000000E+02  8.20000000E+01  0.00000000E+00
  3.60000000E+02  8.00000000E+01  0.00000000E+00
  3.60000000E+02  7.80000000E+01  0.00000000E+00
  3.60000000E+02  7.60000000E+01  0.00000000E+00
  3.60000000E+02  7.40000000E+01  0.00000000E+00
  3.60000000E+02  7.20000000E+01  0.00000000E+00
  3.60000000E+02  7.00000000E+01  0.00000000E+00
  3.60000000E+02  6.80000000E+01  0.00000000E+00
  3.60000000E+02  6.60000000E+01  0.00000000E+00
  3.60000000E+02  6.40000000E+01  0.00000000E+00
  3.60000000E+02  6.20000000E+01  0.00000000E+00
  3.60000000E+02  6.00000000E+01  0.00000000E+00
  3.60000000E+02  5.80000000E+01  0.00000000E+00
  3.60000000E+02  5.60000000E+01  0.00000000E+00
  3.60000000E+02  5.40000000E+01  0.00000000E+00
  3.60000000E+02  5.20000000E+01  0.00000000E+00
  3.60000000E+02  5.00000000E+01  0.00000000E+00
  3.60000000E+02  4.80000000E+01  0.00000000E+00
  3.60000000E+02  4.60000000E+01  0.00000000E+00
  3.60000000E+02  4.40000000E+01  0.00000000E+00
  3.60000000E+02  4.20000000E+01  0.00000000E+00
  3.60000000E+02  4.00000000E+01  0.00000000E+00
  3.60000000E+02  3.80000000E+01  0.00000000E+00
  3.60000000E+02  3.60000000E+01  0.00000000E+00
  3.60000000E+02  3.40000000E+01  0.00000000E+00
  3.60000000E+02  3.20000000E+01  0.00000000E+00
  3.60000000E+02  3.00000000E+01  0.00000000E+00
  3.60000000E+02  2.80000000E+01  0.00000000E+00
  3.60000000E+02  2.60000000E+01  0.00000000E+00
  3.60000000E+02  2.40000000E+01  0.00000000E+00
  3.60000000E+02  2.20000000E+01  0.00000000E+00
  3.60000000E+02  2.00000000E+01  0.00000000E+00
  3.60000000E+02  1.80000000E+01  0.00000000E+00
  3.60000000E+02  1.60000000E+01  0.00000000E+00
  3.60000000E+02  1.40000000E+01  0.00000000E+00
  3.60000000E+02  1.20000000E+01  0.00000000E+00
  3.60000000E+02  1.00000000E+01  0.00000000E+00
  3.60000000E+02  8.00000000E+00  0.00000000E+00
  3.60000000E+02  6.00000000E+00  0.00000000E+00
  3.60000000E+02  4.00000000E+00  0.00000000E+00
  3.60000000E+02  2.00000000E+00  0.00000000E+00
  3.60000000E+02 -3.33066907E-14  0.00000000E+00
  3.70000000E+02  1.00000000E+02  0.00000000E+00
  3.70000000E+02  9.80000000E+01  0.00000000E+00
  3.70000000E+02  9.60000000E+01  0.00000000E+00
  3.70000000E+02  9.40000000E+01  0.00000000E+00
  3.70000000E+02  9.20000000E+01  0.00000000E+00
  3.70000000E+02  9.00000000E+01  0.00000000E+00
  3.70000000E+02  8.80000000E+01  0.00000000E+00
  3.70000000E+02  8.60000000E+01  0.00000000E+00
  3.70000000E+02  8.40000000E+01  0.00000000E+00
  3.70000000E+02  8.20000000E+01  0.00000000E+00
  3.70000000E+02  8.00000000E+01  0.00000000E+00
  3.70000000E+02  7.80000000E+01  0.00000000E+00
  3.70000000E+02  7.60000000E+01  0.00000000E+00
  3.70000000E+02  7.40000000E+01  0.00000000E+00
  3.70000000E+02  7.20000000E+01  0.00000000E+00
  3.70000000E+02  7.00000000E+01  0.00000000E+00
  3.70000000E+02  6.80000000E+01  0.00000000E+00
  3.70000000E+02  6.60000000E+01  0.00000000E+00
  3.70000000E+02  6.40000000E+01  0.00000000E+00
  3.70000000E+02  6.20000000E+01  0.00000000E+00
  3.70000000E+02  6.00000000E+01  0.00000000E+00
  3.70000000E+02  5.80000000E+01  0.00000000E+00
  3.70000000E+02  5.60000000E+01  0.00000000E+00
  3.70000000E+02  5.40000000E+01  0.00000000E+00
  3.70000000E+02  5.20000000E+01  0.00000000E+00
  3.70000000E+02  5.00000000E+01  0.00000000E+00
  3.70000000E+02  4.80000000E+01  0.00000000E+00
  3.70000000E+02  4.60000000E+01  0.00000000E+00
  3.70000000E+02  4.40000000E+01  0.00000000E+00
  3.70000000E+02  4.20000000E+01  0.00000000E+00
  3.70000000E+02  4.00000000E+01  0.00000000E+00
  3.70000000E+02  3.80000000E+01  0.00000000E+00
  3.70000000E+02  3.60000000E+01  0.00000000E+00
  3.70000000E+02  3.40000000E+01  0.00000000E+00
  3.70000000E+02  3.20000000E+01  0.00000000E+00
  3.70000000E+02  3.00000000E+01  0.00000000E+00
  3.70000000E+02  2.80000000E+01  0.00000000E+00
  3.70000000E+02  2.60000000E+01  0.00000000E+00
  3.70000000E+02  2.40000000E+01  0.00000000E+00
  3.70000000E+02  2.20000000E+01  0.00000000E+00
  3.70000000E+02  2.00000000E+01  0.00000000E+00
  3.70000000E+02  1.80000000E+01  0.00000000E+00
  3.70000000E+02  1.60000000E+01  0.00000000E+00
  3.70000000E+02  1.40000000E+01  0.00000000E+00
  3.70000000E+02  1.20000000E+01  0.00000000E+00
  3.70000000E+02  1.00000000E+01  0.00000000E+00
  3.70000000E+02  8.00000000E+00  0.00000000E+00
  3.70000000E+02  6.00000000E+00  0.00000000E+00
  3.70000000E+02  4.00000000E+00  0.00000000E+00
  3.70000000E+02  2.00000000E+00  0.00000000E+00
  3.70000000E+02 -3.33066907E-14  0.00000000E+00
  3.80000000E+02  1.00000000E+02  0.00000000E+00
  3.80000000E+02  9.80000000E+01  0.00000000E+00
  3.80000000E+02  9.60000000E+01  0.00000000E+00
  3.80000000E+02  9.40000000E+01  0.00000000E+00
  3.80000000E+02  9.20000000E+01  0.00000000E+00
  3.80000000E+02  9.00000000E+01  0.00000000E+00
  3.80000000E+02  8.80000000E+01  0.00000000E+00
  3.80000000E+02  8.60000000E+01  0.00000000E+00
  3.80000000E+02  8.40000000E+01  0.00000000E+00
  3.80000000E+02  8.20000000E+01  0.00000000E+00
  3.80000000E+02  8.00000000E+01  0.00000000E+00
  3.80000000E+02  7.80000000E+01  0.00000000E+00
  3.80000000E+02  7.60000000E+01  0.00000000E+00
  3.80000000E+02  7.40000000E+01  0.00000000E+00
  3.80000000E+02  7.20000000E+01  0.00000000E+00
  3.80000000E+02  7.00000000E+01  0.00000000E+00
  3.80000000E+02  6.80000000E+01  0.00000000E+00
  3.80000000E+02  6.60000000E+01  0.00000000E+00
  3.80000000E+02  6.40000000E+01  0.00000000E+00
  3.80000000E+02  6.20000000E+01  0.00000000E+00
  3.80000000E+02  6.00000000E+01  0.00000000E+00
  3.80000000E+02  5.80000000E+01  0.00000000E+00
  3.80000000E+02  5.60000000E+01  0.00000000E+00
  3.80000000E+02  5.40000000E+01  0.00000000E+00
  3.80000000E+02  5.20000000E+01  0.00000000E+00
  3.80000000E+02  5.00000000E+01  0.00000000E+00
  3.80000000E+02  4.80000000E+01  0.00000000E+00
  3.80000000E+02  4.60000000E+01  0.00000000E+00
  3.80000000E+02  4.40000000E+01  0.00000000E+00
  3.80000000E+02  4.20000000E+01  0.00000000E+00
  3.80000000E+02  4.00000000E+01  0.00000000E+00
  3.80000000E+02  3.80000000E+01  0.00000000E+00
  3.80000000E+02  3.60000000E+01  0.00000000E+00
  3.80000000E+02  3.40000000E+01  0.00000000E+00
  3.80000000E+02  3.20000000E+01  0.00000000E+00
  3.80000000E+02  3.00000000E+01  0.00000000E+00
  3.80000000E+02  2.80000000E+01  0.00000000E+00
  3.80000000E+02  2.60000000E+01  0.00000000E+00
  3.80000000E+02  2.40000000E+01  0.00000000E+00
  3.80000000E+02  2.20000000E+01  0.00000000E+00
  3.80000000E+02  2.00000000E+01  0.00000000E+00
  3.80000000E+02  1.80000000E+01  0.00000000E+00
  3.80000000E+02  1.60000000E+01  0.00000000E+00
  3.80000000E+02  1.40000000E+01  0.00000000E+00
  3.80000000E+02  1.20000000E+01  0.00000000E+00
  3.80000000E+02  1.00000000E+01  0.00000000E+00
  3.80000000E+02  8.00000000E+00  0.00000000E+00
  3.80000000E+02  6.00000000E+00  0.00000000E+00
  3.80000000E+02  4.00000000E+00  0.00000000E+00
  3.80000000E+02  2.00000000E+00  0.00000000E+00
  3.80000000E+02 -3.33066907E-14  0.00000000E+00
  3.90000000E+02  1.00000000E+02  0.00000000E+00
  3.90000000E+02  9.80000000E+01  0.00000000E+00
  3.90000000E+02  9.60000000E+01  0.00000000E+00
  3.90000000E+02  9.40000000E+01  0.00000000E+00
  3.90000000E+02  9.20000000E+01  0.00000000E+00
  3.90000000E+02  9.00000000E+01  0.00000000E+00
  3.90000000E+02  8.80000000E+01  0.00000000E+00
  3.90000000E+02  8.60000000E+01  0.00000000E+00
  3.90000000E+02  8.40000000E+01  0.00000000E+00
  3.90000000E+02  8.20000000E+01  0.00000000E+00
  3.90000000E+02  8.00000000E+01  0.00000000E+00
  3.90000000E+02  7.80000000E+01  0.00000000E+00
  3.90000000E+02  7.60000000E+01  0.00000000E+00
  3.90000000E+02  7.40000000E+01  0.00000000E+00
  3.90000000E+02  7.20000000E+01  0.00000000E+00
  3.90000000E+02  7.00000000E+01  0.00000000E+00
  3.90000000E+02  6.80000000E+01  0.00000000E+00
  3.90000000E+02  6.60000000E+01  0.00000000E+00
  3.90000000E+02  6.40000000E+01  0.00000000E+00
  3.90000000E+02  6.20000000E+01  0.00000000E+00
  3.90000000E+02  6.00000000E+01  0.00000000E+00
  3.90000000E+02  5.80000000E+01  0.00000000E+00
  3.90000000E+02  5.60000000E+01  0.00000000E+00
  3.90000000E+02  5.40000000E+01  0.00000000E+00
  3.90000000E+02  5.20000000E+01  0.00000000E+00
  3.90000000E+02  5.00000000E+01  0.00000000E+00
  3.90000000E+02  4.80000000E+01  0.00000000E+00
  3.90000000E+02  4.60000000E+01  0.00000000E+00
  3.90000000E+02  4.40000000E+01  0.00000000E+00
  3.90000000E+02  4.20000000E+01  0.00000000E+00
  3.90000000E+02  4.00000000E+01  0.00000000E+00
  3.90000000E+02  3.80000000E+01  0.00000000E+00
  3.90000000E+02  3.60000000E+01  0.00000000E+00
  3.90000000E+02  3.40000000E+01  0.00000000E+00
  3.90000000E+02  3.20000000E+01  0.00000000E+00
  3.90000000E+02  3.00000000E+01  0.00000000E+00
  3.90000000E+02  2.80000000E+01  0.00000000E+00
  3.90000000E+02  2.60000000E+01  0.00000000E+00
  3.90000000E+02  2.40000000E+01  0.00000000E+00
  3.90000000E+02  2.20000000E+01  0.00000000E+00
  3.90000000E+02  2.00000000E+01  0.00000000E+00
  3.90000000E+02  1.80000000E+01  0.00000000E+00
  3.90000000E+02  1.60000000E+01  0.00000000E+00
  3.90000000E+02  1.40000000E+01  0.00000000E+00
  3.90000000E+02  1.20000000E+01  0.00000000E+00
  3.90000000E+02  1.00000000E+01  0.00000000E+00
  3.90000000E+02  8.00000000E+00  0.00000000E+00
  3.90000000E+02  6.00000000E+00  0.00000000E+00
  3.90000000E+02  4.00000000E+00  0.00000000E+00
  3.90000000E+02  2.00000000E+00  0.00000000E+00
  3.90000000E+02 -3.33066907E-14  0.00000000E+00
  4.00000000E+02  1.00000000E+02  0.00000000E+00
  4.00000000E+02  9.80000000E+01  0.00000000E+00
  4.00000000E+02  9.60000000E+01  0.00000000E+00
  4.00000000E+02  9.40000000E+01  0.00000000E+00
  4.00000000E+02  9.20000000E+01  0.00000000E+00
  4.00000000E+02  9.00000000E+01  0.00000000E+00
  4.00000000E+02  8.80000000E+01  0.00000000E+00
  4.00000000E+02  8.60000000E+01  0.00000000E+00
  4.00000000E+02  8.40000000E+01  0.00000000E+00
  4.00000000E+02  8.20000000E+01  0.00000000E+00
  4.00000000E+02  8.00000000E+01  0.00000000E+00
  4.00000000E+02  7.80000000E+01  0.00000000E+00
  4.00000000E+02  7.60000000E+01  0.00000000E+00
  4.00000000E+02  7.40000000E+01  0.00000000E+00
  4.00000000E+02  7.20000000E+01  0.00000000E+00
  4.00000000E+02  7.00000000E+01  0.00000000E+00
  4.00000000E+02  6.80000000E+01  0.00000000E+00
  4.00000000E+02  6.60000000E+01  0.00000000E+00
  4.00000000E+02  6.40000000E+01  0.00000000E+00
  4.00000000E+02  6.20000000E+01  0.00000000E+00
  4.00000000E+02  6.00000000E+01  0.00000000E+00
  4.00000000E+02  5.80000000E+01  0.00000000E+00
  4.00000000E+02  5.60000000E+01  0.00000000E+00
  4.00000000E+02  5.40000000E+01  0.00000000E+00
  4.00000000E+02  5.20000000E+01  0.00000000E+00
  4.00000000E+02  5.00000000E+01  0.00000000E+00
  4.00000000E+02  4.80000000E+01  0.00000000E+00
  4.00000000E+02  4.60000000E+01  0.00000000E+00
  4.00000000E+02  4.40000000E+01  0.00000000E+00
  4.00000000E+02  4.20000000E+01  0.00000000E+00
  4.00000000E+02  4.00000000E+01  0.00000000E+00
  4.00000000E+02  3.80000000E+01  0.00000000E+00
  4.00000000E+02  3.60000000E+01  0.00000000E+00
  4.00000000E+02  3.40000000E+01  0.00000000E+00
  4.00000000E+02  3.20000000E+01  0.00000000E+00
  4.00000000E+02  3.00000000E+01  0.00000000E+00
  4.00000000E+02  2.80000000E+01  0.00000000E+00
  4.00000000E+02  2.60000000E+01  0.00000000E+00
  4.00000000E+02  2.40000000E+01  0.00000000E+00
  4.00000000E+02  2.20000000E+01  0.00000000E+00
  4.00000000E+02  2.00000000E+01  0.00000000E+00
  4.00000000E+02  1.80000000E+01  0.00000000E+00
  4.00000000E+02  1.60000000E+01  0.00000000E+00
  4.00000000E+02  1.40000000E+01  0.00000000E+00
  4.00000000E+02  1.20000000E+01  0.00000000E+00
  4.00000000E+02  1.00000000E+01  0.00000000E+00
  4.00000000E+02  8.00000000E+00  0.00000000E+00
  4.00000000E+02  6.00000000E+00  0.00000000E+00
  4.00000000E+02  4.00000000E+00  0.00000000E+00
  4.00000000E+02  2.00000000E+00  0.00000000E+00
  4.00000000E+02 -3.33066907E-14  0.00000000E+00
  4.10000000E+02  1.00000000E+02  0.00000000E+00
  4.10000000E+02  9.80000000E+01  0.00000000E+00
  4.10000000E+02  9.60000000E+01  0.00000000E+00
  4.10000000E+02  9.40000000E+01  0.00000000E+00
  4.10000000E+02  9.20000000E+01  0.00000000E+00
  4.10000000E+02  9.00000000E+01  0.00000000E+00
  4.10000000E+02  8.80000000E+01  0.00000000E+00
  4.10000000E+02  8.60000000E+01  0.00000000E+00
  4.10000000E+02  8.40000000E+01  0.00000000E+00
  4.10000000E+02  8.20000000E+01  0.00000000E+00
  4.10000000E+02  8.00000000E+01  0.00000000E+00
  4.10000000E+02  7.80000000E+01  0.00000000E+00
  4.10000000E+02  7.60000000E+01  0.00000000E+00
  4.10000000E+02  7.40000000E+01  0.00000000E+00
  4.10000000E+02  7.20000000E+01  0.00000000E+00
  4.10000000E+02  7.00000000E+01  0.00000000E+00
  4.10000000E+02  6.80000000E+01  0.00000000E+00
  4.10000000E+02  6.60000000E+01  0.00000000E+00
  4.10000000E+02  6.40000000E+01  0.00000000E+00
  4.10000000E+02  6.20000000E+01  0.00000000E+00
  4.10000000E+02  6.00000000E+01  0.00000000E+00
  4.10000000E+02  5.80000000E+01  0.00000000E+00
  4.10000000E+02  5.60000000E+01  0.00000000E+00
  4.10000000E+02  5.40000000E+01  0.00000000E+00
  4.10000000E+02  5.20000000E+01  0.00000000E+00
  4.10000000E+02  5.00000000E+01  0.00000000E+00
  4.10000000E+02  4.80000000E+01  0.00000000E+00
  4.10000000E+02  4.60000000E+01  0.00000000E+00
  4.10000000E+02  4.40000000E+01  0.00000000E+00
  4.10000000E+02  4.20000000E+01  0.00000000E+00
  4.10000000E+02  4.00000000E+01  0.00000000E+00
  4.10000000E+02  3.80000000E+01  0.00000000E+00
  4.10000000E+02  3.60000000E+01  0.00000000E+00
  4.10000000E+02  3.40000000E+01  0.00000000E+00
  4.10000000E+02  3.20000000E+01  0.00000000E+00
  4.10000000E+02  3.00000000E+01  0.00000000E+00
  4.10000000E+02  2.80000000E+01  0.00000000E+00
  4.10000000E+02  2.60000000E+01  0.00000000E+00
  4.10000000E+02  2.40000000E+01  0.00000000E+00
  4.10000000E+02  2.20000000E+01  0.00000000E+00
  4.10000000E+02  2.00000000E+01  0.00000000E+00
  4.10000000E+02  1.80000000E+01  0.00000000E+00
  4.10000000E+02  1.60000000E+01  0.00000000E+00
  4.10000000E+02  1.40000000E+01  0.00000000E+00
  4.10000000E+02  1.20000000E+01  0.00000000E+00
  4.10000000E+02  1.00000000E+01  0.00000000E+00
  4.10000000E+02  8.00000000E+00  0.00000000E+00
  4.10000000E+02  6.00000000E+00  0.00000000E+00
  4.10000000E+02  4.00000000E+00  0.00000000E+00
  4.10000000E+02  2.00000000E+00  0.00000000E+00
  4.10000000E+02 -3.33066907E-14  0.00000000E+00
  4.20000000E+02  1.00000000E+02  0.00000000E+00
  4.20000000E+02  9.80000000E+01  0.00000000E+00
  4.20000000E+02  9.60000000E+01  0.00000000E+00
  4.20000000E+02  9.40000000E+01  0.00000000E+00
  4.20000000E+02  9.20000000E+01  0.00000000E+00
  4.20000000E+02  9.00000000E+01  0.00000000E+00
  4.20000000E+02  8.80000000E+01  0.00000000E+00
  4.20000000E+02  8.60000000E+01  0.00000000E+00
  4.20000000E+02  8.40000000E+01  0.00000000E+00
  4.20000000E+02  8.20000000E+01  0.00000000E+00
  4.20000000E+02  8.00000000E+01  0.00000000E+00
  4.20000000E+02  7.80000000E+01  0.00000000E+00
  4.20000000E+02  7.60000000E+01  0.00000000E+00
  4.20000000E+02  7.40000000E+01  0.00000000E+00
  4.20000000E+02  7.20000000E+01  0.00000000E+00
  4.20000000E+02  7.00000000E+01  0.00000000E+00
  4.20000000E+02  6.80000000E+01  0.00000000E+00
  4.20000000E+02  6.60000000E+01  0.00000000E+00
  4.20000000E+02  6.40000000E+01  0.00000000E+00
  4.20000000E+02  6.20000000E+01  0.00000000E+00
  4.20000000E+02  6.00000000E+01  0.00000000E+00
  4.20000000E+02  5.80000000E+01  0.00000000E+00
  4.20000000E+02  5.60000000E+01  0.00000000E+00
  4.20000000E+02  5.40000000E+01  0.00000000E+00
  4.20000000E+02  5.20000000E+01  0.00000000E+00
  4.20000000E+02  5.00000000E+01  0.00000000E+00
  4.20000000E+02  4.80000000E+01  0.00000000E+00
  4.20000000E+02  4.60000000E+01  0.00000000E+00
  4.20000000E+02  4.40000000E+01  0.00000000E+00
  4.20000000E+02  4.20000000E+01  0.00000000E+00
  4.20000000E+02  4.00000000E+01  0.00000000E+00
  4.20000000E+02  3.80000000E+01  0.00000000E+00
  4.20000000E+02  3.60000000E+01  0.00000000E+00
  4.20000000E+02  3.40000000E+01  0.00000000E+00
  4.20000000E+02  3.20000000E+01  0.00000000E+00
  4.20000000E+02  3.00000000E+01  0.00000000E+00
  4.20000000E+02  2.80000000E+01  0.00000000E+00
  4.20000000E+02  2.60000000E+01  0.00000000E+00
  4.20000000E+02  2.40000000E+01  0.00000000E+00
  4.20000000E+02  2.20000000E+01  0.00000000E+00
  4.20000000E+02  2.00000000E+01  0.00000000E+00
  4.20000000E+02  1.80000000E+01  0.00000000E+00
  4.20000000E+02  1.60000000E+01  0.00000000E+00
  4.20000000E+02  1.40000000E+01  0.00000000E+00
  4.20000000E+02  1.20000000E+01  0.00000000E+00
  4.20000000E+02  1.00000000E+01  0.00000000E+00
  4.20000000E+02  8.00000000E+00  0.00000000E+00
  4.20000000E+02  6.00000000E+00  0.00000000E+00
  4.20000000E+02  4.00000000E+00  0.00000000E+00
  4.20000000E+02  2.00000000E+00  0.00000000E+00
  4.20000000E+02 -3.33066907E-14  0.00000000E+00
  4.30000000E+02  1.00000000E+02  0.00000000E+00
  4.30000000E+02  9.80000000E+01  0.00000000E+00
  4.30000000E+02  9.60000000E+01  0.00000000E+00
  4.30000000E+02  9.40000000E+01  0.00000000E+00
  4.30000000E+02  9.20000000E+01  0.00000000E+00
  4.30000000E+02  9.00000000E+01  0.00000000E+00
  4.30000000E+02  8.80000000E+01  0.00000000E+00
  4.30000000E+02  8.60000000E+01  0.00000000E+00
  4.30000000E+02  8.40000000E+01  0.00000000E+00
  4.30000000E+02  8.20000000E+01  0.00000000E+00
  4.30000000E+02  8.00000000E+01  0.00000000E+00
  4.30000000E+02  7.80000000E+01  0.00000000E+00
  4.30000000E+02  7.60000000E+01  0.00000000E+00
  4.30000000E+02  7.40000000E+01  0.00000000E+00
  4.30000000E+02  7.20000000E+01  0.00000000E+00
  4.30000000E+02  7.00000000E+01  0.00000000E+00
  4.30000000E+02  6.80000000E+01  0.00000000E+00
  4.30000000E+02  6.60000000E+01  0.00000000E+00
  4.30000000E+02  6.40000000E+01  0.00000000E+00
  4.30000000E+02  6.20000000E+01  0.00000000E+00
  4.30000000E+02  6.00000000E+01  0.00000000E+00
  4.30000000E+02  5.80000000E+01  0.00000000E+00
  4.30000000E+02  5.60000000E+01  0.00000000E+00
  4.30000000E+02  5.40000000E+01  0.00000000E+00
  4.30000000E+02  5.20000000E+01  0.00000000E+00
  4.30000000E+02  5.00000000E+01  0.00000000E+00
  4.30000000E+02  4.80000000E+01  0.00000000E+00
  4.30000000E+02  4.60000000E+01  0.00000000E+00
  4.30000000E+02  4.40000000E+01  0.00000000E+00
  4.30000000E+02  4.20000000E+01  0.00000000E+00
  4.30000000E+02  4.00000000E+01  0.00000000E+00
  4.30000000E+02  3.80000000E+01  0.00000000E+00
  4.30000000E+02  3.60000000E+01  0.00000000E+00
  4.30000000E+02  3.40000000E+01  0.00000000E+00
  4.30000000E+02  3.20000000E+01  0.00000000E+00
  4.30000000E+02  3.00000000E+01  0.00000000E+00
  4.30000000E+02  2.80000000E+01  0.00000000E+00
  4.30000000E+02  2.60000000E+01  0.00000000E+00
  4.30000000E+02  2.40000000E+01  0.00000000E+00
  4.30000000E+02  2.20000000E+01  0.00000000E+00
  4.30000000E+02  2.00000000E+01  0.00000000E+00
  4.30000000E+02  1.80000000E+01  0.00000000E+00
  4.30000000E+02  1.60000000E+01  0.00000000E+00
  4.30000000E+02  1.40000000E+01  0.00000000E+00
  4.30000000E+02  1.20000000E+01  0.00000000E+00
  4.30000000E+02  1.00000000E+01  0.00000000E+00
  4.30000000E+02  8.00000000E+00  0.00000000E+00
  4.30000000E+02  6.00000000E+00  0.00000000E+00
  4.30000000E+02  4.00000000E+00  0.00000000E+00
  4.30000000E+02  2.00000000E+00  0.00000000E+00
  4.30000000E+02 -3.33066907E-14  0.00000000E+00
  4.40000000E+02  1.00000000E+02  0.00000000E+00
  4.40000000E+02  9.80000000E+01  0.00000000E+00
  4.40000000E+02  9.60000000E+01  0.00000000E+00
  4.40000000E+02  9.40000000E+01  0.00000000E+00
  4.40000000E+02  9.20000000E+01  0.00000000E+00
  4.40000000E+02  9.00000000E+01  0.00000000E+00
  4.40000000E+02  8.80000000E+01  0.00000000E+00
  4.40000000E+02  8.60000000E+01  0.00000000E+00
  4.40000000E+02  8.40000000E+01  0.00000000E+00
  4.40000000E+02  8.20000000E+01  0.00000000E+00
  4.40000000E+02  8.00000000E+01  0.00000000E+00
  4.40000000E+02  7.80000000E+01  0.00000000E+00
  4.40000000E+02  7.60000000E+01  0.00000000E+00
  4.40000000E+02  7.40000000E+01  0.00000000E+00
  4.40000000E+02  7.20000000E+01  0.00000000E+00
  4.40000000E+02  7.00000000E+01  0.00000000E+00
  4.40000000E+02  6.80000000E+01  0.00000000E+00
  4.40000000E+02  6.60000000E+01  0.00000000E+00
  4.40000000E+02  6.40000000E+01  0.00000000E+00
  4.40000000E+02  6.20000000E+01  0.00000000E+00
  4.40000000E+02  6.00000000E+01  0.00000000E+00
  4.40000000E+02  5.80000000E+01  0.00000000E+00
  4.40000000E+02  5.60000000E+01  0.00000000E+00
  4.40000000E+02  5.40000000E+01  0.00000000E+00
  4.40000000E+02  5.20000000E+01  0.00000000E+00
  4.40000000E+02  5.00000000E+01  0.00000000E+00
  4.40000000E+02  4.80000000E+01  0.00000000E+00
  4.40000000E+02  4.60000000E+01  0.00000000E+00
  4.40000000E+02  4.40000000E+01  0.00000000E+00
  4.40000000E+02  4.20000000E+01  0.00000000E+00
  4.40000000E+02  4.00000000E+01  0.00000000E+00
  4.40000000E+02  3.80000000E+01  0.00000000E+00
  4.40000000E+02  3.60000000E+01  0.00000000E+00
  4.40000000E+02  3.40000000E+01  0.00000000E+00
  4.40000000E+02  3.20000000E+01  0.00000000E+00
  4.40000000E+02  3.00000000E+01  0.00000000E+00
  4.40000000E+02  2.80000000E+01  0.00000000E+00
  4.40000000E+02  2.60000000E+01  0.00000000E+00
  4.40000000E+02  2.40000000E+01  0.00000000E+00
  4.40000000E+02  2.20000000E+01  0.00000000E+00
  4.40000000E+02  2.00000000E+01  0.00000000E+00
  4.40000000E+02  1.80000000E+01  0.00000000E+00
  4.40000000E+02  1.60000000E+01  0.00000000E+00
  4.40000000E+02  1.40000000E+01  0.00000000E+00
  4.40000000E+02  1.20000000E+01  0.00000000E+00
  4.40000000E+02  1.00000000E+01  0.00000000E+00
  4.40000000E+02  8.00000000E+00  0.00000000E+00
  4.40000000E+02  6.00000000E+00  0.00000000E+00
  4.40000000E+02  4.00000000E+00  0.00000000E+00
  4.40000000E+02  2.00000000E+00  0.00000000E+00
  4.40000000E+02 -3.33066907E-14  0.00000000E+00
  4.50000000E+02  1.00000000E+02  0.00000000E+00
  4.50000000E+02  9.80000000E+01  0.00000000E+00
  4.50000000E+02  9.60000000E+01  0.00000000E+00
  4.50000000E+02  9.40000000E+01  0.00000000E+00
  4.50000000E+02  9.20000000E+01  0.00000000E+00
  4.50000000E+02  9.00000000E+01  0.00000000E+00
  4.50000000E+02  8.80000000E+01  0.00000000E+00
  4.50000000E+02  8.60000000E+01  0.00000000E+00
  4.50000000E+02  8.40000000E+01  0.00000000E+00
  4.50000000E+02  8.20000000E+01  0.00000000E+00
  4.50000000E+02  8.00000000E+01  0.00000000E+00
  4.50000000E+02  7.80000000E+01  0.00000000E+00
  4.50000000E+02  7.60000000E+01  0.00000000E+00
  4.50000000E+02  7.40000000E+01  0.00000000E+00
  4.50000000E+02  7.20000000E+01  0.00000000E+00
  4.50000000E+02  7.00000000E+01  0.00000000E+00
  4.50000000E+02  6.80000000E+01  0.00000000E+00
  4.50000000E+02  6.60000000E+01  0.00000000E+00
  4.50000000E+02  6.40000000E+01  0.00000000E+00
  4.50000000E+02  6.20000000E+01  0.00000000E+00
  4.50000000E+02  6.00000000E+01  0.00000000E+00
  4.50000000E+02  5.80000000E+01  0.00000000E+00
  4.50000000E+02  5.60000000E+01  0.00000000E+00
  4.50000000E+02  5.40000000E+01  0.00000000E+00
  4.50000000E+02  5.20000000E+01  0.00000000E+00
  4.50000000E+02  5.00000000E+01  0.00000000E+00
  4.50000000E+02  4.80000000E+01  0.00000000E+00
  4.50000000E+02  4.60000000E+01  0.00000000E+00
  4.50000000E+02  4.40000000E+01  0.00000000E+00
  4.50000000E+02  4.20000000E+01  0.00000000E+00
  4.50000000E+02  4.00000000E+01  0.00000000E+00
  4.50000000E+02  3.80000000E+01  0.00000000E+00
  4.50000000E+02  3.60000000E+01  0.00000000E+00
  4.50000000E+02  3.40000000E+01  0.00000000E+00
  4.50000000E+02  3.20000000E+01  0.00000000E+00
  4.50000000E+02  3.00000000E+01  0.00000000E+00
  4.50000000E+02  2.80000000E+01  0.00000000E+00
  4.50000000E+02  2.60000000E+01  0.00000000E+00
  4.50000000E+02  2.40000000E+01  0.00000000E+00
  4.50000000E+02  2.20000000E+01  0.00000000E+00
  4.50000000E+02  2.00000000E+01  0.00000000E+00
  4.50000000E+02  1.80000000E+01  0.00000000E+00
  4.50000000E+02  1.60000000E+01  0.00000000E+00
  4.50000000E+02  1.40000000E+01  0.00000000E+00
  4.50000000E+02  1.20000000E+01  0.00000000E+00
  4.50000000E+02  1.00000000E+01  0.00000000E+00
  4.50000000E+02  8.00000000E+00  0.00000000E+00
  4.50000000E+02  6.00000000E+00  0.00000000E+00
  4.50000000E+02  4.00000000E+00  0.00000000E+00
  4.50000000E+02  2.00000000E+00  0.00000000E+00
  4.50000000E+02 -3.33066907E-14  0.00000000E+00
  4.60000000E+02  1.00000000E+02  0.00000000E+00
  4.60000000E+02  9.80000000E+01  0.00000000E+00
  4.60000000E+02  9.60000000E+01  0.00000000E+00
  4.60000000E+02  9.40000000E+01  0.00000000E+00
  4.60000000E+02  9.20000000E+01  0.00000000E+00
  4.60000000E+02  9.00000000E+01  0.00000000E+00
  4.60000000E+02  8.80000000E+01  0.00000000E+00
  4.60000000E+02  8.60000000E+01  0.00000000E+00
  4.60000000E+02  8.40000000E+01  0.00000000E+00
  4.60000000E+02  8.20000000E+01  0.00000000E+00
  4.60000000E+02  8.00000000E+01  0.00000000E+00
  4.60000000E+02  7.80000000E+01  0.00000000E+00
  4.60000000E+02  7.60000000E+01  0.00000000E+00
  4.60000000E+02  7.40000000E+01  0.00000000E+00
  4.60000000E+02  7.20000000E+01  0.00000000E+00
  4.60000000E+02  7.00000000E+01  0.00000000E+00
  4.60000000E+02  6.80000000E+01  0.00000000E+00
  4.60000000E+02  6.60000000E+01  0.00000000E+00
  4.60000000E+02  6.40000000E+01  0.00000000E+00
  4.60000000E+02  6.20000000E+01  0.00000000E+00
  4.60000000E+02  6.00000000E+01  0.00000000E+00
  4.60000000E+02  5.80000000E+01  0.00000000E+00
  4.60000000E+02  5.60000000E+01  0.00000000E+00
  4.60000000E+02  5.40000000E+01  0.00000000E+00
  4.60000000E+02  5.20000000E+01  0.00000000E+00
  4.60000000E+02  5.00000000E+01  0.00000000E+00
  4.60000000E+02  4.80000000E+01  0.00000000E+00
  4.60000000E+02  4.60000000E+01  0.00000000E+00
  4.60000000E+02  4.40000000E+01  0.00000000E+00
  4.60000000E+02  4.20000000E+01  0.00000000E+00
  4.60000000E+02  4.00000000E+01  0.00000000E+00
  4.60000000E+02  3.80000000E+01  0.00000000E+00
  4.60000000E+02  3.60000000E+01  0.00000000E+00
  4.60000000E+02  3.40000000E+01  0.00000000E+00
  4.60000000E+02  3.20000000E+01  0.00000000E+00
  4.60000000E+02  3.00000000E+01  0.00000000E+00
  4.60000000E+02  2.80000000E+01  0.00000000E+00
  4.60000000E+02  2.60000000E+01  0.00000000E+00
  4.60000000E+02  2.40000000E+01  0.00000000E+00
  4.60000000E+02  2.20000000E+01  0.00000000E+00
  4.60000000E+02  2.00000000E+01  0.00000000E+00
  4.60000000E+02  1.80000000E+01  0.00000000E+00
  4.60000000E+02  1.60000000E+01  0.00000000E+00
  4.60000000E+02  1.40000000E+01  0.00000000E+00
  4.60000000E+02  1.20000000E+01  0.00000000E+00
  4.60000000E+02  1.00000000E+01  0.00000000E+00
  4.60000000E+02  8.00000000E+00  0.00000000E+00
  4.60000000E+02  6.00000000E+00  0.00000000E+00
  4.60000000E+02  4.00000000E+00  0.00000000E+00
  4.60000000E+02  2.00000000E+00  0.00000000E+00
  4.60000000E+02 -3.33066907E-14  0.00000000E+00
  4.70000000E+02  1.00000000E+02  0.00000000E+00
  4.70000000E+02  9.80000000E+01  0.00000000E+00
  4.70000000E+02  9.60000000E+01  0.00000000E+00
  4.70000000E+02  9.40000000E+01  0.00000000E+00
  4.70000000E+02  9.20000000E+01  0.00000000E+00
  4.70000000E+02  9.00000000E+01  0.00000000E+00
  4.70000000E+02  8.80000000E+01  0.00000000E+00
  4.70000000E+02  8.60000000E+01  0.00000000E+00
  4.70000000E+02  8.40000000E+01  0.00000000E+00
  4.70000000E+02  8.20000000E+01  0.00000000E+00
  4.70000000E+02  8.00000000E+01  0.00000000E+00
  4.70000000E+02  7.80000000E+01  0.00000000E+00
  4.70000000E+02  7.60000000E+01  0.00000000E+00
  4.70000000E+02  7.40000000E+01  0.00000000E+00
  4.70000000E+02  7.20000000E+01  0.00000000E+00
  4.70000000E+02  7.00000000E+01  0.00000000E+00
  4.70000000E+02  6.80000000E+01  0.00000000E+00
  4.70000000E+02  6.60000000E+01  0.00000000E+00
  4.70000000E+02  6.40000000E+01  0.00000000E+00
  4.70000000E+02  6.20000000E+01  0.00000000E+00
  4.70000000E+02  6.00000000E+01  0.00000000E+00
  4.70000000E+02  5.80000000E+01  0.00000000E+00
  4.70000000E+02  5.60000000E+01  0.00000000E+00
  4.70000000E+02  5.40000000E+01  0.00000000E+00
  4.70000000E+02  5.20000000E+01  0.00000000E+00
  4.70000000E+02  5.00000000E+01  0.00000000E+00
  4.70000000E+02  4.80000000E+01  0.00000000E+00
  4.70000000E+02  4.60000000E+01  0.00000000E+00
  4.70000000E+02  4.40000000E+01  0.00000000E+00
  4.70000000E+02  4.20000000E+01  0.00000000E+00
  4.70000000E+02  4.00000000E+01  0.00000000E+00
  4.70000000E+02  3.80000000E+01  0.00000000E+00
  4.70000000E+02  3.60000000E+01  0.00000000E+00
  4.70000000E+02  3.40000000E+01  0.00000000E+00
  4.70000000E+02  3.20000000E+01  0.00000000E+00
  4.70000000E+02  3.00000000E+01  0.00000000E+00
  4.70000000E+02  2.80000000E+01  0.00000000E+00
  4.70000000E+02  2.60000000E+01  0.00000000E+00
  4.70000000E+02  2.40000000E+01  0.00000000E+00
  4.70000000E+02  2.20000000E+01  0.00000000E+00
  4.70000000E+02  2.00000000E+01  0.00000000E+00
  4.70000000E+02  1.80000000E+01  0.00000000E+00
  4.70000000E+02  1.60000000E+01  0.00000000E+00
  4.70000000E+02  1.40000000E+01  0.00000000E+00
  4.70000000E+02  1.20000000E+01  0.00000000E+00
  4.70000000E+02  1.00000000E+01  0.00000000E+00
  4.70000000E+02  8.00000000E+00  0.00000000E+00
  4.70000000E+02  6.00000000E+00  0.00000000E+00
  4.70000000E+02  4.00000000E+00  0.00000000E+00
  4.70000000E+02  2.00000000E+00  0.00000000E+00
  4.70000000E+02 -3.33066907E-14  0.00000000E+00
  4.80000000E+02  1.00000000E+02  0.00000000E+00
  4.80000000E+02  9.80000000E+01  0.00000000E+00
  4.80000000E+02  9.60000000E+01  0.00000000E+00
  4.80000000E+02  9.40000000E+01  0.00000000E+00
  4.80000000E+02  9.20000000E+01  0.00000000E+00
  4.80000000E+02  9.00000000E+01  0.00000000E+00
  4.80000000E+02  8.80000000E+01  0.00000000E+00
  4.80000000E+02  8.60000000E+01  0.00000000E+00
  4.80000000E+02  8.40000000E+01  0.00000000E+00
  4.80000000E+02  8.20000000E+01  0.00000000E+00
  4.80000000E+02  8.00000000E+01  0.00000000E+00
  4.80000000E+02  7.80000000E+01  0.00000000E+00
  4.80000000E+02  7.60000000E+01  0.00000000E+00
  4.80000000E+02  7.40000000E+01  0.00000000E+00
  4.80000000E+02  7.20000000E+01  0.00000000E+00
  4.80000000E+02  7.00000000E+01  0.00000000E+00
  4.80000000E+02  6.80000000E+01  0.00000000E+00
  4.80000000E+02  6.60000000E+01  0.00000000E+00
  4.80000000E+02  6.40000000E+01  0.00000000E+00
  4.80000000E+02  6.20000000E+01  0.00000000E+00
  4.80000000E+02  6.00000000E+01  0.00000000E+00
  4.80000000E+02  5.80000000E+01  0.00000000E+00
  4.80000000E+02  5.60000000E+01  0.00000000E+00
  4.80000000E+02  5.40000000E+01  0.00000000E+00
  4.80000000E+02  5.20000000E+01  0.00000000E+00
  4.80000000E+02  5.00000000E+01  0.00000000E+00
  4.80000000E+02  4.80000000E+01  0.00000000E+00
  4.80000000E+02  4.60000000E+01  0.00000000E+00
  4.80000000E+02  4.40000000E+01  0.00000000E+00
  4.80000000E+02  4.20000000E+01  0.00000000E+00
  4.80000000E+02  4.00000000E+01  0.00000000E+00
  4.80000000E+02  3.80000000E+01  0.00000000E+00
  4.80000000E+02  3.60000000E+01  0.00000000E+00
  4.80000000E+02  3.40000000E+01  0.00000000E+00
  4.80000000E+02  3.20000000E+01  0.00000000E+00
  4.80000000E+02  3.00000000E+01  0.00000000E+00
  4.80000000E+02  2.80000000E+01  0.00000000E+00
  4.80000000E+02  2.60000000E+01  0.00000000E+00
  4.80000000E+02  2.40000000E+01  0.00000000E+00
  4.80000000E+02  2.20000000E+01  0.00000000E+00
  4.80000000E+02  2.00000000E+01  0.00000000E+00
  4.80000000E+02  1.80000000E+01  0.00000000E+00
  4.80000000E+02  1.60000000E+01  0.00000000E+00
  4.80000000E+02  1.40000000E+01  0.00000000E+00
  4.80000000E+02  1.20000000E+01  0.00000000E+00
  4.80000000E+02  1.00000000E+01  0.00000000E+00
  4.80000000E+02  8.00000000E+00  0.00000000E+00
  4.80000000E+02  6.00000000E+00  0.00000000E+00
  4.80000000E+02  4.00000000E+00  0.00000000E+00
  4.80000000E+02  2.00000000E+00  0.00000000E+00
  4.80000000E+02 -3.33066907E-14  0.00000000E+00
  4.90000000E+02  1.00000000E+02  0.00000000E+00
  4.90000000E+02  9.80000000E+01  0.00000000E+00
  4.90000000E+02  9.60000000E+01  0.00000000E+00
  4.90000000E+02  9.40000000E+01  0.00000000E+00
  4.90000000E+02  9.20000000E+01  0.00000000E+00
  4.90000000E+02  9.00000000E+01  0.00000000E+00
  4.90000000E+02  8.80000000E+01  0.00000000E+00
  4.90000000E+02  8.60000000E+01  0.00000000E+00
  4.90000000E+02  8.40000000E+01  0.00000000E+00
  4.90000000E+02  8.20000000E+01  0.00000000E+00
  4.90000000E+02  8.00000000E+01  0.00000000E+00
  4.90000000E+02  7.80000000E+01  0.00000000E+00
  4.90000000E+02  7.60000000E+01  0.00000000E+00
  4.90000000E+02  7.40000000E+01  0.00000000E+00
  4.90000000E+02  7.20000000E+01  0.00000000E+00
  4.90000000E+02  7.00000000E+01  0.00000000E+00
  4.90000000E+02  6.80000000E+01  0.00000000E+00
  4.90000000E+02  6.60000000E+01  0.00000000E+00
  4.90000000E+02  6.40000000E+01  0.00000000E+00
  4.90000000E+02  6.20000000E+01  0.00000000E+00
  4.90000000E+02  6.00000000E+01  0.00000000E+00
  4.90000000E+02  5.80000000E+01  0.00000000E+00
  4.90000000E+02  5.60000000E+01  0.00000000E+00
  4.90000000E+02  5.40000000E+01  0.00000000E+00
  4.90000000E+02  5.20000000E+01  0.00000000E+00
  4.90000000E+02  5.00000000E+01  0.00000000E+00
  4.90000000E+02  4.80000000E+01  0.00000000E+00
  4.90000000E+02  4.60000000E+01  0.00000000E+00
  4.90000000E+02  4.40000000E+01  0.00000000E+00
  4.90000000E+02  4.20000000E+01  0.00000000E+00
  4.90000000E+02  4.00000000E+01  0.00000000E+00
  4.90000000E+02  3.80000000E+01  0.00000000E+00
  4.90000000E+02  3.60000000E+01  0.00000000E+00
  4.90000000E+02  3.40000000E+01  0.00000000E+00
  4.90000000E+02  3.20000000E+01  0.00000000E+00
  4.90000000E+02  3.00000000E+01  0.00000000E+00
  4.90000000E+02  2.80000000E+01  0.00000000E+00
  4.90000000E+02  2.60000000E+01  0.00000000E+00
  4.90000000E+02  2.40000000E+01  0.00000000E+00
  4.90000000E+02  2.20000000E+01  0.00000000E+00
  4.90000000E+02  2.00000000E+01  0.00000000E+00
  4.90000000E+02  1.80000000E+01  0.00000000E+00
  4.90000000E+02  1.60000000E+01  0.00000000E+00
  4.90000000E+02  1.40000000E+01  0.00000000E+00
  4.90000000E+02  1.20000000E+01  0.00000000E+00
  4.90000000E+02  1.00000000E+01  0.00000000E+00
  4.90000000E+02  8.00000000E+00  0.00000000E+00
  4.90000000E+02  6.00000000E+00  0.00000000E+00
  4.90000000E+02  4.00000000E+00  0.00000000E+00
  4.90000000E+02  2.00000000E+00  0.00000000E+00
  4.90000000E+02 -3.33066907E-14  0.00000000E+00
  5.00000000E+02  1.00000000E+02  0.00000000E+00
  5.00000000E+02  9.80000000E+01  0.00000000E+00
  5.00000000E+02  9.60000000E+01  0.00000000E+00
  5.00000000E+02  9.40000000E+01  0.00000000E+00
  5.00000000E+02  9.20000000E+01  0.00000000E+00
  5.00000000E+02  9.00000000E+01  0.00000000E+00
  5.00000000E+02  8.80000000E+01  0.00000000E+00
  5.00000000E+02  8.60000000E+01  0.00000000E+00
  5.00000000E+02  8.40000000E+01  0.00000000E+00
  5.00000000E+02  8.20000000E+01  0.00000000E+00
  5.00000000E+02  8.00000000E+01  0.00000000E+00
  5.00000000E+02  7.80000000E+01  0.00000000E+00
  5.00000000E+02  7.60000000E+01  0.00000000E+00
  5.00000000E+02  7.40000000E+01  0.00000000E+00
  5.00000000E+02  7.20000000E+01  0.00000000E+00
  5.00000000E+02  7.00000000E+01  0.00000000E+00
  5.00000000E+02  6.80000000E+01  0.00000000E+00
  5.00000000E+02  6.60000000E+01  0.00000000E+00
  5.00000000E+02  6.40000000E+01  0.00000000E+00
  5.00000000E+02  6.20000000E+01  0.00000000E+00
  5.00000000E+02  6.00000000E+01  0.00000000E+00
  5.00000000E+02  5.80000000E+01  0.00000000E+00
  5.00000000E+02  5.60000000E+01  0.00000000E+00
  5.00000000E+02  5.40000000E+01  0.00000000E+00
  5.00000000E+02  5.20000000E+01  0.00000000E+00
  5.00000000E+02  5.00000000E+01  0.00000000E+00
  5.00000000E+02  4.80000000E+01  0.00000000E+00
  5.00000000E+02  4.60000000E+01  0.00000000E+00
  5.00000000E+02  4.40000000E+01  0.00000000E+00
  5.00000000E+02  4.20000000E+01  0.00000000E+00
  5.00000000E+02  4.00000000E+01  0.00000000E+00
  5.00000000E+02  3.80000000E+01  0.00000000E+00
  5.00000000E+02  3.60000000E+01  0.00000000E+00
  5.00000000E+02  3.40000000E+01  0.00000000E+00
  5.00000000E+02  3.20000000E+01  0.00000000E+00
  5.00000000E+02  3.00000000E+01  0.00000000E+00
  5.00000000E+02  2.80000000E+01  0.00000000E+00
  5.00000000E+02  2.60000000E+01  0.00000000E+00
  5.00000000E+02  2.40000000E+01  0.00000000E+00
  5.00000000E+02  2.20000000E+01  0.00000000E+00
  5.00000000E+02  2.00000000E+01  0.00000000E+00
  5.00000000E+02  1.80000000E+01  0.00000000E+00
  5.00000000E+02  1.60000000E+01  0.00000000E+00
  5.00000000E+02  1.40000000E+01  0.00000000E+00
  5.00000000E+02  1.20000000E+01  0.00000000E+00
  5.00000000E+02  1.00000000E+01  0.00000000E+00
  5.00000000E+02  8.00000000E+00  0.00000000E+00
  5.00000000E+02  6.00000000E+00  0.00000000E+00
  5.00000000E+02  4.00000000E+00  0.00000000E+00
  5.00000000E+02  2.00000000E+00  0.00000000E+00
  5.00000000E+02 -3.33066907E-14  0.00000000E+00
  5.10000000E+02  1.00000000E+02  0.00000000E+00
  5.10000000E+02  9.80000000E+01  0.00000000E+00
  5.10000000E+02  9.60000000E+01  0.00000000E+00
  5.10000000E+02  9.40000000E+01  0.00000000E+00
  5.10000000E+02  9.20000000E+01  0.00000000E+00
  5.10000000E+02  9.00000000E+01  0.00000000E+00
  5.10000000E+02  8.80000000E+01  0.00000000E+00
  5.10000000E+02  8.60000000E+01  0.00000000E+00
  5.10000000E+02  8.40000000E+01  0.00000000E+00
  5.10000000E+02  8.20000000E+01  0.00000000E+00
  5.10000000E+02  8.00000000E+01  0.00000000E+00
  5.10000000E+02  7.80000000E+01  0.00000000E+00
  5.10000000E+02  7.60000000E+01  0.00000000E+00
  5.10000000E+02  7.40000000E+01  0.00000000E+00
  5.10000000E+02  7.20000000E+01  0.00000000E+00
  5.10000000E+02  7.00000000E+01  0.00000000E+00
  5.10000000E+02  6.80000000E+01  0.00000000E+00
  5.10000000E+02  6.60000000E+01  0.00000000E+00
  5.10000000E+02  6.40000000E+01  0.00000000E+00
  5.10000000E+02  6.20000000E+01  0.00000000E+00
  5.10000000E+02  6.00000000E+01  0.00000000E+00
  5.10000000E+02  5.80000000E+01  0.00000000E+00
  5.10000000E+02  5.60000000E+01  0.00000000E+00
  5.10000000E+02  5.40000000E+01  0.00000000E+00
  5.10000000E+02  5.20000000E+01  0.00000000E+00
  5.10000000E+02  5.00000000E+01  0.00000000E+00
  5.10000000E+02  4.80000000E+01  0.00000000E+00
  5.10000000E+02  4.60000000E+01  0.00000000E+00
  5.10000000E+02  4.40000000E+01  0.00000000E+00
  5.10000000E+02  4.20000000E+01  0.00000000E+00
  5.10000000E+02  4.00000000E+01  0.00000000E+00
  5.10000000E+02  3.80000000E+01  0.00000000E+00
  5.10000000E+02  3.60000000E+01  0.00000000E+00
  5.10000000E+02  3.40000000E+01  0.00000000E+00
  5.10000000E+02  3.20000000E+01  0.00000000E+00
  5.10000000E+02  3.00000000E+01  0.00000000E+00
  5.10000000E+02  2.80000000E+01  0.00000000E+00
  5.10000000E+02  2.60000000E+01  0.00000000E+00
  5.10000000E+02  2.40000000E+01  0.00000000E+00
  5.10000000E+02  2.20000000E+01  0.00000000E+00
  5.10000000E+02  2.00000000E+01  0.00000000E+00
  5.10000000E+02  1.80000000E+01  0.00000000E+00
  5.10000000E+02  1.60000000E+01  0.00000000E+00
  5.10000000E+02  1.40000000E+01  0.00000000E+00
  5.10000000E+02  1.20000000E+01  0.00000000E+00
  5.10000000E+02  1.00000000E+01  0.00000000E+00
  5.10000000E+02  8.00000000E+00  0.00000000E+00
  5.10000000E+02  6.00000000E+00  0.00000000E+00
  5.10000000E+02  4.00000000E+00  0.00000000E+00
  5.10000000E+02  2.00000000E+00  0.00000000E+00
  5.10000000E+02 -3.33066907E-14  0.00000000E+00
  5.20000000E+02  1.00000000E+02  0.00000000E+00
  5.20000000E+02  9.80000000E+01  0.00000000E+00
  5.20000000E+02  9.60000000E+01  0.00000000E+00
  5.20000000E+02  9.40000000E+01  0.00000000E+00
  5.20000000E+02  9.20000000E+01  0.00000000E+00
  5.20000000E+02  9.00000000E+01  0.00000000E+00
  5.20000000E+02  8.80000000E+01  0.00000000E+00
  5.20000000E+02  8.60000000E+01  0.00000000E+00
  5.20000000E+02  8.40000000E+01  0.00000000E+00
  5.20000000E+02  8.20000000E+01  0.00000000E+00
  5.20000000E+02  8.00000000E+01  0.00000000E+00
  5.20000000E+02  7.80000000E+01  0.00000000E+00
  5.20000000E+02  7.60000000E+01  0.00000000E+00
  5.20000000E+02  7.40000000E+01  0.00000000E+00
  5.20000000E+02  7.20000000E+01  0.00000000E+00
  5.20000000E+02  7.00000000E+01  0.00000000E+00
  5.20000000E+02  6.80000000E+01  0.00000000E+00
  5.20000000E+02  6.60000000E+01  0.00000000E+00
  5.20000000E+02  6.40000000E+01  0.00000000E+00
  5.20000000E+02  6.20000000E+01  0.00000000E+00
  5.20000000E+02  6.00000000E+01  0.00000000E+00
  5.20000000E+02  5.80000000E+01  0.00000000E+00
  5.20000000E+02  5.60000000E+01  0.00000000E+00
  5.20000000E+02  5.40000000E+01  0.00000000E+00
  5.20000000E+02  5.20000000E+01  0.00000000E+00
  5.20000000E+02  5.00000000E+01  0.00000000E+00
  5.20000000E+02  4.80000000E+01  0.00000000E+00
  5.20000000E+02  4.60000000E+01  0.00000000E+00
  5.20000000E+02  4.40000000E+01  0.00000000E+00
  5.20000000E+02  4.20000000E+01  0.00000000E+00
  5.20000000E+02  4.00000000E+01  0.00000000E+00
  5.20000000E+02  3.80000000E+01  0.00000000E+00
  5.20000000E+02  3.60000000E+01  0.00000000E+00
  5.20000000E+02  3.40000000E+01  0.00000000E+00
  5.20000000E+02  3.20000000E+01  0.00000000E+00
  5.20000000E+02  3.00000000E+01  0.00000000E+00
  5.20000000E+02  2.80000000E+01  0.00000000E+00
  5.20000000E+02  2.60000000E+01  0.00000000E+00
  5.20000000E+02  2.40000000E+01  0.00000000E+00
  5.20000000E+02  2.20000000E+01  0.00000000E+00
  5.20000000E+02  2.00000000E+01  0.00000000E+00
  5.20000000E+02  1.80000000E+01  0.00000000E+00
  5.20000000E+02  1.60000000E+01  0.00000000E+00
  5.20000000E+02  1.40000000E+01  0.00000000E+00
  5.20000000E+02  1.20000000E+01  0.00000000E+00
  5.20000000E+02  1.00000000E+01  0.00000000E+00
  5.20000000E+02  8.00000000E+00  0.00000000E+00
  5.20000000E+02  6.00000000E+00  0.00000000E+00
  5.20000000E+02  4.00000000E+00  0.00000000E+00
  5.20000000E+02  2.00000000E+00  0.00000000E+00
  5.20000000E+02 -3.33066907E-14  0.00000000E+00
  5.30000000E+02  1.00000000E+02  0.00000000E+00
  5.30000000E+02  9.80000000E+01  0.00000000E+00
  5.30000000E+02  9.60000000E+01  0.00000000E+00
  5.30000000E+02  9.40000000E+01  0.00000000E+00
  5.30000000E+02  9.20000000E+01  0.00000000E+00
  5.30000000E+02  9.00000000E+01  0.00000000E+00
  5.30000000E+02  8.80000000E+01  0.00000000E+00
  5.30000000E+02  8.60000000E+01  0.00000000E+00
  5.30000000E+02  8.40000000E+01  0.00000000E+00
  5.30000000E+02  8.20000000E+01  0.00000000E+00
  5.30000000E+02  8.00000000E+01  0.00000000E+00
  5.30000000E+02  7.80000000E+01  0.00000000E+00
  5.30000000E+02  7.60000000E+01  0.00000000E+00
  5.30000000E+02  7.40000000E+01  0.00000000E+00
  5.30000000E+02  7.20000000E+01  0.00000000E+00
  5.30000000E+02  7.00000000E+01  0.00000000E+00
  5.30000000E+02  6.80000000E+01  0.00000000E+00
  5.30000000E+02  6.60000000E+01  0.00000000E+00
  5.30000000E+02  6.40000000E+01  0.00000000E+00
  5.30000000E+02  6.20000000E+01  0.00000000E+00
  5.30000000E+02  6.00000000E+01  0.00000000E+00
  5.30000000E+02  5.80000000E+01  0.00000000E+00
  5.30000000E+02  5.60000000E+01  0.00000000E+00
  5.30000000E+02  5.40000000E+01  0.00000000E+00
  5.30000000E+02  5.20000000E+01  0.00000000E+00
  5.30000000E+02  5.00000000E+01  0.00000000E+00
  5.30000000E+02  4.80000000E+01  0.00000000E+00
  5.30000000E+02  4.60000000E+01  0.00000000E+00
  5.30000000E+02  4.40000000E+01  0.00000000E+00
  5.30000000E+02  4.20000000E+01  0.00000000E+00
  5.30000000E+02  4.00000000E+01  0.00000000E+00
  5.30000000E+02  3.80000000E+01  0.00000000E+00
  5.30000000E+02  3.60000000E+01  0.00000000E+00
  5.30000000E+02  3.40000000E+01  0.00000000E+00
  5.30000000E+02  3.20000000E+01  0.00000000E+00
  5.30000000E+02  3.00000000E+01  0.00000000E+00
  5.30000000E+02  2.80000000E+01  0.00000000E+00
  5.30000000E+02  2.60000000E+01  0.00000000E+00
  5.30000000E+02  2.40000000E+01  0.00000000E+00
  5.30000000E+02  2.20000000E+01  0.00000000E+00
  5.30000000E+02  2.00000000E+01  0.00000000E+00
  5.30000000E+02  1.80000000E+01  0.00000000E+00
  5.30000000E+02  1.60000000E+01  0.00000000E+00
  5.30000000E+02  1.40000000E+01  0.00000000E+00
  5.30000000E+02  1.20000000E+01  0.00000000E+00
  5.30000000E+02  1.00000000E+01  0.00000000E+00
  5.30000000E+02  8.00000000E+00  0.00000000E+00
  5.30000000E+02  6.00000000E+00  0.00000000E+00
  5.30000000E+02  4.00000000E+00  0.00000000E+00
  5.30000000E+02  2.00000000E+00  0.00000000E+00
  5.30000000E+02 -3.33066907E-14  0.00000000E+00
  5.40000000E+02  1.00000000E+02  0.00000000E+00
  5.40000000E+02  9.80000000E+01  0.00000000E+00
  5.40000000E+02  9.60000000E+01  0.00000000E+00
  5.40000000E+02  9.40000000E+01  0.00000000E+00
  5.40000000E+02  9.20000000E+01  0.00000000E+00
  5.40000000E+02  9.00000000E+01  0.00000000E+00
  5.40000000E+02  8.80000000E+01  0.00000000E+00
  5.40000000E+02  8.60000000E+01  0.00000000E+00
  5.40000000E+02  8.40000000E+01  0.00000000E+00
  5.40000000E+02  8.20000000E+01  0.00000000E+00
  5.40000000E+02  8.00000000E+01  0.00000000E+00
  5.40000000E+02  7.80000000E+01  0.00000000E+00
  5.40000000E+02  7.60000000E+01  0.00000000E+00
  5.40000000E+02  7.40000000E+01  0.00000000E+00
  5.40000000E+02  7.20000000E+01  0.00000000E+00
  5.40000000E+02  7.00000000E+01  0.00000000E+00
  5.40000000E+02  6.80000000E+01  0.00000000E+00
  5.40000000E+02  6.60000000E+01  0.00000000E+00
  5.40000000E+02  6.40000000E+01  0.00000000E+00
  5.40000000E+02  6.20000000E+01  0.00000000E+00
  5.40000000E+02  6.00000000E+01  0.00000000E+00
  5.40000000E+02  5.80000000E+01  0.00000000E+00
  5.40000000E+02  5.60000000E+01  0.00000000E+00
  5.40000000E+02  5.40000000E+01  0.00000000E+00
  5.40000000E+02  5.20000000E+01  0.00000000E+00
  5.40000000E+02  5.00000000E+01  0.00000000E+00
  5.40000000E+02  4.80000000E+01  0.00000000E+00
  5.40000000E+02  4.60000000E+01  0.00000000E+00
  5.40000000E+02  4.40000000E+01  0.00000000E+00
  5.40000000E+02  4.20000000E+01  0.00000000E+00
  5.40000000E+02  4.00000000E+01  0.00000000E+00
  5.40000000E+02  3.80000000E+01  0.00000000E+00
  5.40000000E+02  3.60000000E+01  0.00000000E+00
  5.40000000E+02  3.40000000E+01  0.00000000E+00
  5.40000000E+02  3.20000000E+01  0.00000000E+00
  5.40000000E+02  3.00000000E+01  0.00000000E+00
  5.40000000E+02  2.80000000E+01  0.00000000E+00
  5.40000000E+02  2.60000000E+01  0.00000000E+00
  5.40000000E+02  2.40000000E+01  0.00000000E+00
  5.40000000E+02  2.20000000E+01  0.00000000E+00
  5.40000000E+02  2.00000000E+01  0.00000000E+00
  5.40000000E+02  1.80000000E+01  0.00000000E+00
  5.40000000E+02  1.60000000E+01  0.00000000E+00
  5.40000000E+02  1.40000000E+01  0.00000000E+00
  5.40000000E+02  1.20000000E+01  0.00000000E+00
  5.40000000E+02  1.00000000E+01  0.00000000E+00
  5.40000000E+02  8.00000000E+00  0.00000000E+00
  5.40000000E+02  6.00000000E+00  0.00000000E+00
  5.40000000E+02  4.00000000E+00  0.00000000E+00
  5.40000000E+02  2.00000000E+00  0.00000000E+00
  5.40000000E+02 -3.33066907E-14  0.00000000E+00
  5.50000000E+02  1.00000000E+02  0.00000000E+00
  5.50000000E+02  9.80000000E+01  0.00000000E+00
  5.50000000E+02  9.60000000E+01  0.00000000E+00
  5.50000000E+02  9.40000000E+01  0.00000000E+00
  5.50000000E+02  9.20000000E+01  0.00000000E+00
  5.50000000E+02  9.00000000E+01  0.00000000E+00
  5.50000000E+02  8.80000000E+01  0.00000000E+00
  5.50000000E+02  8.60000000E+01  0.00000000E+00
  5.50000000E+02  8.40000000E+01  0.00000000E+00
  5.50000000E+02  8.20000000E+01  0.00000000E+00
  5.50000000E+02  8.00000000E+01  0.00000000E+00
  5.50000000E+02  7.80000000E+01  0.00000000E+00
  5.50000000E+02  7.60000000E+01  0.00000000E+00
  5.50000000E+02  7.40000000E+01  0.00000000E+00
  5.50000000E+02  7.20000000E+01  0.00000000E+00
  5.50000000E+02  7.00000000E+01  0.00000000E+00
  5.50000000E+02  6.80000000E+01  0.00000000E+00
  5.50000000E+02  6.60000000E+01  0.00000000E+00
  5.50000000E+02  6.40000000E+01  0.00000000E+00
  5.50000000E+02  6.20000000E+01  0.00000000E+00
  5.50000000E+02  6.00000000E+01  0.00000000E+00
  5.50000000E+02  5.80000000E+01  0.00000000E+00
  5.50000000E+02  5.60000000E+01  0.00000000E+00
  5.50000000E+02  5.40000000E+01  0.00000000E+00
  5.50000000E+02  5.20000000E+01  0.00000000E+00
  5.50000000E+02  5.00000000E+01  0.00000000E+00
  5.50000000E+02  4.80000000E+01  0.00000000E+00
  5.50000000E+02  4.60000000E+01  0.00000000E+00
  5.50000000E+02  4.40000000E+01  0.00000000E+00
  5.50000000E+02  4.20000000E+01  0.00000000E+00
  5.50000000E+02  4.00000000E+01  0.00000000E+00
  5.50000000E+02  3.80000000E+01  0.00000000E+00
  5.50000000E+02  3.60000000E+01  0.00000000E+00
  5.50000000E+02  3.40000000E+01  0.00000000E+00
  5.50000000E+02  3.20000000E+01  0.00000000E+00
  5.50000000E+02  3.00000000E+01  0.00000000E+00
  5.50000000E+02  2.80000000E+01  0.00000000E+00
  5.50000000E+02  2.60000000E+01  0.00000000E+00
  5.50000000E+02  2.40000000E+01  0.00000000E+00
  5.50000000E+02  2.20000000E+01  0.00000000E+00
  5.50000000E+02  2.00000000E+01  0.00000000E+00
  5.50000000E+02  1.80000000E+01  0.00000000E+00
  5.50000000E+02  1.60000000E+01  0.00000000E+00
  5.50000000E+02  1.40000000E+01  0.00000000E+00
  5.50000000E+02  1.20000000E+01  0.00000000E+00
  5.50000000E+02  1.00000000E+01  0.00000000E+00
  5.50000000E+02  8.00000000E+00  0.00000000E+00
  5.50000000E+02  6.00000000E+00  0.00000000E+00
  5.50000000E+02  4.00000000E+00  0.00000000E+00
  5.50000000E+02  2.00000000E+00  0.00000000E+00
  5.50000000E+02 -3.33066907E-14  0.00000000E+00
  5.60000000E+02  1.00000000E+02  0.00000000E+00
  5.60000000E+02  9.80000000E+01  0.00000000E+00
  5.60000000E+02  9.60000000E+01  0.00000000E+00
  5.60000000E+02  9.40000000E+01  0.00000000E+00
  5.60000000E+02  9.20000000E+01  0.00000000E+00
  5.60000000E+02  9.00000000E+01  0.00000000E+00
  5.60000000E+02  8.80000000E+01  0.00000000E+00
  5.60000000E+02  8.60000000E+01  0.00000000E+00
  5.60000000E+02  8.40000000E+01  0.00000000E+00
  5.60000000E+02  8.20000000E+01  0.00000000E+00
  5.60000000E+02  8.00000000E+01  0.00000000E+00
  5.60000000E+02  7.80000000E+01  0.00000000E+00
  5.60000000E+02  7.60000000E+01  0.00000000E+00
  5.60000000E+02  7.40000000E+01  0.00000000E+00
  5.60000000E+02  7.20000000E+01  0.00000000E+00
  5.60000000E+02  7.00000000E+01  0.00000000E+00
  5.60000000E+02  6.80000000E+01  0.00000000E+00
  5.60000000E+02  6.60000000E+01  0.00000000E+00
  5.60000000E+02  6.40000000E+01  0.00000000E+00
  5.60000000E+02  6.20000000E+01  0.00000000E+00
  5.60000000E+02  6.00000000E+01  0.00000000E+00
  5.60000000E+02  5.80000000E+01  0.00000000E+00
  5.60000000E+02  5.60000000E+01  0.00000000E+00
  5.60000000E+02  5.40000000E+01  0.00000000E+00
  5.60000000E+02  5.20000000E+01  0.00000000E+00
  5.60000000E+02  5.00000000E+01  0.00000000E+00
  5.60000000E+02  4.80000000E+01  0.00000000E+00
  5.60000000E+02  4.60000000E+01  0.00000000E+00
  5.60000000E+02  4.40000000E+01  0.00000000E+00
  5.60000000E+02  4.20000000E+01  0.00000000E+00
  5.60000000E+02  4.00000000E+01  0.00000000E+00
  5.60000000E+02  3.80000000E+01  0.00000000E+00
  5.60000000E+02  3.60000000E+01  0.00000000E+00
  5.60000000E+02  3.40000000E+01  0.00000000E+00
  5.60000000E+02  3.20000000E+01  0.00000000E+00
  5.60000000E+02  3.00000000E+01  0.00000000E+00
  5.60000000E+02  2.80000000E+01  0.00000000E+00
  5.60000000E+02  2.60000000E+01  0.00000000E+00
  5.60000000E+02  2.40000000E+01  0.00000000E+00
  5.60000000E+02  2.20000000E+01  0.00000000E+00
  5.60000000E+02  2.00000000E+01  0.00000000E+00
  5.60000000E+02  1.80000000E+01  0.00000000E+00
  5.60000000E+02  1.60000000E+01  0.00000000E+00
  5.60000000E+02  1.40000000E+01  0.00000000E+00
  5.60000000E+02  1.20000000E+01  0.00000000E+00
  5.60000000E+02  1.00000000E+01  0.00000000E+00
  5.60000000E+02  8.00000000E+00  0.00000000E+00
  5.60000000E+02  6.00000000E+00  0.00000000E+00
  5.60000000E+02  4.00000000E+00  0.00000000E+00
  5.60000000E+02  2.00000000E+00  0.00000000E+00
  5.60000000E+02 -3.33066907E-14  0.00000000E+00
  5.70000000E+02  1.00000000E+02  0.00000000E+00
  5.70000000E+02  9.80000000E+01  0.00000000E+00
  5.70000000E+02  9.60000000E+01  0.00000000E+00
  5.70000000E+02  9.40000000E+01  0.00000000E+00
  5.70000000E+02  9.20000000E+01  0.00000000E+00
  5.70000000E+02  9.00000000E+01  0.00000000E+00
  5.70000000E+02  8.80000000E+01  0.00000000E+00
  5.70000000E+02  8.60000000E+01  0.00000000E+00
  5.70000000E+02  8.40000000E+01  0.00000000E+00
  5.70000000E+02  8.20000000E+01  0.00000000E+00
  5.70000000E+02  8.00000000E+01  0.00000000E+00
  5.70000000E+02  7.80000000E+01  0.00000000E+00
  5.70000000E+02  7.60000000E+01  0.00000000E+00
  5.70000000E+02  7.40000000E+01  0.00000000E+00
  5.70000000E+02  7.20000000E+01  0.00000000E+00
  5.70000000E+02  7.00000000E+01  0.00000000E+00
  5.70000000E+02  6.80000000E+01  0.00000000E+00
  5.70000000E+02  6.60000000E+01  0.00000000E+00
  5.70000000E+02  6.40000000E+01  0.00000000E+00
  5.70000000E+02  6.20000000E+01  0.00000000E+00
  5.70000000E+02  6.00000000E+01  0.00000000E+00
  5.70000000E+02  5.80000000E+01  0.00000000E+00
  5.70000000E+02  5.60000000E+01  0.00000000E+00
  5.70000000E+02  5.40000000E+01  0.00000000E+00
  5.70000000E+02  5.20000000E+01  0.00000000E+00
  5.70000000E+02  5.00000000E+01  0.00000000E+00
  5.70000000E+02  4.80000000E+01  0.00000000E+00
  5.70000000E+02  4.60000000E+01  0.00000000E+00
  5.70000000E+02  4.40000000E+01  0.00000000E+00
  5.70000000E+02  4.20000000E+01  0.00000000E+00
  5.70000000E+02  4.00000000E+01  0.00000000E+00
  5.70000000E+02  3.80000000E+01  0.00000000E+00
  5.70000000E+02  3.60000000E+01  0.00000000E+00
  5.70000000E+02  3.40000000E+01  0.00000000E+00
  5.70000000E+02  3.20000000E+01  0.00000000E+00
  5.70000000E+02  3.00000000E+01  0.00000000E+00
  5.70000000E+02  2.80000000E+01  0.00000000E+00
  5.70000000E+02  2.60000000E+01  0.00000000E+00
  5.70000000E+02  2.40000000E+01  0.00000000E+00
  5.70000000E+02  2.20000000E+01  0.00000000E+00
  5.70000000E+02  2.00000000E+01  0.00000000E+00
  5.70000000E+02  1.80000000E+01  0.00000000E+00
  5.70000000E+02  1.60000000E+01  0.00000000E+00
  5.70000000E+02  1.40000000E+01  0.00000000E+00
  5.70000000E+02  1.20000000E+01  0.00000000E+00
  5.70000000E+02  1.00000000E+01  0.00000000E+00
  5.70000000E+02  8.00000000E+00  0.00000000E+00
  5.70000000E+02  6.00000000E+00  0.00000000E+00
  5.70000000E+02  4.00000000E+00  0.00000000E+00
  5.70000000E+02  2.00000000E+00  0.00000000E+00
  5.70000000E+02 -3.33066907E-14  0.00000000E+00
  5.80000000E+02  1.00000000E+02  0.00000000E+00
  5.80000000E+02  9.80000000E+01  0.00000000E+00
  5.80000000E+02  9.60000000E+01  0.00000000E+00
  5.80000000E+02  9.40000000E+01  0.00000000E+00
  5.80000000E+02  9.20000000E+01  0.00000000E+00
  5.80000000E+02  9.00000000E+01  0.00000000E+00
  5.80000000E+02  8.80000000E+01  0.00000000E+00
  5.80000000E+02  8.60000000E+01  0.00000000E+00
  5.80000000E+02  8.40000000E+01  0.00000000E+00
  5.80000000E+02  8.20000000E+01  0.00000000E+00
  5.80000000E+02  8.00000000E+01  0.00000000E+00
  5.80000000E+02  7.80000000E+01  0.00000000E+00
  5.80000000E+02  7.60000000E+01  0.00000000E+00
  5.80000000E+02  7.40000000E+01  0.00000000E+00
  5.80000000E+02  7.20000000E+01  0.00000000E+00
  5.80000000E+02  7.00000000E+01  0.00000000E+00
  5.80000000E+02  6.80000000E+01  0.00000000E+00
  5.80000000E+02  6.60000000E+01  0.00000000E+00
  5.80000000E+02  6.40000000E+01  0.00000000E+00
  5.80000000E+02  6.20000000E+01  0.00000000E+00
  5.80000000E+02  6.00000000E+01  0.00000000E+00
  5.80000000E+02  5.80000000E+01  0.00000000E+00
  5.80000000E+02  5.60000000E+01  0.00000000E+00
  5.80000000E+02  5.40000000E+01  0.00000000E+00
  5.80000000E+02  5.20000000E+01  0.00000000E+00
  5.80000000E+02  5.00000000E+01  0.00000000E+00
  5.80000000E+02  4.80000000E+01  0.00000000E+00
  5.80000000E+02  4.60000000E+01  0.00000000E+00
  5.80000000E+02  4.40000000E+01  0.00000000E+00
  5.80000000E+02  4.20000000E+01  0.00000000E+00
  5.80000000E+02  4.00000000E+01  0.00000000E+00
  5.80000000E+02  3.80000000E+01  0.00000000E+00
  5.80000000E+02  3.60000000E+01  0.00000000E+00
  5.80000000E+02  3.40000000E+01  0.00000000E+00
  5.80000000E+02  3.20000000E+01  0.00000000E+00
  5.80000000E+02  3.00000000E+01  0.00000000E+00
  5.80000000E+02  2.80000000E+01  0.00000000E+00
  5.80000000E+02  2.60000000E+01  0.00000000E+00
  5.80000000E+02  2.40000000E+01  0.00000000E+00
  5.80000000E+02  2.20000000E+01  0.00000000E+00
  5.80000000E+02  2.00000000E+01  0.00000000E+00
  5.80000000E+02  1.80000000E+01  0.00000000E+00
  5.80000000E+02  1.60000000E+01  0.00000000E+00
  5.80000000E+02  1.40000000E+01  0.00000000E+00
  5.80000000E+02  1.20000000E+01  0.00000000E+00
  5.80000000E+02  1.00000000E+01  0.00000000E+00
  5.80000000E+02  8.00000000E+00  0.00000000E+00
  5.80000000E+02  6.00000000E+00  0.00000000E+00
  5.80000000E+02  4.00000000E+00  0.00000000E+00
  5.80000000E+02  2.00000000E+00  0.00000000E+00
  5.80000000E+02 -3.33066907E-14  0.00000000E+00
  5.90000000E+02  1.00000000E+02  0.00000000E+00
  5.90000000E+02  9.80000000E+01  0.00000000E+00
  5.90000000E+02  9.60000000E+01  0.00000000E+00
  5.90000000E+02  9.40000000E+01  0.00000000E+00
  5.90000000E+02  9.20000000E+01  0.00000000E+00
  5.90000000E+02  9.00000000E+01  0.00000000E+00
  5.90000000E+02  8.80000000E+01  0.00000000E+00
  5.90000000E+02  8.60000000E+01  0.00000000E+00
  5.90000000E+02  8.40000000E+01  0.00000000E+00
  5.90000000E+02  8.20000000E+01  0.00000000E+00
  5.90000000E+02  8.00000000E+01  0.00000000E+00
  5.90000000E+02  7.80000000E+01  0.00000000E+00
  5.90000000E+02  7.60000000E+01  0.00000000E+00
  5.90000000E+02  7.40000000E+01  0.00000000E+00
  5.90000000E+02  7.20000000E+01  0.00000000E+00
  5.90000000E+02  7.00000000E+01  0.00000000E+00
  5.90000000E+02  6.80000000E+01  0.00000000E+00
  5.90000000E+02  6.60000000E+01  0.00000000E+00
  5.90000000E+02  6.40000000E+01  0.00000000E+00
  5.90000000E+02  6.20000000E+01  0.00000000E+00
  5.90000000E+02  6.00000000E+01  0.00000000E+00
  5.90000000E+02  5.80000000E+01  0.00000000E+00
  5.90000000E+02  5.60000000E+01  0.00000000E+00
  5.90000000E+02  5.40000000E+01  0.00000000E+00
  5.90000000E+02  5.20000000E+01  0.00000000E+00
  5.90000000E+02  5.00000000E+01  0.00000000E+00
  5.90000000E+02  4.80000000E+01  0.00000000E+00
  5.90000000E+02  4.60000000E+01  0.00000000E+00
  5.90000000E+02  4.40000000E+01  0.00000000E+00
  5.90000000E+02  4.20000000E+01  0.00000000E+00
  5.90000000E+02  4.00000000E+01  0.00000000E+00
  5.90000000E+02  3.80000000E+01  0.00000000E+00
  5.90000000E+02  3.60000000E+01  0.00000000E+00
  5.90000000E+02  3.40000000E+01  0.00000000E+00
  5.90000000E+02  3.20000000E+01  0.00000000E+00
  5.90000000E+02  3.00000000E+01  0.00000000E+00
  5.90000000E+02  2.80000000E+01  0.00000000E+00
  5.90000000E+02  2.60000000E+01  0.00000000E+00
  5.90000000E+02  2.40000000E+01  0.00000000E+00
  5.90000000E+02  2.20000000E+01  0.00000000E+00
  5.90000000E+02  2.00000000E+01  0.00000000E+00
  5.90000000E+02  1.80000000E+01  0.00000000E+00
  5.90000000E+02  1.60000000E+01  0.00000000E+00
  5.90000000E+02  1.40000000E+01  0.00000000E+00
  5.90000000E+02  1.20000000E+01  0.00000000E+00
  5.90000000E+02  1.00000000E+01  0.00000000E+00
  5.90000000E+02  8.00000000E+00  0.00000000E+00
  5.90000000E+02  6.00000000E+00  0.00000000E+00
  5.90000000E+02  4.00000000E+00  0.00000000E+00
  5.90000000E+02  2.00000000E+00  0.00000000E+00
  5.90000000E+02 -3.33066907E-14  0.00000000E+00
  6.00000000E+02  1.00000000E+02  0.00000000E+00
  6.00000000E+02  9.80000000E+01  0.00000000E+00
  6.00000000E+02  9.60000000E+01  0.00000000E+00
  6.00000000E+02  9.40000000E+01  0.00000000E+00
  6.00000000E+02  9.20000000E+01  0.00000000E+00
  6.00000000E+02  9.00000000E+01  0.00000000E+00
  6.00000000E+02  8.80000000E+01  0.00000000E+00
  6.00000000E+02  8.60000000E+01  0.00000000E+00
  6.00000000E+02  8.40000000E+01  0.00000000E+00
  6.00000000E+02  8.20000000E+01  0.00000000E+00
  6.00000000E+02  8.00000000E+01  0.00000000E+00
  6.00000000E+02  7.80000000E+01  0.00000000E+00
  6.00000000E+02  7.60000000E+01  0.00000000E+00
  6.00000000E+02  7.40000000E+01  0.00000000E+00
  6.00000000E+02  7.20000000E+01  0.00000000E+00
  6.00000000E+02  7.00000000E+01  0.00000000E+00
  6.00000000E+02  6.80000000E+01  0.00000000E+00
  6.00000000E+02  6.60000000E+01  0.00000000E+00
  6.00000000E+02  6.40000000E+01  0.00000000E+00
  6.00000000E+02  6.20000000E+01  0.00000000E+00
  6.00000000E+02  6.00000000E+01  0.00000000E+00
  6.00000000E+02  5.80000000E+01  0.00000000E+00
  6.00000000E+02  5.60000000E+01  0.00000000E+00
  6.00000000E+02  5.40000000E+01  0.00000000E+00
  6.00000000E+02  5.20000000E+01  0.00000000E+00
  6.00000000E+02  5.00000000E+01  0.00000000E+00
  6.00000000E+02  4.80000000E+01  0.00000000E+00
  6.00000000E+02  4.60000000E+01  0.00000000E+00
  6.00000000E+02  4.40000000E+01  0.00000000E+00
  6.00000000E+02  4.20000000E+01  0.00000000E+00
  6.00000000E+02  4.00000000E+01  0.00000000E+00
  6.00000000E+02  3.80000000E+01  0.00000000E+00
  6.00000000E+02  3.60000000E+01  0.00000000E+00
  6.00000000E+02  3.40000000E+01  0.00000000E+00
  6.00000000E+02  3.20000000E+01  0.00000000E+00
  6.00000000E+02  3.00000000E+01  0.00000000E+00
  6.00000000E+02  2.80000000E+01  0.00000000E+00
  6.00000000E+02  2.60000000E+01  0.00000000E+00
  6.00000000E+02  2.40000000E+01  0.00000000E+00
  6.00000000E+02  2.20000000E+01  0.00000000E+00
  6.00000000E+02  2.00000000E+01  0.00000000E+00
  6.00000000E+02  1.80000000E+01  0.00000000E+00
  6.00000000E+02  1.60000000E+01  0.00000000E+00
  6.00000000E+02  1.40000000E+01  0.00000000E+00
  6.00000000E+02  1.20000000E+01  0.00000000E+00
  6.00000000E+02  1.00000000E+01  0.00000000E+00
  6.00000000E+02  8.00000000E+00  0.00000000E+00
  6.00000000E+02  6.00000000E+00  0.00000000E+00
  6.00000000E+02  4.00000000E+00  0.00000000E+00
  6.00000000E+02  2.00000000E+00  0.00000000E+00
  6.00000000E+02 -3.33066907E-14  0.00000000E+00
  6.10000000E+02  1.00000000E+02  0.00000000E+00
  6.10000000E+02  9.80000000E+01  0.00000000E+00
  6.10000000E+02  9.60000000E+01  0.00000000E+00
  6.10000000E+02  9.40000000E+01  0.00000000E+00
  6.10000000E+02  9.20000000E+01  0.00000000E+00
  6.10000000E+02  9.00000000E+01  0.00000000E+00
  6.10000000E+02  8.80000000E+01  0.00000000E+00
  6.10000000E+02  8.60000000E+01  0.00000000E+00
  6.10000000E+02  8.40000000E+01  0.00000000E+00
  6.10000000E+02  8.20000000E+01  0.00000000E+00
  6.10000000E+02  8.00000000E+01  0.00000000E+00
  6.10000000E+02  7.80000000E+01  0.00000000E+00
  6.10000000E+02  7.60000000E+01  0.00000000E+00
  6.10000000E+02  7.40000000E+01  0.00000000E+00
  6.10000000E+02  7.20000000E+01  0.00000000E+00
  6.10000000E+02  7.00000000E+01  0.00000000E+00
  6.10000000E+02  6.80000000E+01  0.00000000E+00
  6.10000000E+02  6.60000000E+01  0.00000000E+00
  6.10000000E+02  6.40000000E+01  0.00000000E+00
  6.10000000E+02  6.20000000E+01  0.00000000E+00
  6.10000000E+02  6.00000000E+01  0.00000000E+00
  6.10000000E+02  5.80000000E+01  0.00000000E+00
  6.10000000E+02  5.60000000E+01  0.00000000E+00
  6.10000000E+02  5.40000000E+01  0.00000000E+00
  6.10000000E+02  5.20000000E+01  0.00000000E+00
  6.10000000E+02  5.00000000E+01  0.00000000E+00
  6.10000000E+02  4.80000000E+01  0.00000000E+00
  6.10000000E+02  4.60000000E+01  0.00000000E+00
  6.10000000E+02  4.40000000E+01  0.00000000E+00
  6.10000000E+02  4.20000000E+01  0.00000000E+00
  6.10000000E+02  4.00000000E+01  0.00000000E+00
  6.10000000E+02  3.80000000E+01  0.00000000E+00
  6.10000000E+02  3.60000000E+01  0.00000000E+00
  6.10000000E+02  3.40000000E+01  0.00000000E+00
  6.10000000E+02  3.20000000E+01  0.00000000E+00
  6.10000000E+02  3.00000000E+01  0.00000000E+00
  6.10000000E+02  2.80000000E+01  0.00000000E+00
  6.10000000E+02  2.60000000E+01  0.00000000E+00
  6.10000000E+02  2.40000000E+01  0.00000000E+00
  6.10000000E+02  2.20000000E+01  0.00000000E+00
  6.10000000E+02  2.00000000E+01  0.00000000E+00
  6.10000000E+02  1.80000000E+01  0.00000000E+00
  6.10000000E+02  1.60000000E+01  0.00000000E+00
  6.10000000E+02  1.40000000E+01  0.00000000E+00
  6.10000000E+02  1.20000000E+01  0.00000000E+00
  6.10000000E+02  1.00000000E+01  0.00000000E+00
  6.10000000E+02  8.00000000E+00  0.00000000E+00
  6.10000000E+02  6.00000000E+00  0.00000000E+00
  6.10000000E+02  4.00000000E+00  0.00000000E+00
  6.10000000E+02  2.00000000E+00  0.00000000E+00
  6.10000000E+02 -3.33066907E-14  0.00000000E+00
  6.20000000E+02  1.00000000E+02  0.00000000E+00
  6.20000000E+02  9.80000000E+01  0.00000000E+00
  6.20000000E+02  9.60000000E+01  0.00000000E+00
  6.20000000E+02  9.40000000E+01  0.00000000E+00
  6.20000000E+02  9.20000000E+01  0.00000000E+00
  6.20000000E+02  9.00000000E+01  0.00000000E+00
  6.20000000E+02  8.80000000E+01  0.00000000E+00
  6.20000000E+02  8.60000000E+01  0.00000000E+00
  6.20000000E+02  8.40000000E+01  0.00000000E+00
  6.20000000E+02  8.20000000E+01  0.00000000E+00
  6.20000000E+02  8.00000000E+01  0.00000000E+00
  6.20000000E+02  7.80000000E+01  0.00000000E+00
  6.20000000E+02  7.60000000E+01  0.00000000E+00
  6.20000000E+02  7.40000000E+01  0.00000000E+00
  6.20000000E+02  7.20000000E+01  0.00000000E+00
  6.20000000E+02  7.00000000E+01  0.00000000E+00
  6.20000000E+02  6.80000000E+01  0.00000000E+00
  6.20000000E+02  6.60000000E+01  0.00000000E+00
  6.20000000E+02  6.40000000E+01  0.00000000E+00
  6.20000000E+02  6.20000000E+01  0.00000000E+00
  6.20000000E+02  6.00000000E+01  0.00000000E+00
  6.20000000E+02  5.80000000E+01  0.00000000E+00
  6.20000000E+02  5.60000000E+01  0.00000000E+00
  6.20000000E+02  5.40000000E+01  0.00000000E+00
  6.20000000E+02  5.20000000E+01  0.00000000E+00
  6.20000000E+02  5.00000000E+01  0.00000000E+00
  6.20000000E+02  4.80000000E+01  0.00000000E+00
  6.20000000E+02  4.60000000E+01  0.00000000E+00
  6.20000000E+02  4.40000000E+01  0.00000000E+00
  6.20000000E+02  4.20000000E+01  0.00000000E+00
  6.20000000E+02  4.00000000E+01  0.00000000E+00
  6.20000000E+02  3.80000000E+01  0.00000000E+00
  6.20000000E+02  3.60000000E+01  0.00000000E+00
  6.20000000E+02  3.40000000E+01  0.00000000E+00
  6.20000000E+02  3.20000000E+01  0.00000000E+00
  6.20000000E+02  3.00000000E+01  0.00000000E+00
  6.20000000E+02  2.80000000E+01  0.00000000E+00
  6.20000000E+02  2.60000000E+01  0.00000000E+00
  6.20000000E+02  2.40000000E+01  0.00000000E+00
  6.20000000E+02  2.20000000E+01  0.00000000E+00
  6.20000000E+02  2.00000000E+01  0.00000000E+00
  6.20000000E+02  1.80000000E+01  0.00000000E+00
  6.20000000E+02  1.60000000E+01  0.00000000E+00
  6.20000000E+02  1.40000000E+01  0.00000000E+00
  6.20000000E+02  1.20000000E+01  0.00000000E+00
  6.20000000E+02  1.00000000E+01  0.00000000E+00
  6.20000000E+02  8.00000000E+00  0.00000000E+00
  6.20000000E+02  6.00000000E+00  0.00000000E+00
  6.20000000E+02  4.00000000E+00  0.00000000E+00
  6.20000000E+02  2.00000000E+00  0.00000000E+00
  6.20000000E+02 -3.33066907E-14  0.00000000E+00
  6.30000000E+02  1.00000000E+02  0.00000000E+00
  6.30000000E+02  9.80000000E+01  0.00000000E+00
  6.30000000E+02  9.60000000E+01  0.00000000E+00
  6.30000000E+02  9.40000000E+01  0.00000000E+00
  6.30000000E+02  9.20000000E+01  0.00000000E+00
  6.30000000E+02  9.00000000E+01  0.00000000E+00
  6.30000000E+02  8.80000000E+01  0.00000000E+00
  6.30000000E+02  8.60000000E+01  0.00000000E+00
  6.30000000E+02  8.40000000E+01  0.00000000E+00
  6.30000000E+02  8.20000000E+01  0.00000000E+00
  6.30000000E+02  8.00000000E+01  0.00000000E+00
  6.30000000E+02  7.80000000E+01  0.00000000E+00
  6.30000000E+02  7.60000000E+01  0.00000000E+00
  6.30000000E+02  7.40000000E+01  0.00000000E+00
  6.30000000E+02  7.20000000E+01  0.00000000E+00
  6.30000000E+02  7.00000000E+01  0.00000000E+00
  6.30000000E+02  6.80000000E+01  0.00000000E+00
  6.30000000E+02  6.60000000E+01  0.00000000E+00
  6.30000000E+02  6.40000000E+01  0.00000000E+00
  6.30000000E+02  6.20000000E+01  0.00000000E+00
  6.30000000E+02  6.00000000E+01  0.00000000E+00
  6.30000000E+02  5.80000000E+01  0.00000000E+00
  6.30000000E+02  5.60000000E+01  0.00000000E+00
  6.30000000E+02  5.40000000E+01  0.00000000E+00
  6.30000000E+02  5.20000000E+01  0.00000000E+00
  6.30000000E+02  5.00000000E+01  0.00000000E+00
  6.30000000E+02  4.80000000E+01  0.00000000E+00
  6.30000000E+02  4.60000000E+01  0.00000000E+00
  6.30000000E+02  4.40000000E+01  0.00000000E+00
  6.30000000E+02  4.20000000E+01  0.00000000E+00
  6.30000000E+02  4.00000000E+01  0.00000000E+00
  6.30000000E+02  3.80000000E+01  0.00000000E+00
  6.30000000E+02  3.60000000E+01  0.00000000E+00
  6.30000000E+02  3.40000000E+01  0.00000000E+00
  6.30000000E+02  3.20000000E+01  0.00000000E+00
  6.30000000E+02  3.00000000E+01  0.00000000E+00
  6.30000000E+02  2.80000000E+01  0.00000000E+00
  6.30000000E+02  2.60000000E+01  0.00000000E+00
  6.30000000E+02  2.40000000E+01  0.00000000E+00
  6.30000000E+02  2.20000000E+01  0.00000000E+00
  6.30000000E+02  2.00000000E+01  0.00000000E+00
  6.30000000E+02  1.80000000E+01  0.00000000E+00
  6.30000000E+02  1.60000000E+01  0.00000000E+00
  6.30000000E+02  1.40000000E+01  0.00000000E+00
  6.30000000E+02  1.20000000E+01  0.00000000E+00
  6.30000000E+02  1.00000000E+01  0.00000000E+00
  6.30000000E+02  8.00000000E+00  0.00000000E+00
  6.30000000E+02  6.00000000E+00  0.00000000E+00
  6.30000000E+02  4.00000000E+00  0.00000000E+00
  6.30000000E+02  2.00000000E+00  0.00000000E+00
  6.30000000E+02 -3.33066907E-14  0.00000000E+00
  6.40000000E+02  1.00000000E+02  0.00000000E+00
  6.40000000E+02  9.80000000E+01  0.00000000E+00
  6.40000000E+02  9.60000000E+01  0.00000000E+00
  6.40000000E+02  9.40000000E+01  0.00000000E+00
  6.40000000E+02  9.20000000E+01  0.00000000E+00
  6.40000000E+02  9.00000000E+01  0.00000000E+00
  6.40000000E+02  8.80000000E+01  0.00000000E+00
  6.40000000E+02  8.60000000E+01  0.00000000E+00
  6.40000000E+02  8.40000000E+01  0.00000000E+00
  6.40000000E+02  8.20000000E+01  0.00000000E+00
  6.40000000E+02  8.00000000E+01  0.00000000E+00
  6.40000000E+02  7.80000000E+01  0.00000000E+00
  6.40000000E+02  7.60000000E+01  0.00000000E+00
  6.40000000E+02  7.40000000E+01  0.00000000E+00
  6.40000000E+02  7.20000000E+01  0.00000000E+00
  6.40000000E+02  7.00000000E+01  0.00000000E+00
  6.40000000E+02  6.80000000E+01  0.00000000E+00
  6.40000000E+02  6.60000000E+01  0.00000000E+00
  6.40000000E+02  6.40000000E+01  0.00000000E+00
  6.40000000E+02  6.20000000E+01  0.00000000E+00
  6.40000000E+02  6.00000000E+01  0.00000000E+00
  6.40000000E+02  5.80000000E+01  0.00000000E+00
  6.40000000E+02  5.60000000E+01  0.00000000E+00
  6.40000000E+02  5.40000000E+01  0.00000000E+00
  6.40000000E+02  5.20000000E+01  0.00000000E+00
  6.40000000E+02  5.00000000E+01  0.00000000E+00
  6.40000000E+02  4.80000000E+01  0.00000000E+00
  6.40000000E+02  4.60000000E+01  0.00000000E+00
  6.40000000E+02  4.40000000E+01  0.00000000E+00
  6.40000000E+02  4.20000000E+01  0.00000000E+00
  6.40000000E+02  4.00000000E+01  0.00000000E+00
  6.40000000E+02  3.80000000E+01  0.00000000E+00
  6.40000000E+02  3.60000000E+01  0.00000000E+00
  6.40000000E+02  3.40000000E+01  0.00000000E+00
  6.40000000E+02  3.20000000E+01  0.00000000E+00
  6.40000000E+02  3.00000000E+01  0.00000000E+00
  6.40000000E+02  2.80000000E+01  0.00000000E+00
  6.40000000E+02  2.60000000E+01  0.00000000E+00
  6.40000000E+02  2.40000000E+01  0.00000000E+00
  6.40000000E+02  2.20000000E+01  0.00000000E+00
  6.40000000E+02  2.00000000E+01  0.00000000E+00
  6.40000000E+02  1.80000000E+01  0.00000000E+00
  6.40000000E+02  1.60000000E+01  0.00000000E+00
  6.40000000E+02  1.40000000E+01  0.00000000E+00
  6.40000000E+02  1.20000000E+01  0.00000000E+00
  6.40000000E+02  1.00000000E+01  0.00000000E+00
  6.40000000E+02  8.00000000E+00  0.00000000E+00
  6.40000000E+02  6.00000000E+00  0.00000000E+00
  6.40000000E+02  4.00000000E+00  0.00000000E+00
  6.40000000E+02  2.00000000E+00  0.00000000E+00
  6.40000000E+02 -3.33066907E-14  0.00000000E+00
  6.50000000E+02  1.00000000E+02  0.00000000E+00
  6.50000000E+02  9.80000000E+01  0.00000000E+00
  6.50000000E+02  9.60000000E+01  0.00000000E+00
  6.50000000E+02  9.40000000E+01  0.00000000E+00
  6.50000000E+02  9.20000000E+01  0.00000000E+00
  6.50000000E+02  9.00000000E+01  0.00000000E+00
  6.50000000E+02  8.80000000E+01  0.00000000E+00
  6.50000000E+02  8.60000000E+01  0.00000000E+00
  6.50000000E+02  8.40000000E+01  0.00000000E+00
  6.50000000E+02  8.20000000E+01  0.00000000E+00
  6.50000000E+02  8.00000000E+01  0.00000000E+00
  6.50000000E+02  7.80000000E+01  0.00000000E+00
  6.50000000E+02  7.60000000E+01  0.00000000E+00
  6.50000000E+02  7.40000000E+01  0.00000000E+00
  6.50000000E+02  7.20000000E+01  0.00000000E+00
  6.50000000E+02  7.00000000E+01  0.00000000E+00
  6.50000000E+02  6.80000000E+01  0.00000000E+00
  6.50000000E+02  6.60000000E+01  0.00000000E+00
  6.50000000E+02  6.40000000E+01  0.00000000E+00
  6.50000000E+02  6.20000000E+01  0.00000000E+00
  6.50000000E+02  6.00000000E+01  0.00000000E+00
  6.50000000E+02  5.80000000E+01  0.00000000E+00
  6.50000000E+02  5.60000000E+01  0.00000000E+00
  6.50000000E+02  5.40000000E+01  0.00000000E+00
  6.50000000E+02  5.20000000E+01  0.00000000E+00
  6.50000000E+02  5.00000000E+01  0.00000000E+00
  6.50000000E+02  4.80000000E+01  0.00000000E+00
  6.50000000E+02  4.60000000E+01  0.00000000E+00
  6.50000000E+02  4.40000000E+01  0.00000000E+00
  6.50000000E+02  4.20000000E+01  0.00000000E+00
  6.50000000E+02  4.00000000E+01  0.00000000E+00
  6.50000000E+02  3.80000000E+01  0.00000000E+00
  6.50000000E+02  3.60000000E+01  0.00000000E+00
  6.50000000E+02  3.40000000E+01  0.00000000E+00
  6.50000000E+02  3.20000000E+01  0.00000000E+00
  6.50000000E+02  3.00000000E+01  0.00000000E+00
  6.50000000E+02  2.80000000E+01  0.00000000E+00
  6.50000000E+02  2.60000000E+01  0.00000000E+00
  6.50000000E+02  2.40000000E+01  0.00000000E+00
  6.50000000E+02  2.20000000E+01  0.00000000E+00
  6.50000000E+02  2.00000000E+01  0.00000000E+00
  6.50000000E+02  1.80000000E+01  0.00000000E+00
  6.50000000E+02  1.60000000E+01  0.00000000E+00
  6.50000000E+02  1.40000000E+01  0.00000000E+00
  6.50000000E+02  1.20000000E+01  0.00000000E+00
  6.50000000E+02  1.00000000E+01  0.00000000E+00
  6.50000000E+02  8.00000000E+00  0.00000000E+00
  6.50000000E+02  6.00000000E+00  0.00000000E+00
  6.50000000E+02  4.00000000E+00  0.00000000E+00
  6.50000000E+02  2.00000000E+00  0.00000000E+00
  6.50000000E+02 -3.33066907E-14  0.00000000E+00
  6.60000000E+02  1.00000000E+02  0.00000000E+00
  6.60000000E+02  9.80000000E+01  0.00000000E+00
  6.60000000E+02  9.60000000E+01  0.00000000E+00
  6.60000000E+02  9.40000000E+01  0.00000000E+00
  6.60000000E+02  9.20000000E+01  0.00000000E+00
  6.60000000E+02  9.00000000E+01  0.00000000E+00
  6.60000000E+02  8.80000000E+01  0.00000000E+00
  6.60000000E+02  8.60000000E+01  0.00000000E+00
  6.60000000E+02  8.40000000E+01  0.00000000E+00
  6.60000000E+02  8.20000000E+01  0.00000000E+00
  6.60000000E+02  8.00000000E+01  0.00000000E+00
  6.60000000E+02  7.80000000E+01  0.00000000E+00
  6.60000000E+02  7.60000000E+01  0.00000000E+00
  6.60000000E+02  7.40000000E+01  0.00000000E+00
  6.60000000E+02  7.20000000E+01  0.00000000E+00
  6.60000000E+02  7.00000000E+01  0.00000000E+00
  6.60000000E+02  6.80000000E+01  0.00000000E+00
  6.60000000E+02  6.60000000E+01  0.00000000E+00
  6.60000000E+02  6.40000000E+01  0.00000000E+00
  6.60000000E+02  6.20000000E+01  0.00000000E+00
  6.60000000E+02  6.00000000E+01  0.00000000E+00
  6.60000000E+02  5.80000000E+01  0.00000000E+00
  6.60000000E+02  5.60000000E+01  0.00000000E+00
  6.60000000E+02  5.40000000E+01  0.00000000E+00
  6.60000000E+02  5.20000000E+01  0.00000000E+00
  6.60000000E+02  5.00000000E+01  0.00000000E+00
  6.60000000E+02  4.80000000E+01  0.00000000E+00
  6.60000000E+02  4.60000000E+01  0.00000000E+00
  6.60000000E+02  4.40000000E+01  0.00000000E+00
  6.60000000E+02  4.20000000E+01  0.00000000E+00
  6.60000000E+02  4.00000000E+01  0.00000000E+00
  6.60000000E+02  3.80000000E+01  0.00000000E+00
  6.60000000E+02  3.60000000E+01  0.00000000E+00
  6.60000000E+02  3.40000000E+01  0.00000000E+00
  6.60000000E+02  3.20000000E+01  0.00000000E+00
  6.60000000E+02  3.00000000E+01  0.00000000E+00
  6.60000000E+02  2.80000000E+01  0.00000000E+00
  6.60000000E+02  2.60000000E+01  0.00000000E+00
  6.60000000E+02  2.40000000E+01  0.00000000E+00
  6.60000000E+02  2.20000000E+01  0.00000000E+00
  6.60000000E+02  2.00000000E+01  0.00000000E+00
  6.60000000E+02  1.80000000E+01  0.00000000E+00
  6.60000000E+02  1.60000000E+01  0.00000000E+00
  6.60000000E+02  1.40000000E+01  0.00000000E+00
  6.60000000E+02  1.20000000E+01  0.00000000E+00
  6.60000000E+02  1.00000000E+01  0.00000000E+00
  6.60000000E+02  8.00000000E+00  0.00000000E+00
  6.60000000E+02  6.00000000E+00  0.00000000E+00
  6.60000000E+02  4.00000000E+00  0.00000000E+00
  6.60000000E+02  2.00000000E+00  0.00000000E+00
  6.60000000E+02 -3.33066907E-14  0.00000000E+00
  6.70000000E+02  1.00000000E+02  0.00000000E+00
  6.70000000E+02  9.80000000E+01  0.00000000E+00
  6.70000000E+02  9.60000000E+01  0.00000000E+00
  6.70000000E+02  9.40000000E+01  0.00000000E+00
  6.70000000E+02  9.20000000E+01  0.00000000E+00
  6.70000000E+02  9.00000000E+01  0.00000000E+00
  6.70000000E+02  8.80000000E+01  0.00000000E+00
  6.70000000E+02  8.60000000E+01  0.00000000E+00
  6.70000000E+02  8.40000000E+01  0.00000000E+00
  6.70000000E+02  8.20000000E+01  0.00000000E+00
  6.70000000E+02  8.00000000E+01  0.00000000E+00
  6.70000000E+02  7.80000000E+01  0.00000000E+00
  6.70000000E+02  7.60000000E+01  0.00000000E+00
  6.70000000E+02  7.40000000E+01  0.00000000E+00
  6.70000000E+02  7.20000000E+01  0.00000000E+00
  6.70000000E+02  7.00000000E+01  0.00000000E+00
  6.70000000E+02  6.80000000E+01  0.00000000E+00
  6.70000000E+02  6.60000000E+01  0.00000000E+00
  6.70000000E+02  6.40000000E+01  0.00000000E+00
  6.70000000E+02  6.20000000E+01  0.00000000E+00
  6.70000000E+02  6.00000000E+01  0.00000000E+00
  6.70000000E+02  5.80000000E+01  0.00000000E+00
  6.70000000E+02  5.60000000E+01  0.00000000E+00
  6.70000000E+02  5.40000000E+01  0.00000000E+00
  6.70000000E+02  5.20000000E+01  0.00000000E+00
  6.70000000E+02  5.00000000E+01  0.00000000E+00
  6.70000000E+02  4.80000000E+01  0.00000000E+00
  6.70000000E+02  4.60000000E+01  0.00000000E+00
  6.70000000E+02  4.40000000E+01  0.00000000E+00
  6.70000000E+02  4.20000000E+01  0.00000000E+00
  6.70000000E+02  4.00000000E+01  0.00000000E+00
  6.70000000E+02  3.80000000E+01  0.00000000E+00
  6.70000000E+02  3.60000000E+01  0.00000000E+00
  6.70000000E+02  3.40000000E+01  0.00000000E+00
  6.70000000E+02  3.20000000E+01  0.00000000E+00
  6.70000000E+02  3.00000000E+01  0.00000000E+00
  6.70000000E+02  2.80000000E+01  0.00000000E+00
  6.70000000E+02  2.60000000E+01  0.00000000E+00
  6.70000000E+02  2.40000000E+01  0.00000000E+00
  6.70000000E+02  2.20000000E+01  0.00000000E+00
  6.70000000E+02  2.00000000E+01  0.00000000E+00
  6.70000000E+02  1.80000000E+01  0.00000000E+00
  6.70000000E+02  1.60000000E+01  0.00000000E+00
  6.70000000E+02  1.40000000E+01  0.00000000E+00
  6.70000000E+02  1.20000000E+01  0.00000000E+00
  6.70000000E+02  1.00000000E+01  0.00000000E+00
  6.70000000E+02  8.00000000E+00  0.00000000E+00
  6.70000000E+02  6.00000000E+00  0.00000000E+00
  6.70000000E+02  4.00000000E+00  0.00000000E+00
  6.70000000E+02  2.00000000E+00  0.00000000E+00
  6.70000000E+02 -3.33066907E-14  0.00000000E+00
  6.80000000E+02  1.00000000E+02  0.00000000E+00
  6.80000000E+02  9.80000000E+01  0.00000000E+00
  6.80000000E+02  9.60000000E+01  0.00000000E+00
  6.80000000E+02  9.40000000E+01  0.00000000E+00
  6.80000000E+02  9.20000000E+01  0.00000000E+00
  6.80000000E+02  9.00000000E+01  0.00000000E+00
  6.80000000E+02  8.80000000E+01  0.00000000E+00
  6.80000000E+02  8.60000000E+01  0.00000000E+00
  6.80000000E+02  8.40000000E+01  0.00000000E+00
  6.80000000E+02  8.20000000E+01  0.00000000E+00
  6.80000000E+02  8.00000000E+01  0.00000000E+00
  6.80000000E+02  7.80000000E+01  0.00000000E+00
  6.80000000E+02  7.60000000E+01  0.00000000E+00
  6.80000000E+02  7.40000000E+01  0.00000000E+00
  6.80000000E+02  7.20000000E+01  0.00000000E+00
  6.80000000E+02  7.00000000E+01  0.00000000E+00
  6.80000000E+02  6.80000000E+01  0.00000000E+00
  6.80000000E+02  6.60000000E+01  0.00000000E+00
  6.80000000E+02  6.40000000E+01  0.00000000E+00
  6.80000000E+02  6.20000000E+01  0.00000000E+00
  6.80000000E+02  6.00000000E+01  0.00000000E+00
  6.80000000E+02  5.80000000E+01  0.00000000E+00
  6.80000000E+02  5.60000000E+01  0.00000000E+00
  6.80000000E+02  5.40000000E+01  0.00000000E+00
  6.80000000E+02  5.20000000E+01  0.00000000E+00
  6.80000000E+02  5.00000000E+01  0.00000000E+00
  6.80000000E+02  4.80000000E+01  0.00000000E+00
  6.80000000E+02  4.60000000E+01  0.00000000E+00
  6.80000000E+02  4.40000000E+01  0.00000000E+00
  6.80000000E+02  4.20000000E+01  0.00000000E+00
  6.80000000E+02  4.00000000E+01  0.00000000E+00
  6.80000000E+02  3.80000000E+01  0.00000000E+00
  6.80000000E+02  3.60000000E+01  0.00000000E+00
  6.80000000E+02  3.40000000E+01  0.00000000E+00
  6.80000000E+02  3.20000000E+01  0.00000000E+00
  6.80000000E+02  3.00000000E+01  0.00000000E+00
  6.80000000E+02  2.80000000E+01  0.00000000E+00
  6.80000000E+02  2.60000000E+01  0.00000000E+00
  6.80000000E+02  2.40000000E+01  0.00000000E+00
  6.80000000E+02  2.20000000E+01  0.00000000E+00
  6.80000000E+02  2.00000000E+01  0.00000000E+00
  6.80000000E+02  1.80000000E+01  0.00000000E+00
  6.80000000E+02  1.60000000E+01  0.00000000E+00
  6.80000000E+02  1.40000000E+01  0.00000000E+00
  6.80000000E+02  1.20000000E+01  0.00000000E+00
  6.80000000E+02  1.00000000E+01  0.00000000E+00
  6.80000000E+02  8.00000000E+00  0.00000000E+00
  6.80000000E+02  6.00000000E+00  0.00000000E+00
  6.80000000E+02  4.00000000E+00  0.00000000E+00
  6.80000000E+02  2.00000000E+00  0.00000000E+00
  6.80000000E+02 -3.33066907E-14  0.00000000E+00
  6.90000000E+02  1.00000000E+02  0.00000000E+00
  6.90000000E+02  9.80000000E+01  0.00000000E+00
  6.90000000E+02  9.60000000E+01  0.00000000E+00
  6.90000000E+02  9.40000000E+01  0.00000000E+00
  6.90000000E+02  9.20000000E+01  0.00000000E+00
  6.90000000E+02  9.00000000E+01  0.00000000E+00
  6.90000000E+02  8.80000000E+01  0.00000000E+00
  6.90000000E+02  8.60000000E+01  0.00000000E+00
  6.90000000E+02  8.40000000E+01  0.00000000E+00
  6.90000000E+02  8.20000000E+01  0.00000000E+00
  6.90000000E+02  8.00000000E+01  0.00000000E+00
  6.90000000E+02  7.80000000E+01  0.00000000E+00
  6.90000000E+02  7.60000000E+01  0.00000000E+00
  6.90000000E+02  7.40000000E+01  0.00000000E+00
  6.90000000E+02  7.20000000E+01  0.00000000E+00
  6.90000000E+02  7.00000000E+01  0.00000000E+00
  6.90000000E+02  6.80000000E+01  0.00000000E+00
  6.90000000E+02  6.60000000E+01  0.00000000E+00
  6.90000000E+02  6.40000000E+01  0.00000000E+00
  6.90000000E+02  6.20000000E+01  0.00000000E+00
  6.90000000E+02  6.00000000E+01  0.00000000E+00
  6.90000000E+02  5.80000000E+01  0.00000000E+00
  6.90000000E+02  5.60000000E+01  0.00000000E+00
  6.90000000E+02  5.40000000E+01  0.00000000E+00
  6.90000000E+02  5.20000000E+01  0.00000000E+00
  6.90000000E+02  5.00000000E+01  0.00000000E+00
  6.90000000E+02  4.80000000E+01  0.00000000E+00
  6.90000000E+02  4.60000000E+01  0.00000000E+00
  6.90000000E+02  4.40000000E+01  0.00000000E+00
  6.90000000E+02  4.20000000E+01  0.00000000E+00
  6.90000000E+02  4.00000000E+01  0.00000000E+00
  6.90000000E+02  3.80000000E+01  0.00000000E+00
  6.90000000E+02  3.60000000E+01  0.00000000E+00
  6.90000000E+02  3.40000000E+01  0.00000000E+00
  6.90000000E+02  3.20000000E+01  0.00000000E+00
  6.90000000E+02  3.00000000E+01  0.00000000E+00
  6.90000000E+02  2.80000000E+01  0.00000000E+00
  6.90000000E+02  2.60000000E+01  0.00000000E+00
  6.90000000E+02  2.40000000E+01  0.00000000E+00
  6.90000000E+02  2.20000000E+01  0.00000000E+00
  6.90000000E+02  2.00000000E+01  0.00000000E+00
  6.90000000E+02  1.80000000E+01  0.00000000E+00
  6.90000000E+02  1.60000000E+01  0.00000000E+00
  6.90000000E+02  1.40000000E+01  0.00000000E+00
  6.90000000E+02  1.20000000E+01  0.00000000E+00
  6.90000000E+02  1.00000000E+01  0.00000000E+00
  6.90000000E+02  8.00000000E+00  0.00000000E+00
  6.90000000E+02  6.00000000E+00  0.00000000E+00
  6.90000000E+02  4.00000000E+00  0.00000000E+00
  6.90000000E+02  2.00000000E+00  0.00000000E+00
  6.90000000E+02 -3.33066907E-14  0.00000000E+00
  7.00000000E+02  1.00000000E+02  0.00000000E+00
  7.00000000E+02  9.80000000E+01  0.00000000E+00
  7.00000000E+02  9.60000000E+01  0.00000000E+00
  7.00000000E+02  9.40000000E+01  0.00000000E+00
  7.00000000E+02  9.20000000E+01  0.00000000E+00
  7.00000000E+02  9.00000000E+01  0.00000000E+00
  7.00000000E+02  8.80000000E+01  0.00000000E+00
  7.00000000E+02  8.60000000E+01  0.00000000E+00
  7.00000000E+02  8.40000000E+01  0.00000000E+00
  7.00000000E+02  8.20000000E+01  0.00000000E+00
  7.00000000E+02  8.00000000E+01  0.00000000E+00
  7.00000000E+02  7.80000000E+01  0.00000000E+00
  7.00000000E+02  7.60000000E+01  0.00000000E+00
  7.00000000E+02  7.40000000E+01  0.00000000E+00
  7.00000000E+02  7.20000000E+01  0.00000000E+00
  7.00000000E+02  7.00000000E+01  0.00000000E+00
  7.00000000E+02  6.80000000E+01  0.00000000E+00
  7.00000000E+02  6.60000000E+01  0.00000000E+00
  7.00000000E+02  6.40000000E+01  0.00000000E+00
  7.00000000E+02  6.20000000E+01  0.00000000E+00
  7.00000000E+02  6.00000000E+01  0.00000000E+00
  7.00000000E+02  5.80000000E+01  0.00000000E+00
  7.00000000E+02  5.60000000E+01  0.00000000E+00
  7.00000000E+02  5.40000000E+01  0.00000000E+00
  7.00000000E+02  5.20000000E+01  0.00000000E+00
  7.00000000E+02  5.00000000E+01  0.00000000E+00
  7.00000000E+02  4.80000000E+01  0.00000000E+00
  7.00000000E+02  4.60000000E+01  0.00000000E+00
  7.00000000E+02  4.40000000E+01  0.00000000E+00
  7.00000000E+02  4.20000000E+01  0.00000000E+00
  7.00000000E+02  4.00000000E+01  0.00000000E+00
  7.00000000E+02  3.80000000E+01  0.00000000E+00
  7.00000000E+02  3.60000000E+01  0.00000000E+00
  7.00000000E+02  3.40000000E+01  0.00000000E+00
  7.00000000E+02  3.20000000E+01  0.00000000E+00
  7.00000000E+02  3.00000000E+01  0.00000000E+00
  7.00000000E+02  2.80000000E+01  0.00000000E+00
  7.00000000E+02  2.60000000E+01  0.00000000E+00
  7.00000000E+02  2.40000000E+01  0.00000000E+00
  7.00000000E+02  2.20000000E+01  0.00000000E+00
  7.00000000E+02  2.00000000E+01  0.00000000E+00
  7.00000000E+02  1.80000000E+01  0.00000000E+00
  7.00000000E+02  1.60000000E+01  0.00000000E+00
  7.00000000E+02  1.40000000E+01  0.00000000E+00
  7.00000000E+02  1.20000000E+01  0.00000000E+00
  7.00000000E+02  1.00000000E+01  0.00000000E+00
  7.00000000E+02  8.00000000E+00  0.00000000E+00
  7.00000000E+02  6.00000000E+00  0.00000000E+00
  7.00000000E+02  4.00000000E+00  0.00000000E+00
  7.00000000E+02  2.00000000E+00  0.00000000E+00
  7.00000000E+02 -3.33066907E-14  0.00000000E+00
  7.10000000E+02  1.00000000E+02  0.00000000E+00
  7.10000000E+02  9.80000000E+01  0.00000000E+00
  7.10000000E+02  9.60000000E+01  0.00000000E+00
  7.10000000E+02  9.40000000E+01  0.00000000E+00
  7.10000000E+02  9.20000000E+01  0.00000000E+00
  7.10000000E+02  9.00000000E+01  0.00000000E+00
  7.10000000E+02  8.80000000E+01  0.00000000E+00
  7.10000000E+02  8.60000000E+01  0.00000000E+00
  7.10000000E+02  8.40000000E+01  0.00000000E+00
  7.10000000E+02  8.20000000E+01  0.00000000E+00
  7.10000000E+02  8.00000000E+01  0.00000000E+00
  7.10000000E+02  7.80000000E+01  0.00000000E+00
  7.10000000E+02  7.60000000E+01  0.00000000E+00
  7.10000000E+02  7.40000000E+01  0.00000000E+00
  7.10000000E+02  7.20000000E+01  0.00000000E+00
  7.10000000E+02  7.00000000E+01  0.00000000E+00
  7.10000000E+02  6.80000000E+01  0.00000000E+00
  7.10000000E+02  6.60000000E+01  0.00000000E+00
  7.10000000E+02  6.40000000E+01  0.00000000E+00
  7.10000000E+02  6.20000000E+01  0.00000000E+00
  7.10000000E+02  6.00000000E+01  0.00000000E+00
  7.10000000E+02  5.80000000E+01  0.00000000E+00
  7.10000000E+02  5.60000000E+01  0.00000000E+00
  7.10000000E+02  5.40000000E+01  0.00000000E+00
  7.10000000E+02  5.20000000E+01  0.00000000E+00
  7.10000000E+02  5.00000000E+01  0.00000000E+00
  7.10000000E+02  4.80000000E+01  0.00000000E+00
  7.10000000E+02  4.60000000E+01  0.00000000E+00
  7.10000000E+02  4.40000000E+01  0.00000000E+00
  7.10000000E+02  4.20000000E+01  0.00000000E+00
  7.10000000E+02  4.00000000E+01  0.00000000E+00
  7.10000000E+02  3.80000000E+01  0.00000000E+00
  7.10000000E+02  3.60000000E+01  0.00000000E+00
  7.10000000E+02  3.40000000E+01  0.00000000E+00
  7.10000000E+02  3.20000000E+01  0.00000000E+00
  7.10000000E+02  3.00000000E+01  0.00000000E+00
  7.10000000E+02  2.80000000E+01  0.00000000E+00
  7.10000000E+02  2.60000000E+01  0.00000000E+00
  7.10000000E+02  2.40000000E+01  0.00000000E+00
  7.10000000E+02  2.20000000E+01  0.00000000E+00
  7.10000000E+02  2.00000000E+01  0.00000000E+00
  7.10000000E+02  1.80000000E+01  0.00000000E+00
  7.10000000E+02  1.60000000E+01  0.00000000E+00
  7.10000000E+02  1.40000000E+01  0.00000000E+00
  7.10000000E+02  1.20000000E+01  0.00000000E+00
  7.10000000E+02  1.00000000E+01  0.00000000E+00
  7.10000000E+02  8.00000000E+00  0.00000000E+00
  7.10000000E+02  6.00000000E+00  0.00000000E+00
  7.10000000E+02  4.00000000E+00  0.00000000E+00
  7.10000000E+02  2.00000000E+00  0.00000000E+00
  7.10000000E+02 -3.33066907E-14  0.00000000E+00
  7.20000000E+02  1.00000000E+02  0.00000000E+00
  7.20000000E+02  9.80000000E+01  0.00000000E+00
  7.20000000E+02  9.60000000E+01  0.00000000E+00
  7.20000000E+02  9.40000000E+01  0.00000000E+00
  7.20000000E+02  9.20000000E+01  0.00000000E+00
  7.20000000E+02  9.00000000E+01  0.00000000E+00
  7.20000000E+02  8.80000000E+01  0.00000000E+00
  7.20000000E+02  8.60000000E+01  0.00000000E+00
  7.20000000E+02  8.40000000E+01  0.00000000E+00
  7.20000000E+02  8.20000000E+01  0.00000000E+00
  7.20000000E+02  8.00000000E+01  0.00000000E+00
  7.20000000E+02  7.80000000E+01  0.00000000E+00
  7.20000000E+02  7.60000000E+01  0.00000000E+00
  7.20000000E+02  7.40000000E+01  0.00000000E+00
  7.20000000E+02  7.20000000E+01  0.00000000E+00
  7.20000000E+02  7.00000000E+01  0.00000000E+00
  7.20000000E+02  6.80000000E+01  0.00000000E+00
  7.20000000E+02  6.60000000E+01  0.00000000E+00
  7.20000000E+02  6.40000000E+01  0.00000000E+00
  7.20000000E+02  6.20000000E+01  0.00000000E+00
  7.20000000E+02  6.00000000E+01  0.00000000E+00
  7.20000000E+02  5.80000000E+01  0.00000000E+00
  7.20000000E+02  5.60000000E+01  0.00000000E+00
  7.20000000E+02  5.40000000E+01  0.00000000E+00
  7.20000000E+02  5.20000000E+01  0.00000000E+00
  7.20000000E+02  5.00000000E+01  0.00000000E+00
  7.20000000E+02  4.80000000E+01  0.00000000E+00
  7.20000000E+02  4.60000000E+01  0.00000000E+00
  7.20000000E+02  4.40000000E+01  0.00000000E+00
  7.20000000E+02  4.20000000E+01  0.00000000E+00
  7.20000000E+02  4.00000000E+01  0.00000000E+00
  7.20000000E+02  3.80000000E+01  0.00000000E+00
  7.20000000E+02  3.60000000E+01  0.00000000E+00
  7.20000000E+02  3.40000000E+01  0.00000000E+00
  7.20000000E+02  3.20000000E+01  0.00000000E+00
  7.20000000E+02  3.00000000E+01  0.00000000E+00
  7.20000000E+02  2.80000000E+01  0.00000000E+00
  7.20000000E+02  2.60000000E+01  0.00000000E+00
  7.20000000E+02  2.40000000E+01  0.00000000E+00
  7.20000000E+02  2.20000000E+01  0.00000000E+00
  7.20000000E+02  2.00000000E+01  0.00000000E+00
  7.20000000E+02  1.80000000E+01  0.00000000E+00
  7.20000000E+02  1.60000000E+01  0.00000000E+00
  7.20000000E+02  1.40000000E+01  0.00000000E+00
  7.20000000E+02  1.20000000E+01  0.00000000E+00
  7.20000000E+02  1.00000000E+01  0.00000000E+00
  7.20000000E+02  8.00000000E+00  0.00000000E+00
  7.20000000E+02  6.00000000E+00  0.00000000E+00
  7.20000000E+02  4.00000000E+00  0.00000000E+00
  7.20000000E+02  2.00000000E+00  0.00000000E+00
  7.20000000E+02 -3.33066907E-14  0.00000000E+00
  7.30000000E+02  1.00000000E+02  0.00000000E+00
  7.30000000E+02  9.80000000E+01  0.00000000E+00
  7.30000000E+02  9.60000000E+01  0.00000000E+00
  7.30000000E+02  9.40000000E+01  0.00000000E+00
  7.30000000E+02  9.20000000E+01  0.00000000E+00
  7.30000000E+02  9.00000000E+01  0.00000000E+00
  7.30000000E+02  8.80000000E+01  0.00000000E+00
  7.30000000E+02  8.60000000E+01  0.00000000E+00
  7.30000000E+02  8.40000000E+01  0.00000000E+00
  7.30000000E+02  8.20000000E+01  0.00000000E+00
  7.30000000E+02  8.00000000E+01  0.00000000E+00
  7.30000000E+02  7.80000000E+01  0.00000000E+00
  7.30000000E+02  7.60000000E+01  0.00000000E+00
  7.30000000E+02  7.40000000E+01  0.00000000E+00
  7.30000000E+02  7.20000000E+01  0.00000000E+00
  7.30000000E+02  7.00000000E+01  0.00000000E+00
  7.30000000E+02  6.80000000E+01  0.00000000E+00
  7.30000000E+02  6.60000000E+01  0.00000000E+00
  7.30000000E+02  6.40000000E+01  0.00000000E+00
  7.30000000E+02  6.20000000E+01  0.00000000E+00
  7.30000000E+02  6.00000000E+01  0.00000000E+00
  7.30000000E+02  5.80000000E+01  0.00000000E+00
  7.30000000E+02  5.60000000E+01  0.00000000E+00
  7.30000000E+02  5.40000000E+01  0.00000000E+00
  7.30000000E+02  5.20000000E+01  0.00000000E+00
  7.30000000E+02  5.00000000E+01  0.00000000E+00
  7.30000000E+02  4.80000000E+01  0.00000000E+00
  7.30000000E+02  4.60000000E+01  0.00000000E+00
  7.30000000E+02  4.40000000E+01  0.00000000E+00
  7.30000000E+02  4.20000000E+01  0.00000000E+00
  7.30000000E+02  4.00000000E+01  0.00000000E+00
  7.30000000E+02  3.80000000E+01  0.00000000E+00
  7.30000000E+02  3.60000000E+01  0.00000000E+00
  7.30000000E+02  3.40000000E+01  0.00000000E+00
  7.30000000E+02  3.20000000E+01  0.00000000E+00
  7.30000000E+02  3.00000000E+01  0.00000000E+00
  7.30000000E+02  2.80000000E+01  0.00000000E+00
  7.30000000E+02  2.60000000E+01  0.00000000E+00
  7.30000000E+02  2.40000000E+01  0.00000000E+00
  7.30000000E+02  2.20000000E+01  0.00000000E+00
  7.30000000E+02  2.00000000E+01  0.00000000E+00
  7.30000000E+02  1.80000000E+01  0.00000000E+00
  7.30000000E+02  1.60000000E+01  0.00000000E+00
  7.30000000E+02  1.40000000E+01  0.00000000E+00
  7.30000000E+02  1.20000000E+01  0.00000000E+00
  7.30000000E+02  1.00000000E+01  0.00000000E+00
  7.30000000E+02  8.00000000E+00  0.00000000E+00
  7.30000000E+02  6.00000000E+00  0.00000000E+00
  7.30000000E+02  4.00000000E+00  0.00000000E+00
  7.30000000E+02  2.00000000E+00  0.00000000E+00
  7.30000000E+02 -3.33066907E-14  0.00000000E+00
  7.40000000E+02  1.00000000E+02  0.00000000E+00
  7.40000000E+02  9.80000000E+01  0.00000000E+00
  7.40000000E+02  9.60000000E+01  0.00000000E+00
  7.40000000E+02  9.40000000E+01  0.00000000E+00
  7.40000000E+02  9.20000000E+01  0.00000000E+00
  7.40000000E+02  9.00000000E+01  0.00000000E+00
  7.40000000E+02  8.80000000E+01  0.00000000E+00
  7.40000000E+02  8.60000000E+01  0.00000000E+00
  7.40000000E+02  8.40000000E+01  0.00000000E+00
  7.40000000E+02  8.20000000E+01  0.00000000E+00
  7.40000000E+02  8.00000000E+01  0.00000000E+00
  7.40000000E+02  7.80000000E+01  0.00000000E+00
  7.40000000E+02  7.60000000E+01  0.00000000E+00
  7.40000000E+02  7.40000000E+01  0.00000000E+00
  7.40000000E+02  7.20000000E+01  0.00000000E+00
  7.40000000E+02  7.00000000E+01  0.00000000E+00
  7.40000000E+02  6.80000000E+01  0.00000000E+00
  7.40000000E+02  6.60000000E+01  0.00000000E+00
  7.40000000E+02  6.40000000E+01  0.00000000E+00
  7.40000000E+02  6.20000000E+01  0.00000000E+00
  7.40000000E+02  6.00000000E+01  0.00000000E+00
  7.40000000E+02  5.80000000E+01  0.00000000E+00
  7.40000000E+02  5.60000000E+01  0.00000000E+00
  7.40000000E+02  5.40000000E+01  0.00000000E+00
  7.40000000E+02  5.20000000E+01  0.00000000E+00
  7.40000000E+02  5.00000000E+01  0.00000000E+00
  7.40000000E+02  4.80000000E+01  0.00000000E+00
  7.40000000E+02  4.60000000E+01  0.00000000E+00
  7.40000000E+02  4.40000000E+01  0.00000000E+00
  7.40000000E+02  4.20000000E+01  0.00000000E+00
  7.40000000E+02  4.00000000E+01  0.00000000E+00
  7.40000000E+02  3.80000000E+01  0.00000000E+00
  7.40000000E+02  3.60000000E+01  0.00000000E+00
  7.40000000E+02  3.40000000E+01  0.00000000E+00
  7.40000000E+02  3.20000000E+01  0.00000000E+00
  7.40000000E+02  3.00000000E+01  0.00000000E+00
  7.40000000E+02  2.80000000E+01  0.00000000E+00
  7.40000000E+02  2.60000000E+01  0.00000000E+00
  7.40000000E+02  2.40000000E+01  0.00000000E+00
  7.40000000E+02  2.20000000E+01  0.00000000E+00
  7.40000000E+02  2.00000000E+01  0.00000000E+00
  7.40000000E+02  1.80000000E+01  0.00000000E+00
  7.40000000E+02  1.60000000E+01  0.00000000E+00
  7.40000000E+02  1.40000000E+01  0.00000000E+00
  7.40000000E+02  1.20000000E+01  0.00000000E+00
  7.40000000E+02  1.00000000E+01  0.00000000E+00
  7.40000000E+02  8.00000000E+00  0.00000000E+00
  7.40000000E+02  6.00000000E+00  0.00000000E+00
  7.40000000E+02  4.00000000E+00  0.00000000E+00
  7.40000000E+02  2.00000000E+00  0.00000000E+00
  7.40000000E+02 -3.33066907E-14  0.00000000E+00
  7.50000000E+02  1.00000000E+02  0.00000000E+00
  7.50000000E+02  9.80000000E+01  0.00000000E+00
  7.50000000E+02  9.60000000E+01  0.00000000E+00
  7.50000000E+02  9.40000000E+01  0.00000000E+00
  7.50000000E+02  9.20000000E+01  0.00000000E+00
  7.50000000E+02  9.00000000E+01  0.00000000E+00
  7.50000000E+02  8.80000000E+01  0.00000000E+00
  7.50000000E+02  8.60000000E+01  0.00000000E+00
  7.50000000E+02  8.40000000E+01  0.00000000E+00
  7.50000000E+02  8.20000000E+01  0.00000000E+00
  7.50000000E+02  8.00000000E+01  0.00000000E+00
  7.50000000E+02  7.80000000E+01  0.00000000E+00
  7.50000000E+02  7.60000000E+01  0.00000000E+00
  7.50000000E+02  7.40000000E+01  0.00000000E+00
  7.50000000E+02  7.20000000E+01  0.00000000E+00
  7.50000000E+02  7.00000000E+01  0.00000000E+00
  7.50000000E+02  6.80000000E+01  0.00000000E+00
  7.50000000E+02  6.60000000E+01  0.00000000E+00
  7.50000000E+02  6.40000000E+01  0.00000000E+00
  7.50000000E+02  6.20000000E+01  0.00000000E+00
  7.50000000E+02  6.00000000E+01  0.00000000E+00
  7.50000000E+02  5.80000000E+01  0.00000000E+00
  7.50000000E+02  5.60000000E+01  0.00000000E+00
  7.50000000E+02  5.40000000E+01  0.00000000E+00
  7.50000000E+02  5.20000000E+01  0.00000000E+00
  7.50000000E+02  5.00000000E+01  0.00000000E+00
  7.50000000E+02  4.80000000E+01  0.00000000E+00
  7.50000000E+02  4.60000000E+01  0.00000000E+00
  7.50000000E+02  4.40000000E+01  0.00000000E+00
  7.50000000E+02  4.20000000E+01  0.00000000E+00
  7.50000000E+02  4.00000000E+01  0.00000000E+00
  7.50000000E+02  3.80000000E+01  0.00000000E+00
  7.50000000E+02  3.60000000E+01  0.00000000E+00
  7.50000000E+02  3.40000000E+01  0.00000000E+00
  7.50000000E+02  3.20000000E+01  0.00000000E+00
  7.50000000E+02  3.00000000E+01  0.00000000E+00
  7.50000000E+02  2.80000000E+01  0.00000000E+00
  7.50000000E+02  2.60000000E+01  0.00000000E+00
  7.50000000E+02  2.40000000E+01  0.00000000E+00
  7.50000000E+02  2.20000000E+01  0.00000000E+00
  7.50000000E+02  2.00000000E+01  0.00000000E+00
  7.50000000E+02  1.80000000E+01  0.00000000E+00
  7.50000000E+02  1.60000000E+01  0.00000000E+00
  7.50000000E+02  1.40000000E+01  0.00000000E+00
  7.50000000E+02  1.20000000E+01  0.00000000E+00
  7.50000000E+02  1.00000000E+01  0.00000000E+00
  7.50000000E+02  8.00000000E+00  0.00000000E+00
  7.50000000E+02  6.00000000E+00  0.00000000E+00
  7.50000000E+02  4.00000000E+00  0.00000000E+00
  7.50000000E+02  2.00000000E+00  0.00000000E+00
  7.50000000E+02 -3.33066907E-14  0.00000000E+00
  7.60000000E+02  1.00000000E+02  0.00000000E+00
  7.60000000E+02  9.80000000E+01  0.00000000E+00
  7.60000000E+02  9.60000000E+01  0.00000000E+00
  7.60000000E+02  9.40000000E+01  0.00000000E+00
  7.60000000E+02  9.20000000E+01  0.00000000E+00
  7.60000000E+02  9.00000000E+01  0.00000000E+00
  7.60000000E+02  8.80000000E+01  0.00000000E+00
  7.60000000E+02  8.60000000E+01  0.00000000E+00
  7.60000000E+02  8.40000000E+01  0.00000000E+00
  7.60000000E+02  8.20000000E+01  0.00000000E+00
  7.60000000E+02  8.00000000E+01  0.00000000E+00
  7.60000000E+02  7.80000000E+01  0.00000000E+00
  7.60000000E+02  7.60000000E+01  0.00000000E+00
  7.60000000E+02  7.40000000E+01  0.00000000E+00
  7.60000000E+02  7.20000000E+01  0.00000000E+00
  7.60000000E+02  7.00000000E+01  0.00000000E+00
  7.60000000E+02  6.80000000E+01  0.00000000E+00
  7.60000000E+02  6.60000000E+01  0.00000000E+00
  7.60000000E+02  6.40000000E+01  0.00000000E+00
  7.60000000E+02  6.20000000E+01  0.00000000E+00
  7.60000000E+02  6.00000000E+01  0.00000000E+00
  7.60000000E+02  5.80000000E+01  0.00000000E+00
  7.60000000E+02  5.60000000E+01  0.00000000E+00
  7.60000000E+02  5.40000000E+01  0.00000000E+00
  7.60000000E+02  5.20000000E+01  0.00000000E+00
  7.60000000E+02  5.00000000E+01  0.00000000E+00
  7.60000000E+02  4.80000000E+01  0.00000000E+00
  7.60000000E+02  4.60000000E+01  0.00000000E+00
  7.60000000E+02  4.40000000E+01  0.00000000E+00
  7.60000000E+02  4.20000000E+01  0.00000000E+00
  7.60000000E+02  4.00000000E+01  0.00000000E+00
  7.60000000E+02  3.80000000E+01  0.00000000E+00
  7.60000000E+02  3.60000000E+01  0.00000000E+00
  7.60000000E+02  3.40000000E+01  0.00000000E+00
  7.60000000E+02  3.20000000E+01  0.00000000E+00
  7.60000000E+02  3.00000000E+01  0.00000000E+00
  7.60000000E+02  2.80000000E+01  0.00000000E+00
  7.60000000E+02  2.60000000E+01  0.00000000E+00
  7.60000000E+02  2.40000000E+01  0.00000000E+00
  7.60000000E+02  2.20000000E+01  0.00000000E+00
  7.60000000E+02  2.00000000E+01  0.00000000E+00
  7.60000000E+02  1.80000000E+01  0.00000000E+00
  7.60000000E+02  1.60000000E+01  0.00000000E+00
  7.60000000E+02  1.40000000E+01  0.00000000E+00
  7.60000000E+02  1.20000000E+01  0.00000000E+00
  7.60000000E+02  1.00000000E+01  0.00000000E+00
  7.60000000E+02  8.00000000E+00  0.00000000E+00
  7.60000000E+02  6.00000000E+00  0.00000000E+00
  7.60000000E+02  4.00000000E+00  0.00000000E+00
  7.60000000E+02  2.00000000E+00  0.00000000E+00
  7.60000000E+02 -3.33066907E-14  0.00000000E+00
  7.70000000E+02  1.00000000E+02  0.00000000E+00
  7.70000000E+02  9.80000000E+01  0.00000000E+00
  7.70000000E+02  9.60000000E+01  0.00000000E+00
  7.70000000E+02  9.40000000E+01  0.00000000E+00
  7.70000000E+02  9.20000000E+01  0.00000000E+00
  7.70000000E+02  9.00000000E+01  0.00000000E+00
  7.70000000E+02  8.80000000E+01  0.00000000E+00
  7.70000000E+02  8.60000000E+01  0.00000000E+00
  7.70000000E+02  8.40000000E+01  0.00000000E+00
  7.70000000E+02  8.20000000E+01  0.00000000E+00
  7.70000000E+02  8.00000000E+01  0.00000000E+00
  7.70000000E+02  7.80000000E+01  0.00000000E+00
  7.70000000E+02  7.60000000E+01  0.00000000E+00
  7.70000000E+02  7.40000000E+01  0.00000000E+00
  7.70000000E+02  7.20000000E+01  0.00000000E+00
  7.70000000E+02  7.00000000E+01  0.00000000E+00
  7.70000000E+02  6.80000000E+01  0.00000000E+00
  7.70000000E+02  6.60000000E+01  0.00000000E+00
  7.70000000E+02  6.40000000E+01  0.00000000E+00
  7.70000000E+02  6.20000000E+01  0.00000000E+00
  7.70000000E+02  6.00000000E+01  0.00000000E+00
  7.70000000E+02  5.80000000E+01  0.00000000E+00
  7.70000000E+02  5.60000000E+01  0.00000000E+00
  7.70000000E+02  5.40000000E+01  0.00000000E+00
  7.70000000E+02  5.20000000E+01  0.00000000E+00
  7.70000000E+02  5.00000000E+01  0.00000000E+00
  7.70000000E+02  4.80000000E+01  0.00000000E+00
  7.70000000E+02  4.60000000E+01  0.00000000E+00
  7.70000000E+02  4.40000000E+01  0.00000000E+00
  7.70000000E+02  4.20000000E+01  0.00000000E+00
  7.70000000E+02  4.00000000E+01  0.00000000E+00
  7.70000000E+02  3.80000000E+01  0.00000000E+00
  7.70000000E+02  3.60000000E+01  0.00000000E+00
  7.70000000E+02  3.40000000E+01  0.00000000E+00
  7.70000000E+02  3.20000000E+01  0.00000000E+00
  7.70000000E+02  3.00000000E+01  0.00000000E+00
  7.70000000E+02  2.80000000E+01  0.00000000E+00
  7.70000000E+02  2.60000000E+01  0.00000000E+00
  7.70000000E+02  2.40000000E+01  0.00000000E+00
  7.70000000E+02  2.20000000E+01  0.00000000E+00
  7.70000000E+02  2.00000000E+01  0.00000000E+00
  7.70000000E+02  1.80000000E+01  0.00000000E+00
  7.70000000E+02  1.60000000E+01  0.00000000E+00
  7.70000000E+02  1.40000000E+01  0.00000000E+00
  7.70000000E+02  1.20000000E+01  0.00000000E+00
  7.70000000E+02  1.00000000E+01  0.00000000E+00
  7.70000000E+02  8.00000000E+00  0.00000000E+00
  7.70000000E+02  6.00000000E+00  0.00000000E+00
  7.70000000E+02  4.00000000E+00  0.00000000E+00
  7.70000000E+02  2.00000000E+00  0.00000000E+00
  7.70000000E+02 -3.33066907E-14  0.00000000E+00
  7.80000000E+02  1.00000000E+02  0.00000000E+00
  7.80000000E+02  9.80000000E+01  0.00000000E+00
  7.80000000E+02  9.60000000E+01  0.00000000E+00
  7.80000000E+02  9.40000000E+01  0.00000000E+00
  7.80000000E+02  9.20000000E+01  0.00000000E+00
  7.80000000E+02  9.00000000E+01  0.00000000E+00
  7.80000000E+02  8.80000000E+01  0.00000000E+00
  7.80000000E+02  8.60000000E+01  0.00000000E+00
  7.80000000E+02  8.40000000E+01  0.00000000E+00
  7.80000000E+02  8.20000000E+01  0.00000000E+00
  7.80000000E+02  8.00000000E+01  0.00000000E+00
  7.80000000E+02  7.80000000E+01  0.00000000E+00
  7.80000000E+02  7.60000000E+01  0.00000000E+00
  7.80000000E+02  7.40000000E+01  0.00000000E+00
  7.80000000E+02  7.20000000E+01  0.00000000E+00
  7.80000000E+02  7.00000000E+01  0.00000000E+00
  7.80000000E+02  6.80000000E+01  0.00000000E+00
  7.80000000E+02  6.60000000E+01  0.00000000E+00
  7.80000000E+02  6.40000000E+01  0.00000000E+00
  7.80000000E+02  6.20000000E+01  0.00000000E+00
  7.80000000E+02  6.00000000E+01  0.00000000E+00
  7.80000000E+02  5.80000000E+01  0.00000000E+00
  7.80000000E+02  5.60000000E+01  0.00000000E+00
  7.80000000E+02  5.40000000E+01  0.00000000E+00
  7.80000000E+02  5.20000000E+01  0.00000000E+00
  7.80000000E+02  5.00000000E+01  0.00000000E+00
  7.80000000E+02  4.80000000E+01  0.00000000E+00
  7.80000000E+02  4.60000000E+01  0.00000000E+00
  7.80000000E+02  4.40000000E+01  0.00000000E+00
  7.80000000E+02  4.20000000E+01  0.00000000E+00
  7.80000000E+02  4.00000000E+01  0.00000000E+00
  7.80000000E+02  3.80000000E+01  0.00000000E+00
  7.80000000E+02  3.60000000E+01  0.00000000E+00
  7.80000000E+02  3.40000000E+01  0.00000000E+00
  7.80000000E+02  3.20000000E+01  0.00000000E+00
  7.80000000E+02  3.00000000E+01  0.00000000E+00
  7.80000000E+02  2.80000000E+01  0.00000000E+00
  7.80000000E+02  2.60000000E+01  0.00000000E+00
  7.80000000E+02  2.40000000E+01  0.00000000E+00
  7.80000000E+02  2.20000000E+01  0.00000000E+00
  7.80000000E+02  2.00000000E+01  0.00000000E+00
  7.80000000E+02  1.80000000E+01  0.00000000E+00
  7.80000000E+02  1.60000000E+01  0.00000000E+00
  7.80000000E+02  1.40000000E+01  0.00000000E+00
  7.80000000E+02  1.20000000E+01  0.00000000E+00
  7.80000000E+02  1.00000000E+01  0.00000000E+00
  7.80000000E+02  8.00000000E+00  0.00000000E+00
  7.80000000E+02  6.00000000E+00  0.00000000E+00
  7.80000000E+02  4.00000000E+00  0.00000000E+00
  7.80000000E+02  2.00000000E+00  0.00000000E+00
  7.80000000E+02 -3.33066907E-14  0.00000000E+00
  7.90000000E+02  1.00000000E+02  0.00000000E+00
  7.90000000E+02  9.80000000E+01  0.00000000E+00
  7.90000000E+02  9.60000000E+01  0.00000000E+00
  7.90000000E+02  9.40000000E+01  0.00000000E+00
  7.90000000E+02  9.20000000E+01  0.00000000E+00
  7.90000000E+02  9.00000000E+01  0.00000000E+00
  7.90000000E+02  8.80000000E+01  0.00000000E+00
  7.90000000E+02  8.60000000E+01  0.00000000E+00
  7.90000000E+02  8.40000000E+01  0.00000000E+00
  7.90000000E+02  8.20000000E+01  0.00000000E+00
  7.90000000E+02  8.00000000E+01  0.00000000E+00
  7.90000000E+02  7.80000000E+01  0.00000000E+00
  7.90000000E+02  7.60000000E+01  0.00000000E+00
  7.90000000E+02  7.40000000E+01  0.00000000E+00
  7.90000000E+02  7.20000000E+01  0.00000000E+00
  7.90000000E+02  7.00000000E+01  0.00000000E+00
  7.90000000E+02  6.80000000E+01  0.00000000E+00
  7.90000000E+02  6.60000000E+01  0.00000000E+00
  7.90000000E+02  6.40000000E+01  0.00000000E+00
  7.90000000E+02  6.20000000E+01  0.00000000E+00
  7.90000000E+02  6.00000000E+01  0.00000000E+00
  7.90000000E+02  5.80000000E+01  0.00000000E+00
  7.90000000E+02  5.60000000E+01  0.00000000E+00
  7.90000000E+02  5.40000000E+01  0.00000000E+00
  7.90000000E+02  5.20000000E+01  0.00000000E+00
  7.90000000E+02  5.00000000E+01  0.00000000E+00
  7.90000000E+02  4.80000000E+01  0.00000000E+00
  7.90000000E+02  4.60000000E+01  0.00000000E+00
  7.90000000E+02  4.40000000E+01  0.00000000E+00
  7.90000000E+02  4.20000000E+01  0.00000000E+00
  7.90000000E+02  4.00000000E+01  0.00000000E+00
  7.90000000E+02  3.80000000E+01  0.00000000E+00
  7.90000000E+02  3.60000000E+01  0.00000000E+00
  7.90000000E+02  3.40000000E+01  0.00000000E+00
  7.90000000E+02  3.20000000E+01  0.00000000E+00
  7.90000000E+02  3.00000000E+01  0.00000000E+00
  7.90000000E+02  2.80000000E+01  0.00000000E+00
  7.90000000E+02  2.60000000E+01  0.00000000E+00
  7.90000000E+02  2.40000000E+01  0.00000000E+00
  7.90000000E+02  2.20000000E+01  0.00000000E+00
  7.90000000E+02  2.00000000E+01  0.00000000E+00
  7.90000000E+02  1.80000000E+01  0.00000000E+00
  7.90000000E+02  1.60000000E+01  0.00000000E+00
  7.90000000E+02  1.40000000E+01  0.00000000E+00
  7.90000000E+02  1.20000000E+01  0.00000000E+00
  7.90000000E+02  1.00000000E+01  0.00000000E+00
  7.90000000E+02  8.00000000E+00  0.00000000E+00
  7.90000000E+02  6.00000000E+00  0.00000000E+00
  7.90000000E+02  4.00000000E+00  0.00000000E+00
  7.90000000E+02  2.00000000E+00  0.00000000E+00
  7.90000000E+02 -3.33066907E-14  0.00000000E+00
  8.00000000E+02  1.00000000E+02  0.00000000E+00
  8.00000000E+02  9.80000000E+01  0.00000000E+00
  8.00000000E+02  9.60000000E+01  0.00000000E+00
  8.00000000E+02  9.40000000E+01  0.00000000E+00
  8.00000000E+02  9.20000000E+01  0.00000000E+00
  8.00000000E+02  9.00000000E+01  0.00000000E+00
  8.00000000E+02  8.80000000E+01  0.00000000E+00
  8.00000000E+02  8.60000000E+01  0.00000000E+00
  8.00000000E+02  8.40000000E+01  0.00000000E+00
  8.00000000E+02  8.20000000E+01  0.00000000E+00
  8.00000000E+02  8.00000000E+01  0.00000000E+00
  8.00000000E+02  7.80000000E+01  0.00000000E+00
  8.00000000E+02  7.60000000E+01  0.00000000E+00
  8.00000000E+02  7.40000000E+01  0.00000000E+00
  8.00000000E+02  7.20000000E+01  0.00000000E+00
  8.00000000E+02  7.00000000E+01  0.00000000E+00
  8.00000000E+02  6.80000000E+01  0.00000000E+00
  8.00000000E+02  6.60000000E+01  0.00000000E+00
  8.00000000E+02  6.40000000E+01  0.00000000E+00
  8.00000000E+02  6.20000000E+01  0.00000000E+00
  8.00000000E+02  6.00000000E+01  0.00000000E+00
  8.00000000E+02  5.80000000E+01  0.00000000E+00
  8.00000000E+02  5.60000000E+01  0.00000000E+00
  8.00000000E+02  5.40000000E+01  0.00000000E+00
  8.00000000E+02  5.20000000E+01  0.00000000E+00
  8.00000000E+02  5.00000000E+01  0.00000000E+00
  8.00000000E+02  4.80000000E+01  0.00000000E+00
  8.00000000E+02  4.60000000E+01  0.00000000E+00
  8.00000000E+02  4.40000000E+01  0.00000000E+00
  8.00000000E+02  4.20000000E+01  0.00000000E+00
  8.00000000E+02  4.00000000E+01  0.00000000E+00
  8.00000000E+02  3.80000000E+01  0.00000000E+00
  8.00000000E+02  3.60000000E+01  0.00000000E+00
  8.00000000E+02  3.40000000E+01  0.00000000E+00
  8.00000000E+02  3.20000000E+01  0.00000000E+00
  8.00000000E+02  3.00000000E+01  0.00000000E+00
  8.00000000E+02  2.80000000E+01  0.00000000E+00
  8.00000000E+02  2.60000000E+01  0.00000000E+00
  8.00000000E+02  2.40000000E+01  0.00000000E+00
  8.00000000E+02  2.20000000E+01  0.00000000E+00
  8.00000000E+02  2.00000000E+01  0.00000000E+00
  8.00000000E+02  1.80000000E+01  0.00000000E+00
  8.00000000E+02  1.60000000E+01  0.00000000E+00
  8.00000000E+02  1.40000000E+01  0.00000000E+00
  8.00000000E+02  1.20000000E+01  0.00000000E+00
  8.00000000E+02  1.00000000E+01  0.00000000E+00
  8.00000000E+02  8.00000000E+00  0.00000000E+00
  8.00000000E+02  6.00000000E+00  0.00000000E+00
  8.00000000E+02  4.00000000E+00  0.00000000E+00
  8.00000000E+02  2.00000000E+00  0.00000000E+00
  8.00000000E+02 -3.33066907E-14  0.00000000E+00
  8.10000000E+02  1.00000000E+02  0.00000000E+00
  8.10000000E+02  9.80000000E+01  0.00000000E+00
  8.10000000E+02  9.60000000E+01  0.00000000E+00
  8.10000000E+02  9.40000000E+01  0.00000000E+00
  8.10000000E+02  9.20000000E+01  0.00000000E+00
  8.10000000E+02  9.00000000E+01  0.00000000E+00
  8.10000000E+02  8.80000000E+01  0.00000000E+00
  8.10000000E+02  8.60000000E+01  0.00000000E+00
  8.10000000E+02  8.40000000E+01  0.00000000E+00
  8.10000000E+02  8.20000000E+01  0.00000000E+00
  8.10000000E+02  8.00000000E+01  0.00000000E+00
  8.10000000E+02  7.80000000E+01  0.00000000E+00
  8.10000000E+02  7.60000000E+01  0.00000000E+00
  8.10000000E+02  7.40000000E+01  0.00000000E+00
  8.10000000E+02  7.20000000E+01  0.00000000E+00
  8.10000000E+02  7.00000000E+01  0.00000000E+00
  8.10000000E+02  6.80000000E+01  0.00000000E+00
  8.10000000E+02  6.60000000E+01  0.00000000E+00
  8.10000000E+02  6.40000000E+01  0.00000000E+00
  8.10000000E+02  6.20000000E+01  0.00000000E+00
  8.10000000E+02  6.00000000E+01  0.00000000E+00
  8.10000000E+02  5.80000000E+01  0.00000000E+00
  8.10000000E+02  5.60000000E+01  0.00000000E+00
  8.10000000E+02  5.40000000E+01  0.00000000E+00
  8.10000000E+02  5.20000000E+01  0.00000000E+00
  8.10000000E+02  5.00000000E+01  0.00000000E+00
  8.10000000E+02  4.80000000E+01  0.00000000E+00
  8.10000000E+02  4.60000000E+01  0.00000000E+00
  8.10000000E+02  4.40000000E+01  0.00000000E+00
  8.10000000E+02  4.20000000E+01  0.00000000E+00
  8.10000000E+02  4.00000000E+01  0.00000000E+00
  8.10000000E+02  3.80000000E+01  0.00000000E+00
  8.10000000E+02  3.60000000E+01  0.00000000E+00
  8.10000000E+02  3.40000000E+01  0.00000000E+00
  8.10000000E+02  3.20000000E+01  0.00000000E+00
  8.10000000E+02  3.00000000E+01  0.00000000E+00
  8.10000000E+02  2.80000000E+01  0.00000000E+00
  8.10000000E+02  2.60000000E+01  0.00000000E+00
  8.10000000E+02  2.40000000E+01  0.00000000E+00
  8.10000000E+02  2.20000000E+01  0.00000000E+00
  8.10000000E+02  2.00000000E+01  0.00000000E+00
  8.10000000E+02  1.80000000E+01  0.00000000E+00
  8.10000000E+02  1.60000000E+01  0.00000000E+00
  8.10000000E+02  1.40000000E+01  0.00000000E+00
  8.10000000E+02  1.20000000E+01  0.00000000E+00
  8.10000000E+02  1.00000000E+01  0.00000000E+00
  8.10000000E+02  8.00000000E+00  0.00000000E+00
  8.10000000E+02  6.00000000E+00  0.00000000E+00
  8.10000000E+02  4.00000000E+00  0.00000000E+00
  8.10000000E+02  2.00000000E+00  0.00000000E+00
  8.10000000E+02 -3.33066907E-14  0.00000000E+00
  8.20000000E+02  1.00000000E+02  0.00000000E+00
  8.20000000E+02  9.80000000E+01  0.00000000E+00
  8.20000000E+02  9.60000000E+01  0.00000000E+00
  8.20000000E+02  9.40000000E+01  0.00000000E+00
  8.20000000E+02  9.20000000E+01  0.00000000E+00
  8.20000000E+02  9.00000000E+01  0.00000000E+00
  8.20000000E+02  8.80000000E+01  0.00000000E+00
  8.20000000E+02  8.60000000E+01  0.00000000E+00
  8.20000000E+02  8.40000000E+01  0.00000000E+00
  8.20000000E+02  8.20000000E+01  0.00000000E+00
  8.20000000E+02  8.00000000E+01  0.00000000E+00
  8.20000000E+02  7.80000000E+01  0.00000000E+00
  8.20000000E+02  7.60000000E+01  0.00000000E+00
  8.20000000E+02  7.40000000E+01  0.00000000E+00
  8.20000000E+02  7.20000000E+01  0.00000000E+00
  8.20000000E+02  7.00000000E+01  0.00000000E+00
  8.20000000E+02  6.80000000E+01  0.00000000E+00
  8.20000000E+02  6.60000000E+01  0.00000000E+00
  8.20000000E+02  6.40000000E+01  0.00000000E+00
  8.20000000E+02  6.20000000E+01  0.00000000E+00
  8.20000000E+02  6.00000000E+01  0.00000000E+00
  8.20000000E+02  5.80000000E+01  0.00000000E+00
  8.20000000E+02  5.60000000E+01  0.00000000E+00
  8.20000000E+02  5.40000000E+01  0.00000000E+00
  8.20000000E+02  5.20000000E+01  0.00000000E+00
  8.20000000E+02  5.00000000E+01  0.00000000E+00
  8.20000000E+02  4.80000000E+01  0.00000000E+00
  8.20000000E+02  4.60000000E+01  0.00000000E+00
  8.20000000E+02  4.40000000E+01  0.00000000E+00
  8.20000000E+02  4.20000000E+01  0.00000000E+00
  8.20000000E+02  4.00000000E+01  0.00000000E+00
  8.20000000E+02  3.80000000E+01  0.00000000E+00
  8.20000000E+02  3.60000000E+01  0.00000000E+00
  8.20000000E+02  3.40000000E+01  0.00000000E+00
  8.20000000E+02  3.20000000E+01  0.00000000E+00
  8.20000000E+02  3.00000000E+01  0.00000000E+00
  8.20000000E+02  2.80000000E+01  0.00000000E+00
  8.20000000E+02  2.60000000E+01  0.00000000E+00
  8.20000000E+02  2.40000000E+01  0.00000000E+00
  8.20000000E+02  2.20000000E+01  0.00000000E+00
  8.20000000E+02  2.00000000E+01  0.00000000E+00
  8.20000000E+02  1.80000000E+01  0.00000000E+00
  8.20000000E+02  1.60000000E+01  0.00000000E+00
  8.20000000E+02  1.40000000E+01  0.00000000E+00
  8.20000000E+02  1.20000000E+01  0.00000000E+00
  8.20000000E+02  1.00000000E+01  0.00000000E+00
  8.20000000E+02  8.00000000E+00  0.00000000E+00
  8.20000000E+02  6.00000000E+00  0.00000000E+00
  8.20000000E+02  4.00000000E+00  0.00000000E+00
  8.20000000E+02  2.00000000E+00  0.00000000E+00
  8.20000000E+02 -3.33066907E-14  0.00000000E+00
  8.30000000E+02  1.00000000E+02  0.00000000E+00
  8.30000000E+02  9.80000000E+01  0.00000000E+00
  8.30000000E+02  9.60000000E+01  0.00000000E+00
  8.30000000E+02  9.40000000E+01  0.00000000E+00
  8.30000000E+02  9.20000000E+01  0.00000000E+00
  8.30000000E+02  9.00000000E+01  0.00000000E+00
  8.30000000E+02  8.80000000E+01  0.00000000E+00
  8.30000000E+02  8.60000000E+01  0.00000000E+00
  8.30000000E+02  8.40000000E+01  0.00000000E+00
  8.30000000E+02  8.20000000E+01  0.00000000E+00
  8.30000000E+02  8.00000000E+01  0.00000000E+00
  8.30000000E+02  7.80000000E+01  0.00000000E+00
  8.30000000E+02  7.60000000E+01  0.00000000E+00
  8.30000000E+02  7.40000000E+01  0.00000000E+00
  8.30000000E+02  7.20000000E+01  0.00000000E+00
  8.30000000E+02  7.00000000E+01  0.00000000E+00
  8.30000000E+02  6.80000000E+01  0.00000000E+00
  8.30000000E+02  6.60000000E+01  0.00000000E+00
  8.30000000E+02  6.40000000E+01  0.00000000E+00
  8.30000000E+02  6.20000000E+01  0.00000000E+00
  8.30000000E+02  6.00000000E+01  0.00000000E+00
  8.30000000E+02  5.80000000E+01  0.00000000E+00
  8.30000000E+02  5.60000000E+01  0.00000000E+00
  8.30000000E+02  5.40000000E+01  0.00000000E+00
  8.30000000E+02  5.20000000E+01  0.00000000E+00
  8.30000000E+02  5.00000000E+01  0.00000000E+00
  8.30000000E+02  4.80000000E+01  0.00000000E+00
  8.30000000E+02  4.60000000E+01  0.00000000E+00
  8.30000000E+02  4.40000000E+01  0.00000000E+00
  8.30000000E+02  4.20000000E+01  0.00000000E+00
  8.30000000E+02  4.00000000E+01  0.00000000E+00
  8.30000000E+02  3.80000000E+01  0.00000000E+00
  8.30000000E+02  3.60000000E+01  0.00000000E+00
  8.30000000E+02  3.40000000E+01  0.00000000E+00
  8.30000000E+02  3.20000000E+01  0.00000000E+00
  8.30000000E+02  3.00000000E+01  0.00000000E+00
  8.30000000E+02  2.80000000E+01  0.00000000E+00
  8.30000000E+02  2.60000000E+01  0.00000000E+00
  8.30000000E+02  2.40000000E+01  0.00000000E+00
  8.30000000E+02  2.20000000E+01  0.00000000E+00
  8.30000000E+02  2.00000000E+01  0.00000000E+00
  8.30000000E+02  1.80000000E+01  0.00000000E+00
  8.30000000E+02  1.60000000E+01  0.00000000E+00
  8.30000000E+02  1.40000000E+01  0.00000000E+00
  8.30000000E+02  1.20000000E+01  0.00000000E+00
  8.30000000E+02  1.00000000E+01  0.00000000E+00
  8.30000000E+02  8.00000000E+00  0.00000000E+00
  8.30000000E+02  6.00000000E+00  0.00000000E+00
  8.30000000E+02  4.00000000E+00  0.00000000E+00
  8.30000000E+02  2.00000000E+00  0.00000000E+00
  8.30000000E+02 -3.33066907E-14  0.00000000E+00
  8.40000000E+02  1.00000000E+02  0.00000000E+00
  8.40000000E+02  9.80000000E+01  0.00000000E+00
  8.40000000E+02  9.60000000E+01  0.00000000E+00
  8.40000000E+02  9.40000000E+01  0.00000000E+00
  8.40000000E+02  9.20000000E+01  0.00000000E+00
  8.40000000E+02  9.00000000E+01  0.00000000E+00
  8.40000000E+02  8.80000000E+01  0.00000000E+00
  8.40000000E+02  8.60000000E+01  0.00000000E+00
  8.40000000E+02  8.40000000E+01  0.00000000E+00
  8.40000000E+02  8.20000000E+01  0.00000000E+00
  8.40000000E+02  8.00000000E+01  0.00000000E+00
  8.40000000E+02  7.80000000E+01  0.00000000E+00
  8.40000000E+02  7.60000000E+01  0.00000000E+00
  8.40000000E+02  7.40000000E+01  0.00000000E+00
  8.40000000E+02  7.20000000E+01  0.00000000E+00
  8.40000000E+02  7.00000000E+01  0.00000000E+00
  8.40000000E+02  6.80000000E+01  0.00000000E+00
  8.40000000E+02  6.60000000E+01  0.00000000E+00
  8.40000000E+02  6.40000000E+01  0.00000000E+00
  8.40000000E+02  6.20000000E+01  0.00000000E+00
  8.40000000E+02  6.00000000E+01  0.00000000E+00
  8.40000000E+02  5.80000000E+01  0.00000000E+00
  8.40000000E+02  5.60000000E+01  0.00000000E+00
  8.40000000E+02  5.40000000E+01  0.00000000E+00
  8.40000000E+02  5.20000000E+01  0.00000000E+00
  8.40000000E+02  5.00000000E+01  0.00000000E+00
  8.40000000E+02  4.80000000E+01  0.00000000E+00
  8.40000000E+02  4.60000000E+01  0.00000000E+00
  8.40000000E+02  4.40000000E+01  0.00000000E+00
  8.40000000E+02  4.20000000E+01  0.00000000E+00
  8.40000000E+02  4.00000000E+01  0.00000000E+00
  8.40000000E+02  3.80000000E+01  0.00000000E+00
  8.40000000E+02  3.60000000E+01  0.00000000E+00
  8.40000000E+02  3.40000000E+01  0.00000000E+00
  8.40000000E+02  3.20000000E+01  0.00000000E+00
  8.40000000E+02  3.00000000E+01  0.00000000E+00
  8.40000000E+02  2.80000000E+01  0.00000000E+00
  8.40000000E+02  2.60000000E+01  0.00000000E+00
  8.40000000E+02  2.40000000E+01  0.00000000E+00
  8.40000000E+02  2.20000000E+01  0.00000000E+00
  8.40000000E+02  2.00000000E+01  0.00000000E+00
  8.40000000E+02  1.80000000E+01  0.00000000E+00
  8.40000000E+02  1.60000000E+01  0.00000000E+00
  8.40000000E+02  1.40000000E+01  0.00000000E+00
  8.40000000E+02  1.20000000E+01  0.00000000E+00
  8.40000000E+02  1.00000000E+01  0.00000000E+00
  8.40000000E+02  8.00000000E+00  0.00000000E+00
  8.40000000E+02  6.00000000E+00  0.00000000E+00
  8.40000000E+02  4.00000000E+00  0.00000000E+00
  8.40000000E+02  2.00000000E+00  0.00000000E+00
  8.40000000E+02 -3.33066907E-14  0.00000000E+00
  8.50000000E+02  1.00000000E+02  0.00000000E+00
  8.50000000E+02  9.80000000E+01  0.00000000E+00
  8.50000000E+02  9.60000000E+01  0.00000000E+00
  8.50000000E+02  9.40000000E+01  0.00000000E+00
  8.50000000E+02  9.20000000E+01  0.00000000E+00
  8.50000000E+02  9.00000000E+01  0.00000000E+00
  8.50000000E+02  8.80000000E+01  0.00000000E+00
  8.50000000E+02  8.60000000E+01  0.00000000E+00
  8.50000000E+02  8.40000000E+01  0.00000000E+00
  8.50000000E+02  8.20000000E+01  0.00000000E+00
  8.50000000E+02  8.00000000E+01  0.00000000E+00
  8.50000000E+02  7.80000000E+01  0.00000000E+00
  8.50000000E+02  7.60000000E+01  0.00000000E+00
  8.50000000E+02  7.40000000E+01  0.00000000E+00
  8.50000000E+02  7.20000000E+01  0.00000000E+00
  8.50000000E+02  7.00000000E+01  0.00000000E+00
  8.50000000E+02  6.80000000E+01  0.00000000E+00
  8.50000000E+02  6.60000000E+01  0.00000000E+00
  8.50000000E+02  6.40000000E+01  0.00000000E+00
  8.50000000E+02  6.20000000E+01  0.00000000E+00
  8.50000000E+02  6.00000000E+01  0.00000000E+00
  8.50000000E+02  5.80000000E+01  0.00000000E+00
  8.50000000E+02  5.60000000E+01  0.00000000E+00
  8.50000000E+02  5.40000000E+01  0.00000000E+00
  8.50000000E+02  5.20000000E+01  0.00000000E+00
  8.50000000E+02  5.00000000E+01  0.00000000E+00
  8.50000000E+02  4.80000000E+01  0.00000000E+00
  8.50000000E+02  4.60000000E+01  0.00000000E+00
  8.50000000E+02  4.40000000E+01  0.00000000E+00
  8.50000000E+02  4.20000000E+01  0.00000000E+00
  8.50000000E+02  4.00000000E+01  0.00000000E+00
  8.50000000E+02  3.80000000E+01  0.00000000E+00
  8.50000000E+02  3.60000000E+01  0.00000000E+00
  8.50000000E+02  3.40000000E+01  0.00000000E+00
  8.50000000E+02  3.20000000E+01  0.00000000E+00
  8.50000000E+02  3.00000000E+01  0.00000000E+00
  8.50000000E+02  2.80000000E+01  0.00000000E+00
  8.50000000E+02  2.60000000E+01  0.00000000E+00
  8.50000000E+02  2.40000000E+01  0.00000000E+00
  8.50000000E+02  2.20000000E+01  0.00000000E+00
  8.50000000E+02  2.00000000E+01  0.00000000E+00
  8.50000000E+02  1.80000000E+01  0.00000000E+00
  8.50000000E+02  1.60000000E+01  0.00000000E+00
  8.50000000E+02  1.40000000E+01  0.00000000E+00
  8.50000000E+02  1.20000000E+01  0.00000000E+00
  8.50000000E+02  1.00000000E+01  0.00000000E+00
  8.50000000E+02  8.00000000E+00  0.00000000E+00
  8.50000000E+02  6.00000000E+00  0.00000000E+00
  8.50000000E+02  4.00000000E+00  0.00000000E+00
  8.50000000E+02  2.00000000E+00  0.00000000E+00
  8.50000000E+02 -3.33066907E-14  0.00000000E+00
  8.60000000E+02  1.00000000E+02  0.00000000E+00
  8.60000000E+02  9.80000000E+01  0.00000000E+00
  8.60000000E+02  9.60000000E+01  0.00000000E+00
  8.60000000E+02  9.40000000E+01  0.00000000E+00
  8.60000000E+02  9.20000000E+01  0.00000000E+00
  8.60000000E+02  9.00000000E+01  0.00000000E+00
  8.60000000E+02  8.80000000E+01  0.00000000E+00
  8.60000000E+02  8.60000000E+01  0.00000000E+00
  8.60000000E+02  8.40000000E+01  0.00000000E+00
  8.60000000E+02  8.20000000E+01  0.00000000E+00
  8.60000000E+02  8.00000000E+01  0.00000000E+00
  8.60000000E+02  7.80000000E+01  0.00000000E+00
  8.60000000E+02  7.60000000E+01  0.00000000E+00
  8.60000000E+02  7.40000000E+01  0.00000000E+00
  8.60000000E+02  7.20000000E+01  0.00000000E+00
  8.60000000E+02  7.00000000E+01  0.00000000E+00
  8.60000000E+02  6.80000000E+01  0.00000000E+00
  8.60000000E+02  6.60000000E+01  0.00000000E+00
  8.60000000E+02  6.40000000E+01  0.00000000E+00
  8.60000000E+02  6.20000000E+01  0.00000000E+00
  8.60000000E+02  6.00000000E+01  0.00000000E+00
  8.60000000E+02  5.80000000E+01  0.00000000E+00
  8.60000000E+02  5.60000000E+01  0.00000000E+00
  8.60000000E+02  5.40000000E+01  0.00000000E+00
  8.60000000E+02  5.20000000E+01  0.00000000E+00
  8.60000000E+02  5.00000000E+01  0.00000000E+00
  8.60000000E+02  4.80000000E+01  0.00000000E+00
  8.60000000E+02  4.60000000E+01  0.00000000E+00
  8.60000000E+02  4.40000000E+01  0.00000000E+00
  8.60000000E+02  4.20000000E+01  0.00000000E+00
  8.60000000E+02  4.00000000E+01  0.00000000E+00
  8.60000000E+02  3.80000000E+01  0.00000000E+00
  8.60000000E+02  3.60000000E+01  0.00000000E+00
  8.60000000E+02  3.40000000E+01  0.00000000E+00
  8.60000000E+02  3.20000000E+01  0.00000000E+00
  8.60000000E+02  3.00000000E+01  0.00000000E+00
  8.60000000E+02  2.80000000E+01  0.00000000E+00
  8.60000000E+02  2.60000000E+01  0.00000000E+00
  8.60000000E+02  2.40000000E+01  0.00000000E+00
  8.60000000E+02  2.20000000E+01  0.00000000E+00
  8.60000000E+02  2.00000000E+01  0.00000000E+00
  8.60000000E+02  1.80000000E+01  0.00000000E+00
  8.60000000E+02  1.60000000E+01  0.00000000E+00
  8.60000000E+02  1.40000000E+01  0.00000000E+00
  8.60000000E+02  1.20000000E+01  0.00000000E+00
  8.60000000E+02  1.00000000E+01  0.00000000E+00
  8.60000000E+02  8.00000000E+00  0.00000000E+00
  8.60000000E+02  6.00000000E+00  0.00000000E+00
  8.60000000E+02  4.00000000E+00  0.00000000E+00
  8.60000000E+02  2.00000000E+00  0.00000000E+00
  8.60000000E+02 -3.33066907E-14  0.00000000E+00
  8.70000000E+02  1.00000000E+02  0.00000000E+00
  8.70000000E+02  9.80000000E+01  0.00000000E+00
  8.70000000E+02  9.60000000E+01  0.00000000E+00
  8.70000000E+02  9.40000000E+01  0.00000000E+00
  8.70000000E+02  9.20000000E+01  0.00000000E+00
  8.70000000E+02  9.00000000E+01  0.00000000E+00
  8.70000000E+02  8.80000000E+01  0.00000000E+00
  8.70000000E+02  8.60000000E+01  0.00000000E+00
  8.70000000E+02  8.40000000E+01  0.00000000E+00
  8.70000000E+02  8.20000000E+01  0.00000000E+00
  8.70000000E+02  8.00000000E+01  0.00000000E+00
  8.70000000E+02  7.80000000E+01  0.00000000E+00
  8.70000000E+02  7.60000000E+01  0.00000000E+00
  8.70000000E+02  7.40000000E+01  0.00000000E+00
  8.70000000E+02  7.20000000E+01  0.00000000E+00
  8.70000000E+02  7.00000000E+01  0.00000000E+00
  8.70000000E+02  6.80000000E+01  0.00000000E+00
  8.70000000E+02  6.60000000E+01  0.00000000E+00
  8.70000000E+02  6.40000000E+01  0.00000000E+00
  8.70000000E+02  6.20000000E+01  0.00000000E+00
  8.70000000E+02  6.00000000E+01  0.00000000E+00
  8.70000000E+02  5.80000000E+01  0.00000000E+00
  8.70000000E+02  5.60000000E+01  0.00000000E+00
  8.70000000E+02  5.40000000E+01  0.00000000E+00
  8.70000000E+02  5.20000000E+01  0.00000000E+00
  8.70000000E+02  5.00000000E+01  0.00000000E+00
  8.70000000E+02  4.80000000E+01  0.00000000E+00
  8.70000000E+02  4.60000000E+01  0.00000000E+00
  8.70000000E+02  4.40000000E+01  0.00000000E+00
  8.70000000E+02  4.20000000E+01  0.00000000E+00
  8.70000000E+02  4.00000000E+01  0.00000000E+00
  8.70000000E+02  3.80000000E+01  0.00000000E+00
  8.70000000E+02  3.60000000E+01  0.00000000E+00
  8.70000000E+02  3.40000000E+01  0.00000000E+00
  8.70000000E+02  3.20000000E+01  0.00000000E+00
  8.70000000E+02  3.00000000E+01  0.00000000E+00
  8.70000000E+02  2.80000000E+01  0.00000000E+00
  8.70000000E+02  2.60000000E+01  0.00000000E+00
  8.70000000E+02  2.40000000E+01  0.00000000E+00
  8.70000000E+02  2.20000000E+01  0.00000000E+00
  8.70000000E+02  2.00000000E+01  0.00000000E+00
  8.70000000E+02  1.80000000E+01  0.00000000E+00
  8.70000000E+02  1.60000000E+01  0.00000000E+00
  8.70000000E+02  1.40000000E+01  0.00000000E+00
  8.70000000E+02  1.20000000E+01  0.00000000E+00
  8.70000000E+02  1.00000000E+01  0.00000000E+00
  8.70000000E+02  8.00000000E+00  0.00000000E+00
  8.70000000E+02  6.00000000E+00  0.00000000E+00
  8.70000000E+02  4.00000000E+00  0.00000000E+00
  8.70000000E+02  2.00000000E+00  0.00000000E+00
  8.70000000E+02 -3.33066907E-14  0.00000000E+00
  8.80000000E+02  1.00000000E+02  0.00000000E+00
  8.80000000E+02  9.80000000E+01  0.00000000E+00
  8.80000000E+02  9.60000000E+01  0.00000000E+00
  8.80000000E+02  9.40000000E+01  0.00000000E+00
  8.80000000E+02  9.20000000E+01  0.00000000E+00
  8.80000000E+02  9.00000000E+01  0.00000000E+00
  8.80000000E+02  8.80000000E+01  0.00000000E+00
  8.80000000E+02  8.60000000E+01  0.00000000E+00
  8.80000000E+02  8.40000000E+01  0.00000000E+00
  8.80000000E+02  8.20000000E+01  0.00000000E+00
  8.80000000E+02  8.00000000E+01  0.00000000E+00
  8.80000000E+02  7.80000000E+01  0.00000000E+00
  8.80000000E+02  7.60000000E+01  0.00000000E+00
  8.80000000E+02  7.40000000E+01  0.00000000E+00
  8.80000000E+02  7.20000000E+01  0.00000000E+00
  8.80000000E+02  7.00000000E+01  0.00000000E+00
  8.80000000E+02  6.80000000E+01  0.00000000E+00
  8.80000000E+02  6.60000000E+01  0.00000000E+00
  8.80000000E+02  6.40000000E+01  0.00000000E+00
  8.80000000E+02  6.20000000E+01  0.00000000E+00
  8.80000000E+02  6.00000000E+01  0.00000000E+00
  8.80000000E+02  5.80000000E+01  0.00000000E+00
  8.80000000E+02  5.60000000E+01  0.00000000E+00
  8.80000000E+02  5.40000000E+01  0.00000000E+00
  8.80000000E+02  5.20000000E+01  0.00000000E+00
  8.80000000E+02  5.00000000E+01  0.00000000E+00
  8.80000000E+02  4.80000000E+01  0.00000000E+00
  8.80000000E+02  4.60000000E+01  0.00000000E+00
  8.80000000E+02  4.40000000E+01  0.00000000E+00
  8.80000000E+02  4.20000000E+01  0.00000000E+00
  8.80000000E+02  4.00000000E+01  0.00000000E+00
  8.80000000E+02  3.80000000E+01  0.00000000E+00
  8.80000000E+02  3.60000000E+01  0.00000000E+00
  8.80000000E+02  3.40000000E+01  0.00000000E+00
  8.80000000E+02  3.20000000E+01  0.00000000E+00
  8.80000000E+02  3.00000000E+01  0.00000000E+00
  8.80000000E+02  2.80000000E+01  0.00000000E+00
  8.80000000E+02  2.60000000E+01  0.00000000E+00
  8.80000000E+02  2.40000000E+01  0.00000000E+00
  8.80000000E+02  2.20000000E+01  0.00000000E+00
  8.80000000E+02  2.00000000E+01  0.00000000E+00
  8.80000000E+02  1.80000000E+01  0.00000000E+00
  8.80000000E+02  1.60000000E+01  0.00000000E+00
  8.80000000E+02  1.40000000E+01  0.00000000E+00
  8.80000000E+02  1.20000000E+01  0.00000000E+00
  8.80000000E+02  1.00000000E+01  0.00000000E+00
  8.80000000E+02  8.00000000E+00  0.00000000E+00
  8.80000000E+02  6.00000000E+00  0.00000000E+00
  8.80000000E+02  4.00000000E+00  0.00000000E+00
  8.80000000E+02  2.00000000E+00  0.00000000E+00
  8.80000000E+02 -3.33066907E-14  0.00000000E+00
  8.90000000E+02  1.00000000E+02  0.00000000E+00
  8.90000000E+02  9.80000000E+01  0.00000000E+00
  8.90000000E+02  9.60000000E+01  0.00000000E+00
  8.90000000E+02  9.40000000E+01  0.00000000E+00
  8.90000000E+02  9.20000000E+01  0.00000000E+00
  8.90000000E+02  9.00000000E+01  0.00000000E+00
  8.90000000E+02  8.80000000E+01  0.00000000E+00
  8.90000000E+02  8.60000000E+01  0.00000000E+00
  8.90000000E+02  8.40000000E+01  0.00000000E+00
  8.90000000E+02  8.20000000E+01  0.00000000E+00
  8.90000000E+02  8.00000000E+01  0.00000000E+00
  8.90000000E+02  7.80000000E+01  0.00000000E+00
  8.90000000E+02  7.60000000E+01  0.00000000E+00
  8.90000000E+02  7.40000000E+01  0.00000000E+00
  8.90000000E+02  7.20000000E+01  0.00000000E+00
  8.90000000E+02  7.00000000E+01  0.00000000E+00
  8.90000000E+02  6.80000000E+01  0.00000000E+00
  8.90000000E+02  6.60000000E+01  0.00000000E+00
  8.90000000E+02  6.40000000E+01  0.00000000E+00
  8.90000000E+02  6.20000000E+01  0.00000000E+00
  8.90000000E+02  6.00000000E+01  0.00000000E+00
  8.90000000E+02  5.80000000E+01  0.00000000E+00
  8.90000000E+02  5.60000000E+01  0.00000000E+00
  8.90000000E+02  5.40000000E+01  0.00000000E+00
  8.90000000E+02  5.20000000E+01  0.00000000E+00
  8.90000000E+02  5.00000000E+01  0.00000000E+00
  8.90000000E+02  4.80000000E+01  0.00000000E+00
  8.90000000E+02  4.60000000E+01  0.00000000E+00
  8.90000000E+02  4.40000000E+01  0.00000000E+00
  8.90000000E+02  4.20000000E+01  0.00000000E+00
  8.90000000E+02  4.00000000E+01  0.00000000E+00
  8.90000000E+02  3.80000000E+01  0.00000000E+00
  8.90000000E+02  3.60000000E+01  0.00000000E+00
  8.90000000E+02  3.40000000E+01  0.00000000E+00
  8.90000000E+02  3.20000000E+01  0.00000000E+00
  8.90000000E+02  3.00000000E+01  0.00000000E+00
  8.90000000E+02  2.80000000E+01  0.00000000E+00
  8.90000000E+02  2.60000000E+01  0.00000000E+00
  8.90000000E+02  2.40000000E+01  0.00000000E+00
  8.90000000E+02  2.20000000E+01  0.00000000E+00
  8.90000000E+02  2.00000000E+01  0.00000000E+00
  8.90000000E+02  1.80000000E+01  0.00000000E+00
  8.90000000E+02  1.60000000E+01  0.00000000E+00
  8.90000000E+02  1.40000000E+01  0.00000000E+00
  8.90000000E+02  1.20000000E+01  0.00000000E+00
  8.90000000E+02  1.00000000E+01  0.00000000E+00
  8.90000000E+02  8.00000000E+00  0.00000000E+00
  8.90000000E+02  6.00000000E+00  0.00000000E+00
  8.90000000E+02  4.00000000E+00  0.00000000E+00
  8.90000000E+02  2.00000000E+00  0.00000000E+00
  8.90000000E+02 -3.33066907E-14  0.00000000E+00
  9.00000000E+02  1.00000000E+02  0.00000000E+00
  9.00000000E+02  9.80000000E+01  0.00000000E+00
  9.00000000E+02  9.60000000E+01  0.00000000E+00
  9.00000000E+02  9.40000000E+01  0.00000000E+00
  9.00000000E+02  9.20000000E+01  0.00000000E+00
  9.00000000E+02  9.00000000E+01  0.00000000E+00
  9.00000000E+02  8.80000000E+01  0.00000000E+00
  9.00000000E+02  8.60000000E+01  0.00000000E+00
  9.00000000E+02  8.40000000E+01  0.00000000E+00
  9.00000000E+02  8.20000000E+01  0.00000000E+00
  9.00000000E+02  8.00000000E+01  0.00000000E+00
  9.00000000E+02  7.80000000E+01  0.00000000E+00
  9.00000000E+02  7.60000000E+01  0.00000000E+00
  9.00000000E+02  7.40000000E+01  0.00000000E+00
  9.00000000E+02  7.20000000E+01  0.00000000E+00
  9.00000000E+02  7.00000000E+01  0.00000000E+00
  9.00000000E+02  6.80000000E+01  0.00000000E+00
  9.00000000E+02  6.60000000E+01  0.00000000E+00
  9.00000000E+02  6.40000000E+01  0.00000000E+00
  9.00000000E+02  6.20000000E+01  0.00000000E+00
  9.00000000E+02  6.00000000E+01  0.00000000E+00
  9.00000000E+02  5.80000000E+01  0.00000000E+00
  9.00000000E+02  5.60000000E+01  0.00000000E+00
  9.00000000E+02  5.40000000E+01  0.00000000E+00
  9.00000000E+02  5.20000000E+01  0.00000000E+00
  9.00000000E+02  5.00000000E+01  0.00000000E+00
  9.00000000E+02  4.80000000E+01  0.00000000E+00
  9.00000000E+02  4.60000000E+01  0.00000000E+00
  9.00000000E+02  4.40000000E+01  0.00000000E+00
  9.00000000E+02  4.20000000E+01  0.00000000E+00
  9.00000000E+02  4.00000000E+01  0.00000000E+00
  9.00000000E+02  3.80000000E+01  0.00000000E+00
  9.00000000E+02  3.60000000E+01  0.00000000E+00
  9.00000000E+02  3.40000000E+01  0.00000000E+00
  9.00000000E+02  3.20000000E+01  0.00000000E+00
  9.00000000E+02  3.00000000E+01  0.00000000E+00
  9.00000000E+02  2.80000000E+01  0.00000000E+00
  9.00000000E+02  2.60000000E+01  0.00000000E+00
  9.00000000E+02  2.40000000E+01  0.00000000E+00
  9.00000000E+02  2.20000000E+01  0.00000000E+00
  9.00000000E+02  2.00000000E+01  0.00000000E+00
  9.00000000E+02  1.80000000E+01  0.00000000E+00
  9.00000000E+02  1.60000000E+01  0.00000000E+00
  9.00000000E+02  1.40000000E+01  0.00000000E+00
  9.00000000E+02  1.20000000E+01  0.00000000E+00
  9.00000000E+02  1.00000000E+01  0.00000000E+00
  9.00000000E+02  8.00000000E+00  0.00000000E+00
  9.00000000E+02  6.00000000E+00  0.00000000E+00
  9.00000000E+02  4.00000000E+00  0.00000000E+00
  9.00000000E+02  2.00000000E+00  0.00000000E+00
  9.00000000E+02 -3.33066907E-14  0.00000000E+00
  9.10000000E+02  1.00000000E+02  0.00000000E+00
  9.10000000E+02  9.80000000E+01  0.00000000E+00
  9.10000000E+02  9.60000000E+01  0.00000000E+00
  9.10000000E+02  9.40000000E+01  0.00000000E+00
  9.10000000E+02  9.20000000E+01  0.00000000E+00
  9.10000000E+02  9.00000000E+01  0.00000000E+00
  9.10000000E+02  8.80000000E+01  0.00000000E+00
  9.10000000E+02  8.60000000E+01  0.00000000E+00
  9.10000000E+02  8.40000000E+01  0.00000000E+00
  9.10000000E+02  8.20000000E+01  0.00000000E+00
  9.10000000E+02  8.00000000E+01  0.00000000E+00
  9.10000000E+02  7.80000000E+01  0.00000000E+00
  9.10000000E+02  7.60000000E+01  0.00000000E+00
  9.10000000E+02  7.40000000E+01  0.00000000E+00
  9.10000000E+02  7.20000000E+01  0.00000000E+00
  9.10000000E+02  7.00000000E+01  0.00000000E+00
  9.10000000E+02  6.80000000E+01  0.00000000E+00
  9.10000000E+02  6.60000000E+01  0.00000000E+00
  9.10000000E+02  6.40000000E+01  0.00000000E+00
  9.10000000E+02  6.20000000E+01  0.00000000E+00
  9.10000000E+02  6.00000000E+01  0.00000000E+00
  9.10000000E+02  5.80000000E+01  0.00000000E+00
  9.10000000E+02  5.60000000E+01  0.00000000E+00
  9.10000000E+02  5.40000000E+01  0.00000000E+00
  9.10000000E+02  5.20000000E+01  0.00000000E+00
  9.10000000E+02  5.00000000E+01  0.00000000E+00
  9.10000000E+02  4.80000000E+01  0.00000000E+00
  9.10000000E+02  4.60000000E+01  0.00000000E+00
  9.10000000E+02  4.40000000E+01  0.00000000E+00
  9.10000000E+02  4.20000000E+01  0.00000000E+00
  9.10000000E+02  4.00000000E+01  0.00000000E+00
  9.10000000E+02  3.80000000E+01  0.00000000E+00
  9.10000000E+02  3.60000000E+01  0.00000000E+00
  9.10000000E+02  3.40000000E+01  0.00000000E+00
  9.10000000E+02  3.20000000E+01  0.00000000E+00
  9.10000000E+02  3.00000000E+01  0.00000000E+00
  9.10000000E+02  2.80000000E+01  0.00000000E+00
  9.10000000E+02  2.60000000E+01  0.00000000E+00
  9.10000000E+02  2.40000000E+01  0.00000000E+00
  9.10000000E+02  2.20000000E+01  0.00000000E+00
  9.10000000E+02  2.00000000E+01  0.00000000E+00
  9.10000000E+02  1.80000000E+01  0.00000000E+00
  9.10000000E+02  1.60000000E+01  0.00000000E+00
  9.10000000E+02  1.40000000E+01  0.00000000E+00
  9.10000000E+02  1.20000000E+01  0.00000000E+00
  9.10000000E+02  1.00000000E+01  0.00000000E+00
  9.10000000E+02  8.00000000E+00  0.00000000E+00
  9.10000000E+02  6.00000000E+00  0.00000000E+00
  9.10000000E+02  4.00000000E+00  0.00000000E+00
  9.10000000E+02  2.00000000E+00  0.00000000E+00
  9.10000000E+02 -3.33066907E-14  0.00000000E+00
  9.20000000E+02  1.00000000E+02  0.00000000E+00
  9.20000000E+02  9.80000000E+01  0.00000000E+00
  9.20000000E+02  9.60000000E+01  0.00000000E+00
  9.20000000E+02  9.40000000E+01  0.00000000E+00
  9.20000000E+02  9.20000000E+01  0.00000000E+00
  9.20000000E+02  9.00000000E+01  0.00000000E+00
  9.20000000E+02  8.80000000E+01  0.00000000E+00
  9.20000000E+02  8.60000000E+01  0.00000000E+00
  9.20000000E+02  8.40000000E+01  0.00000000E+00
  9.20000000E+02  8.20000000E+01  0.00000000E+00
  9.20000000E+02  8.00000000E+01  0.00000000E+00
  9.20000000E+02  7.80000000E+01  0.00000000E+00
  9.20000000E+02  7.60000000E+01  0.00000000E+00
  9.20000000E+02  7.40000000E+01  0.00000000E+00
  9.20000000E+02  7.20000000E+01  0.00000000E+00
  9.20000000E+02  7.00000000E+01  0.00000000E+00
  9.20000000E+02  6.80000000E+01  0.00000000E+00
  9.20000000E+02  6.60000000E+01  0.00000000E+00
  9.20000000E+02  6.40000000E+01  0.00000000E+00
  9.20000000E+02  6.20000000E+01  0.00000000E+00
  9.20000000E+02  6.00000000E+01  0.00000000E+00
  9.20000000E+02  5.80000000E+01  0.00000000E+00
  9.20000000E+02  5.60000000E+01  0.00000000E+00
  9.20000000E+02  5.40000000E+01  0.00000000E+00
  9.20000000E+02  5.20000000E+01  0.00000000E+00
  9.20000000E+02  5.00000000E+01  0.00000000E+00
  9.20000000E+02  4.80000000E+01  0.00000000E+00
  9.20000000E+02  4.60000000E+01  0.00000000E+00
  9.20000000E+02  4.40000000E+01  0.00000000E+00
  9.20000000E+02  4.20000000E+01  0.00000000E+00
  9.20000000E+02  4.00000000E+01  0.00000000E+00
  9.20000000E+02  3.80000000E+01  0.00000000E+00
  9.20000000E+02  3.60000000E+01  0.00000000E+00
  9.20000000E+02  3.40000000E+01  0.00000000E+00
  9.20000000E+02  3.20000000E+01  0.00000000E+00
  9.20000000E+02  3.00000000E+01  0.00000000E+00
  9.20000000E+02  2.80000000E+01  0.00000000E+00
  9.20000000E+02  2.60000000E+01  0.00000000E+00
  9.20000000E+02  2.40000000E+01  0.00000000E+00
  9.20000000E+02  2.20000000E+01  0.00000000E+00
  9.20000000E+02  2.00000000E+01  0.00000000E+00
  9.20000000E+02  1.80000000E+01  0.00000000E+00
  9.20000000E+02  1.60000000E+01  0.00000000E+00
  9.20000000E+02  1.40000000E+01  0.00000000E+00
  9.20000000E+02  1.20000000E+01  0.00000000E+00
  9.20000000E+02  1.00000000E+01  0.00000000E+00
  9.20000000E+02  8.00000000E+00  0.00000000E+00
  9.20000000E+02  6.00000000E+00  0.00000000E+00
  9.20000000E+02  4.00000000E+00  0.00000000E+00
  9.20000000E+02  2.00000000E+00  0.00000000E+00
  9.20000000E+02 -3.33066907E-14  0.00000000E+00
  9.30000000E+02  1.00000000E+02  0.00000000E+00
  9.30000000E+02  9.80000000E+01  0.00000000E+00
  9.30000000E+02  9.60000000E+01  0.00000000E+00
  9.30000000E+02  9.40000000E+01  0.00000000E+00
  9.30000000E+02  9.20000000E+01  0.00000000E+00
  9.30000000E+02  9.00000000E+01  0.00000000E+00
  9.30000000E+02  8.80000000E+01  0.00000000E+00
  9.30000000E+02  8.60000000E+01  0.00000000E+00
  9.30000000E+02  8.40000000E+01  0.00000000E+00
  9.30000000E+02  8.20000000E+01  0.00000000E+00
  9.30000000E+02  8.00000000E+01  0.00000000E+00
  9.30000000E+02  7.80000000E+01  0.00000000E+00
  9.30000000E+02  7.60000000E+01  0.00000000E+00
  9.30000000E+02  7.40000000E+01  0.00000000E+00
  9.30000000E+02  7.20000000E+01  0.00000000E+00
  9.30000000E+02  7.00000000E+01  0.00000000E+00
  9.30000000E+02  6.80000000E+01  0.00000000E+00
  9.30000000E+02  6.60000000E+01  0.00000000E+00
  9.30000000E+02  6.40000000E+01  0.00000000E+00
  9.30000000E+02  6.20000000E+01  0.00000000E+00
  9.30000000E+02  6.00000000E+01  0.00000000E+00
  9.30000000E+02  5.80000000E+01  0.00000000E+00
  9.30000000E+02  5.60000000E+01  0.00000000E+00
  9.30000000E+02  5.40000000E+01  0.00000000E+00
  9.30000000E+02  5.20000000E+01  0.00000000E+00
  9.30000000E+02  5.00000000E+01  0.00000000E+00
  9.30000000E+02  4.80000000E+01  0.00000000E+00
  9.30000000E+02  4.60000000E+01  0.00000000E+00
  9.30000000E+02  4.40000000E+01  0.00000000E+00
  9.30000000E+02  4.20000000E+01  0.00000000E+00
  9.30000000E+02  4.00000000E+01  0.00000000E+00
  9.30000000E+02  3.80000000E+01  0.00000000E+00
  9.30000000E+02  3.60000000E+01  0.00000000E+00
  9.30000000E+02  3.40000000E+01  0.00000000E+00
  9.30000000E+02  3.20000000E+01  0.00000000E+00
  9.30000000E+02  3.00000000E+01  0.00000000E+00
  9.30000000E+02  2.80000000E+01  0.00000000E+00
  9.30000000E+02  2.60000000E+01  0.00000000E+00
  9.30000000E+02  2.40000000E+01  0.00000000E+00
  9.30000000E+02  2.20000000E+01  0.00000000E+00
  9.30000000E+02  2.00000000E+01  0.00000000E+00
  9.30000000E+02  1.80000000E+01  0.00000000E+00
  9.30000000E+02  1.60000000E+01  0.00000000E+00
  9.30000000E+02  1.40000000E+01  0.00000000E+00
  9.30000000E+02  1.20000000E+01  0.00000000E+00
  9.30000000E+02  1.00000000E+01  0.00000000E+00
  9.30000000E+02  8.00000000E+00  0.00000000E+00
  9.30000000E+02  6.00000000E+00  0.00000000E+00
  9.30000000E+02  4.00000000E+00  0.00000000E+00
  9.30000000E+02  2.00000000E+00  0.00000000E+00
  9.30000000E+02 -3.33066907E-14  0.00000000E+00
  9.40000000E+02  1.00000000E+02  0.00000000E+00
  9.40000000E+02  9.80000000E+01  0.00000000E+00
  9.40000000E+02  9.60000000E+01  0.00000000E+00
  9.40000000E+02  9.40000000E+01  0.00000000E+00
  9.40000000E+02  9.20000000E+01  0.00000000E+00
  9.40000000E+02  9.00000000E+01  0.00000000E+00
  9.40000000E+02  8.80000000E+01  0.00000000E+00
  9.40000000E+02  8.60000000E+01  0.00000000E+00
  9.40000000E+02  8.40000000E+01  0.00000000E+00
  9.40000000E+02  8.20000000E+01  0.00000000E+00
  9.40000000E+02  8.00000000E+01  0.00000000E+00
  9.40000000E+02  7.80000000E+01  0.00000000E+00
  9.40000000E+02  7.60000000E+01  0.00000000E+00
  9.40000000E+02  7.40000000E+01  0.00000000E+00
  9.40000000E+02  7.20000000E+01  0.00000000E+00
  9.40000000E+02  7.00000000E+01  0.00000000E+00
  9.40000000E+02  6.80000000E+01  0.00000000E+00
  9.40000000E+02  6.60000000E+01  0.00000000E+00
  9.40000000E+02  6.40000000E+01  0.00000000E+00
  9.40000000E+02  6.20000000E+01  0.00000000E+00
  9.40000000E+02  6.00000000E+01  0.00000000E+00
  9.40000000E+02  5.80000000E+01  0.00000000E+00
  9.40000000E+02  5.60000000E+01  0.00000000E+00
  9.40000000E+02  5.40000000E+01  0.00000000E+00
  9.40000000E+02  5.20000000E+01  0.00000000E+00
  9.40000000E+02  5.00000000E+01  0.00000000E+00
  9.40000000E+02  4.80000000E+01  0.00000000E+00
  9.40000000E+02  4.60000000E+01  0.00000000E+00
  9.40000000E+02  4.40000000E+01  0.00000000E+00
  9.40000000E+02  4.20000000E+01  0.00000000E+00
  9.40000000E+02  4.00000000E+01  0.00000000E+00
  9.40000000E+02  3.80000000E+01  0.00000000E+00
  9.40000000E+02  3.60000000E+01  0.00000000E+00
  9.40000000E+02  3.40000000E+01  0.00000000E+00
  9.40000000E+02  3.20000000E+01  0.00000000E+00
  9.40000000E+02  3.00000000E+01  0.00000000E+00
  9.40000000E+02  2.80000000E+01  0.00000000E+00
  9.40000000E+02  2.60000000E+01  0.00000000E+00
  9.40000000E+02  2.40000000E+01  0.00000000E+00
  9.40000000E+02  2.20000000E+01  0.00000000E+00
  9.40000000E+02  2.00000000E+01  0.00000000E+00
  9.40000000E+02  1.80000000E+01  0.00000000E+00
  9.40000000E+02  1.60000000E+01  0.00000000E+00
  9.40000000E+02  1.40000000E+01  0.00000000E+00
  9.40000000E+02  1.20000000E+01  0.00000000E+00
  9.40000000E+02  1.00000000E+01  0.00000000E+00
  9.40000000E+02  8.00000000E+00  0.00000000E+00
  9.40000000E+02  6.00000000E+00  0.00000000E+00
  9.40000000E+02  4.00000000E+00  0.00000000E+00
  9.40000000E+02  2.00000000E+00  0.00000000E+00
  9.40000000E+02 -3.33066907E-14  0.00000000E+00
  9.50000000E+02  1.00000000E+02  0.00000000E+00
  9.50000000E+02  9.80000000E+01  0.00000000E+00
  9.50000000E+02  9.60000000E+01  0.00000000E+00
  9.50000000E+02  9.40000000E+01  0.00000000E+00
  9.50000000E+02  9.20000000E+01  0.00000000E+00
  9.50000000E+02  9.00000000E+01  0.00000000E+00
  9.50000000E+02  8.80000000E+01  0.00000000E+00
  9.50000000E+02  8.60000000E+01  0.00000000E+00
  9.50000000E+02  8.40000000E+01  0.00000000E+00
  9.50000000E+02  8.20000000E+01  0.00000000E+00
  9.50000000E+02  8.00000000E+01  0.00000000E+00
  9.50000000E+02  7.80000000E+01  0.00000000E+00
  9.50000000E+02  7.60000000E+01  0.00000000E+00
  9.50000000E+02  7.40000000E+01  0.00000000E+00
  9.50000000E+02  7.20000000E+01  0.00000000E+00
  9.50000000E+02  7.00000000E+01  0.00000000E+00
  9.50000000E+02  6.80000000E+01  0.00000000E+00
  9.50000000E+02  6.60000000E+01  0.00000000E+00
  9.50000000E+02  6.40000000E+01  0.00000000E+00
  9.50000000E+02  6.20000000E+01  0.00000000E+00
  9.50000000E+02  6.00000000E+01  0.00000000E+00
  9.50000000E+02  5.80000000E+01  0.00000000E+00
  9.50000000E+02  5.60000000E+01  0.00000000E+00
  9.50000000E+02  5.40000000E+01  0.00000000E+00
  9.50000000E+02  5.20000000E+01  0.00000000E+00
  9.50000000E+02  5.00000000E+01  0.00000000E+00
  9.50000000E+02  4.80000000E+01  0.00000000E+00
  9.50000000E+02  4.60000000E+01  0.00000000E+00
  9.50000000E+02  4.40000000E+01  0.00000000E+00
  9.50000000E+02  4.20000000E+01  0.00000000E+00
  9.50000000E+02  4.00000000E+01  0.00000000E+00
  9.50000000E+02  3.80000000E+01  0.00000000E+00
  9.50000000E+02  3.60000000E+01  0.00000000E+00
  9.50000000E+02  3.40000000E+01  0.00000000E+00
  9.50000000E+02  3.20000000E+01  0.00000000E+00
  9.50000000E+02  3.00000000E+01  0.00000000E+00
  9.50000000E+02  2.80000000E+01  0.00000000E+00
  9.50000000E+02  2.60000000E+01  0.00000000E+00
  9.50000000E+02  2.40000000E+01  0.00000000E+00
  9.50000000E+02  2.20000000E+01  0.00000000E+00
  9.50000000E+02  2.00000000E+01  0.00000000E+00
  9.50000000E+02  1.80000000E+01  0.00000000E+00
  9.50000000E+02  1.60000000E+01  0.00000000E+00
  9.50000000E+02  1.40000000E+01  0.00000000E+00
  9.50000000E+02  1.20000000E+01  0.00000000E+00
  9.50000000E+02  1.00000000E+01  0.00000000E+00
  9.50000000E+02  8.00000000E+00  0.00000000E+00
  9.50000000E+02  6.00000000E+00  0.00000000E+00
  9.50000000E+02  4.00000000E+00  0.00000000E+00
  9.50000000E+02  2.00000000E+00  0.00000000E+00
  9.50000000E+02 -3.33066907E-14  0.00000000E+00
  9.60000000E+02  1.00000000E+02  0.00000000E+00
  9.60000000E+02  9.80000000E+01  0.00000000E+00
  9.60000000E+02  9.60000000E+01  0.00000000E+00
  9.60000000E+02  9.40000000E+01  0.00000000E+00
  9.60000000E+02  9.20000000E+01  0.00000000E+00
  9.60000000E+02  9.00000000E+01  0.00000000E+00
  9.60000000E+02  8.80000000E+01  0.00000000E+00
  9.60000000E+02  8.60000000E+01  0.00000000E+00
  9.60000000E+02  8.40000000E+01  0.00000000E+00
  9.60000000E+02  8.20000000E+01  0.00000000E+00
  9.60000000E+02  8.00000000E+01  0.00000000E+00
  9.60000000E+02  7.80000000E+01  0.00000000E+00
  9.60000000E+02  7.60000000E+01  0.00000000E+00
  9.60000000E+02  7.40000000E+01  0.00000000E+00
  9.60000000E+02  7.20000000E+01  0.00000000E+00
  9.60000000E+02  7.00000000E+01  0.00000000E+00
  9.60000000E+02  6.80000000E+01  0.00000000E+00
  9.60000000E+02  6.60000000E+01  0.00000000E+00
  9.60000000E+02  6.40000000E+01  0.00000000E+00
  9.60000000E+02  6.20000000E+01  0.00000000E+00
  9.60000000E+02  6.00000000E+01  0.00000000E+00
  9.60000000E+02  5.80000000E+01  0.00000000E+00
  9.60000000E+02  5.60000000E+01  0.00000000E+00
  9.60000000E+02  5.40000000E+01  0.00000000E+00
  9.60000000E+02  5.20000000E+01  0.00000000E+00
  9.60000000E+02  5.00000000E+01  0.00000000E+00
  9.60000000E+02  4.80000000E+01  0.00000000E+00
  9.60000000E+02  4.60000000E+01  0.00000000E+00
  9.60000000E+02  4.40000000E+01  0.00000000E+00
  9.60000000E+02  4.20000000E+01  0.00000000E+00
  9.60000000E+02  4.00000000E+01  0.00000000E+00
  9.60000000E+02  3.80000000E+01  0.00000000E+00
  9.60000000E+02  3.60000000E+01  0.00000000E+00
  9.60000000E+02  3.40000000E+01  0.00000000E+00
  9.60000000E+02  3.20000000E+01  0.00000000E+00
  9.60000000E+02  3.00000000E+01  0.00000000E+00
  9.60000000E+02  2.80000000E+01  0.00000000E+00
  9.60000000E+02  2.60000000E+01  0.00000000E+00
  9.60000000E+02  2.40000000E+01  0.00000000E+00
  9.60000000E+02  2.20000000E+01  0.00000000E+00
  9.60000000E+02  2.00000000E+01  0.00000000E+00
  9.60000000E+02  1.80000000E+01  0.00000000E+00
  9.60000000E+02  1.60000000E+01  0.00000000E+00
  9.60000000E+02  1.40000000E+01  0.00000000E+00
  9.60000000E+02  1.20000000E+01  0.00000000E+00
  9.60000000E+02  1.00000000E+01  0.00000000E+00
  9.60000000E+02  8.00000000E+00  0.00000000E+00
  9.60000000E+02  6.00000000E+00  0.00000000E+00
  9.60000000E+02  4.00000000E+00  0.00000000E+00
  9.60000000E+02  2.00000000E+00  0.00000000E+00
  9.60000000E+02 -3.33066907E-14  0.00000000E+00
  9.70000000E+02  1.00000000E+02  0.00000000E+00
  9.70000000E+02  9.80000000E+01  0.00000000E+00
  9.70000000E+02  9.60000000E+01  0.00000000E+00
  9.70000000E+02  9.40000000E+01  0.00000000E+00
  9.70000000E+02  9.20000000E+01  0.00000000E+00
  9.70000000E+02  9.00000000E+01  0.00000000E+00
  9.70000000E+02  8.80000000E+01  0.00000000E+00
  9.70000000E+02  8.60000000E+01  0.00000000E+00
  9.70000000E+02  8.40000000E+01  0.00000000E+00
  9.70000000E+02  8.20000000E+01  0.00000000E+00
  9.70000000E+02  8.00000000E+01  0.00000000E+00
  9.70000000E+02  7.80000000E+01  0.00000000E+00
  9.70000000E+02  7.60000000E+01  0.00000000E+00
  9.70000000E+02  7.40000000E+01  0.00000000E+00
  9.70000000E+02  7.20000000E+01  0.00000000E+00
  9.70000000E+02  7.00000000E+01  0.00000000E+00
  9.70000000E+02  6.80000000E+01  0.00000000E+00
  9.70000000E+02  6.60000000E+01  0.00000000E+00
  9.70000000E+02  6.40000000E+01  0.00000000E+00
  9.70000000E+02  6.20000000E+01  0.00000000E+00
  9.70000000E+02  6.00000000E+01  0.00000000E+00
  9.70000000E+02  5.80000000E+01  0.00000000E+00
  9.70000000E+02  5.60000000E+01  0.00000000E+00
  9.70000000E+02  5.40000000E+01  0.00000000E+00
  9.70000000E+02  5.20000000E+01  0.00000000E+00
  9.70000000E+02  5.00000000E+01  0.00000000E+00
  9.70000000E+02  4.80000000E+01  0.00000000E+00
  9.70000000E+02  4.60000000E+01  0.00000000E+00
  9.70000000E+02  4.40000000E+01  0.00000000E+00
  9.70000000E+02  4.20000000E+01  0.00000000E+00
  9.70000000E+02  4.00000000E+01  0.00000000E+00
  9.70000000E+02  3.80000000E+01  0.00000000E+00
  9.70000000E+02  3.60000000E+01  0.00000000E+00
  9.70000000E+02  3.40000000E+01  0.00000000E+00
  9.70000000E+02  3.20000000E+01  0.00000000E+00
  9.70000000E+02  3.00000000E+01  0.00000000E+00
  9.70000000E+02  2.80000000E+01  0.00000000E+00
  9.70000000E+02  2.60000000E+01  0.00000000E+00
  9.70000000E+02  2.40000000E+01  0.00000000E+00
  9.70000000E+02  2.20000000E+01  0.00000000E+00
  9.70000000E+02  2.00000000E+01  0.00000000E+00
  9.70000000E+02  1.80000000E+01  0.00000000E+00
  9.70000000E+02  1.60000000E+01  0.00000000E+00
  9.70000000E+02  1.40000000E+01  0.00000000E+00
  9.70000000E+02  1.20000000E+01  0.00000000E+00
  9.70000000E+02  1.00000000E+01  0.00000000E+00
  9.70000000E+02  8.00000000E+00  0.00000000E+00
  9.70000000E+02  6.00000000E+00  0.00000000E+00
  9.70000000E+02  4.00000000E+00  0.00000000E+00
  9.70000000E+02  2.00000000E+00  0.00000000E+00
  9.70000000E+02 -3.33066907E-14  0.00000000E+00
  9.80000000E+02  1.00000000E+02  0.00000000E+00
  9.80000000E+02  9.80000000E+01  0.00000000E+00
  9.80000000E+02  9.60000000E+01  0.00000000E+00
  9.80000000E+02  9.40000000E+01  0.00000000E+00
  9.80000000E+02  9.20000000E+01  0.00000000E+00
  9.80000000E+02  9.00000000E+01  0.00000000E+00
  9.80000000E+02  8.80000000E+01  0.00000000E+00
  9.80000000E+02  8.60000000E+01  0.00000000E+00
  9.80000000E+02  8.40000000E+01  0.00000000E+00
  9.80000000E+02  8.20000000E+01  0.00000000E+00
  9.80000000E+02  8.00000000E+01  0.00000000E+00
  9.80000000E+02  7.80000000E+01  0.00000000E+00
  9.80000000E+02  7.60000000E+01  0.00000000E+00
  9.80000000E+02  7.40000000E+01  0.00000000E+00
  9.80000000E+02  7.20000000E+01  0.00000000E+00
  9.80000000E+02  7.00000000E+01  0.00000000E+00
  9.80000000E+02  6.80000000E+01  0.00000000E+00
  9.80000000E+02  6.60000000E+01  0.00000000E+00
  9.80000000E+02  6.40000000E+01  0.00000000E+00
  9.80000000E+02  6.20000000E+01  0.00000000E+00
  9.80000000E+02  6.00000000E+01  0.00000000E+00
  9.80000000E+02  5.80000000E+01  0.00000000E+00
  9.80000000E+02  5.60000000E+01  0.00000000E+00
  9.80000000E+02  5.40000000E+01  0.00000000E+00
  9.80000000E+02  5.20000000E+01  0.00000000E+00
  9.80000000E+02  5.00000000E+01  0.00000000E+00
  9.80000000E+02  4.80000000E+01  0.00000000E+00
  9.80000000E+02  4.60000000E+01  0.00000000E+00
  9.80000000E+02  4.40000000E+01  0.00000000E+00
  9.80000000E+02  4.20000000E+01  0.00000000E+00
  9.80000000E+02  4.00000000E+01  0.00000000E+00
  9.80000000E+02  3.80000000E+01  0.00000000E+00
  9.80000000E+02  3.60000000E+01  0.00000000E+00
  9.80000000E+02  3.40000000E+01  0.00000000E+00
  9.80000000E+02  3.20000000E+01  0.00000000E+00
  9.80000000E+02  3.00000000E+01  0.00000000E+00
  9.80000000E+02  2.80000000E+01  0.00000000E+00
  9.80000000E+02  2.60000000E+01  0.00000000E+00
  9.80000000E+02  2.40000000E+01  0.00000000E+00
  9.80000000E+02  2.20000000E+01  0.00000000E+00
  9.80000000E+02  2.00000000E+01  0.00000000E+00
  9.80000000E+02  1.80000000E+01  0.00000000E+00
  9.80000000E+02  1.60000000E+01  0.00000000E+00
  9.80000000E+02  1.40000000E+01  0.00000000E+00
  9.80000000E+02  1.20000000E+01  0.00000000E+00
  9.80000000E+02  1.00000000E+01  0.00000000E+00
  9.80000000E+02  8.00000000E+00  0.00000000E+00
  9.80000000E+02  6.00000000E+00  0.00000000E+00
  9.80000000E+02  4.00000000E+00  0.00000000E+00
  9.80000000E+02  2.00000000E+00  0.00000000E+00
  9.80000000E+02 -3.33066907E-14  0.00000000E+00
  9.90000000E+02  1.00000000E+02  0.00000000E+00
  9.90000000E+02  9.80000000E+01  0.00000000E+00
  9.90000000E+02  9.60000000E+01  0.00000000E+00
  9.90000000E+02  9.40000000E+01  0.00000000E+00
  9.90000000E+02  9.20000000E+01  0.00000000E+00
  9.90000000E+02  9.00000000E+01  0.00000000E+00
  9.90000000E+02  8.80000000E+01  0.00000000E+00
  9.90000000E+02  8.60000000E+01  0.00000000E+00
  9.90000000E+02  8.40000000E+01  0.00000000E+00
  9.90000000E+02  8.20000000E+01  0.00000000E+00
  9.90000000E+02  8.00000000E+01  0.00000000E+00
  9.90000000E+02  7.80000000E+01  0.00000000E+00
  9.90000000E+02  7.60000000E+01  0.00000000E+00
  9.90000000E+02  7.40000000E+01  0.00000000E+00
  9.90000000E+02  7.20000000E+01  0.00000000E+00
  9.90000000E+02  7.00000000E+01  0.00000000E+00
  9.90000000E+02  6.80000000E+01  0.00000000E+00
  9.90000000E+02  6.60000000E+01  0.00000000E+00
  9.90000000E+02  6.40000000E+01  0.00000000E+00
  9.90000000E+02  6.20000000E+01  0.00000000E+00
  9.90000000E+02  6.00000000E+01  0.00000000E+00
  9.90000000E+02  5.80000000E+01  0.00000000E+00
  9.90000000E+02  5.60000000E+01  0.00000000E+00
  9.90000000E+02  5.40000000E+01  0.00000000E+00
  9.90000000E+02  5.20000000E+01  0.00000000E+00
  9.90000000E+02  5.00000000E+01  0.00000000E+00
  9.90000000E+02  4.80000000E+01  0.00000000E+00
  9.90000000E+02  4.60000000E+01  0.00000000E+00
  9.90000000E+02  4.40000000E+01  0.00000000E+00
  9.90000000E+02  4.20000000E+01  0.00000000E+00
  9.90000000E+02  4.00000000E+01  0.00000000E+00
  9.90000000E+02  3.80000000E+01  0.00000000E+00
  9.90000000E+02  3.60000000E+01  0.00000000E+00
  9.90000000E+02  3.40000000E+01  0.00000000E+00
  9.90000000E+02  3.20000000E+01  0.00000000E+00
  9.90000000E+02  3.00000000E+01  0.00000000E+00
  9.90000000E+02  2.80000000E+01  0.00000000E+00
  9.90000000E+02  2.60000000E+01  0.00000000E+00
  9.90000000E+02  2.40000000E+01  0.00000000E+00
  9.90000000E+02  2.20000000E+01  0.00000000E+00
  9.90000000E+02  2.00000000E+01  0.00000000E+00
  9.90000000E+02  1.80000000E+01  0.00000000E+00
  9.90000000E+02  1.60000000E+01  0.00000000E+00
  9.90000000E+02  1.40000000E+01  0.00000000E+00
  9.90000000E+02  1.20000000E+01  0.00000000E+00
  9.90000000E+02  1.00000000E+01  0.00000000E+00
  9.90000000E+02  8.00000000E+00  0.00000000E+00
  9.90000000E+02  6.00000000E+00  0.00000000E+00
  9.90000000E+02  4.00000000E+00  0.00000000E+00
  9.90000000E+02  2.00000000E+00  0.00000000E+00
  9.90000000E+02 -3.33066907E-14  0.00000000E+00
  1.00000000E+03  1.00000000E+02  0.00000000E+00
  1.00000000E+03  9.80000000E+01  0.00000000E+00
  1.00000000E+03  9.60000000E+01  0.00000000E+00
  1.00000000E+03  9.40000000E+01  0.00000000E+00
  1.00000000E+03  9.20000000E+01  0.00000000E+00
  1.00000000E+03  9.00000000E+01  0.00000000E+00
  1.00000000E+03  8.80000000E+01  0.00000000E+00
  1.00000000E+03  8.60000000E+01  0.00000000E+00
  1.00000000E+03  8.40000000E+01  0.00000000E+00
  1.00000000E+03  8.20000000E+01  0.00000000E+00
  1.00000000E+03  8.00000000E+01  0.00000000E+00
  1.00000000E+03  7.80000000E+01  0.00000000E+00
  1.00000000E+03  7.60000000E+01  0.00000000E+00
  1.00000000E+03  7.40000000E+01  0.00000000E+00
  1.00000000E+03  7.20000000E+01  0.00000000E+00
  1.00000000E+03  7.00000000E+01  0.00000000E+00
  1.00000000E+03  6.80000000E+01  0.00000000E+00
  1.00000000E+03  6.60000000E+01  0.00000000E+00
  1.00000000E+03  6.40000000E+01  0.00000000E+00
  1.00000000E+03  6.20000000E+01  0.00000000E+00
  1.00000000E+03  6.00000000E+01  0.00000000E+00
  1.00000000E+03  5.80000000E+01  0.00000000E+00
  1.00000000E+03  5.60000000E+01  0.00000000E+00
  1.00000000E+03  5.40000000E+01  0.00000000E+00
  1.00000000E+03  5.20000000E+01  0.00000000E+00
  1.00000000E+03  5.00000000E+01  0.00000000E+00
  1.00000000E+03  4.80000000E+01  0.00000000E+00
  1.00000000E+03  4.60000000E+01  0.00000000E+00
  1.00000000E+03  4.40000000E+01  0.00000000E+00
  1.00000000E+03  4.20000000E+01  0.00000000E+00
  1.00000000E+03  4.00000000E+01  0.00000000E+00
  1.00000000E+03  3.80000000E+01  0.00000000E+00
  1.00000000E+03  3.60000000E+01  0.00000000E+00
  1.00000000E+03  3.40000000E+01  0.00000000E+00
  1.00000000E+03  3.20000000E+01  0.00000000E+00
  1.00000000E+03  3.00000000E+01  0.00000000E+00
  1.00000000E+03  2.80000000E+01  0.00000000E+00
  1.00000000E+03  2.60000000E+01  0.00000000E+00
  1.00000000E+03  2.40000000E+01  0.00000000E+00
  1.00000000E+03  2.20000000E+01  0.00000000E+00
  1.00000000E+03  2.00000000E+01  0.00000000E+00
  1.00000000E+03  1.80000000E+01  0.00000000E+00
  1.00000000E+03  1.60000000E+01  0.00000000E+00
  1.00000000E+03  1.40000000E+01  0.00000000E+00
  1.00000000E+03  1.20000000E+01  0.00000000E+00
  1.00000000E+03  1.00000000E+01  0.00000000E+00
  1.00000000E+03  8.00000000E+00  0.00000000E+00
  1.00000000E+03  6.00000000E+00  0.00000000E+00
  1.00000000E+03  4.00000000E+00  0.00000000E+00
  1.00000000E+03  2.00000000E+00  0.00000000E+00
  1.00000000E+03 -3.33066907E-14  0.00000000E+00
CELLS      5000     25000
         4           0           1          52          51
         4           1           2          53          52
         4           2           3          54          53
         4           3           4          55          54
         4           4           5          56          55
         4           5           6          57          56
         4           6           7          58          57
         4           7           8          59          58
         4           8           9          60          59
         4           9          10          61          60
         4          10          11          62          61
         4          11          12          63          62
         4          12          13          64          63
         4          13          14          65          64
         4          14          15          66          65
         4          15          16          67          66
         4          16          17          68          67
         4          17          18          69          68
         4          18          19          70          69
         4          19          20          71          70
         4          20          21          72          71
         4          21          22          73          72
         4          22          23          74          73
         4          23          24          75          74
         4          24          25          76          75
         4          25          26          77          76
         4          26          27          78          77
         4          27          28          79          78
         4          28          29          80          79
         4          29          30          81          80
         4          30          31          82          81
         4          31          32          83          82
         4          32          33          84          83
         4          33          34          85          84
         4          34          35          86          85
         4          35          36          87          86
         4          36          37          88          87
         4          37          38          89          88
         4          38          39          90          89
         4          39          40          91          90
         4          40          41          92          91
         4          41          42          93          92
         4          42          43          94          93
         4          43          44          95          94
         4          44          45          96          95
         4          45          46          97          96
         4          46          47          98          97
         4          47          48          99          98
         4          48          49         100          99
         4          49          50         101         100
         4          51          52         103         102
         4          52          53         104         103
         4          53          54         105         104
         4          54          55         106         105
         4          55          56         107         106
         4          56          57         108         107
         4          57          58         109         108
         4          58          59         110         109
         4          59          60         111         110
         4          60          61         112         111
         4          61          62         113         112
         4          62          63         114         113
         4          63          64         115         114
         4          64          65         116         115
         4          65          66         117         116
         4          66          67         118         117
         4          67          68         119         118
         4          68          69         120         119
         4          69          70         121         120
         4          70          71         122         121
         4          71          72         123         122
         4          72          73         124         123
         4          73          74         125         124
         4          74          75         126         125
         4          75          76         127         126
         4          76          77         128         127
         4          77          78         129         128
         4          78          79         130         129
         4          79          80         131         130
         4          80          81         132         131
         4          81          82         133         132
         4          82          83         134         133
         4          83          84         135         134
         4          84          85         136         135
         4          85          86         137         136
         4          86          87         138         137
         4          87          88         139         138
         4          88          89         140         139
         4          89          90         141         140
         4          90          91         142         141
         4          91          92         143         142
         4          92          93         144         143
         4          93          94         145         144
         4          94          95         146         145
         4          95          96         147         146
         4          96          97         148         147
         4          97          98         149         148
         4          98          99         150         149
         4          99         100         151         150
         4         100         101         152         151
         4         102         103         154         153
         4         103         104         155         154
         4         104         105         156         155
         4         105         106         157         156
         4         106         107         158         157
         4         107         108         159         158
         4         108         109         160         159
         4         109         110         161         160
         4         110         111         162         161
         4         111         112         163         162
         4         112         113         164         163
         4         113         114         165         164
         4         114         115         166         165
         4         115         116         167         166
         4         116         117         168         167
         4         117         118         169         168
         4         118         119         170         169
         4         119         120         171         170
         4         120         121         172         171
         4         121         122         173         172
         4         122         123         174         173
         4         123         124         175         174
         4         124         125         176         175
         4         125         126         177         176
         4         126         127         178         177
         4         127         128         179         178
         4         128         129         180         179
         4         129         130         181         180
         4         130         131         182         181
         4         131         132         183         182
         4         132         133         184         183
         4         133         134         185         184
         4         134         135         186         185
         4         135         136         187         186
         4         136         137         188         187
         4         137         138         189         188
         4         138         139         190         189
         4         139         140         191         190
         4         140         141         192         191
         4         141         142         193         192
         4         142         143         194         193
         4         143         144         195         194
         4         144         145         196         195
         4         145         146         197         196
         4         146         147         198         197
         4         147         148         199         198
         4         148         149         200         199
         4         149         150         201         200
         4         150         151         202         201
         4         151         152         203         202
         4         153         154         205         204
         4         154         155         206         205
         4         155         156         207         206
         4         156         157         208         207
         4         157         158         209         208
         4         158         159         210         209
         4         159         160         211         210
         4         160         161         212         211
         4         161         162         213         212
         4         162         163         214         213
         4         163         164         215         214
         4         164         165         216         215
         4         165         166         217         216
         4         166         167         218         217
         4         167         168         219         218
         4         168         169         220         219
         4         169         170         221         220
         4         170         171         222         221
         4         171         172         223         222
         4         172         173         224         223
         4         173         174         225         224
         4         174         175         226         225
         4         175         176         227         226
         4         176         177         228         227
         4         177         178         229         228
         4         178         179         230         229
         4         179         180         231         230
         4         180         181         232         231
         4         181         182         233         232
         4         182         183         234         233
         4         183         184         235         234
         4         184         185         236         235
         4         185         186         237         236
         4         186         187         238         237
         4         187         188         239         238
         4         188         189         240         239
         4         189         190         241         240
         4         190         191         242         241
         4         191         192         243         242
         4         192         193         244         243
         4         193         194         245         244
         4         194         195         246         245
         4         195         196         247         246
         4         196         197         248         247
         4         197         198         249         248
         4         198         199         250         249
         4         199         200         251         250
         4         200         201         252         251
         4         201         202         253         252
         4         202         203         254         253
         4         204         205         256         255
         4         205         206         257         256
         4         206         207         258         257
         4         207         208         259         258
         4         208         209         260         259
         4         209         210         261         260
         4         210         211         262         261
         4         211         212         263         262
         4         212         213         264         263
         4         213         214         265         264
         4         214         215         266         265
         4         215         216         267         266
         4         216         217         268         267
         4         217         218         269         268
         4         218         219         270         269
         4         219         220         271         270
         4         220         221         272         271
         4         221         222         273         272
         4         222         223         274         273
         4         223         224         275         274
         4         224         225         276         275
         4         225         226         277         276
         4         226         227         278         277
         4         227         228         279         278
         4         228         229         280         279
         4         229         230         281         280
         4         230         231         282         281
         4         231         232         283         282
         4         232         233         284         283
         4         233         234         285         284
         4         234         235         286         285
         4         235         236         287         286
         4         236         237         288         287
         4         237         238         289         288
         4         238         239         290         289
         4         239         240         291         290
         4         240         241         292         291
         4         241         242         293         292
         4         242         243         294         293
         4         243         244         295         294
         4         244         245         296         295
         4         245         246         297         296
         4         246         247         298         297
         4         247         248         299         298
         4         248         249         300         299
         4         249         250         301         300
         4         250         251         302         301
         4         251         252         303         302
         4         252         253         304         303
         4         253         254         305         304
         4         255         256         307         306
         4         256         257         308         307
         4         257         258         309         308
         4         258         259         310         309
         4         259         260         311         310
         4         260         261         312         311
         4         261         262         313         312
         4         262         263         314         313
         4         263         264         315         314
         4         264         265         316         315
         4         265         266         317         316
         4         266         267         318         317
         4         267         268         319         318
         4         268         269         320         319
         4         269         270         321         320
         4         270         271         322         321
         4         271         272         323         322
         4         272         273         324         323
         4         273         274         325         324
         4         274         275         326         325
         4         275         276         327         326
         4         276         277         328         327
         4         277         278         329         328
         4         278         279         330         329
         4         279         280         331         330
         4         280         281         332         331
         4         281         282         333         332
         4         282         283         334         333
         4         283         284         335         334
         4         284         285         336         335
         4         285         286         337         336
         4         286         287         338         337
         4         287         288         339         338
         4         288         289         340         339
         4         289         290         341         340
         4         290         291         342         341
         4         291         292         343         342
         4         292         293         344         343
         4         293         294         345         344
         4         294         295         346         345
         4         295         296         347         346
         4         296         297         348         347
         4         297         298         349         348
         4         298         299         350         349
         4         299         300         351         350
         4         300         301         352         351
         4         301         302         353         352
         4         302         303         354         353
         4         303         304         355         354
         4         304         305         356         355
         4         306         307         358         357
         4         307         308         359         358
         4         308         309         360         359
         4         309         310         361         360
         4         310         311         362         361
         4         311         312         363         362
         4         312         313         364         363
         4         313         314         365         364
         4         314         315         366         365
         4         315         316         367         366
         4         316         317         368         367
         4         317         318         369         368
         4         318         319         370         369
         4         319         320         371         370
         4         320         321         372         371
         4         321         322         373         372
         4         322         323         374         373
         4         323         324         375         374
         4         324         325         376         375
         4         325         326         377         376
         4         326         327         378         377
         4         327         328         379         378
         4         328         329         380         379
         4         329         330         381         380
         4         330         331         382         381
         4         331         332         383         382
         4         332         333         384         383
         4         333         334         385         384
         4         334         335         386         385
         4         335         336         387         386
         4         336         337         388         387
         4         337         338         389         388
         4         338         339         390         389
         4         339         340         391         390
         4         340         341         392         391
         4         341         342         393         392
         4         342         343         394         393
         4         343         344         395         394
         4         344         345         396         395
         4         345         346         397         396
         4         346         347         398         397
         4         347         348         399         398
         4         348         349         400         399
         4         349         350         401         400
         4         350         351         402         401
         4         351         352         403         402
         4         352         353         404         403
         4         353         354         405         404
         4         354         355         406         405
         4         355         356         407         406
         4         357         358         409         408
         4         358         359         410         409
         4         359         360         411         410
         4         360         361         412         411
         4         361         362         413         412
         4         362         363         414         413
         4         363         364         415         414
         4         364         365         416         415
         4         365         366         417         416
         4         366         367         418         417
         4         367         368         419         418
         4         368         369         420         419
         4         369         370         421         420
         4         370         371         422         421
         4         371         372         423         422
         4         372         373         424         423
         4         373         374         425         424
         4         374         375         426         425
         4         375         376         427         426
         4         376         377         428         427
         4         377         378         429         428
         4         378         379         430         429
         4         379         380         431         430
         4         380         381         432         431
         4         381         382         433         432
         4         382         383         434         433
         4         383         384         435         434
         4         384         385         436         435
         4         385         386         437         436
         4         386         387         438         437
         4         387         388         439         438
         4         388         389         440         439
         4         389         390         441         440
         4         390         391         442         441
         4         391         392         443         442
         4         392         393         444         443
         4         393         394         445         444
         4         394         395         446         445
         4         395         396         447         446
         4         396         397         448         447
         4         397         398         449         448
         4         398         399         450         449
         4         399         400         451         450
         4         400         401         452         451
         4         401         402         453         452
         4         402         403         454         453
         4         403         404         455         454
         4         404         405         456         455
         4         405         406         457         456
         4         406         407         458         457
         4         408         409         460         459
         4         409         410         461         460
         4         410         411         462         461
         4         411         412         463         462
         4         412         413         464         463
         4         413         414         465         464
         4         414         415         466         465
         4         415         416         467         466
         4         416         417         468         467
         4         417         418         469         468
         4         418         419         470         469
         4         419         420         471         470
         4         420         421         472         471
         4         421         422         473         472
         4         422         423         474         473
         4         423         424         475         474
         4         424         425         476         475
         4         425         426         477         476
         4         426         427         478         477
         4         427         428         479         478
         4         428         429         480         479
         4         429         430         481         480
         4         430         431         482         481
         4         431         432         483         482
         4         432         433         484         483
         4         433         434         485         484
         4         434         435         486         485
         4         435         436         487         486
         4         436         437         488         487
         4         437         438         489         488
         4         438         439         490         489
         4         439         440         491         490
         4         440         441         492         491
         4         441         442         493         492
         4         442         443         494         493
         4         443         444         495         494
         4         444         445         496         495
         4         445         446         497         496
         4         446         447         498         497
         4         447         448         499         498
         4         448         449         500         499
         4         449         450         501         500
         4         450         451         502         501
         4         451         452         503         502
         4         452         453         504         503
         4         453         454         505         504
         4         454         455         506         505
         4         455         456         507         506
         4         456         457         508         507
         4         457         458         509         508
         4         459         460         511         510
         4         460         461         512         511
         4         461         462         513         512
         4         462         463         514         513
         4         463         464         515         514
         4         464         465         516         515
         4         465         466         517         516
         4         466         467         518         517
         4         467         468         519         518
         4         468         469         520         519
         4         469         470         521         520
         4         470         471         522         521
         4         471         472         523         522
         4         472         473         524         523
         4         473         474         525         524
         4         474         475         526         525
         4         475         476         527         526
         4         476         477         528         527
         4         477         478         529         528
         4         478         479         530         529
         4         479         480         531         530
         4         480         481         532         531
         4         481         482         533         532
         4         482         483         534         533
         4         483         484         535         534
         4         484         485         536         535
         4         485         486         537         536
         4         486         487         538         537
         4         487         488         539         538
         4         488         489         540         539
         4         489         490         541         540
         4         490         491         542         541
         4         491         492         543         542
         4         492         493         544         543
         4         493         494         545         544
         4         494         495         546         545
         4         495         496         547         546
         4         496         497         548         547
         4         497         498         549         548
         4         498         499         550         549
         4         499         500         551         550
         4         500         501         552         551
         4         501         502         553         552
         4         502         503         554         553
         4         503         504         555         554
         4         504         505         556         555
         4         505         506         557         556
         4         506         507         558         557
         4         507         508         559         558
         4         508         509         560         559
         4         510         511         562         561
         4         511         512         563         562
         4         512         513         564         563
         4         513         514         565         564
         4         514         515         566         565
         4         515         516         567         566
         4         516         517         568         567
         4         517         518         569         568
         4         518         519         570         569
         4         519         520         571         570
         4         520         521         572         571
         4         521         522         573         572
         4         522         523         574         573
         4         523         524         575         574
         4         524         525         576         575
         4         525         526         577         576
         4         526         527         578         577
         4         527         528         579         578
         4         528         529         580         579
         4         529         530         581         580
         4         530         531         582         581
         4         531         532         583         582
         4         532         533         584         583
         4         533         534         585         584
         4         534         535         586         585
         4         535         536         587         586
         4         536         537         588         587
         4         537         538         589         588
         4         538         539         590         589
         4         539         540         591         590
         4         540         541         592         591
         4         541         542         593         592
         4         542         543         594         593
         4         543         544         595         594
         4         544         545         596         595
         4         545         546         597         596
         4         546         547         598         597
         4         547         548         599         598
         4         548         549         600         599
         4         549         550         601         600
         4         550         551         602         601
         4         551         552         603         602
         4         552         553         604         603
         4         553         554         605         604
         4         554         555         606         605
         4         555         556         607         606
         4         556         557         608         607
         4         557         558         609         608
         4         558         559         610         609
         4         559         560         611         610
         4         561         562         613         612
         4         562         563         614         613
         4         563         564         615         614
         4         564         565         616         615
         4         565         566         617         616
         4         566         567         618         617
         4         567         568         619         618
         4         568         569         620         619
         4         569         570         621         620
         4         570         571         622         621
         4         571         572         623         622
         4         572         573         624         623
         4         573         574         625         624
         4         574         575         626         625
         4         575         576         627         626
         4         576         577         628         627
         4         577         578         629         628
         4         578         579         630         629
         4         579         580         631         630
         4         580         581         632         631
         4         581         582         633         632
         4         582         583         634         633
         4         583         584         635         634
         4         584         585         636         635
         4         585         586         637         636
         4         586         587         638         637
         4         587         588         639         638
         4         588         589         640         639
         4         589         590         641         640
         4         590         591         642         641
         4         591         592         643         642
         4         592         593         644         643
         4         593         594         645         644
         4         594         595         646         645
         4         595         596         647         646
         4         596         597         648         647
         4         597         598         649         648
         4         598         599         650         649
         4         599         600         651         650
         4         600         601         652         651
         4         601         602         653         652
         4         602         603         654         653
         4         603         604         655         654
         4         604         605         656         655
         4         605         606         657         656
         4         606         607         658         657
         4         607         608         659         658
         4         608         609         660         659
         4         609         610         661         660
         4         610         611         662         661
         4         612         613         664         663
         4         613         614         665         664
         4         614         615         666         665
         4         615         616         667         666
         4         616         617         668         667
         4         617         618         669         668
         4         618         619         670         669
         4         619         620         671         670
         4         620         621         672         671
         4         621         622         673         672
         4         622         623         674         673
         4         623         624         675         674
         4         624         625         676         675
         4         625         626         677         676
         4         626         627         678         677
         4         627         628         679         678
         4         628         629         680         679
         4         629         630         681         680
         4         630         631         682         681
         4         631         632         683         682
         4         632         633         684         683
         4         633         634         685         684
         4         634         635         686         685
         4         635         636         687         686
         4         636         637         688         687
         4         637         638         689         688
         4         638         639         690         689
         4         639         640         691         690
         4         640         641         692         691
         4         641         642         693         692
         4         642         643         694         693
         4         643         644         695         694
         4         644         645         696         695
         4         645         646         697         696
         4         646         647         698         697
         4         647         648         699         698
         4         648         649         700         699
         4         649         650         701         700
         4         650         651         702         701
         4         651         652         703         702
         4         652         653         704         703
         4         653         654         705         704
         4         654         655         706         705
         4         655         656         707         706
         4         656         657         708         707
         4         657         658         709         708
         4         658         659         710         709
         4         659         660         711         710
         4         660         661         712         711
         4         661         662         713         712
         4         663         664         715         714
         4         664         665         716         715
         4         665         666         717         716
         4         666         667         718         717
         4         667         668         719         718
         4         668         669         720         719
         4         669         670         721         720
         4         670         671         722         721
         4         671         672         723         722
         4         672         673         724         723
         4         673         674         725         724
         4         674         675         726         725
         4         675         676         727         726
         4         676         677         728         727
         4         677         678         729         728
         4         678         679         730         729
         4         679         680         731         730
         4         680         681         732         731
         4         681         682         733         732
         4         682         683         734         733
         4         683         684         735         734
         4         684         685         736         735
         4         685         686         737         736
         4         686         687         738         737
         4         687         688         739         738
         4         688         689         740         739
         4         689         690         741         740
         4         690         691         742         741
         4         691         692         743         742
         4         692         693         744         743
         4         693         694         745         744
         4         694         695         746         745
         4         695         696         747         746
         4         696         697         748         747
         4         697         698         749         748
         4         698         699         750         749
         4         699         700         751         750
         4         700         701         752         751
         4         701         702         753         752
         4         702         703         754         753
         4         703         704         755         754
         4         704         705         756         755
         4         705         706         757         756
         4         706         707         758         757
         4         707         708         759         758
         4         708         709         760         759
         4         709         710         761         760
         4         710         711         762         761
         4         711         712         763         762
         4         712         713         764         763
         4         714         715         766         765
         4         715         716         767         766
         4         716         717         768         767
         4         717         718         769         768
         4         718         719         770         769
         4         719         720         771         770
         4         720         721         772         771
         4         721         722         773         772
         4         722         723         774         773
         4         723         724         775         774
         4         724         725         776         775
         4         725         726         777         776
         4         726         727         778         777
         4         727         728         779         778
         4         728         729         780         779
         4         729         730         781         780
         4         730         731         782         781
         4         731         732         783         782
         4         732         733         784         783
         4         733         734         785         784
         4         734         735         786         785
         4         735         736         787         786
         4         736         737         788         787
         4         737         738         789         788
         4         738         739         790         789
         4         739         740         791         790
         4         740         741         792         791
         4         741         742         793         792
         4         742         743         794         793
         4         743         744         795         794
         4         744         745         796         795
         4         745         746         797         796
         4         746         747         798         797
         4         747         748         799         798
         4         748         749         800         799
         4         749         750         801         800
         4         750         751         802         801
         4         751         752         803         802
         4         752         753         804         803
         4         753         754         805         804
         4         754         755         806         805
         4         755         756         807         806
         4         756         757         808         807
         4         757         758         809         808
         4         758         759         810         809
         4         759         760         811         810
         4         760         761         812         811
         4         761         762         813         812
         4         762         763         814         813
         4         763         764         815         814
         4         765         766         817         816
         4         766         767         818         817
         4         767         768         819         818
         4         768         769         820         819
         4         769         770         821         820
         4         770         771         822         821
         4         771         772         823         822
         4         772         773         824         823
         4         773         774         825         824
         4         774         775         826         825
         4         775         776         827         826
         4         776         777         828         827
         4         777         778         829         828
         4         778         779         830         829
         4         779         780         831         830
         4         780         781         832         831
         4         781         782         833         832
         4         782         783         834         833
         4         783         784         835         834
         4         784         785         836         835
         4         785         786         837         836
         4         786         787         838         837
         4         787         788         839         838
         4         788         789         840         839
         4         789         790         841         840
         4         790         791         842         841
         4         791         792         843         842
         4         792         793         844         843
         4         793         794         845         844
         4         794         795         846         845
         4         795         796         847         846
         4         796         797         848         847
         4         797         798         849         848
         4         798         799         850         849
         4         799         800         851         850
         4         800         801         852         851
         4         801         802         853         852
         4         802         803         854         853
         4         803         804         855         854
         4         804         805         856         855
         4         805         806         857         856
         4         806         807         858         857
         4         807         808         859         858
         4         808         809         860         859
         4         809         810         861         860
         4         810         811         862         861
         4         811         812         863         862
         4         812         813         864         863
         4         813         814         865         864
         4         814         815         866         865
         4         816         817         868         867
         4         817         818         869         868
         4         818         819         870         869
         4         819         820         871         870
         4         820         821         872         871
         4         821         822         873         872
         4         822         823         874         873
         4         823         824         875         874
         4         824         825         876         875
         4         825         826         877         876
         4         826         827         878         877
         4         827         828         879         878
         4         828         829         880         879
         4         829         830         881         880
         4         830         831         882         881
         4         831         832         883         882
         4         832         833         884         883
         4         833         834         885         884
         4         834         835         886         885
         4         835         836         887         886
         4         836         837         888         887
         4         837         838         889         888
         4         838         839         890         889
         4         839         840         891         890
         4         840         841         892         891
         4         841         842         893         892
         4         842         843         894         893
         4         843         844         895         894
         4         844         845         896         895
         4         845         846         897         896
         4         846         847         898         897
         4         847         848         899         898
         4         848         849         900         899
         4         849         850         901         900
         4         850         851         902         901
         4         851         852         903         902
         4         852         853         904         903
         4         853         854         905         904
         4         854         855         906         905
         4         855         856         907         906
         4         856         857         908         907
         4         857         858         909         908
         4         858         859         910         909
         4         859         860         911         910
         4         860         861         912         911
         4         861         862         913         912
         4         862         863         914         913
         4         863         864         915         914
         4         864         865         916         915
         4         865         866         917         916
         4         867         868         919         918
         4         868         869         920         919
         4         869         870         921         920
         4         870         871         922         921
         4         871         872         923         922
         4         872         873         924         923
         4         873         874         925         924
         4         874         875         926         925
         4         875         876         927         926
         4         876         877         928         927
         4         877         878         929         928
         4         878         879         930         929
         4         879         880         931         930
         4         880         881         932         931
         4         881         882         933         932
         4         882         883         934         933
         4         883         884         935         934
         4         884         885         936         935
         4         885         886         937         936
         4         886         887         938         937
         4         887         888         939         938
         4         888         889         940         939
         4         889         890         941         940
         4         890         891         942         941
         4         891         892         943         942
         4         892         893         944         943
         4         893         894         945         944
         4         894         895         946         945
         4         895         896         947         946
         4         896         897         948         947
         4         897         898         949         948
         4         898         899         950         949
         4         899         900         951         950
         4         900         901         952         951
         4         901         902         953         952
         4         902         903         954         953
         4         903         904         955         954
         4         904         905         956         955
         4         905         906         957         956
         4         906         907         958         957
         4         907         908         959         958
         4         908         909         960         959
         4         909         910         961         960
         4         910         911         962         961
         4         911         912         963         962
         4         912         913         964         963
         4         913         914         965         964
         4         914         915         966         965
         4         915         916         967         966
         4         916         917         968         967
         4         918         919         970         969
         4         919         920         971         970
         4         920         921         972         971
         4         921         922         973         972
         4         922         923         974         973
         4         923         924         975         974
         4         924         925         976         975
         4         925         926         977         976
         4         926         927         978         977
         4         927         928         979         978
         4         928         929         980         979
         4         929         930         981         980
         4         930         931         982         981
         4         931         932         983         982
         4         932         933         984         983
         4         933         934         985         984
         4         934         935         986         985
         4         935         936         987         986
         4         936         937         988         987
         4         937         938         989         988
         4         938         939         990         989
         4         939         940         991         990
         4         940         941         992         991
         4         941         942         993         992
         4         942         943         994         993
         4         943         944         995         994
         4         944         945         996         995
         4         945         946         997         996
         4         946         947         998         997
         4         947         948         999         998
         4         948         949        1000         999
         4         949         950        1001        1000
         4         950         951        1002        1001
         4         951         952        1003        1002
         4         952         953        1004        1003
         4         953         954        1005        1004
         4         954         955        1006        1005
         4         955         956        1007        1006
         4         956         957        1008        1007
         4         957         958        1009        1008
         4         958         959        1010        1009
         4         959         960        1011        1010
         4         960         961        1012        1011
         4         961         962        1013        1012
         4         962         963        1014        1013
         4         963         964        1015        1014
         4         964         965        1016        1015
         4         965         966        1017        1016
         4         966         967        1018        1017
         4         967         968        1019        1018
         4         969         970        1021        1020
         4         970         971        1022        1021
         4         971         972        1023        1022
         4         972         973        1024        1023
         4         973         974        1025        1024
         4         974         975        1026        1025
         4         975         976        1027        1026
         4         976         977        1028        1027
         4         977         978        1029        1028
         4         978         979        1030        1029
         4         979         980        1031        1030
         4         980         981        1032        1031
         4         981         982        1033        1032
         4         982         983        1034        1033
         4         983         984        1035        1034
         4         984         985        1036        1035
         4         985         986        1037        1036
         4         986         987        1038        1037
         4         987         988        1039        1038
         4         988         989        1040        1039
         4         989         990        1041        1040
         4         990         991        1042        1041
         4         991         992        1043        1042
         4         992         993        1044        1043
         4         993         994        1045        1044
         4         994         995        1046        1045
         4         995         996        1047        1046
         4         996         997        1048        1047
         4         997         998        1049        1048
         4         998         999        1050        1049
         4         999        1000        1051        1050
         4        1000        1001        1052        1051
         4        1001        1002        1053        1052
         4        1002        1003        1054        1053
         4        1003        1004        1055        1054
         4        1004        1005        1056        1055
         4        1005        1006        1057        1056
         4        1006        1007        1058        1057
         4        1007        1008        1059        1058
         4        1008        1009        1060        1059
         4        1009        1010        1061        1060
         4        1010        1011        1062        1061
         4        1011        1012        1063        1062
         4        1012        1013        1064        1063
         4        1013        1014        1065        1064
         4        1014        1015        1066        1065
         4        1015        1016        1067        1066
         4        1016        1017        1068        1067
         4        1017        1018        1069        1068
         4        1018        1019        1070        1069
         4        1020        1021        1072        1071
         4        1021        1022        1073        1072
         4        1022        1023        1074        1073
         4        1023        1024        1075        1074
         4        1024        1025        1076        1075
         4        1025        1026        1077        1076
         4        1026        1027        1078        1077
         4        1027        1028        1079        1078
         4        1028        1029        1080        1079
         4        1029        1030        1081        1080
         4        1030        1031        1082        1081
         4        1031        1032        1083        1082
         4        1032        1033        1084        1083
         4        1033        1034        1085        1084
         4        1034        1035        1086        1085
         4        1035        1036        1087        1086
         4        1036        1037        1088        1087
         4        1037        1038        1089        1088
         4        1038        1039        1090        1089
         4        1039        1040        1091        1090
         4        1040        1041        1092        1091
         4        1041        1042        1093        1092
         4        1042        1043        1094        1093
         4        1043        1044        1095        1094
         4        1044        1045        1096        1095
         4        1045        1046        1097        1096
         4        1046        1047        1098        1097
         4        1047        1048        1099        1098
         4        1048        1049        1100        1099
         4        1049        1050        1101        1100
         4        1050        1051        1102        1101
         4        1051        1052        1103        1102
         4        1052        1053        1104        1103
         4        1053        1054        1105        1104
         4        1054        1055        1106        1105
         4        1055        1056        1107        1106
         4        1056        1057        1108        1107
         4        1057        1058        1109        1108
         4        1058        1059        1110        1109
         4        1059        1060        1111        1110
         4        1060        1061        1112        1111
         4        1061        1062        1113        1112
         4        1062        1063        1114        1113
         4        1063        1064        1115        1114
         4        1064        1065        1116        1115
         4        1065        1066        1117        1116
         4        1066        1067        1118        1117
         4        1067        1068        1119        1118
         4        1068        1069        1120        1119
         4        1069        1070        1121        1120
         4        1071        1072        1123        1122
         4        1072        1073        1124        1123
         4        1073        1074        1125        1124
         4        1074        1075        1126        1125
         4        1075        1076        1127        1126
         4        1076        1077        1128        1127
         4        1077        1078        1129        1128
         4        1078        1079        1130        1129
         4        1079        1080        1131        1130
         4        1080        1081        1132        1131
         4        1081        1082        1133        1132
         4        1082        1083        1134        1133
         4        1083        1084        1135        1134
         4        1084        1085        1136        1135
         4        1085        1086        1137        1136
         4        1086        1087        1138        1137
         4        1087        1088        1139        1138
         4        1088        1089        1140        1139
         4        1089        1090        1141        1140
         4        1090        1091        1142        1141
         4        1091        1092        1143        1142
         4        1092        1093        1144        1143
         4        1093        1094        1145        1144
         4        1094        1095        1146        1145
         4        1095        1096        1147        1146
         4        1096        1097        1148        1147
         4        1097        1098        1149        1148
         4        1098        1099        1150        1149
         4        1099        1100        1151        1150
         4        1100        1101        1152        1151
         4        1101        1102        1153        1152
         4        1102        1103        1154        1153
         4        1103        1104        1155        1154
         4        1104        1105        1156        1155
         4        1105        1106        1157        1156
         4        1106        1107        1158        1157
         4        1107        1108        1159        1158
         4        1108        1109        1160        1159
         4        1109        1110        1161        1160
         4        1110        1111        1162        1161
         4        1111        1112        1163        1162
         4        1112        1113        1164        1163
         4        1113        1114        1165        1164
         4        1114        1115        1166        1165
         4        1115        1116        1167        1166
         4        1116        1117        1168        1167
         4        1117        1118        1169        1168
         4        1118        1119        1170        1169
         4        1119        1120        1171        1170
         4        1120        1121        1172        1171
         4        1122        1123        1174        1173
         4        1123        1124        1175        1174
         4        1124        1125        1176        1175
         4        1125        1126        1177        1176
         4        1126        1127        1178        1177
         4        1127        1128        1179        1178
         4        1128        1129        1180        1179
         4        1129        1130        1181        1180
         4        1130        1131        1182        1181
         4        1131        1132        1183        1182
         4        1132        1133        1184        1183
         4        1133        1134        1185        1184
         4        1134        1135        1186        1185
         4        1135        1136        1187        1186
         4        1136        1137        1188        1187
         4        1137        1138        1189        1188
         4        1138        1139        1190        1189
         4        1139        1140        1191        1190
         4        1140        1141        1192        1191
         4        1141        1142        1193        1192
         4        1142        1143        1194        1193
         4        1143        1144        1195        1194
         4        1144        1145        1196        1195
         4        1145        1146        1197        1196
         4        1146        1147        1198        1197
         4        1147        1148        1199        1198
         4        1148        1149        1200        1199
         4        1149        1150        1201        1200
         4        1150        1151        1202        1201
         4        1151        1152        1203        1202
         4        1152        1153        1204        1203
         4        1153        1154        1205        1204
         4        1154        1155        1206        1205
         4        1155        1156        1207        1206
         4        1156        1157        1208        1207
         4        1157        1158        1209        1208
         4        1158        1159        1210        1209
         4        1159        1160        1211        1210
         4        1160        1161        1212        1211
         4        1161        1162        1213        1212
         4        1162        1163        1214        1213
         4        1163        1164        1215        1214
         4        1164        1165        1216        1215
         4        1165        1166        1217        1216
         4        1166        1167        1218        1217
         4        1167        1168        1219        1218
         4        1168        1169        1220        1219
         4        1169        1170        1221        1220
         4        1170        1171        1222        1221
         4        1171        1172        1223        1222
         4        1173        1174        1225        1224
         4        1174        1175        1226        1225
         4        1175        1176        1227        1226
         4        1176        1177        1228        1227
         4        1177        1178        1229        1228
         4        1178        1179        1230        1229
         4        1179        1180        1231        1230
         4        1180        1181        1232        1231
         4        1181        1182        1233        1232
         4        1182        1183        1234        1233
         4        1183        1184        1235        1234
         4        1184        1185        1236        1235
         4        1185        1186        1237        1236
         4        1186        1187        1238        1237
         4        1187        1188        1239        1238
         4        1188        1189        1240        1239
         4        1189        1190        1241        1240
         4        1190        1191        1242        1241
         4        1191        1192        1243        1242
         4        1192        1193        1244        1243
         4        1193        1194        1245        1244
         4        1194        1195        1246        1245
         4        1195        1196        1247        1246
         4        1196        1197        1248        1247
         4        1197        1198        1249        1248
         4        1198        1199        1250        1249
         4        1199        1200        1251        1250
         4        1200        1201        1252        1251
         4        1201        1202        1253        1252
         4        1202        1203        1254        1253
         4        1203        1204        1255        1254
         4        1204        1205        1256        1255
         4        1205        1206        1257        1256
         4        1206        1207        1258        1257
         4        1207        1208        1259        1258
         4        1208        1209        1260        1259
         4        1209        1210        1261        1260
         4        1210        1211        1262        1261
         4        1211        1212        1263        1262
         4        1212        1213        1264        1263
         4        1213        1214        1265        1264
         4        1214        1215        1266        1265
         4        1215        1216        1267        1266
         4        1216        1217        1268        1267
         4        1217        1218        1269        1268
         4        1218        1219        1270        1269
         4        1219        1220        1271        1270
         4        1220        1221        1272        1271
         4        1221        1222        1273        1272
         4        1222        1223        1274        1273
         4        1224        1225        1276        1275
         4        1225        1226        1277        1276
         4        1226        1227        1278        1277
         4        1227        1228        1279        1278
         4        1228        1229        1280        1279
         4        1229        1230        1281        1280
         4        1230        1231        1282        1281
         4        1231        1232        1283        1282
         4        1232        1233        1284        1283
         4        1233        1234        1285        1284
         4        1234        1235        1286        1285
         4        1235        1236        1287        1286
         4        1236        1237        1288        1287
         4        1237        1238        1289        1288
         4        1238        1239        1290        1289
         4        1239        1240        1291        1290
         4        1240        1241        1292        1291
         4        1241        1242        1293        1292
         4        1242        1243        1294        1293
         4        1243        1244        1295        1294
         4        1244        1245        1296        1295
         4        1245        1246        1297        1296
         4        1246        1247        1298        1297
         4        1247        1248        1299        1298
         4        1248        1249        1300        1299
         4        1249        1250        1301        1300
         4        1250        1251        1302        1301
         4        1251        1252        1303        1302
         4        1252        1253        1304        1303
         4        1253        1254        1305        1304
         4        1254        1255        1306        1305
         4        1255        1256        1307        1306
         4        1256        1257        1308        1307
         4        1257        1258        1309        1308
         4        1258        1259        1310        1309
         4        1259        1260        1311        1310
         4        1260        1261        1312        1311
         4        1261        1262        1313        1312
         4        1262        1263        1314        1313
         4        1263        1264        1315        1314
         4        1264        1265        1316        1315
         4        1265        1266        1317        1316
         4        1266        1267        1318        1317
         4        1267        1268        1319        1318
         4        1268        1269        1320        1319
         4        1269        1270        1321        1320
         4        1270        1271        1322        1321
         4        1271        1272        1323        1322
         4        1272        1273        1324        1323
         4        1273        1274        1325        1324
         4        1275        1276        1327        1326
         4        1276        1277        1328        1327
         4        1277        1278        1329        1328
         4        1278        1279        1330        1329
         4        1279        1280        1331        1330
         4        1280        1281        1332        1331
         4        1281        1282        1333        1332
         4        1282        1283        1334        1333
         4        1283        1284        1335        1334
         4        1284        1285        1336        1335
         4        1285        1286        1337        1336
         4        1286        1287        1338        1337
         4        1287        1288        1339        1338
         4        1288        1289        1340        1339
         4        1289        1290        1341        1340
         4        1290        1291        1342        1341
         4        1291        1292        1343        1342
         4        1292        1293        1344        1343
         4        1293        1294        1345        1344
         4        1294        1295        1346        1345
         4        1295        1296        1347        1346
         4        1296        1297        1348        1347
         4        1297        1298        1349        1348
         4        1298        1299        1350        1349
         4        1299        1300        1351        1350
         4        1300        1301        1352        1351
         4        1301        1302        1353        1352
         4        1302        1303        1354        1353
         4        1303        1304        1355        1354
         4        1304        1305        1356        1355
         4        1305        1306        1357        1356
         4        1306        1307        1358        1357
         4        1307        1308        1359        1358
         4        1308        1309        1360        1359
         4        1309        1310        1361        1360
         4        1310        1311        1362        1361
         4        1311        1312        1363        1362
         4        1312        1313        1364        1363
         4        1313        1314        1365        1364
         4        1314        1315        1366        1365
         4        1315        1316        1367        1366
         4        1316        1317        1368        1367
         4        1317        1318        1369        1368
         4        1318        1319        1370        1369
         4        1319        1320        1371        1370
         4        1320        1321        1372        1371
         4        1321        1322        1373        1372
         4        1322        1323        1374        1373
         4        1323        1324        1375        1374
         4        1324        1325        1376        1375
         4        1326        1327        1378        1377
         4        1327        1328        1379        1378
         4        1328        1329        1380        1379
         4        1329        1330        1381        1380
         4        1330        1331        1382        1381
         4        1331        1332        1383        1382
         4        1332        1333        1384        1383
         4        1333        1334        1385        1384
         4        1334        1335        1386        1385
         4        1335        1336        1387        1386
         4        1336        1337        1388        1387
         4        1337        1338        1389        1388
         4        1338        1339        1390        1389
         4        1339        1340        1391        1390
         4        1340        1341        1392        1391
         4        1341        1342        1393        1392
         4        1342        1343        1394        1393
         4        1343        1344        1395        1394
         4        1344        1345        1396        1395
         4        1345        1346        1397        1396
         4        1346        1347        1398        1397
         4        1347        1348        1399        1398
         4        1348        1349        1400        1399
         4        1349        1350        1401        1400
         4        1350        1351        1402        1401
         4        1351        1352        1403        1402
         4        1352        1353        1404        1403
         4        1353        1354        1405        1404
         4        1354        1355        1406        1405
         4        1355        1356        1407        1406
         4        1356        1357        1408        1407
         4        1357        1358        1409        1408
         4        1358        1359        1410        1409
         4        1359        1360        1411        1410
         4        1360        1361        1412        1411
         4        1361        1362        1413        1412
         4        1362        1363        1414        1413
         4        1363        1364        1415        1414
         4        1364        1365        1416        1415
         4        1365        1366        1417        1416
         4        1366        1367        1418        1417
         4        1367        1368        1419        1418
         4        1368        1369        1420        1419
         4        1369        1370        1421        1420
         4        1370        1371        1422        1421
         4        1371        1372        1423        1422
         4        1372        1373        1424        1423
         4        1373        1374        1425        1424
         4        1374        1375        1426        1425
         4        1375        1376        1427        1426
         4        1377        1378        1429        1428
         4        1378        1379        1430        1429
         4        1379        1380        1431        1430
         4        1380        1381        1432        1431
         4        1381        1382        1433        1432
         4        1382        1383        1434        1433
         4        1383        1384        1435        1434
         4        1384        1385        1436        1435
         4        1385        1386        1437        1436
         4        1386        1387        1438        1437
         4        1387        1388        1439        1438
         4        1388        1389        1440        1439
         4        1389        1390        1441        1440
         4        1390        1391        1442        1441
         4        1391        1392        1443        1442
         4        1392        1393        1444        1443
         4        1393        1394        1445        1444
         4        1394        1395        1446        1445
         4        1395        1396        1447        1446
         4        1396        1397        1448        1447
         4        1397        1398        1449        1448
         4        1398        1399        1450        1449
         4        1399        1400        1451        1450
         4        1400        1401        1452        1451
         4        1401        1402        1453        1452
         4        1402        1403        1454        1453
         4        1403        1404        1455        1454
         4        1404        1405        1456        1455
         4        1405        1406        1457        1456
         4        1406        1407        1458        1457
         4        1407        1408        1459        1458
         4        1408        1409        1460        1459
         4        1409        1410        1461        1460
         4        1410        1411        1462        1461
         4        1411        1412        1463        1462
         4        1412        1413        1464        1463
         4        1413        1414        1465        1464
         4        1414        1415        1466        1465
         4        1415        1416        1467        1466
         4        1416        1417        1468        1467
         4        1417        1418        1469        1468
         4        1418        1419        1470        1469
         4        1419        1420        1471        1470
         4        1420        1421        1472        1471
         4        1421        1422        1473        1472
         4        1422        1423        1474        1473
         4        1423        1424        1475        1474
         4        1424        1425        1476        1475
         4        1425        1426        1477        1476
         4        1426        1427        1478        1477
         4        1428        1429        1480        1479
         4        1429        1430        1481        1480
         4        1430        1431        1482        1481
         4        1431        1432        1483        1482
         4        1432        1433        1484        1483
         4        1433        1434        1485        1484
         4        1434        1435        1486        1485
         4        1435        1436        1487        1486
         4        1436        1437        1488        1487
         4        1437        1438        1489        1488
         4        1438        1439        1490        1489
         4        1439        1440        1491        1490
         4        1440        1441        1492        1491
         4        1441        1442        1493        1492
         4        1442        1443        1494        1493
         4        1443        1444        1495        1494
         4        1444        1445        1496        1495
         4        1445        1446        1497        1496
         4        1446        1447        1498        1497
         4        1447        1448        1499        1498
         4        1448        1449        1500        1499
         4        1449        1450        1501        1500
         4        1450        1451        1502        1501
         4        1451        1452        1503        1502
         4        1452        1453        1504        1503
         4        1453        1454        1505        1504
         4        1454        1455        1506        1505
         4        1455        1456        1507        1506
         4        1456        1457        1508        1507
         4        1457        1458        1509        1508
         4        1458        1459        1510        1509
         4        1459        1460        1511        1510
         4        1460        1461        1512        1511
         4        1461        1462        1513        1512
         4        1462        1463        1514        1513
         4        1463        1464        1515        1514
         4        1464        1465        1516        1515
         4        1465        1466        1517        1516
         4        1466        1467        1518        1517
         4        1467        1468        1519        1518
         4        1468        1469        1520        1519
         4        1469        1470        1521        1520
         4        1470        1471        1522        1521
         4        1471        1472        1523        1522
         4        1472        1473        1524        1523
         4        1473        1474        1525        1524
         4        1474        1475        1526        1525
         4        1475        1476        1527        1526
         4        1476        1477        1528        1527
         4        1477        1478        1529        1528
         4        1479        1480        1531        1530
         4        1480        1481        1532        1531
         4        1481        1482        1533        1532
         4        1482        1483        1534        1533
         4        1483        1484        1535        1534
         4        1484        1485        1536        1535
         4        1485        1486        1537        1536
         4        1486        1487        1538        1537
         4        1487        1488        1539        1538
         4        1488        1489        1540        1539
         4        1489        1490        1541        1540
         4        1490        1491        1542        1541
         4        1491        1492        1543        1542
         4        1492        1493        1544        1543
         4        1493        1494        1545        1544
         4        1494        1495        1546        1545
         4        1495        1496        1547        1546
         4        1496        1497        1548        1547
         4        1497        1498        1549        1548
         4        1498        1499        1550        1549
         4        1499        1500        1551        1550
         4        1500        1501        1552        1551
         4        1501        1502        1553        1552
         4        1502        1503        1554        1553
         4        1503        1504        1555        1554
         4        1504        1505        1556        1555
         4        1505        1506        1557        1556
         4        1506        1507        1558        1557
         4        1507        1508        1559        1558
         4        1508        1509        1560        1559
         4        1509        1510        1561        1560
         4        1510        1511        1562        1561
         4        1511        1512        1563        1562
         4        1512        1513        1564        1563
         4        1513        1514        1565        1564
         4        1514        1515        1566        1565
         4        1515        1516        1567        1566
         4        1516        1517        1568        1567
         4        1517        1518        1569        1568
         4        1518        1519        1570        1569
         4        1519        1520        1571        1570
         4        1520        1521        1572        1571
         4        1521        1522        1573        1572
         4        1522        1523        1574        1573
         4        1523        1524        1575        1574
         4        1524        1525        1576        1575
         4        1525        1526        1577        1576
         4        1526        1527        1578        1577
         4        1527        1528        1579        1578
         4        1528        1529        1580        1579
         4        1530        1531        1582        1581
         4        1531        1532        1583        1582
         4        1532        1533        1584        1583
         4        1533        1534        1585        1584
         4        1534        1535        1586        1585
         4        1535        1536        1587        1586
         4        1536        1537        1588        1587
         4        1537        1538        1589        1588
         4        1538        1539        1590        1589
         4        1539        1540        1591        1590
         4        1540        1541        1592        1591
         4        1541        1542        1593        1592
         4        1542        1543        1594        1593
         4        1543        1544        1595        1594
         4        1544        1545        1596        1595
         4        1545        1546        1597        1596
         4        1546        1547        1598        1597
         4        1547        1548        1599        1598
         4        1548        1549        1600        1599
         4        1549        1550        1601        1600
         4        1550        1551        1602        1601
         4        1551        1552        1603        1602
         4        1552        1553        1604        1603
         4        1553        1554        1605        1604
         4        1554        1555        1606        1605
         4        1555        1556        1607        1606
         4        1556        1557        1608        1607
         4        1557        1558        1609        1608
         4        1558        1559        1610        1609
         4        1559        1560        1611        1610
         4        1560        1561        1612        1611
         4        1561        1562        1613        1612
         4        1562        1563        1614        1613
         4        1563        1564        1615        1614
         4        1564        1565        1616        1615
         4        1565        1566        1617        1616
         4        1566        1567        1618        1617
         4        1567        1568        1619        1618
         4        1568        1569        1620        1619
         4        1569        1570        1621        1620
         4        1570        1571        1622        1621
         4        1571        1572        1623        1622
         4        1572        1573        1624        1623
         4        1573        1574        1625        1624
         4        1574        1575        1626        1625
         4        1575        1576        1627        1626
         4        1576        1577        1628        1627
         4        1577        1578        1629        1628
         4        1578        1579        1630        1629
         4        1579        1580        1631        1630
         4        1581        1582        1633        1632
         4        1582        1583        1634        1633
         4        1583        1584        1635        1634
         4        1584        1585        1636        1635
         4        1585        1586        1637        1636
         4        1586        1587        1638        1637
         4        1587        1588        1639        1638
         4        1588        1589        1640        1639
         4        1589        1590        1641        1640
         4        1590        1591        1642        1641
         4        1591        1592        1643        1642
         4        1592        1593        1644        1643
         4        1593        1594        1645        1644
         4        1594        1595        1646        1645
         4        1595        1596        1647        1646
         4        1596        1597        1648        1647
         4        1597        1598        1649        1648
         4        1598        1599        1650        1649
         4        1599        1600        1651        1650
         4        1600        1601        1652        1651
         4        1601        1602        1653        1652
         4        1602        1603        1654        1653
         4        1603        1604        1655        1654
         4        1604        1605        1656        1655
         4        1605        1606        1657        1656
         4        1606        1607        1658        1657
         4        1607        1608        1659        1658
         4        1608        1609        1660        1659
         4        1609        1610        1661        1660
         4        1610        1611        1662        1661
         4        1611        1612        1663        1662
         4        1612        1613        1664        1663
         4        1613        1614        1665        1664
         4        1614        1615        1666        1665
         4        1615        1616        1667        1666
         4        1616        1617        1668        1667
         4        1617        1618        1669        1668
         4        1618        1619        1670        1669
         4        1619        1620        1671        1670
         4        1620        1621        1672        1671
         4        1621        1622        1673        1672
         4        1622        1623        1674        1673
         4        1623        1624        1675        1674
         4        1624        1625        1676        1675
         4        1625        1626        1677        1676
         4        1626        1627        1678        1677
         4        1627        1628        1679        1678
         4        1628        1629        1680        1679
         4        1629        1630        1681        1680
         4        1630        1631        1682        1681
         4        1632        1633        1684        1683
         4        1633        1634        1685        1684
         4        1634        1635        1686        1685
         4        1635        1636        1687        1686
         4        1636        1637        1688        1687
         4        1637        1638        1689        1688
         4        1638        1639        1690        1689
         4        1639        1640        1691        1690
         4        1640        1641        1692        1691
         4        1641        1642        1693        1692
         4        1642        1643        1694        1693
         4        1643        1644        1695        1694
         4        1644        1645        1696        1695
         4        1645        1646        1697        1696
         4        1646        1647        1698        1697
         4        1647        1648        1699        1698
         4        1648        1649        1700        1699
         4        1649        1650        1701        1700
         4        1650        1651        1702        1701
         4        1651        1652        1703        1702
         4        1652        1653        1704        1703
         4        1653        1654        1705        1704
         4        1654        1655        1706        1705
         4        1655        1656        1707        1706
         4        1656        1657        1708        1707
         4        1657        1658        1709        1708
         4        1658        1659        1710        1709
         4        1659        1660        1711        1710
         4        1660        1661        1712        1711
         4        1661        1662        1713        1712
         4        1662        1663        1714        1713
         4        1663        1664        1715        1714
         4        1664        1665        1716        1715
         4        1665        1666        1717        1716
         4        1666        1667        1718        1717
         4        1667        1668        1719        1718
         4        1668        1669        1720        1719
         4        1669        1670        1721        1720
         4        1670        1671        1722        1721
         4        1671        1672        1723        1722
         4        1672        1673        1724        1723
         4        1673        1674        1725        1724
         4        1674        1675        1726        1725
         4        1675        1676        1727        1726
         4        1676        1677        1728        1727
         4        1677        1678        1729        1728
         4        1678        1679        1730        1729
         4        1679        1680        1731        1730
         4        1680        1681        1732        1731
         4        1681        1682        1733        1732
         4        1683        1684        1735        1734
         4        1684        1685        1736        1735
         4        1685        1686        1737        1736
         4        1686        1687        1738        1737
         4        1687        1688        1739        1738
         4        1688        1689        1740        1739
         4        1689        1690        1741        1740
         4        1690        1691        1742        1741
         4        1691        1692        1743        1742
         4        1692        1693        1744        1743
         4        1693        1694        1745        1744
         4        1694        1695        1746        1745
         4        1695        1696        1747        1746
         4        1696        1697        1748        1747
         4        1697        1698        1749        1748
         4        1698        1699        1750        1749
         4        1699        1700        1751        1750
         4        1700        1701        1752        1751
         4        1701        1702        1753        1752
         4        1702        1703        1754        1753
         4        1703        1704        1755        1754
         4        1704        1705        1756        1755
         4        1705        1706        1757        1756
         4        1706        1707        1758        1757
         4        1707        1708        1759        1758
         4        1708        1709        1760        1759
         4        1709        1710        1761        1760
         4        1710        1711        1762        1761
         4        1711        1712        1763        1762
         4        1712        1713        1764        1763
         4        1713        1714        1765        1764
         4        1714        1715        1766        1765
         4        1715        1716        1767        1766
         4        1716        1717        1768        1767
         4        1717        1718        1769        1768
         4        1718        1719        1770        1769
         4        1719        1720        1771        1770
         4        1720        1721        1772        1771
         4        1721        1722        1773        1772
         4        1722        1723        1774        1773
         4        1723        1724        1775        1774
         4        1724        1725        1776        1775
         4        1725        1726        1777        1776
         4        1726        1727        1778        1777
         4        1727        1728        1779        1778
         4        1728        1729        1780        1779
         4        1729        1730        1781        1780
         4        1730        1731        1782        1781
         4        1731        1732        1783        1782
         4        1732        1733        1784        1783
         4        1734        1735        1786        1785
         4        1735        1736        1787        1786
         4        1736        1737        1788        1787
         4        1737        1738        1789        1788
         4        1738        1739        1790        1789
         4        1739        1740        1791        1790
         4        1740        1741        1792        1791
         4        1741        1742        1793        1792
         4        1742        1743        1794        1793
         4        1743        1744        1795        1794
         4        1744        1745        1796        1795
         4        1745        1746        1797        1796
         4        1746        1747        1798        1797
         4        1747        1748        1799        1798
         4        1748        1749        1800        1799
         4        1749        1750        1801        1800
         4        1750        1751        1802        1801
         4        1751        1752        1803        1802
         4        1752        1753        1804        1803
         4        1753        1754        1805        1804
         4        1754        1755        1806        1805
         4        1755        1756        1807        1806
         4        1756        1757        1808        1807
         4        1757        1758        1809        1808
         4        1758        1759        1810        1809
         4        1759        1760        1811        1810
         4        1760        1761        1812        1811
         4        1761        1762        1813        1812
         4        1762        1763        1814        1813
         4        1763        1764        1815        1814
         4        1764        1765        1816        1815
         4        1765        1766        1817        1816
         4        1766        1767        1818        1817
         4        1767        1768        1819        1818
         4        1768        1769        1820        1819
         4        1769        1770        1821        1820
         4        1770        1771        1822        1821
         4        1771        1772        1823        1822
         4        1772        1773        1824        1823
         4        1773        1774        1825        1824
         4        1774        1775        1826        1825
         4        1775        1776        1827        1826
         4        1776        1777        1828        1827
         4        1777        1778        1829        1828
         4        1778        1779        1830        1829
         4        1779        1780        1831        1830
         4        1780        1781        1832        1831
         4        1781        1782        1833        1832
         4        1782        1783        1834        1833
         4        1783        1784        1835        1834
         4        1785        1786        1837        1836
         4        1786        1787        1838        1837
         4        1787        1788        1839        1838
         4        1788        1789        1840        1839
         4        1789        1790        1841        1840
         4        1790        1791        1842        1841
         4        1791        1792        1843        1842
         4        1792        1793        1844        1843
         4        1793        1794        1845        1844
         4        1794        1795        1846        1845
         4        1795        1796        1847        1846
         4        1796        1797        1848        1847
         4        1797        1798        1849        1848
         4        1798        1799        1850        1849
         4        1799        1800        1851        1850
         4        1800        1801        1852        1851
         4        1801        1802        1853        1852
         4        1802        1803        1854        1853
         4        1803        1804        1855        1854
         4        1804        1805        1856        1855
         4        1805        1806        1857        1856
         4        1806        1807        1858        1857
         4        1807        1808        1859        1858
         4        1808        1809        1860        1859
         4        1809        1810        1861        1860
         4        1810        1811        1862        1861
         4        1811        1812        1863        1862
         4        1812        1813        1864        1863
         4        1813        1814        1865        1864
         4        1814        1815        1866        1865
         4        1815        1816        1867        1866
         4        1816        1817        1868        1867
         4        1817        1818        1869        1868
         4        1818        1819        1870        1869
         4        1819        1820        1871        1870
         4        1820        1821        1872        1871
         4        1821        1822        1873        1872
         4        1822        1823        1874        1873
         4        1823        1824        1875        1874
         4        1824        1825        1876        1875
         4        1825        1826        1877        1876
         4        1826        1827        1878        1877
         4        1827        1828        1879        1878
         4        1828        1829        1880        1879
         4        1829        1830        1881        1880
         4        1830        1831        1882        1881
         4        1831        1832        1883        1882
         4        1832        1833        1884        1883
         4        1833        1834        1885        1884
         4        1834        1835        1886        1885
         4        1836        1837        1888        1887
         4        1837        1838        1889        1888
         4        1838        1839        1890        1889
         4        1839        1840        1891        1890
         4        1840        1841        1892        1891
         4        1841        1842        1893        1892
         4        1842        1843        1894        1893
         4        1843        1844        1895        1894
         4        1844        1845        1896        1895
         4        1845        1846        1897        1896
         4        1846        1847        1898        1897
         4        1847        1848        1899        1898
         4        1848        1849        1900        1899
         4        1849        1850        1901        1900
         4        1850        1851        1902        1901
         4        1851        1852        1903        1902
         4        1852        1853        1904        1903
         4        1853        1854        1905        1904
         4        1854        1855        1906        1905
         4        1855        1856        1907        1906
         4        1856        1857        1908        1907
         4        1857        1858        1909        1908
         4        1858        1859        1910        1909
         4        1859        1860        1911        1910
         4        1860        1861        1912        1911
         4        1861        1862        1913        1912
         4        1862        1863        1914        1913
         4        1863        1864        1915        1914
         4        1864        1865        1916        1915
         4        1865        1866        1917        1916
         4        1866        1867        1918        1917
         4        1867        1868        1919        1918
         4        1868        1869        1920        1919
         4        1869        1870        1921        1920
         4        1870        1871        1922        1921
         4        1871        1872        1923        1922
         4        1872        1873        1924        1923
         4        1873        1874        1925        1924
         4        1874        1875        1926        1925
         4        1875        1876        1927        1926
         4        1876        1877        1928        1927
         4        1877        1878        1929        1928
         4        1878        1879        1930        1929
         4        1879        1880        1931        1930
         4        1880        1881        1932        1931
         4        1881        1882        1933        1932
         4        1882        1883        1934        1933
         4        1883        1884        1935        1934
         4        1884        1885        1936        1935
         4        1885        1886        1937        1936
         4        1887        1888        1939        1938
         4        1888        1889        1940        1939
         4        1889        1890        1941        1940
         4        1890        1891        1942        1941
         4        1891        1892        1943        1942
         4        1892        1893        1944        1943
         4        1893        1894        1945        1944
         4        1894        1895        1946        1945
         4        1895        1896        1947        1946
         4        1896        1897        1948        1947
         4        1897        1898        1949        1948
         4        1898        1899        1950        1949
         4        1899        1900        1951        1950
         4        1900        1901        1952        1951
         4        1901        1902        1953        1952
         4        1902        1903        1954        1953
         4        1903        1904        1955        1954
         4        1904        1905        1956        1955
         4        1905        1906        1957        1956
         4        1906        1907        1958        1957
         4        1907        1908        1959        1958
         4        1908        1909        1960        1959
         4        1909        1910        1961        1960
         4        1910        1911        1962        1961
         4        1911        1912        1963        1962
         4        1912        1913        1964        1963
         4        1913        1914        1965        1964
         4        1914        1915        1966        1965
         4        1915        1916        1967        1966
         4        1916        1917        1968        1967
         4        1917        1918        1969        1968
         4        1918        1919        1970        1969
         4        1919        1920        1971        1970
         4        1920        1921        1972        1971
         4        1921        1922        1973        1972
         4        1922        1923        1974        1973
         4        1923        1924        1975        1974
         4        1924        1925        1976        1975
         4        1925        1926        1977        1976
         4        1926        1927        1978        1977
         4        1927        1928        1979        1978
         4        1928        1929        1980        1979
         4        1929        1930        1981        1980
         4        1930        1931        1982        1981
         4        1931        1932        1983        1982
         4        1932        1933        1984        1983
         4        1933        1934        1985        1984
         4        1934        1935        1986        1985
         4        1935        1936        1987        1986
         4        1936        1937        1988        1987
         4        1938        1939        1990        1989
         4        1939        1940        1991        1990
         4        1940        1941        1992        1991
         4        1941        1942        1993        1992
         4        1942        1943        1994        1993
         4        1943        1944        1995        1994
         4        1944        1945        1996        1995
         4        1945        1946        1997        1996
         4        1946        1947        1998        1997
         4        1947        1948        1999        1998
         4        1948        1949        2000        1999
         4        1949        1950        2001        2000
         4        1950        1951        2002        2001
         4        1951        1952        2003        2002
         4        1952        1953        2004        2003
         4        1953        1954        2005        2004
         4        1954        1955        2006        2005
         4        1955        1956        2007        2006
         4        1956        1957        2008        2007
         4        1957        1958        2009        2008
         4        1958        1959        2010        2009
         4        1959        1960        2011        2010
         4        1960        1961        2012        2011
         4        1961        1962        2013        2012
         4        1962        1963        2014        2013
         4        1963        1964        2015        2014
         4        1964        1965        2016        2015
         4        1965        1966        2017        2016
         4        1966        1967        2018        2017
         4        1967        1968        2019        2018
         4        1968        1969        2020        2019
         4        1969        1970        2021        2020
         4        1970        1971        2022        2021
         4        1971        1972        2023        2022
         4        1972        1973        2024        2023
         4        1973        1974        2025        2024
         4        1974        1975        2026        2025
         4        1975        1976        2027        2026
         4        1976        1977        2028        2027
         4        1977        1978        2029        2028
         4        1978        1979        2030        2029
         4        1979        1980        2031        2030
         4        1980        1981        2032        2031
         4        1981        1982        2033        2032
         4        1982        1983        2034        2033
         4        1983        1984        2035        2034
         4        1984        1985        2036        2035
         4        1985        1986        2037        2036
         4        1986        1987        2038        2037
         4        1987        1988        2039        2038
         4        1989        1990        2041        2040
         4        1990        1991        2042        2041
         4        1991        1992        2043        2042
         4        1992        1993        2044        2043
         4        1993        1994        2045        2044
         4        1994        1995        2046        2045
         4        1995        1996        2047        2046
         4        1996        1997        2048        2047
         4        1997        1998        2049        2048
         4        1998        1999        2050        2049
         4        1999        2000        2051        2050
         4        2000        2001        2052        2051
         4        2001        2002        2053        2052
         4        2002        2003        2054        2053
         4        2003        2004        2055        2054
         4        2004        2005        2056        2055
         4        2005        2006        2057        2056
         4        2006        2007        2058        2057
         4        2007        2008        2059        2058
         4        2008        2009        2060        2059
         4        2009        2010        2061        2060
         4        2010        2011        2062        2061
         4        2011        2012        2063        2062
         4        2012        2013        2064        2063
         4        2013        2014        2065        2064
         4        2014        2015        2066        2065
         4        2015        2016        2067        2066
         4        2016        2017        2068        2067
         4        2017        2018        2069        2068
         4        2018        2019        2070        2069
         4        2019        2020        2071        2070
         4        2020        2021        2072        2071
         4        2021        2022        2073        2072
         4        2022        2023        2074        2073
         4        2023        2024        2075        2074
         4        2024        2025        2076        2075
         4        2025        2026        2077        2076
         4        2026        2027        2078        2077
         4        2027        2028        2079        2078
         4        2028        2029        2080        2079
         4        2029        2030        2081        2080
         4        2030        2031        2082        2081
         4        2031        2032        2083        2082
         4        2032        2033        2084        2083
         4        2033        2034        2085        2084
         4        2034        2035        2086        2085
         4        2035        2036        2087        2086
         4        2036        2037        2088        2087
         4        2037        2038        2089        2088
         4        2038        2039        2090        2089
         4        2040        2041        2092        2091
         4        2041        2042        2093        2092
         4        2042        2043        2094        2093
         4        2043        2044        2095        2094
         4        2044        2045        2096        2095
         4        2045        2046        2097        2096
         4        2046        2047        2098        2097
         4        2047        2048        2099        2098
         4        2048        2049        2100        2099
         4        2049        2050        2101        2100
         4        2050        2051        2102        2101
         4        2051        2052        2103        2102
         4        2052        2053        2104        2103
         4        2053        2054        2105        2104
         4        2054        2055        2106        2105
         4        2055        2056        2107        2106
         4        2056        2057        2108        2107
         4        2057        2058        2109        2108
         4        2058        2059        2110        2109
         4        2059        2060        2111        2110
         4        2060        2061        2112        2111
         4        2061        2062        2113        2112
         4        2062        2063        2114        2113
         4        2063        2064        2115        2114
         4        2064        2065        2116        2115
         4        2065        2066        2117        2116
         4        2066        2067        2118        2117
         4        2067        2068        2119        2118
         4        2068        2069        2120        2119
         4        2069        2070        2121        2120
         4        2070        2071        2122        2121
         4        2071        2072        2123        2122
         4        2072        2073        2124        2123
         4        2073        2074        2125        2124
         4        2074        2075        2126        2125
         4        2075        2076        2127        2126
         4        2076        2077        2128        2127
         4        2077        2078        2129        2128
         4        2078        2079        2130        2129
         4        2079        2080        2131        2130
         4        2080        2081        2132        2131
         4        2081        2082        2133        2132
         4        2082        2083        2134        2133
         4        2083        2084        2135        2134
         4        2084        2085        2136        2135
         4        2085        2086        2137        2136
         4        2086        2087        2138        2137
         4        2087        2088        2139        2138
         4        2088        2089        2140        2139
         4        2089        2090        2141        2140
         4        2091        2092        2143        2142
         4        2092        2093        2144        2143
         4        2093        2094        2145        2144
         4        2094        2095        2146        2145
         4        2095        2096        2147        2146
         4        2096        2097        2148        2147
         4        2097        2098        2149        2148
         4        2098        2099        2150        2149
         4        2099        2100        2151        2150
         4        2100        2101        2152        2151
         4        2101        2102        2153        2152
         4        2102        2103        2154        2153
         4        2103        2104        2155        2154
         4        2104        2105        2156        2155
         4        2105        2106        2157        2156
         4        2106        2107        2158        2157
         4        2107        2108        2159        2158
         4        2108        2109        2160        2159
         4        2109        2110        2161        2160
         4        2110        2111        2162        2161
         4        2111        2112        2163        2162
         4        2112        2113        2164        2163
         4        2113        2114        2165        2164
         4        2114        2115        2166        2165
         4        2115        2116        2167        2166
         4        2116        2117        2168        2167
         4        2117        2118        2169        2168
         4        2118        2119        2170        2169
         4        2119        2120        2171        2170
         4        2120        2121        2172        2171
         4        2121        2122        2173        2172
         4        2122        2123        2174        2173
         4        2123        2124        2175        2174
         4        2124        2125        2176        2175
         4        2125        2126        2177        2176
         4        2126        2127        2178        2177
         4        2127        2128        2179        2178
         4        2128        2129        2180        2179
         4        2129        2130        2181        2180
         4        2130        2131        2182        2181
         4        2131        2132        2183        2182
         4        2132        2133        2184        2183
         4        2133        2134        2185        2184
         4        2134        2135        2186        2185
         4        2135        2136        2187        2186
         4        2136        2137        2188        2187
         4        2137        2138        2189        2188
         4        2138        2139        2190        2189
         4        2139        2140        2191        2190
         4        2140        2141        2192        2191
         4        2142        2143        2194        2193
         4        2143        2144        2195        2194
         4        2144        2145        2196        2195
         4        2145        2146        2197        2196
         4        2146        2147        2198        2197
         4        2147        2148        2199        2198
         4        2148        2149        2200        2199
         4        2149        2150        2201        2200
         4        2150        2151        2202        2201
         4        2151        2152        2203        2202
         4        2152        2153        2204        2203
         4        2153        2154        2205        2204
         4        2154        2155        2206        2205
         4        2155        2156        2207        2206
         4        2156        2157        2208        2207
         4        2157        2158        2209        2208
         4        2158        2159        2210        2209
         4        2159        2160        2211        2210
         4        2160        2161        2212        2211
         4        2161        2162        2213        2212
         4        2162        2163        2214        2213
         4        2163        2164        2215        2214
         4        2164        2165        2216        2215
         4        2165        2166        2217        2216
         4        2166        2167        2218        2217
         4        2167        2168        2219        2218
         4        2168        2169        2220        2219
         4        2169        2170        2221        2220
         4        2170        2171        2222        2221
         4        2171        2172        2223        2222
         4        2172        2173        2224        2223
         4        2173        2174        2225        2224
         4        2174        2175        2226        2225
         4        2175        2176        2227        2226
         4        2176        2177        2228        2227
         4        2177        2178        2229        2228
         4        2178        2179        2230        2229
         4        2179        2180        2231        2230
         4        2180        2181        2232        2231
         4        2181        2182        2233        2232
         4        2182        2183        2234        2233
         4        2183        2184        2235        2234
         4        2184        2185        2236        2235
         4        2185        2186        2237        2236
         4        2186        2187        2238        2237
         4        2187        2188        2239        2238
         4        2188        2189        2240        2239
         4        2189        2190        2241        2240
         4        2190        2191        2242        2241
         4        2191        2192        2243        2242
         4        2193        2194        2245        2244
         4        2194        2195        2246        2245
         4        2195        2196        2247        2246
         4        2196        2197        2248        2247
         4        2197        2198        2249        2248
         4        2198        2199        2250        2249
         4        2199        2200        2251        2250
         4        2200        2201        2252        2251
         4        2201        2202        2253        2252
         4        2202        2203        2254        2253
         4        2203        2204        2255        2254
         4        2204        2205        2256        2255
         4        2205        2206        2257        2256
         4        2206        2207        2258        2257
         4        2207        2208        2259        2258
         4        2208        2209        2260        2259
         4        2209        2210        2261        2260
         4        2210        2211        2262        2261
         4        2211        2212        2263        2262
         4        2212        2213        2264        2263
         4        2213        2214        2265        2264
         4        2214        2215        2266        2265
         4        2215        2216        2267        2266
         4        2216        2217        2268        2267
         4        2217        2218        2269        2268
         4        2218        2219        2270        2269
         4        2219        2220        2271        2270
         4        2220        2221        2272        2271
         4        2221        2222        2273        2272
         4        2222        2223        2274        2273
         4        2223        2224        2275        2274
         4        2224        2225        2276        2275
         4        2225        2226        2277        2276
         4        2226        2227        2278        2277
         4        2227        2228        2279        2278
         4        2228        2229        2280        2279
         4        2229        2230        2281        2280
         4        2230        2231        2282        2281
         4        2231        2232        2283        2282
         4        2232        2233        2284        2283
         4        2233        2234        2285        2284
         4        2234        2235        2286        2285
         4        2235        2236        2287        2286
         4        2236        2237        2288        2287
         4        2237        2238        2289        2288
         4        2238        2239        2290        2289
         4        2239        2240        2291        2290
         4        2240        2241        2292        2291
         4        2241        2242        2293        2292
         4        2242        2243        2294        2293
         4        2244        2245        2296        2295
         4        2245        2246        2297        2296
         4        2246        2247        2298        2297
         4        2247        2248        2299        2298
         4        2248        2249        2300        2299
         4        2249        2250        2301        2300
         4        2250        2251        2302        2301
         4        2251        2252        2303        2302
         4        2252        2253        2304        2303
         4        2253        2254        2305        2304
         4        2254        2255        2306        2305
         4        2255        2256        2307        2306
         4        2256        2257        2308        2307
         4        2257        2258        2309        2308
         4        2258        2259        2310        2309
         4        2259        2260        2311        2310
         4        2260        2261        2312        2311
         4        2261        2262        2313        2312
         4        2262        2263        2314        2313
         4        2263        2264        2315        2314
         4        2264        2265        2316        2315
         4        2265        2266        2317        2316
         4        2266        2267        2318        2317
         4        2267        2268        2319        2318
         4        2268        2269        2320        2319
         4        2269        2270        2321        2320
         4        2270        2271        2322        2321
         4        2271        2272        2323        2322
         4        2272        2273        2324        2323
         4        2273        2274        2325        2324
         4        2274        2275        2326        2325
         4        2275        2276        2327        2326
         4        2276        2277        2328        2327
         4        2277        2278        2329        2328
         4        2278        2279        2330        2329
         4        2279        2280        2331        2330
         4        2280        2281        2332        2331
         4        2281        2282        2333        2332
         4        2282        2283        2334        2333
         4        2283        2284        2335        2334
         4        2284        2285        2336        2335
         4        2285        2286        2337        2336
         4        2286        2287        2338        2337
         4        2287        2288        2339        2338
         4        2288        2289        2340        2339
         4        2289        2290        2341        2340
         4        2290        2291        2342        2341
         4        2291        2292        2343        2342
         4        2292        2293        2344        2343
         4        2293        2294        2345        2344
         4        2295        2296        2347        2346
         4        2296        2297        2348        2347
         4        2297        2298        2349        2348
         4        2298        2299        2350        2349
         4        2299        2300        2351        2350
         4        2300        2301        2352        2351
         4        2301        2302        2353        2352
         4        2302        2303        2354        2353
         4        2303        2304        2355        2354
         4        2304        2305        2356        2355
         4        2305        2306        2357        2356
         4        2306        2307        2358        2357
         4        2307        2308        2359        2358
         4        2308        2309        2360        2359
         4        2309        2310        2361        2360
         4        2310        2311        2362        2361
         4        2311        2312        2363        2362
         4        2312        2313        2364        2363
         4        2313        2314        2365        2364
         4        2314        2315        2366        2365
         4        2315        2316        2367        2366
         4        2316        2317        2368        2367
         4        2317        2318        2369        2368
         4        2318        2319        2370        2369
         4        2319        2320        2371        2370
         4        2320        2321        2372        2371
         4        2321        2322        2373        2372
         4        2322        2323        2374        2373
         4        2323        2324        2375        2374
         4        2324        2325        2376        2375
         4        2325        2326        2377        2376
         4        2326        2327        2378        2377
         4        2327        2328        2379        2378
         4        2328        2329        2380        2379
         4        2329        2330        2381        2380
         4        2330        2331        2382        2381
         4        2331        2332        2383        2382
         4        2332        2333        2384        2383
         4        2333        2334        2385        2384
         4        2334        2335        2386        2385
         4        2335        2336        2387        2386
         4        2336        2337        2388        2387
         4        2337        2338        2389        2388
         4        2338        2339        2390        2389
         4        2339        2340        2391        2390
         4        2340        2341        2392        2391
         4        2341        2342        2393        2392
         4        2342        2343        2394        2393
         4        2343        2344        2395        2394
         4        2344        2345        2396        2395
         4        2346        2347        2398        2397
         4        2347        2348        2399        2398
         4        2348        2349        2400        2399
         4        2349        2350        2401        2400
         4        2350        2351        2402        2401
         4        2351        2352        2403        2402
         4        2352        2353        2404        2403
         4        2353        2354        2405        2404
         4        2354        2355        2406        2405
         4        2355        2356        2407        2406
         4        2356        2357        2408        2407
         4        2357        2358        2409        2408
         4        2358        2359        2410        2409
         4        2359        2360        2411        2410
         4        2360        2361        2412        2411
         4        2361        2362        2413        2412
         4        2362        2363        2414        2413
         4        2363        2364        2415        2414
         4        2364        2365        2416        2415
         4        2365        2366        2417        2416
         4        2366        2367        2418        2417
         4        2367        2368        2419        2418
         4        2368        2369        2420        2419
         4        2369        2370        2421        2420
         4        2370        2371        2422        2421
         4        2371        2372        2423        2422
         4        2372        2373        2424        2423
         4        2373        2374        2425        2424
         4        2374        2375        2426        2425
         4        2375        2376        2427        2426
         4        2376        2377        2428        2427
         4        2377        2378        2429        2428
         4        2378        2379        2430        2429
         4        2379        2380        2431        2430
         4        2380        2381        2432        2431
         4        2381        2382        2433        2432
         4        2382        2383        2434        2433
         4        2383        2384        2435        2434
         4        2384        2385        2436        2435
         4        2385        2386        2437        2436
         4        2386        2387        2438        2437
         4        2387        2388        2439        2438
         4        2388        2389        2440        2439
         4        2389        2390        2441        2440
         4        2390        2391        2442        2441
         4        2391        2392        2443        2442
         4        2392        2393        2444        2443
         4        2393        2394        2445        2444
         4        2394        2395        2446        2445
         4        2395        2396        2447        2446
         4        2397        2398        2449        2448
         4        2398        2399        2450        2449
         4        2399        2400        2451        2450
         4        2400        2401        2452        2451
         4        2401        2402        2453        2452
         4        2402        2403        2454        2453
         4        2403        2404        2455        2454
         4        2404        2405        2456        2455
         4        2405        2406        2457        2456
         4        2406        2407        2458        2457
         4        2407        2408        2459        2458
         4        2408        2409        2460        2459
         4        2409        2410        2461        2460
         4        2410        2411        2462        2461
         4        2411        2412        2463        2462
         4        2412        2413        2464        2463
         4        2413        2414        2465        2464
         4        2414        2415        2466        2465
         4        2415        2416        2467        2466
         4        2416        2417        2468        2467
         4        2417        2418        2469        2468
         4        2418        2419        2470        2469
         4        2419        2420        2471        2470
         4        2420        2421        2472        2471
         4        2421        2422        2473        2472
         4        2422        2423        2474        2473
         4        2423        2424        2475        2474
         4        2424        2425        2476        2475
         4        2425        2426        2477        2476
         4        2426        2427        2478        2477
         4        2427        2428        2479        2478
         4        2428        2429        2480        2479
         4        2429        2430        2481        2480
         4        2430        2431        2482        2481
         4        2431        2432        2483        2482
         4        2432        2433        2484        2483
         4        2433        2434        2485        2484
         4        2434        2435        2486        2485
         4        2435        2436        2487        2486
         4        2436        2437        2488        2487
         4        2437        2438        2489        2488
         4        2438        2439        2490        2489
         4        2439        2440        2491        2490
         4        2440        2441        2492        2491
         4        2441        2442        2493        2492
         4        2442        2443        2494        2493
         4        2443        2444        2495        2494
         4        2444        2445        2496        2495
         4        2445        2446        2497        2496
         4        2446        2447        2498        2497
         4        2448        2449        2500        2499
         4        2449        2450        2501        2500
         4        2450        2451        2502        2501
         4        2451        2452        2503        2502
         4        2452        2453        2504        2503
         4        2453        2454        2505        2504
         4        2454        2455        2506        2505
         4        2455        2456        2507        2506
         4        2456        2457        2508        2507
         4        2457        2458        2509        2508
         4        2458        2459        2510        2509
         4        2459        2460        2511        2510
         4        2460        2461        2512        2511
         4        2461        2462        2513        2512
         4        2462        2463        2514        2513
         4        2463        2464        2515        2514
         4        2464        2465        2516        2515
         4        2465        2466        2517        2516
         4        2466        2467        2518        2517
         4        2467        2468        2519        2518
         4        2468        2469        2520        2519
         4        2469        2470        2521        2520
         4        2470        2471        2522        2521
         4        2471        2472        2523        2522
         4        2472        2473        2524        2523
         4        2473        2474        2525        2524
         4        2474        2475        2526        2525
         4        2475        2476        2527        2526
         4        2476        2477        2528        2527
         4        2477        2478        2529        2528
         4        2478        2479        2530        2529
         4        2479        2480        2531        2530
         4        2480        2481        2532        2531
         4        2481        2482        2533        2532
         4        2482        2483        2534        2533
         4        2483        2484        2535        2534
         4        2484        2485        2536        2535
         4        2485        2486        2537        2536
         4        2486        2487        2538        2537
         4        2487        2488        2539        2538
         4        2488        2489        2540        2539
         4        2489        2490        2541        2540
         4        2490        2491        2542        2541
         4        2491        2492        2543        2542
         4        2492        2493        2544        2543
         4        2493        2494        2545        2544
         4        2494        2495        2546        2545
         4        2495        2496        2547        2546
         4        2496        2497        2548        2547
         4        2497        2498        2549        2548
         4        2499        2500        2551        2550
         4        2500        2501        2552        2551
         4        2501        2502        2553        2552
         4        2502        2503        2554        2553
         4        2503        2504        2555        2554
         4        2504        2505        2556        2555
         4        2505        2506        2557        2556
         4        2506        2507        2558        2557
         4        2507        2508        2559        2558
         4        2508        2509        2560        2559
         4        2509        2510        2561        2560
         4        2510        2511        2562        2561
         4        2511        2512        2563        2562
         4        2512        2513        2564        2563
         4        2513        2514        2565        2564
         4        2514        2515        2566        2565
         4        2515        2516        2567        2566
         4        2516        2517        2568        2567
         4        2517        2518        2569        2568
         4        2518        2519        2570        2569
         4        2519        2520        2571        2570
         4        2520        2521        2572        2571
         4        2521        2522        2573        2572
         4        2522        2523        2574        2573
         4        2523        2524        2575        2574
         4        2524        2525        2576        2575
         4        2525        2526        2577        2576
         4        2526        2527        2578        2577
         4        2527        2528        2579        2578
         4        2528        2529        2580        2579
         4        2529        2530        2581        2580
         4        2530        2531        2582        2581
         4        2531        2532        2583        2582
         4        2532        2533        2584        2583
         4        2533        2534        2585        2584
         4        2534        2535        2586        2585
         4        2535        2536        2587        2586
         4        2536        2537        2588        2587
         4        2537        2538        2589        2588
         4        2538        2539        2590        2589
         4        2539        2540        2591        2590
         4        2540        2541        2592        2591
         4        2541        2542        2593        2592
         4        2542        2543        2594        2593
         4        2543        2544        2595        2594
         4        2544        2545        2596        2595
         4        2545        2546        2597        2596
         4        2546        2547        2598        2597
         4        2547        2548        2599        2598
         4        2548        2549        2600        2599
         4        2550        2551        2602        2601
         4        2551        2552        2603        2602
         4        2552        2553        2604        2603
         4        2553        2554        2605        2604
         4        2554        2555        2606        2605
         4        2555        2556        2607        2606
         4        2556        2557        2608        2607
         4        2557        2558        2609        2608
         4        2558        2559        2610        2609
         4        2559        2560        2611        2610
         4        2560        2561        2612        2611
         4        2561        2562        2613        2612
         4        2562        2563        2614        2613
         4        2563        2564        2615        2614
         4        2564        2565        2616        2615
         4        2565        2566        2617        2616
         4        2566        2567        2618        2617
         4        2567        2568        2619        2618
         4        2568        2569        2620        2619
         4        2569        2570        2621        2620
         4        2570        2571        2622        2621
         4        2571        2572        2623        2622
         4        2572        2573        2624        2623
         4        2573        2574        2625        2624
         4        2574        2575        2626        2625
         4        2575        2576        2627        2626
         4        2576        2577        2628        2627
         4        2577        2578        2629        2628
         4        2578        2579        2630        2629
         4        2579        2580        2631        2630
         4        2580        2581        2632        2631
         4        2581        2582        2633        2632
         4        2582        2583        2634        2633
         4        2583        2584        2635        2634
         4        2584        2585        2636        2635
         4        2585        2586        2637        2636
         4        2586        2587        2638        2637
         4        2587        2588        2639        2638
         4        2588        2589        2640        2639
         4        2589        2590        2641        2640
         4        2590        2591        2642        2641
         4        2591        2592        2643        2642
         4        2592        2593        2644        2643
         4        2593        2594        2645        2644
         4        2594        2595        2646        2645
         4        2595        2596        2647        2646
         4        2596        2597        2648        2647
         4        2597        2598        2649        2648
         4        2598        2599        2650        2649
         4        2599        2600        2651        2650
         4        2601        2602        2653        2652
         4        2602        2603        2654        2653
         4        2603        2604        2655        2654
         4        2604        2605        2656        2655
         4        2605        2606        2657        2656
         4        2606        2607        2658        2657
         4        2607        2608        2659        2658
         4        2608        2609        2660        2659
         4        2609        2610        2661        2660
         4        2610        2611        2662        2661
         4        2611        2612        2663        2662
         4        2612        2613        2664        2663
         4        2613        2614        2665        2664
         4        2614        2615        2666        2665
         4        2615        2616        2667        2666
         4        2616        2617        2668        2667
         4        2617        2618        2669        2668
         4        2618        2619        2670        2669
         4        2619        2620        2671        2670
         4        2620        2621        2672        2671
         4        2621        2622        2673        2672
         4        2622        2623        2674        2673
         4        2623        2624        2675        2674
         4        2624        2625        2676        2675
         4        2625        2626        2677        2676
         4        2626        2627        2678        2677
         4        2627        2628        2679        2678
         4        2628        2629        2680        2679
         4        2629        2630        2681        2680
         4        2630        2631        2682        2681
         4        2631        2632        2683        2682
         4        2632        2633        2684        2683
         4        2633        2634        2685        2684
         4        2634        2635        2686        2685
         4        2635        2636        2687        2686
         4        2636        2637        2688        2687
         4        2637        2638        2689        2688
         4        2638        2639        2690        2689
         4        2639        2640        2691        2690
         4        2640        2641        2692        2691
         4        2641        2642        2693        2692
         4        2642        2643        2694        2693
         4        2643        2644        2695        2694
         4        2644        2645        2696        2695
         4        2645        2646        2697        2696
         4        2646        2647        2698        2697
         4        2647        2648        2699        2698
         4        2648        2649        2700        2699
         4        2649        2650        2701        2700
         4        2650        2651        2702        2701
         4        2652        2653        2704        2703
         4        2653        2654        2705        2704
         4        2654        2655        2706        2705
         4        2655        2656        2707        2706
         4        2656        2657        2708        2707
         4        2657        2658        2709        2708
         4        2658        2659        2710        2709
         4        2659        2660        2711        2710
         4        2660        2661        2712        2711
         4        2661        2662        2713        2712
         4        2662        2663        2714        2713
         4        2663        2664        2715        2714
         4        2664        2665        2716        2715
         4        2665        2666        2717        2716
         4        2666        2667        2718        2717
         4        2667        2668        2719        2718
         4        2668        2669        2720        2719
         4        2669        2670        2721        2720
         4        2670        2671        2722        2721
         4        2671        2672        2723        2722
         4        2672        2673        2724        2723
         4        2673        2674        2725        2724
         4        2674        2675        2726        2725
         4        2675        2676        2727        2726
         4        2676        2677        2728        2727
         4        2677        2678        2729        2728
         4        2678        2679        2730        2729
         4        2679        2680        2731        2730
         4        2680        2681        2732        2731
         4        2681        2682        2733        2732
         4        2682        2683        2734        2733
         4        2683        2684        2735        2734
         4        2684        2685        2736        2735
         4        2685        2686        2737        2736
         4        2686        2687        2738        2737
         4        2687        2688        2739        2738
         4        2688        2689        2740        2739
         4        2689        2690        2741        2740
         4        2690        2691        2742        2741
         4        2691        2692        2743        2742
         4        2692        2693        2744        2743
         4        2693        2694        2745        2744
         4        2694        2695        2746        2745
         4        2695        2696        2747        2746
         4        2696        2697        2748        2747
         4        2697        2698        2749        2748
         4        2698        2699        2750        2749
         4        2699        2700        2751        2750
         4        2700        2701        2752        2751
         4        2701        2702        2753        2752
         4        2703        2704        2755        2754
         4        2704        2705        2756        2755
         4        2705        2706        2757        2756
         4        2706        2707        2758        2757
         4        2707        2708        2759        2758
         4        2708        2709        2760        2759
         4        2709        2710        2761        2760
         4        2710        2711        2762        2761
         4        2711        2712        2763        2762
         4        2712        2713        2764        2763
         4        2713        2714        2765        2764
         4        2714        2715        2766        2765
         4        2715        2716        2767        2766
         4        2716        2717        2768        2767
         4        2717        2718        2769        2768
         4        2718        2719        2770        2769
         4        2719        2720        2771        2770
         4        2720        2721        2772        2771
         4        2721        2722        2773        2772
         4        2722        2723        2774        2773
         4        2723        2724        2775        2774
         4        2724        2725        2776        2775
         4        2725        2726        2777        2776
         4        2726        2727        2778        2777
         4        2727        2728        2779        2778
         4        2728        2729        2780        2779
         4        2729        2730        2781        2780
         4        2730        2731        2782        2781
         4        2731        2732        2783        2782
         4        2732        2733        2784        2783
         4        2733        2734        2785        2784
         4        2734        2735        2786        2785
         4        2735        2736        2787        2786
         4        2736        2737        2788        2787
         4        2737        2738        2789        2788
         4        2738        2739        2790        2789
         4        2739        2740        2791        2790
         4        2740        2741        2792        2791
         4        2741        2742        2793        2792
         4        2742        2743        2794        2793
         4        2743        2744        2795        2794
         4        2744        2745        2796        2795
         4        2745        2746        2797        2796
         4        2746        2747        2798        2797
         4        2747        2748        2799        2798
         4        2748        2749        2800        2799
         4        2749        2750        2801        2800
         4        2750        2751        2802        2801
         4        2751        2752        2803        2802
         4        2752        2753        2804        2803
         4        2754        2755        2806        2805
         4        2755        2756        2807        2806
         4        2756        2757        2808        2807
         4        2757        2758        2809        2808
         4        2758        2759        2810        2809
         4        2759        2760        2811        2810
         4        2760        2761        2812        2811
         4        2761        2762        2813        2812
         4        2762        2763        2814        2813
         4        2763        2764        2815        2814
         4        2764        2765        2816        2815
         4        2765        2766        2817        2816
         4        2766        2767        2818        2817
         4        2767        2768        2819        2818
         4        2768        2769        2820        2819
         4        2769        2770        2821        2820
         4        2770        2771        2822        2821
         4        2771        2772        2823        2822
         4        2772        2773        2824        2823
         4        2773        2774        2825        2824
         4        2774        2775        2826        2825
         4        2775        2776        2827        2826
         4        2776        2777        2828        2827
         4        2777        2778        2829        2828
         4        2778        2779        2830        2829
         4        2779        2780        2831        2830
         4        2780        2781        2832        2831
         4        2781        2782        2833        2832
         4        2782        2783        2834        2833
         4        2783        2784        2835        2834
         4        2784        2785        2836        2835
         4        2785        2786        2837        2836
         4        2786        2787        2838        2837
         4        2787        2788        2839        2838
         4        2788        2789        2840        2839
         4        2789        2790        2841        2840
         4        2790        2791        2842        2841
         4        2791        2792        2843        2842
         4        2792        2793        2844        2843
         4        2793        2794        2845        2844
         4        2794        2795        2846        2845
         4        2795        2796        2847        2846
         4        2796        2797        2848        2847
         4        2797        2798        2849        2848
         4        2798        2799        2850        2849
         4        2799        2800        2851        2850
         4        2800        2801        2852        2851
         4        2801        2802        2853        2852
         4        2802        2803        2854        2853
         4        2803        2804        2855        2854
         4        2805        2806        2857        2856
         4        2806        2807        2858        2857
         4        2807        2808        2859        2858
         4        2808        2809        2860        2859
         4        2809        2810        2861        2860
         4        2810        2811        2862        2861
         4        2811        2812        2863        2862
         4        2812        2813        2864        2863
         4        2813        2814        2865        2864
         4        2814        2815        2866        2865
         4        2815        2816        2867        2866
         4        2816        2817        2868        2867
         4        2817        2818        2869        2868
         4        2818        2819        2870        2869
         4        2819        2820        2871        2870
         4        2820        2821        2872        2871
         4        2821        2822        2873        2872
         4        2822        2823        2874        2873
         4        2823        2824        2875        2874
         4        2824        2825        2876        2875
         4        2825        2826        2877        2876
         4        2826        2827        2878        2877
         4        2827        2828        2879        2878
         4        2828        2829        2880        2879
         4        2829        2830        2881        2880
         4        2830        2831        2882        2881
         4        2831        2832        2883        2882
         4        2832        2833        2884        2883
         4        2833        2834        2885        2884
         4        2834        2835        2886        2885
         4        2835        2836        2887        2886
         4        2836        2837        2888        2887
         4        2837        2838        2889        2888
         4        2838        2839        2890        2889
         4        2839        2840        2891        2890
         4        2840        2841        2892        2891
         4        2841        2842        2893        2892
         4        2842        2843        2894        2893
         4        2843        2844        2895        2894
         4        2844        2845        2896        2895
         4        2845        2846        2897        2896
         4        2846        2847        2898        2897
         4        2847        2848        2899        2898
         4        2848        2849        2900        2899
         4        2849        2850        2901        2900
         4        2850        2851        2902        2901
         4        2851        2852        2903        2902
         4        2852        2853        2904        2903
         4        2853        2854        2905        2904
         4        2854        2855        2906        2905
         4        2856        2857        2908        2907
         4        2857        2858        2909        2908
         4        2858        2859        2910        2909
         4        2859        2860        2911        2910
         4        2860        2861        2912        2911
         4        2861        2862        2913        2912
         4        2862        2863        2914        2913
         4        2863        2864        2915        2914
         4        2864        2865        2916        2915
         4        2865        2866        2917        2916
         4        2866        2867        2918        2917
         4        2867        2868        2919        2918
         4        2868        2869        2920        2919
         4        2869        2870        2921        2920
         4        2870        2871        2922        2921
         4        2871        2872        2923        2922
         4        2872        2873        2924        2923
         4        2873        2874        2925        2924
         4        2874        2875        2926        2925
         4        2875        2876        2927        2926
         4        2876        2877        2928        2927
         4        2877        2878        2929        2928
         4        2878        2879        2930        2929
         4        2879        2880        2931        2930
         4        2880        2881        2932        2931
         4        2881        2882        2933        2932
         4        2882        2883        2934        2933
         4        2883        2884        2935        2934
         4        2884        2885        2936        2935
         4        2885        2886        2937        2936
         4        2886        2887        2938        2937
         4        2887        2888        2939        2938
         4        2888        2889        2940        2939
         4        2889        2890        2941        2940
         4        2890        2891        2942        2941
         4        2891        2892        2943        2942
         4        2892        2893        2944        2943
         4        2893        2894        2945        2944
         4        2894        2895        2946        2945
         4        2895        2896        2947        2946
         4        2896        2897        2948        2947
         4        2897        2898        2949        2948
         4        2898        2899        2950        2949
         4        2899        2900        2951        2950
         4        2900        2901        2952        2951
         4        2901        2902        2953        2952
         4        2902        2903        2954        2953
         4        2903        2904        2955        2954
         4        2904        2905        2956        2955
         4        2905        2906        2957        2956
         4        2907        2908        2959        2958
         4        2908        2909        2960        2959
         4        2909        2910        2961        2960
         4        2910        2911        2962        2961
         4        2911        2912        2963        2962
         4        2912        2913        2964        2963
         4        2913        2914        2965        2964
         4        2914        2915        2966        2965
         4        2915        2916        2967        2966
         4        2916        2917        2968        2967
         4        2917        2918        2969        2968
         4        2918        2919        2970        2969
         4        2919        2920        2971        2970
         4        2920        2921        2972        2971
         4        2921        2922        2973        2972
         4        2922        2923        2974        2973
         4        2923        2924        2975        2974
         4        2924        2925        2976        2975
         4        2925        2926        2977        2976
         4        2926        2927        2978        2977
         4        2927        2928        2979        2978
         4        2928        2929        2980        2979
         4        2929        2930        2981        2980
         4        2930        2931        2982        2981
         4        2931        2932        2983        2982
         4        2932        2933        2984        2983
         4        2933        2934        2985        2984
         4        2934        2935        2986        2985
         4        2935        2936        2987        2986
         4        2936        2937        2988        2987
         4        2937        2938        2989        2988
         4        2938        2939        2990        2989
         4        2939        2940        2991        2990
         4        2940        2941        2992        2991
         4        2941        2942        2993        2992
         4        2942        2943        2994        2993
         4        2943        2944        2995        2994
         4        2944        2945        2996        2995
         4        2945        2946        2997        2996
         4        2946        2947        2998        2997
         4        2947        2948        2999        2998
         4        2948        2949        3000        2999
         4        2949        2950        3001        3000
         4        2950        2951        3002        3001
         4        2951        2952        3003        3002
         4        2952        2953        3004        3003
         4        2953        2954        3005        3004
         4        2954        2955        3006        3005
         4        2955        2956        3007        3006
         4        2956        2957        3008        3007
         4        2958        2959        3010        3009
         4        2959        2960        3011        3010
         4        2960        2961        3012        3011
         4        2961        2962        3013        3012
         4        2962        2963        3014        3013
         4        2963        2964        3015        3014
         4        2964        2965        3016        3015
         4        2965        2966        3017        3016
         4        2966        2967        3018        3017
         4        2967        2968        3019        3018
         4        2968        2969        3020        3019
         4        2969        2970        3021        3020
         4        2970        2971        3022        3021
         4        2971        2972        3023        3022
         4        2972        2973        3024        3023
         4        2973        2974        3025        3024
         4        2974        2975        3026        3025
         4        2975        2976        3027        3026
         4        2976        2977        3028        3027
         4        2977        2978        3029        3028
         4        2978        2979        3030        3029
         4        2979        2980        3031        3030
         4        2980        2981        3032        3031
         4        2981        2982        3033        3032
         4        2982        2983        3034        3033
         4        2983        2984        3035        3034
         4        2984        2985        3036        3035
         4        2985        2986        3037        3036
         4        2986        2987        3038        3037
         4        2987        2988        3039        3038
         4        2988        2989        3040        3039
         4        2989        2990        3041        3040
         4        2990        2991        3042        3041
         4        2991        2992        3043        3042
         4        2992        2993        3044        3043
         4        2993        2994        3045        3044
         4        2994        2995        3046        3045
         4        2995        2996        3047        3046
         4        2996        2997        3048        3047
         4        2997        2998        3049        3048
         4        2998        2999        3050        3049
         4        2999        3000        3051        3050
         4        3000        3001        3052        3051
         4        3001        3002        3053        3052
         4        3002        3003        3054        3053
         4        3003        3004        3055        3054
         4        3004        3005        3056        3055
         4        3005        3006        3057        3056
         4        3006        3007        3058        3057
         4        3007        3008        3059        3058
         4        3009        3010        3061        3060
         4        3010        3011        3062        3061
         4        3011        3012        3063        3062
         4        3012        3013        3064        3063
         4        3013        3014        3065        3064
         4        3014        3015        3066        3065
         4        3015        3016        3067        3066
         4        3016        3017        3068        3067
         4        3017        3018        3069        3068
         4        3018        3019        3070        3069
         4        3019        3020        3071        3070
         4        3020        3021        3072        3071
         4        3021        3022        3073        3072
         4        3022        3023        3074        3073
         4        3023        3024        3075        3074
         4        3024        3025        3076        3075
         4        3025        3026        3077        3076
         4        3026        3027        3078        3077
         4        3027        3028        3079        3078
         4        3028        3029        3080        3079
         4        3029        3030        3081        3080
         4        3030        3031        3082        3081
         4        3031        3032        3083        3082
         4        3032        3033        3084        3083
         4        3033        3034        3085        3084
         4        3034        3035        3086        3085
         4        3035        3036        3087        3086
         4        3036        3037        3088        3087
         4        3037        3038        3089        3088
         4        3038        3039        3090        3089
         4        3039        3040        3091        3090
         4        3040        3041        3092        3091
         4        3041        3042        3093        3092
         4        3042        3043        3094        3093
         4        3043        3044        3095        3094
         4        3044        3045        3096        3095
         4        3045        3046        3097        3096
         4        3046        3047        3098        3097
         4        3047        3048        3099        3098
         4        3048        3049        3100        3099
         4        3049        3050        3101        3100
         4        3050        3051        3102        3101
         4        3051        3052        3103        3102
         4        3052        3053        3104        3103
         4        3053        3054        3105        3104
         4        3054        3055        3106        3105
         4        3055        3056        3107        3106
         4        3056        3057        3108        3107
         4        3057        3058        3109        3108
         4        3058        3059        3110        3109
         4        3060        3061        3112        3111
         4        3061        3062        3113        3112
         4        3062        3063        3114        3113
         4        3063        3064        3115        3114
         4        3064        3065        3116        3115
         4        3065        3066        3117        3116
         4        3066        3067        3118        3117
         4        3067        3068        3119        3118
         4        3068        3069        3120        3119
         4        3069        3070        3121        3120
         4        3070        3071        3122        3121
         4        3071        3072        3123        3122
         4        3072        3073        3124        3123
         4        3073        3074        3125        3124
         4        3074        3075        3126        3125
         4        3075        3076        3127        3126
         4        3076        3077        3128        3127
         4        3077        3078        3129        3128
         4        3078        3079        3130        3129
         4        3079        3080        3131        3130
         4        3080        3081        3132        3131
         4        3081        3082        3133        3132
         4        3082        3083        3134        3133
         4        3083        3084        3135        3134
         4        3084        3085        3136        3135
         4        3085        3086        3137        3136
         4        3086        3087        3138        3137
         4        3087        3088        3139        3138
         4        3088        3089        3140        3139
         4        3089        3090        3141        3140
         4        3090        3091        3142        3141
         4        3091        3092        3143        3142
         4        3092        3093        3144        3143
         4        3093        3094        3145        3144
         4        3094        3095        3146        3145
         4        3095        3096        3147        3146
         4        3096        3097        3148        3147
         4        3097        3098        3149        3148
         4        3098        3099        3150        3149
         4        3099        3100        3151        3150
         4        3100        3101        3152        3151
         4        3101        3102        3153        3152
         4        3102        3103        3154        3153
         4        3103        3104        3155        3154
         4        3104        3105        3156        3155
         4        3105        3106        3157        3156
         4        3106        3107        3158        3157
         4        3107        3108        3159        3158
         4        3108        3109        3160        3159
         4        3109        3110        3161        3160
         4        3111        3112        3163        3162
         4        3112        3113        3164        3163
         4        3113        3114        3165        3164
         4        3114        3115        3166        3165
         4        3115        3116        3167        3166
         4        3116        3117        3168        3167
         4        3117        3118        3169        3168
         4        3118        3119        3170        3169
         4        3119        3120        3171        3170
         4        3120        3121        3172        3171
         4        3121        3122        3173        3172
         4        3122        3123        3174        3173
         4        3123        3124        3175        3174
         4        3124        3125        3176        3175
         4        3125        3126        3177        3176
         4        3126        3127        3178        3177
         4        3127        3128        3179        3178
         4        3128        3129        3180        3179
         4        3129        3130        3181        3180
         4        3130        3131        3182        3181
         4        3131        3132        3183        3182
         4        3132        3133        3184        3183
         4        3133        3134        3185        3184
         4        3134        3135        3186        3185
         4        3135        3136        3187        3186
         4        3136        3137        3188        3187
         4        3137        3138        3189        3188
         4        3138        3139        3190        3189
         4        3139        3140        3191        3190
         4        3140        3141        3192        3191
         4        3141        3142        3193        3192
         4        3142        3143        3194        3193
         4        3143        3144        3195        3194
         4        3144        3145        3196        3195
         4        3145        3146        3197        3196
         4        3146        3147        3198        3197
         4        3147        3148        3199        3198
         4        3148        3149        3200        3199
         4        3149        3150        3201        3200
         4        3150        3151        3202        3201
         4        3151        3152        3203        3202
         4        3152        3153        3204        3203
         4        3153        3154        3205        3204
         4        3154        3155        3206        3205
         4        3155        3156        3207        3206
         4        3156        3157        3208        3207
         4        3157        3158        3209        3208
         4        3158        3159        3210        3209
         4        3159        3160        3211        3210
         4        3160        3161        3212        3211
         4        3162        3163        3214        3213
         4        3163        3164        3215        3214
         4        3164        3165        3216        3215
         4        3165        3166        3217        3216
         4        3166        3167        3218        3217
         4        3167        3168        3219        3218
         4        3168        3169        3220        3219
         4        3169        3170        3221        3220
         4        3170        3171        3222        3221
         4        3171        3172        3223        3222
         4        3172        3173        3224        3223
         4        3173        3174        3225        3224
         4        3174        3175        3226        3225
         4        3175        3176        3227        3226
         4        3176        3177        3228        3227
         4        3177        3178        3229        3228
         4        3178        3179        3230        3229
         4        3179        3180        3231        3230
         4        3180        3181        3232        3231
         4        3181        3182        3233        3232
         4        3182        3183        3234        3233
         4        3183        3184        3235        3234
         4        3184        3185        3236        3235
         4        3185        3186        3237        3236
         4        3186        3187        3238        3237
         4        3187        3188        3239        3238
         4        3188        3189        3240        3239
         4        3189        3190        3241        3240
         4        3190        3191        3242        3241
         4        3191        3192        3243        3242
         4        3192        3193        3244        3243
         4        3193        3194        3245        3244
         4        3194        3195        3246        3245
         4        3195        3196        3247        3246
         4        3196        3197        3248        3247
         4        3197        3198        3249        3248
         4        3198        3199        3250        3249
         4        3199        3200        3251        3250
         4        3200        3201        3252        3251
         4        3201        3202        3253        3252
         4        3202        3203        3254        3253
         4        3203        3204        3255        3254
         4        3204        3205        3256        3255
         4        3205        3206        3257        3256
         4        3206        3207        3258        3257
         4        3207        3208        3259        3258
         4        3208        3209        3260        3259
         4        3209        3210        3261        3260
         4        3210        3211        3262        3261
         4        3211        3212        3263        3262
         4        3213        3214        3265        3264
         4        3214        3215        3266        3265
         4        3215        3216        3267        3266
         4        3216        3217        3268        3267
         4        3217        3218        3269        3268
         4        3218        3219        3270        3269
         4        3219        3220        3271        3270
         4        3220        3221        3272        3271
         4        3221        3222        3273        3272
         4        3222        3223        3274        3273
         4        3223        3224        3275        3274
         4        3224        3225        3276        3275
         4        3225        3226        3277        3276
         4        3226        3227        3278        3277
         4        3227        3228        3279        3278
         4        3228        3229        3280        3279
         4        3229        3230        3281        3280
         4        3230        3231        3282        3281
         4        3231        3232        3283        3282
         4        3232        3233        3284        3283
         4        3233        3234        3285        3284
         4        3234        3235        3286        3285
         4        3235        3236        3287        3286
         4        3236        3237        3288        3287
         4        3237        3238        3289        3288
         4        3238        3239        3290        3289
         4        3239        3240        3291        3290
         4        3240        3241        3292        3291
         4        3241        3242        3293        3292
         4        3242        3243        3294        3293
         4        3243        3244        3295        3294
         4        3244        3245        3296        3295
         4        3245        3246        3297        3296
         4        3246        3247        3298        3297
         4        3247        3248        3299        3298
         4        3248        3249        3300        3299
         4        3249        3250        3301        3300
         4        3250        3251        3302        3301
         4        3251        3252        3303        3302
         4        3252        3253        3304        3303
         4        3253        3254        3305        3304
         4        3254        3255        3306        3305
         4        3255        3256        3307        3306
         4        3256        3257        3308        3307
         4        3257        3258        3309        3308
         4        3258        3259        3310        3309
         4        3259        3260        3311        3310
         4        3260        3261        3312        3311
         4        3261        3262        3313        3312
         4        3262        3263        3314        3313
         4        3264        3265        3316        3315
         4        3265        3266        3317        3316
         4        3266        3267        3318        3317
         4        3267        3268        3319        3318
         4        3268        3269        3320        3319
         4        3269        3270        3321        3320
         4        3270        3271        3322        3321
         4        3271        3272        3323        3322
         4        3272        3273        3324        3323
         4        3273        3274        3325        3324
         4        3274        3275        3326        3325
         4        3275        3276        3327        3326
         4        3276        3277        3328        3327
         4        3277        3278        3329        3328
         4        3278        3279        3330        3329
         4        3279        3280        3331        3330
         4        3280        3281        3332        3331
         4        3281        3282        3333        3332
         4        3282        3283        3334        3333
         4        3283        3284        3335        3334
         4        3284        3285        3336        3335
         4        3285        3286        3337        3336
         4        3286        3287        3338        3337
         4        3287        3288        3339        3338
         4        3288        3289        3340        3339
         4        3289        3290        3341        3340
         4        3290        3291        3342        3341
         4        3291        3292        3343        3342
         4        3292        3293        3344        3343
         4        3293        3294        3345        3344
         4        3294        3295        3346        3345
         4        3295        3296        3347        3346
         4        3296        3297        3348        3347
         4        3297        3298        3349        3348
         4        3298        3299        3350        3349
         4        3299        3300        3351        3350
         4        3300        3301        3352        3351
         4        3301        3302        3353        3352
         4        3302        3303        3354        3353
         4        3303        3304        3355        3354
         4        3304        3305        3356        3355
         4        3305        3306        3357        3356
         4        3306        3307        3358        3357
         4        3307        3308        3359        3358
         4        3308        3309        3360        3359
         4        3309        3310        3361        3360
         4        3310        3311        3362        3361
         4        3311        3312        3363        3362
         4        3312        3313        3364        3363
         4        3313        3314        3365        3364
         4        3315        3316        3367        3366
         4        3316        3317        3368        3367
         4        3317        3318        3369        3368
         4        3318        3319        3370        3369
         4        3319        3320        3371        3370
         4        3320        3321        3372        3371
         4        3321        3322        3373        3372
         4        3322        3323        3374        3373
         4        3323        3324        3375        3374
         4        3324        3325        3376        3375
         4        3325        3326        3377        3376
         4        3326        3327        3378        3377
         4        3327        3328        3379        3378
         4        3328        3329        3380        3379
         4        3329        3330        3381        3380
         4        3330        3331        3382        3381
         4        3331        3332        3383        3382
         4        3332        3333        3384        3383
         4        3333        3334        3385        3384
         4        3334        3335        3386        3385
         4        3335        3336        3387        3386
         4        3336        3337        3388        3387
         4        3337        3338        3389        3388
         4        3338        3339        3390        3389
         4        3339        3340        3391        3390
         4        3340        3341        3392        3391
         4        3341        3342        3393        3392
         4        3342        3343        3394        3393
         4        3343        3344        3395        3394
         4        3344        3345        3396        3395
         4        3345        3346        3397        3396
         4        3346        3347        3398        3397
         4        3347        3348        3399        3398
         4        3348        3349        3400        3399
         4        3349        3350        3401        3400
         4        3350        3351        3402        3401
         4        3351        3352        3403        3402
         4        3352        3353        3404        3403
         4        3353        3354        3405        3404
         4        3354        3355        3406        3405
         4        3355        3356        3407        3406
         4        3356        3357        3408        3407
         4        3357        3358        3409        3408
         4        3358        3359        3410        3409
         4        3359        3360        3411        3410
         4        3360        3361        3412        3411
         4        3361        3362        3413        3412
         4        3362        3363        3414        3413
         4        3363        3364        3415        3414
         4        3364        3365        3416        3415
         4        3366        3367        3418        3417
         4        3367        3368        3419        3418
         4        3368        3369        3420        3419
         4        3369        3370        3421        3420
         4        3370        3371        3422        3421
         4        3371        3372        3423        3422
         4        3372        3373        3424        3423
         4        3373        3374        3425        3424
         4        3374        3375        3426        3425
         4        3375        3376        3427        3426
         4        3376        3377        3428        3427
         4        3377        3378        3429        3428
         4        3378        3379        3430        3429
         4        3379        3380        3431        3430
         4        3380        3381        3432        3431
         4        3381        3382        3433        3432
         4        3382        3383        3434        3433
         4        3383        3384        3435        3434
         4        3384        3385        3436        3435
         4        3385        3386        3437        3436
         4        3386        3387        3438        3437
         4        3387        3388        3439        3438
         4        3388        3389        3440        3439
         4        3389        3390        3441        3440
         4        3390        3391        3442        3441
         4        3391        3392        3443        3442
         4        3392        3393        3444        3443
         4        3393        3394        3445        3444
         4        3394        3395        3446        3445
         4        3395        3396        3447        3446
         4        3396        3397        3448        3447
         4        3397        3398        3449        3448
         4        3398        3399        3450        3449
         4        3399        3400        3451        3450
         4        3400        3401        3452        3451
         4        3401        3402        3453        3452
         4        3402        3403        3454        3453
         4        3403        3404        3455        3454
         4        3404        3405        3456        3455
         4        3405        3406        3457        3456
         4        3406        3407        3458        3457
         4        3407        3408        3459        3458
         4        3408        3409        3460        3459
         4        3409        3410        3461        3460
         4        3410        3411        3462        3461
         4        3411        3412        3463        3462
         4        3412        3413        3464        3463
         4        3413        3414        3465        3464
         4        3414        3415        3466        3465
         4        3415        3416        3467        3466
         4        3417        3418        3469        3468
         4        3418        3419        3470        3469
         4        3419        3420        3471        3470
         4        3420        3421        3472        3471
         4        3421        3422        3473        3472
         4        3422        3423        3474        3473
         4        3423        3424        3475        3474
         4        3424        3425        3476        3475
         4        3425        3426        3477        3476
         4        3426        3427        3478        3477
         4        3427        3428        3479        3478
         4        3428        3429        3480        3479
         4        3429        3430        3481        3480
         4        3430        3431        3482        3481
         4        3431        3432        3483        3482
         4        3432        3433        3484        3483
         4        3433        3434        3485        3484
         4        3434        3435        3486        3485
         4        3435        3436        3487        3486
         4        3436        3437        3488        3487
         4        3437        3438        3489        3488
         4        3438        3439        3490        3489
         4        3439        3440        3491        3490
         4        3440        3441        3492        3491
         4        3441        3442        3493        3492
         4        3442        3443        3494        3493
         4        3443        3444        3495        3494
         4        3444        3445        3496        3495
         4        3445        3446        3497        3496
         4        3446        3447        3498        3497
         4        3447        3448        3499        3498
         4        3448        3449        3500        3499
         4        3449        3450        3501        3500
         4        3450        3451        3502        3501
         4        3451        3452        3503        3502
         4        3452        3453        3504        3503
         4        3453        3454        3505        3504
         4        3454        3455        3506        3505
         4        3455        3456        3507        3506
         4        3456        3457        3508        3507
         4        3457        3458        3509        3508
         4        3458        3459        3510        3509
         4        3459        3460        3511        3510
         4        3460        3461        3512        3511
         4        3461        3462        3513        3512
         4        3462        3463        3514        3513
         4        3463        3464        3515        3514
         4        3464        3465        3516        3515
         4        3465        3466        3517        3516
         4        3466        3467        3518        3517
         4        3468        3469        3520        3519
         4        3469        3470        3521        3520
         4        3470        3471        3522        3521
         4        3471        3472        3523        3522
         4        3472        3473        3524        3523
         4        3473        3474        3525        3524
         4        3474        3475        3526        3525
         4        3475        3476        3527        3526
         4        3476        3477        3528        3527
         4        3477        3478        3529        3528
         4        3478        3479        3530        3529
         4        3479        3480        3531        3530
         4        3480        3481        3532        3531
         4        3481        3482        3533        3532
         4        3482        3483        3534        3533
         4        3483        3484        3535        3534
         4        3484        3485        3536        3535
         4        3485        3486        3537        3536
         4        3486        3487        3538        3537
         4        3487        3488        3539        3538
         4        3488        3489        3540        3539
         4        3489        3490        3541        3540
         4        3490        3491        3542        3541
         4        3491        3492        3543        3542
         4        3492        3493        3544        3543
         4        3493        3494        3545        3544
         4        3494        3495        3546        3545
         4        3495        3496        3547        3546
         4        3496        3497        3548        3547
         4        3497        3498        3549        3548
         4        3498        3499        3550        3549
         4        3499        3500        3551        3550
         4        3500        3501        3552        3551
         4        3501        3502        3553        3552
         4        3502        3503        3554        3553
         4        3503        3504        3555        3554
         4        3504        3505        3556        3555
         4        3505        3506        3557        3556
         4        3506        3507        3558        3557
         4        3507        3508        3559        3558
         4        3508        3509        3560        3559
         4        3509        3510        3561        3560
         4        3510        3511        3562        3561
         4        3511        3512        3563        3562
         4        3512        3513        3564        3563
         4        3513        3514        3565        3564
         4        3514        3515        3566        3565
         4        3515        3516        3567        3566
         4        3516        3517        3568        3567
         4        3517        3518        3569        3568
         4        3519        3520        3571        3570
         4        3520        3521        3572        3571
         4        3521        3522        3573        3572
         4        3522        3523        3574        3573
         4        3523        3524        3575        3574
         4        3524        3525        3576        3575
         4        3525        3526        3577        3576
         4        3526        3527        3578        3577
         4        3527        3528        3579        3578
         4        3528        3529        3580        3579
         4        3529        3530        3581        3580
         4        3530        3531        3582        3581
         4        3531        3532        3583        3582
         4        3532        3533        3584        3583
         4        3533        3534        3585        3584
         4        3534        3535        3586        3585
         4        3535        3536        3587        3586
         4        3536        3537        3588        3587
         4        3537        3538        3589        3588
         4        3538        3539        3590        3589
         4        3539        3540        3591        3590
         4        3540        3541        3592        3591
         4        3541        3542        3593        3592
         4        3542        3543        3594        3593
         4        3543        3544        3595        3594
         4        3544        3545        3596        3595
         4        3545        3546        3597        3596
         4        3546        3547        3598        3597
         4        3547        3548        3599        3598
         4        3548        3549        3600        3599
         4        3549        3550        3601        3600
         4        3550        3551        3602        3601
         4        3551        3552        3603        3602
         4        3552        3553        3604        3603
         4        3553        3554        3605        3604
         4        3554        3555        3606        3605
         4        3555        3556        3607        3606
         4        3556        3557        3608        3607
         4        3557        3558        3609        3608
         4        3558        3559        3610        3609
         4        3559        3560        3611        3610
         4        3560        3561        3612        3611
         4        3561        3562        3613        3612
         4        3562        3563        3614        3613
         4        3563        3564        3615        3614
         4        3564        3565        3616        3615
         4        3565        3566        3617        3616
         4        3566        3567        3618        3617
         4        3567        3568        3619        3618
         4        3568        3569        3620        3619
         4        3570        3571        3622        3621
         4        3571        3572        3623        3622
         4        3572        3573        3624        3623
         4        3573        3574        3625        3624
         4        3574        3575        3626        3625
         4        3575        3576        3627        3626
         4        3576        3577        3628        3627
         4        3577        3578        3629        3628
         4        3578        3579        3630        3629
         4        3579        3580        3631        3630
         4        3580        3581        3632        3631
         4        3581        3582        3633        3632
         4        3582        3583        3634        3633
         4        3583        3584        3635        3634
         4        3584        3585        3636        3635
         4        3585        3586        3637        3636
         4        3586        3587        3638        3637
         4        3587        3588        3639        3638
         4        3588        3589        3640        3639
         4        3589        3590        3641        3640
         4        3590        3591        3642        3641
         4        3591        3592        3643        3642
         4        3592        3593        3644        3643
         4        3593        3594        3645        3644
         4        3594        3595        3646        3645
         4        3595        3596        3647        3646
         4        3596        3597        3648        3647
         4        3597        3598        3649        3648
         4        3598        3599        3650        3649
         4        3599        3600        3651        3650
         4        3600        3601        3652        3651
         4        3601        3602        3653        3652
         4        3602        3603        3654        3653
         4        3603        3604        3655        3654
         4        3604        3605        3656        3655
         4        3605        3606        3657        3656
         4        3606        3607        3658        3657
         4        3607        3608        3659        3658
         4        3608        3609        3660        3659
         4        3609        3610        3661        3660
         4        3610        3611        3662        3661
         4        3611        3612        3663        3662
         4        3612        3613        3664        3663
         4        3613        3614        3665        3664
         4        3614        3615        3666        3665
         4        3615        3616        3667        3666
         4        3616        3617        3668        3667
         4        3617        3618        3669        3668
         4        3618        3619        3670        3669
         4        3619        3620        3671        3670
         4        3621        3622        3673        3672
         4        3622        3623        3674        3673
         4        3623        3624        3675        3674
         4        3624        3625        3676        3675
         4        3625        3626        3677        3676
         4        3626        3627        3678        3677
         4        3627        3628        3679        3678
         4        3628        3629        3680        3679
         4        3629        3630        3681        3680
         4        3630        3631        3682        3681
         4        3631        3632        3683        3682
         4        3632        3633        3684        3683
         4        3633        3634        3685        3684
         4        3634        3635        3686        3685
         4        3635        3636        3687        3686
         4        3636        3637        3688        3687
         4        3637        3638        3689        3688
         4        3638        3639        3690        3689
         4        3639        3640        3691        3690
         4        3640        3641        3692        3691
         4        3641        3642        3693        3692
         4        3642        3643        3694        3693
         4        3643        3644        3695        3694
         4        3644        3645        3696        3695
         4        3645        3646        3697        3696
         4        3646        3647        3698        3697
         4        3647        3648        3699        3698
         4        3648        3649        3700        3699
         4        3649        3650        3701        3700
         4        3650        3651        3702        3701
         4        3651        3652        3703        3702
         4        3652        3653        3704        3703
         4        3653        3654        3705        3704
         4        3654        3655        3706        3705
         4        3655        3656        3707        3706
         4        3656        3657        3708        3707
         4        3657        3658        3709        3708
         4        3658        3659        3710        3709
         4        3659        3660        3711        3710
         4        3660        3661        3712        3711
         4        3661        3662        3713        3712
         4        3662        3663        3714        3713
         4        3663        3664        3715        3714
         4        3664        3665        3716        3715
         4        3665        3666        3717        3716
         4        3666        3667        3718        3717
         4        3667        3668        3719        3718
         4        3668        3669        3720        3719
         4        3669        3670        3721        3720
         4        3670        3671        3722        3721
         4        3672        3673        3724        3723
         4        3673        3674        3725        3724
         4        3674        3675        3726        3725
         4        3675        3676        3727        3726
         4        3676        3677        3728        3727
         4        3677        3678        3729        3728
         4        3678        3679        3730        3729
         4        3679        3680        3731        3730
         4        3680        3681        3732        3731
         4        3681        3682        3733        3732
         4        3682        3683        3734        3733
         4        3683        3684        3735        3734
         4        3684        3685        3736        3735
         4        3685        3686        3737        3736
         4        3686        3687        3738        3737
         4        3687        3688        3739        3738
         4        3688        3689        3740        3739
         4        3689        3690        3741        3740
         4        3690        3691        3742        3741
         4        3691        3692        3743        3742
         4        3692        3693        3744        3743
         4        3693        3694        3745        3744
         4        3694        3695        3746        3745
         4        3695        3696        3747        3746
         4        3696        3697        3748        3747
         4        3697        3698        3749        3748
         4        3698        3699        3750        3749
         4        3699        3700        3751        3750
         4        3700        3701        3752        3751
         4        3701        3702        3753        3752
         4        3702        3703        3754        3753
         4        3703        3704        3755        3754
         4        3704        3705        3756        3755
         4        3705        3706        3757        3756
         4        3706        3707        3758        3757
         4        3707        3708        3759        3758
         4        3708        3709        3760        3759
         4        3709        3710        3761        3760
         4        3710        3711        3762        3761
         4        3711        3712        3763        3762
         4        3712        3713        3764        3763
         4        3713        3714        3765        3764
         4        3714        3715        3766        3765
         4        3715        3716        3767        3766
         4        3716        3717        3768        3767
         4        3717        3718        3769        3768
         4        3718        3719        3770        3769
         4        3719        3720        3771        3770
         4        3720        3721        3772        3771
         4        3721        3722        3773        3772
         4        3723        3724        3775        3774
         4        3724        3725        3776        3775
         4        3725        3726        3777        3776
         4        3726        3727        3778        3777
         4        3727        3728        3779        3778
         4        3728        3729        3780        3779
         4        3729        3730        3781        3780
         4        3730        3731        3782        3781
         4        3731        3732        3783        3782
         4        3732        3733        3784        3783
         4        3733        3734        3785        3784
         4        3734        3735        3786        3785
         4        3735        3736        3787        3786
         4        3736        3737        3788        3787
         4        3737        3738        3789        3788
         4        3738        3739        3790        3789
         4        3739        3740        3791        3790
         4        3740        3741        3792        3791
         4        3741        3742        3793        3792
         4        3742        3743        3794        3793
         4        3743        3744        3795        3794
         4        3744        3745        3796        3795
         4        3745        3746        3797        3796
         4        3746        3747        3798        3797
         4        3747        3748        3799        3798
         4        3748        3749        3800        3799
         4        3749        3750        3801        3800
         4        3750        3751        3802        3801
         4        3751        3752        3803        3802
         4        3752        3753        3804        3803
         4        3753        3754        3805        3804
         4        3754        3755        3806        3805
         4        3755        3756        3807        3806
         4        3756        3757        3808        3807
         4        3757        3758        3809        3808
         4        3758        3759        3810        3809
         4        3759        3760        3811        3810
         4        3760        3761        3812        3811
         4        3761        3762        3813        3812
         4        3762        3763        3814        3813
         4        3763        3764        3815        3814
         4        3764        3765        3816        3815
         4        3765        3766        3817        3816
         4        3766        3767        3818        3817
         4        3767        3768        3819        3818
         4        3768        3769        3820        3819
         4        3769        3770        3821        3820
         4        3770        3771        3822        3821
         4        3771        3772        3823        3822
         4        3772        3773        3824        3823
         4        3774        3775        3826        3825
         4        3775        3776        3827        3826
         4        3776        3777        3828        3827
         4        3777        3778        3829        3828
         4        3778        3779        3830        3829
         4        3779        3780        3831        3830
         4        3780        3781        3832        3831
         4        3781        3782        3833        3832
         4        3782        3783        3834        3833
         4        3783        3784        3835        3834
         4        3784        3785        3836        3835
         4        3785        3786        3837        3836
         4        3786        3787        3838        3837
         4        3787        3788        3839        3838
         4        3788        3789        3840        3839
         4        3789        3790        3841        3840
         4        3790        3791        3842        3841
         4        3791        3792        3843        3842
         4        3792        3793        3844        3843
         4        3793        3794        3845        3844
         4        3794        3795        3846        3845
         4        3795        3796        3847        3846
         4        3796        3797        3848        3847
         4        3797        3798        3849        3848
         4        3798        3799        3850        3849
         4        3799        3800        3851        3850
         4        3800        3801        3852        3851
         4        3801        3802        3853        3852
         4        3802        3803        3854        3853
         4        3803        3804        3855        3854
         4        3804        3805        3856        3855
         4        3805        3806        3857        3856
         4        3806        3807        3858        3857
         4        3807        3808        3859        3858
         4        3808        3809        3860        3859
         4        3809        3810        3861        3860
         4        3810        3811        3862        3861
         4        3811        3812        3863        3862
         4        3812        3813        3864        3863
         4        3813        3814        3865        3864
         4        3814        3815        3866        3865
         4        3815        3816        3867        3866
         4        3816        3817        3868        3867
         4        3817        3818        3869        3868
         4        3818        3819        3870        3869
         4        3819        3820        3871        3870
         4        3820        3821        3872        3871
         4        3821        3822        3873        3872
         4        3822        3823        3874        3873
         4        3823        3824        3875        3874
         4        3825        3826        3877        3876
         4        3826        3827        3878        3877
         4        3827        3828        3879        3878
         4        3828        3829        3880        3879
         4        3829        3830        3881        3880
         4        3830        3831        3882        3881
         4        3831        3832        3883        3882
         4        3832        3833        3884        3883
         4        3833        3834        3885        3884
         4        3834        3835        3886        3885
         4        3835        3836        3887        3886
         4        3836        3837        3888        3887
         4        3837        3838        3889        3888
         4        3838        3839        3890        3889
         4        3839        3840        3891        3890
         4        3840        3841        3892        3891
         4        3841        3842        3893        3892
         4        3842        3843        3894        3893
         4        3843        3844        3895        3894
         4        3844        3845        3896        3895
         4        3845        3846        3897        3896
         4        3846        3847        3898        3897
         4        3847        3848        3899        3898
         4        3848        3849        3900        3899
         4        3849        3850        3901        3900
         4        3850        3851        3902        3901
         4        3851        3852        3903        3902
         4        3852        3853        3904        3903
         4        3853        3854        3905        3904
         4        3854        3855        3906        3905
         4        3855        3856        3907        3906
         4        3856        3857        3908        3907
         4        3857        3858        3909        3908
         4        3858        3859        3910        3909
         4        3859        3860        3911        3910
         4        3860        3861        3912        3911
         4        3861        3862        3913        3912
         4        3862        3863        3914        3913
         4        3863        3864        3915        3914
         4        3864        3865        3916        3915
         4        3865        3866        3917        3916
         4        3866        3867        3918        3917
         4        3867        3868        3919        3918
         4        3868        3869        3920        3919
         4        3869        3870        3921        3920
         4        3870        3871        3922        3921
         4        3871        3872        3923        3922
         4        3872        3873        3924        3923
         4        3873        3874        3925        3924
         4        3874        3875        3926        3925
         4        3876        3877        3928        3927
         4        3877        3878        3929        3928
         4        3878        3879        3930        3929
         4        3879        3880        3931        3930
         4        3880        3881        3932        3931
         4        3881        3882        3933        3932
         4        3882        3883        3934        3933
         4        3883        3884        3935        3934
         4        3884        3885        3936        3935
         4        3885        3886        3937        3936
         4        3886        3887        3938        3937
         4        3887        3888        3939        3938
         4        3888        3889        3940        3939
         4        3889        3890        3941        3940
         4        3890        3891        3942        3941
         4        3891        3892        3943        3942
         4        3892        3893        3944        3943
         4        3893        3894        3945        3944
         4        3894        3895        3946        3945
         4        3895        3896        3947        3946
         4        3896        3897        3948        3947
         4        3897        3898        3949        3948
         4        3898        3899        3950        3949
         4        3899        3900        3951        3950
         4        3900        3901        3952        3951
         4        3901        3902        3953        3952
         4        3902        3903        3954        3953
         4        3903        3904        3955        3954
         4        3904        3905        3956        3955
         4        3905        3906        3957        3956
         4        3906        3907        3958        3957
         4        3907        3908        3959        3958
         4        3908        3909        3960        3959
         4        3909        3910        3961        3960
         4        3910        3911        3962        3961
         4        3911        3912        3963        3962
         4        3912        3913        3964        3963
         4        3913        3914        3965        3964
         4        3914        3915        3966        3965
         4        3915        3916        3967        3966
         4        3916        3917        3968        3967
         4        3917        3918        3969        3968
         4        3918        3919        3970        3969
         4        3919        3920        3971        3970
         4        3920        3921        3972        3971
         4        3921        3922        3973        3972
         4        3922        3923        3974        3973
         4        3923        3924        3975        3974
         4        3924        3925        3976        3975
         4        3925        3926        3977        3976
         4        3927        3928        3979        3978
         4        3928        3929        3980        3979
         4        3929        3930        3981        3980
         4        3930        3931        3982        3981
         4        3931        3932        3983        3982
         4        3932        3933        3984        3983
         4        3933        3934        3985        3984
         4        3934        3935        3986        3985
         4        3935        3936        3987        3986
         4        3936        3937        3988        3987
         4        3937        3938        3989        3988
         4        3938        3939        3990        3989
         4        3939        3940        3991        3990
         4        3940        3941        3992        3991
         4        3941        3942        3993        3992
         4        3942        3943        3994        3993
         4        3943        3944        3995        3994
         4        3944        3945        3996        3995
         4        3945        3946        3997        3996
         4        3946        3947        3998        3997
         4        3947        3948        3999        3998
         4        3948        3949        4000        3999
         4        3949        3950        4001        4000
         4        3950        3951        4002        4001
         4        3951        3952        4003        4002
         4        3952        3953        4004        4003
         4        3953        3954        4005        4004
         4        3954        3955        4006        4005
         4        3955        3956        4007        4006
         4        3956        3957        4008        4007
         4        3957        3958        4009        4008
         4        3958        3959        4010        4009
         4        3959        3960        4011        4010
         4        3960        3961        4012        4011
         4        3961        3962        4013        4012
         4        3962        3963        4014        4013
         4        3963        3964        4015        4014
         4        3964        3965        4016        4015
         4        3965        3966        4017        4016
         4        3966        3967        4018        4017
         4        3967        3968        4019        4018
         4        3968        3969        4020        4019
         4        3969        3970        4021        4020
         4        3970        3971        4022        4021
         4        3971        3972        4023        4022
         4        3972        3973        4024        4023
         4        3973        3974        4025        4024
         4        3974        3975        4026        4025
         4        3975        3976        4027        4026
         4        3976        3977        4028        4027
         4        3978        3979        4030        4029
         4        3979        3980        4031        4030
         4        3980        3981        4032        4031
         4        3981        3982        4033        4032
         4        3982        3983        4034        4033
         4        3983        3984        4035        4034
         4        3984        3985        4036        4035
         4        3985        3986        4037        4036
         4        3986        3987        4038        4037
         4        3987        3988        4039        4038
         4        3988        3989        4040        4039
         4        3989        3990        4041        4040
         4        3990        3991        4042        4041
         4        3991        3992        4043        4042
         4        3992        3993        4044        4043
         4        3993        3994        4045        4044
         4        3994        3995        4046        4045
         4        3995        3996        4047        4046
         4        3996        3997        4048        4047
         4        3997        3998        4049        4048
         4        3998        3999        4050        4049
         4        3999        4000        4051        4050
         4        4000        4001        4052        4051
         4        4001        4002        4053        4052
         4        4002        4003        4054        4053
         4        4003        4004        4055        4054
         4        4004        4005        4056        4055
         4        4005        4006        4057        4056
         4        4006        4007        4058        4057
         4        4007        4008        4059        4058
         4        4008        4009        4060        4059
         4        4009        4010        4061        4060
         4        4010        4011        4062        4061
         4        4011        4012        4063        4062
         4        4012        4013        4064        4063
         4        4013        4014        4065        4064
         4        4014        4015        4066        4065
         4        4015        4016        4067        4066
         4        4016        4017        4068        4067
         4        4017        4018        4069        4068
         4        4018        4019        4070        4069
         4        4019        4020        4071        4070
         4        4020        4021        4072        4071
         4        4021        4022        4073        4072
         4        4022        4023        4074        4073
         4        4023        4024        4075        4074
         4        4024        4025        4076        4075
         4        4025        4026        4077        4076
         4        4026        4027        4078        4077
         4        4027        4028        4079        4078
         4        4029        4030        4081        4080
         4        4030        4031        4082        4081
         4        4031        4032        4083        4082
         4        4032        4033        4084        4083
         4        4033        4034        4085        4084
         4        4034        4035        4086        4085
         4        4035        4036        4087        4086
         4        4036        4037        4088        4087
         4        4037        4038        4089        4088
         4        4038        4039        4090        4089
         4        4039        4040        4091        4090
         4        4040        4041        4092        4091
         4        4041        4042        4093        4092
         4        4042        4043        4094        4093
         4        4043        4044        4095        4094
         4        4044        4045        4096        4095
         4        4045        4046        4097        4096
         4        4046        4047        4098        4097
         4        4047        4048        4099        4098
         4        4048        4049        4100        4099
         4        4049        4050        4101        4100
         4        4050        4051        4102        4101
         4        4051        4052        4103        4102
         4        4052        4053        4104        4103
         4        4053        4054        4105        4104
         4        4054        4055        4106        4105
         4        4055        4056        4107        4106
         4        4056        4057        4108        4107
         4        4057        4058        4109        4108
         4        4058        4059        4110        4109
         4        4059        4060        4111        4110
         4        4060        4061        4112        4111
         4        4061        4062        4113        4112
         4        4062        4063        4114        4113
         4        4063        4064        4115        4114
         4        4064        4065        4116        4115
         4        4065        4066        4117        4116
         4        4066        4067        4118        4117
         4        4067        4068        4119        4118
         4        4068        4069        4120        4119
         4        4069        4070        4121        4120
         4        4070        4071        4122        4121
         4        4071        4072        4123        4122
         4        4072        4073        4124        4123
         4        4073        4074        4125        4124
         4        4074        4075        4126        4125
         4        4075        4076        4127        4126
         4        4076        4077        4128        4127
         4        4077        4078        4129        4128
         4        4078        4079        4130        4129
         4        4080        4081        4132        4131
         4        4081        4082        4133        4132
         4        4082        4083        4134        4133
         4        4083        4084        4135        4134
         4        4084        4085        4136        4135
         4        4085        4086        4137        4136
         4        4086        4087        4138        4137
         4        4087        4088        4139        4138
         4        4088        4089        4140        4139
         4        4089        4090        4141        4140
         4        4090        4091        4142        4141
         4        4091        4092        4143        4142
         4        4092        4093        4144        4143
         4        4093        4094        4145        4144
         4        4094        4095        4146        4145
         4        4095        4096        4147        4146
         4        4096        4097        4148        4147
         4        4097        4098        4149        4148
         4        4098        4099        4150        4149
         4        4099        4100        4151        4150
         4        4100        4101        4152        4151
         4        4101        4102        4153        4152
         4        4102        4103        4154        4153
         4        4103        4104        4155        4154
         4        4104        4105        4156        4155
         4        4105        4106        4157        4156
         4        4106        4107        4158        4157
         4        4107        4108        4159        4158
         4        4108        4109        4160        4159
         4        4109        4110        4161        4160
         4        4110        4111        4162        4161
         4        4111        4112        4163        4162
         4        4112        4113        4164        4163
         4        4113        4114        4165        4164
         4        4114        4115        4166        4165
         4        4115        4116        4167        4166
         4        4116        4117        4168        4167
         4        4117        4118        4169        4168
         4        4118        4119        4170        4169
         4        4119        4120        4171        4170
         4        4120        4121        4172        4171
         4        4121        4122        4173        4172
         4        4122        4123        4174        4173
         4        4123        4124        4175        4174
         4        4124        4125        4176        4175
         4        4125        4126        4177        4176
         4        4126        4127        4178        4177
         4        4127        4128        4179        4178
         4        4128        4129        4180        4179
         4        4129        4130        4181        4180
         4        4131        4132        4183        4182
         4        4132        4133        4184        4183
         4        4133        4134        4185        4184
         4        4134        4135        4186        4185
         4        4135        4136        4187        4186
         4        4136        4137        4188        4187
         4        4137        4138        4189        4188
         4        4138        4139        4190        4189
         4        4139        4140        4191        4190
         4        4140        4141        4192        4191
         4        4141        4142        4193        4192
         4        4142        4143        4194        4193
         4        4143        4144        4195        4194
         4        4144        4145        4196        4195
         4        4145        4146        4197        4196
         4        4146        4147        4198        4197
         4        4147        4148        4199        4198
         4        4148        4149        4200        4199
         4        4149        4150        4201        4200
         4        4150        4151        4202        4201
         4        4151        4152        4203        4202
         4        4152        4153        4204        4203
         4        4153        4154        4205        4204
         4        4154        4155        4206        4205
         4        4155        4156        4207        4206
         4        4156        4157        4208        4207
         4        4157        4158        4209        4208
         4        4158        4159        4210        4209
         4        4159        4160        4211        4210
         4        4160        4161        4212        4211
         4        4161        4162        4213        4212
         4        4162        4163        4214        4213
         4        4163        4164        4215        4214
         4        4164        4165        4216        4215
         4        4165        4166        4217        4216
         4        4166        4167        4218        4217
         4        4167        4168        4219        4218
         4        4168        4169        4220        4219
         4        4169        4170        4221        4220
         4        4170        4171        4222        4221
         4        4171        4172        4223        4222
         4        4172        4173        4224        4223
         4        4173        4174        4225        4224
         4        4174        4175        4226        4225
         4        4175        4176        4227        4226
         4        4176        4177        4228        4227
         4        4177        4178        4229        4228
         4        4178        4179        4230        4229
         4        4179        4180        4231        4230
         4        4180        4181        4232        4231
         4        4182        4183        4234        4233
         4        4183        4184        4235        4234
         4        4184        4185        4236        4235
         4        4185        4186        4237        4236
         4        4186        4187        4238        4237
         4        4187        4188        4239        4238
         4        4188        4189        4240        4239
         4        4189        4190        4241        4240
         4        4190        4191        4242        4241
         4        4191        4192        4243        4242
         4        4192        4193        4244        4243
         4        4193        4194        4245        4244
         4        4194        4195        4246        4245
         4        4195        4196        4247        4246
         4        4196        4197        4248        4247
         4        4197        4198        4249        4248
         4        4198        4199        4250        4249
         4        4199        4200        4251        4250
         4        4200        4201        4252        4251
         4        4201        4202        4253        4252
         4        4202        4203        4254        4253
         4        4203        4204        4255        4254
         4        4204        4205        4256        4255
         4        4205        4206        4257        4256
         4        4206        4207        4258        4257
         4        4207        4208        4259        4258
         4        4208        4209        4260        4259
         4        4209        4210        4261        4260
         4        4210        4211        4262        4261
         4        4211        4212        4263        4262
         4        4212        4213        4264        4263
         4        4213        4214        4265        4264
         4        4214        4215        4266        4265
         4        4215        4216        4267        4266
         4        4216        4217        4268        4267
         4        4217        4218        4269        4268
         4        4218        4219        4270        4269
         4        4219        4220        4271        4270
         4        4220        4221        4272        4271
         4        4221        4222        4273        4272
         4        4222        4223        4274        4273
         4        4223        4224        4275        4274
         4        4224        4225        4276        4275
         4        4225        4226        4277        4276
         4        4226        4227        4278        4277
         4        4227        4228        4279        4278
         4        4228        4229        4280        4279
         4        4229        4230        4281        4280
         4        4230        4231        4282        4281
         4        4231        4232        4283        4282
         4        4233        4234        4285        4284
         4        4234        4235        4286        4285
         4        4235        4236        4287        4286
         4        4236        4237        4288        4287
         4        4237        4238        4289        4288
         4        4238        4239        4290        4289
         4        4239        4240        4291        4290
         4        4240        4241        4292        4291
         4        4241        4242        4293        4292
         4        4242        4243        4294        4293
         4        4243        4244        4295        4294
         4        4244        4245        4296        4295
         4        4245        4246        4297        4296
         4        4246        4247        4298        4297
         4        4247        4248        4299        4298
         4        4248        4249        4300        4299
         4        4249        4250        4301        4300
         4        4250        4251        4302        4301
         4        4251        4252        4303        4302
         4        4252        4253        4304        4303
         4        4253        4254        4305        4304
         4        4254        4255        4306        4305
         4        4255        4256        4307        4306
         4        4256        4257        4308        4307
         4        4257        4258        4309        4308
         4        4258        4259        4310        4309
         4        4259        4260        4311        4310
         4        4260        4261        4312        4311
         4        4261        4262        4313        4312
         4        4262        4263        4314        4313
         4        4263        4264        4315        4314
         4        4264        4265        4316        4315
         4        4265        4266        4317        4316
         4        4266        4267        4318        4317
         4        4267        4268        4319        4318
         4        4268        4269        4320        4319
         4        4269        4270        4321        4320
         4        4270        4271        4322        4321
         4        4271        4272        4323        4322
         4        4272        4273        4324        4323
         4        4273        4274        4325        4324
         4        4274        4275        4326        4325
         4        4275        4276        4327        4326
         4        4276        4277        4328        4327
         4        4277        4278        4329        4328
         4        4278        4279        4330        4329
         4        4279        4280        4331        4330
         4        4280        4281        4332        4331
         4        4281        4282        4333        4332
         4        4282        4283        4334        4333
         4        4284        4285        4336        4335
         4        4285        4286        4337        4336
         4        4286        4287        4338        4337
         4        4287        4288        4339        4338
         4        4288        4289        4340        4339
         4        4289        4290        4341        4340
         4        4290        4291        4342        4341
         4        4291        4292        4343        4342
         4        4292        4293        4344        4343
         4        4293        4294        4345        4344
         4        4294        4295        4346        4345
         4        4295        4296        4347        4346
         4        4296        4297        4348        4347
         4        4297        4298        4349        4348
         4        4298        4299        4350        4349
         4        4299        4300        4351        4350
         4        4300        4301        4352        4351
         4        4301        4302        4353        4352
         4        4302        4303        4354        4353
         4        4303        4304        4355        4354
         4        4304        4305        4356        4355
         4        4305        4306        4357        4356
         4        4306        4307        4358        4357
         4        4307        4308        4359        4358
         4        4308        4309        4360        4359
         4        4309        4310        4361        4360
         4        4310        4311        4362        4361
         4        4311        4312        4363        4362
         4        4312        4313        4364        4363
         4        4313        4314        4365        4364
         4        4314        4315        4366        4365
         4        4315        4316        4367        4366
         4        4316        4317        4368        4367
         4        4317        4318        4369        4368
         4        4318        4319        4370        4369
         4        4319        4320        4371        4370
         4        4320        4321        4372        4371
         4        4321        4322        4373        4372
         4        4322        4323        4374        4373
         4        4323        4324        4375        4374
         4        4324        4325        4376        4375
         4        4325        4326        4377        4376
         4        4326        4327        4378        4377
         4        4327        4328        4379        4378
         4        4328        4329        4380        4379
         4        4329        4330        4381        4380
         4        4330        4331        4382        4381
         4        4331        4332        4383        4382
         4        4332        4333        4384        4383
         4        4333        4334        4385        4384
         4        4335        4336        4387        4386
         4        4336        4337        4388        4387
         4        4337        4338        4389        4388
         4        4338        4339        4390        4389
         4        4339        4340        4391        4390
         4        4340        4341        4392        4391
         4        4341        4342        4393        4392
         4        4342        4343        4394        4393
         4        4343        4344        4395        4394
         4        4344        4345        4396        4395
         4        4345        4346        4397        4396
         4        4346        4347        4398        4397
         4        4347        4348        4399        4398
         4        4348        4349        4400        4399
         4        4349        4350        4401        4400
         4        4350        4351        4402        4401
         4        4351        4352        4403        4402
         4        4352        4353        4404        4403
         4        4353        4354        4405        4404
         4        4354        4355        4406        4405
         4        4355        4356        4407        4406
         4        4356        4357        4408        4407
         4        4357        4358        4409        4408
         4        4358        4359        4410        4409
         4        4359        4360        4411        4410
         4        4360        4361        4412        4411
         4        4361        4362        4413        4412
         4        4362        4363        4414        4413
         4        4363        4364        4415        4414
         4        4364        4365        4416        4415
         4        4365        4366        4417        4416
         4        4366        4367        4418        4417
         4        4367        4368        4419        4418
         4        4368        4369        4420        4419
         4        4369        4370        4421        4420
         4        4370        4371        4422        4421
         4        4371        4372        4423        4422
         4        4372        4373        4424        4423
         4        4373        4374        4425        4424
         4        4374        4375        4426        4425
         4        4375        4376        4427        4426
         4        4376        4377        4428        4427
         4        4377        4378        4429        4428
         4        4378        4379        4430        4429
         4        4379        4380        4431        4430
         4        4380        4381        4432        4431
         4        4381        4382        4433        4432
         4        4382        4383        4434        4433
         4        4383        4384        4435        4434
         4        4384        4385        4436        4435
         4        4386        4387        4438        4437
         4        4387        4388        4439        4438
         4        4388        4389        4440        4439
         4        4389        4390        4441        4440
         4        4390        4391        4442        4441
         4        4391        4392        4443        4442
         4        4392        4393        4444        4443
         4        4393        4394        4445        4444
         4        4394        4395        4446        4445
         4        4395        4396        4447        4446
         4        4396        4397        4448        4447
         4        4397        4398        4449        4448
         4        4398        4399        4450        4449
         4        4399        4400        4451        4450
         4        4400        4401        4452        4451
         4        4401        4402        4453        4452
         4        4402        4403        4454        4453
         4        4403        4404        4455        4454
         4        4404        4405        4456        4455
         4        4405        4406        4457        4456
         4        4406        4407        4458        4457
         4        4407        4408        4459        4458
         4        4408        4409        4460        4459
         4        4409        4410        4461        4460
         4        4410        4411        4462        4461
         4        4411        4412        4463        4462
         4        4412        4413        4464        4463
         4        4413        4414        4465        4464
         4        4414        4415        4466        4465
         4        4415        4416        4467        4466
         4        4416        4417        4468        4467
         4        4417        4418        4469        4468
         4        4418        4419        4470        4469
         4        4419        4420        4471        4470
         4        4420        4421        4472        4471
         4        4421        4422        4473        4472
         4        4422        4423        4474        4473
         4        4423        4424        4475        4474
         4        4424        4425        4476        4475
         4        4425        4426        4477        4476
         4        4426        4427        4478        4477
         4        4427        4428        4479        4478
         4        4428        4429        4480        4479
         4        4429        4430        4481        4480
         4        4430        4431        4482        4481
         4        4431        4432        4483        4482
         4        4432        4433        4484        4483
         4        4433        4434        4485        4484
         4        4434        4435        4486        4485
         4        4435        4436        4487        4486
         4        4437        4438        4489        4488
         4        4438        4439        4490        4489
         4        4439        4440        4491        4490
         4        4440        4441        4492        4491
         4        4441        4442        4493        4492
         4        4442        4443        4494        4493
         4        4443        4444        4495        4494
         4        4444        4445        4496        4495
         4        4445        4446        4497        4496
         4        4446        4447        4498        4497
         4        4447        4448        4499        4498
         4        4448        4449        4500        4499
         4        4449        4450        4501        4500
         4        4450        4451        4502        4501
         4        4451        4452        4503        4502
         4        4452        4453        4504        4503
         4        4453        4454        4505        4504
         4        4454        4455        4506        4505
         4        4455        4456        4507        4506
         4        4456        4457        4508        4507
         4        4457        4458        4509        4508
         4        4458        4459        4510        4509
         4        4459        4460        4511        4510
         4        4460        4461        4512        4511
         4        4461        4462        4513        4512
         4        4462        4463        4514        4513
         4        4463        4464        4515        4514
         4        4464        4465        4516        4515
         4        4465        4466        4517        4516
         4        4466        4467        4518        4517
         4        4467        4468        4519        4518
         4        4468        4469        4520        4519
         4        4469        4470        4521        4520
         4        4470        4471        4522        4521
         4        4471        4472        4523        4522
         4        4472        4473        4524        4523
         4        4473        4474        4525        4524
         4        4474        4475        4526        4525
         4        4475        4476        4527        4526
         4        4476        4477        4528        4527
         4        4477        4478        4529        4528
         4        4478        4479        4530        4529
         4        4479        4480        4531        4530
         4        4480        4481        4532        4531
         4        4481        4482        4533        4532
         4        4482        4483        4534        4533
         4        4483        4484        4535        4534
         4        4484        4485        4536        4535
         4        4485        4486        4537        4536
         4        4486        4487        4538        4537
         4        4488        4489        4540        4539
         4        4489        4490        4541        4540
         4        4490        4491        4542        4541
         4        4491        4492        4543        4542
         4        4492        4493        4544        4543
         4        4493        4494        4545        4544
         4        4494        4495        4546        4545
         4        4495        4496        4547        4546
         4        4496        4497        4548        4547
         4        4497        4498        4549        4548
         4        4498        4499        4550        4549
         4        4499        4500        4551        4550
         4        4500        4501        4552        4551
         4        4501        4502        4553        4552
         4        4502        4503        4554        4553
         4        4503        4504        4555        4554
         4        4504        4505        4556        4555
         4        4505        4506        4557        4556
         4        4506        4507        4558        4557
         4        4507        4508        4559        4558
         4        4508        4509        4560        4559
         4        4509        4510        4561        4560
         4        4510        4511        4562        4561
         4        4511        4512        4563        4562
         4        4512        4513        4564        4563
         4        4513        4514        4565        4564
         4        4514        4515        4566        4565
         4        4515        4516        4567        4566
         4        4516        4517        4568        4567
         4        4517        4518        4569        4568
         4        4518        4519        4570        4569
         4        4519        4520        4571        4570
         4        4520        4521        4572        4571
         4        4521        4522        4573        4572
         4        4522        4523        4574        4573
         4        4523        4524        4575        4574
         4        4524        4525        4576        4575
         4        4525        4526        4577        4576
         4        4526        4527        4578        4577
         4        4527        4528        4579        4578
         4        4528        4529        4580        4579
         4        4529        4530        4581        4580
         4        4530        4531        4582        4581
         4        4531        4532        4583        4582
         4        4532        4533        4584        4583
         4        4533        4534        4585        4584
         4        4534        4535        4586        4585
         4        4535        4536        4587        4586
         4        4536        4537        4588        4587
         4        4537        4538        4589        4588
         4        4539        4540        4591        4590
         4        4540        4541        4592        4591
         4        4541        4542        4593        4592
         4        4542        4543        4594        4593
         4        4543        4544        4595        4594
         4        4544        4545        4596        4595
         4        4545        4546        4597        4596
         4        4546        4547        4598        4597
         4        4547        4548        4599        4598
         4        4548        4549        4600        4599
         4        4549        4550        4601        4600
         4        4550        4551        4602        4601
         4        4551        4552        4603        4602
         4        4552        4553        4604        4603
         4        4553        4554        4605        4604
         4        4554        4555        4606        4605
         4        4555        4556        4607        4606
         4        4556        4557        4608        4607
         4        4557        4558        4609        4608
         4        4558        4559        4610        4609
         4        4559        4560        4611        4610
         4        4560        4561        4612        4611
         4        4561        4562        4613        4612
         4        4562        4563        4614        4613
         4        4563        4564        4615        4614
         4        4564        4565        4616        4615
         4        4565        4566        4617        4616
         4        4566        4567        4618        4617
         4        4567        4568        4619        4618
         4        4568        4569        4620        4619
         4        4569        4570        4621        4620
         4        4570        4571        4622        4621
         4        4571        4572        4623        4622
         4        4572        4573        4624        4623
         4        4573        4574        4625        4624
         4        4574        4575        4626        4625
         4        4575        4576        4627        4626
         4        4576        4577        4628        4627
         4        4577        4578        4629        4628
         4        4578        4579        4630        4629
         4        4579        4580        4631        4630
         4        4580        4581        4632        4631
         4        4581        4582        4633        4632
         4        4582        4583        4634        4633
         4        4583        4584        4635        4634
         4        4584        4585        4636        4635
         4        4585        4586        4637        4636
         4        4586        4587        4638        4637
         4        4587        4588        4639        4638
         4        4588        4589        4640        4639
         4        4590        4591        4642        4641
         4        4591        4592        4643        4642
         4        4592        4593        4644        4643
         4        4593        4594        4645        4644
         4        4594        4595        4646        4645
         4        4595        4596        4647        4646
         4        4596        4597        4648        4647
         4        4597        4598        4649        4648
         4        4598        4599        4650        4649
         4        4599        4600        4651        4650
         4        4600        4601        4652        4651
         4        4601        4602        4653        4652
         4        4602        4603        4654        4653
         4        4603        4604        4655        4654
         4        4604        4605        4656        4655
         4        4605        4606        4657        4656
         4        4606        4607        4658        4657
         4        4607        4608        4659        4658
         4        4608        4609        4660        4659
         4        4609        4610        4661        4660
         4        4610        4611        4662        4661
         4        4611        4612        4663        4662
         4        4612        4613        4664        4663
         4        4613        4614        4665        4664
         4        4614        4615        4666        4665
         4        4615        4616        4667        4666
         4        4616        4617        4668        4667
         4        4617        4618        4669        4668
         4        4618        4619        4670        4669
         4        4619        4620        4671        4670
         4        4620        4621        4672        4671
         4        4621        4622        4673        4672
         4        4622        4623        4674        4673
         4        4623        4624        4675        4674
         4        4624        4625        4676        4675
         4        4625        4626        4677        4676
         4        4626        4627        4678        4677
         4        4627        4628        4679        4678
         4        4628        4629        4680        4679
         4        4629        4630        4681        4680
         4        4630        4631        4682        4681
         4        4631        4632        4683        4682
         4        4632        4633        4684        4683
         4        4633        4634        4685        4684
         4        4634        4635        4686        4685
         4        4635        4636        4687        4686
         4        4636        4637        4688        4687
         4        4637        4638        4689        4688
         4        4638        4639        4690        4689
         4        4639        4640        4691        4690
         4        4641        4642        4693        4692
         4        4642        4643        4694        4693
         4        4643        4644        4695        4694
         4        4644        4645        4696        4695
         4        4645        4646        4697        4696
         4        4646        4647        4698        4697
         4        4647        4648        4699        4698
         4        4648        4649        4700        4699
         4        4649        4650        4701        4700
         4        4650        4651        4702        4701
         4        4651        4652        4703        4702
         4        4652        4653        4704        4703
         4        4653        4654        4705        4704
         4        4654        4655        4706        4705
         4        4655        4656        4707        4706
         4        4656        4657        4708        4707
         4        4657        4658        4709        4708
         4        4658        4659        4710        4709
         4        4659        4660        4711        4710
         4        4660        4661        4712        4711
         4        4661        4662        4713        4712
         4        4662        4663        4714        4713
         4        4663        4664        4715        4714
         4        4664        4665        4716        4715
         4        4665        4666        4717        4716
         4        4666        4667        4718        4717
         4        4667        4668        4719        4718
         4        4668        4669        4720        4719
         4        4669        4670        4721        4720
         4        4670        4671        4722        4721
         4        4671        4672        4723        4722
         4        4672        4673        4724        4723
         4        4673        4674        4725        4724
         4        4674        4675        4726        4725
         4        4675        4676        4727        4726
         4        4676        4677        4728        4727
         4        4677        4678        4729        4728
         4        4678        4679        4730        4729
         4        4679        4680        4731        4730
         4        4680        4681        4732        4731
         4        4681        4682        4733        4732
         4        4682        4683        4734        4733
         4        4683        4684        4735        4734
         4        4684        4685        4736        4735
         4        4685        4686        4737        4736
         4        4686        4687        4738        4737
         4        4687        4688        4739        4738
         4        4688        4689        4740        4739
         4        4689        4690        4741        4740
         4        4690        4691        4742        4741
         4        4692        4693        4744        4743
         4        4693        4694        4745        4744
         4        4694        4695        4746        4745
         4        4695        4696        4747        4746
         4        4696        4697        4748        4747
         4        4697        4698        4749        4748
         4        4698        4699        4750        4749
         4        4699        4700        4751        4750
         4        4700        4701        4752        4751
         4        4701        4702        4753        4752
         4        4702        4703        4754        4753
         4        4703        4704        4755        4754
         4        4704        4705        4756        4755
         4        4705        4706        4757        4756
         4        4706        4707        4758        4757
         4        4707        4708        4759        4758
         4        4708        4709        4760        4759
         4        4709        4710        4761        4760
         4        4710        4711        4762        4761
         4        4711        4712        4763        4762
         4        4712        4713        4764        4763
         4        4713        4714        4765        4764
         4        4714        4715        4766        4765
         4        4715        4716        4767        4766
         4        4716        4717        4768        4767
         4        4717        4718        4769        4768
         4        4718        4719        4770        4769
         4        4719        4720        4771        4770
         4        4720        4721        4772        4771
         4        4721        4722        4773        4772
         4        4722        4723        4774        4773
         4        4723        4724        4775        4774
         4        4724        4725        4776        4775
         4        4725        4726        4777        4776
         4        4726        4727        4778        4777
         4        4727        4728        4779        4778
         4        4728        4729        4780        4779
         4        4729        4730        4781        4780
         4        4730        4731        4782        4781
         4        4731        4732        4783        4782
         4        4732        4733        4784        4783
         4        4733        4734        4785        4784
         4        4734        4735        4786        4785
         4        4735        4736        4787        4786
         4        4736        4737        4788        4787
         4        4737        4738        4789        4788
         4        4738        4739        4790        4789
         4        4739        4740        4791        4790
         4        4740        4741        4792        4791
         4        4741        4742        4793        4792
         4        4743        4744        4795        4794
         4        4744        4745        4796        4795
         4        4745        4746        4797        4796
         4        4746        4747        4798        4797
         4        4747        4748        4799        4798
         4        4748        4749        4800        4799
         4        4749        4750        4801        4800
         4        4750        4751        4802        4801
         4        4751        4752        4803        4802
         4        4752        4753        4804        4803
         4        4753        4754        4805        4804
         4        4754        4755        4806        4805
         4        4755        4756        4807        4806
         4        4756        4757        4808        4807
         4        4757        4758        4809        4808
         4        4758        4759        4810        4809
         4        4759        4760        4811        4810
         4        4760        4761        4812        4811
         4        4761        4762        4813        4812
         4        4762        4763        4814        4813
         4        4763        4764        4815        4814
         4        4764        4765        4816        4815
         4        4765        4766        4817        4816
         4        4766        4767        4818        4817
         4        4767        4768        4819        4818
         4        4768        4769        4820        4819
         4        4769        4770        4821        4820
         4        4770        4771        4822        4821
         4        4771        4772        4823        4822
         4        4772        4773        4824        4823
         4        4773        4774        4825        4824
         4        4774        4775        4826        4825
         4        4775        4776        4827        4826
         4        4776        4777        4828        4827
         4        4777        4778        4829        4828
         4        4778        4779        4830        4829
         4        4779        4780        4831        4830
         4        4780        4781        4832        4831
         4        4781        4782        4833        4832
         4        4782        4783        4834        4833
         4        4783        4784        4835        4834
         4        4784        4785        4836        4835
         4        4785        4786        4837        4836
         4        4786        4787        4838        4837
         4        4787        4788        4839        4838
         4        4788        4789        4840        4839
         4        4789        4790        4841        4840
         4        4790        4791        4842        4841
         4        4791        4792        4843        4842
         4        4792        4793        4844        4843
         4        4794        4795        4846        4845
         4        4795        4796        4847        4846
         4        4796        4797        4848        4847
         4        4797        4798        4849        4848
         4        4798        4799        4850        4849
         4        4799        4800        4851        4850
         4        4800        4801        4852        4851
         4        4801        4802        4853        4852
         4        4802        4803        4854        4853
         4        4803        4804        4855        4854
         4        4804        4805        4856        4855
         4        4805        4806        4857        4856
         4        4806        4807        4858        4857
         4        4807        4808        4859        4858
         4        4808        4809        4860        4859
         4        4809        4810        4861        4860
         4        4810        4811        4862        4861
         4        4811        4812        4863        4862
         4        4812        4813        4864        4863
         4        4813        4814        4865        4864
         4        4814        4815        4866        4865
         4        4815        4816        4867        4866
         4        4816        4817        4868        4867
         4        4817        4818        4869        4868
         4        4818        4819        4870        4869
         4        4819        4820        4871        4870
         4        4820        4821        4872        4871
         4        4821        4822        4873        4872
         4        4822        4823        4874        4873
         4        4823        4824        4875        4874
         4        4824        4825        4876        4875
         4        4825        4826        4877        4876
         4        4826        4827        4878        4877
         4        4827        4828        4879        4878
         4        4828        4829        4880        4879
         4        4829        4830        4881        4880
         4        4830        4831        4882        4881
         4        4831        4832        4883        4882
         4        4832        4833        4884        4883
         4        4833        4834        4885        4884
         4        4834        4835        4886        4885
         4        4835        4836        4887        4886
         4        4836        4837        4888        4887
         4        4837        4838        4889        4888
         4        4838        4839        4890        4889
         4        4839        4840        4891        4890
         4        4840        4841        4892        4891
         4        4841        4842        4893        4892
         4        4842        4843        4894        4893
         4        4843        4844        4895        4894
         4        4845        4846        4897        4896
         4        4846        4847        4898        4897
         4        4847        4848        4899        4898
         4        4848        4849        4900        4899
         4        4849        4850        4901        4900
         4        4850        4851        4902        4901
         4        4851        4852        4903        4902
         4        4852        4853        4904        4903
         4        4853        4854        4905        4904
         4        4854        4855        4906        4905
         4        4855        4856        4907        4906
         4        4856        4857        4908        4907
         4        4857        4858        4909        4908
         4        4858        4859        4910        4909
         4        4859        4860        4911        4910
         4        4860        4861        4912        4911
         4        4861        4862        4913        4912
         4        4862        4863        4914        4913
         4        4863        4864        4915        4914
         4        4864        4865        4916        4915
         4        4865        4866        4917        4916
         4        4866        4867        4918        4917
         4        4867        4868        4919        4918
         4        4868        4869        4920        4919
         4        4869        4870        4921        4920
         4        4870        4871        4922        4921
         4        4871        4872        4923        4922
         4        4872        4873        4924        4923
         4        4873        4874        4925        4924
         4        4874        4875        4926        4925
         4        4875        4876        4927        4926
         4        4876        4877        4928        4927
         4        4877        4878        4929        4928
         4        4878        4879        4930        4929
         4        4879        4880        4931        4930
         4        4880        4881        4932        4931
         4        4881        4882        4933        4932
         4        4882        4883        4934        4933
         4        4883        4884        4935        4934
         4        4884        4885        4936        4935
         4        4885        4886        4937        4936
         4        4886        4887        4938        4937
         4        4887        4888        4939        4938
         4        4888        4889        4940        4939
         4        4889        4890        4941        4940
         4        4890        4891        4942        4941
         4        4891        4892        4943        4942
         4        4892        4893        4944        4943
         4        4893        4894        4945        4944
         4        4894        4895        4946        4945
         4        4896        4897        4948        4947
         4        4897        4898        4949        4948
         4        4898        4899        4950        4949
         4        4899        4900        4951        4950
         4        4900        4901        4952        4951
         4        4901        4902        4953        4952
         4        4902        4903        4954        4953
         4        4903        4904        4955        4954
         4        4904        4905        4956        4955
         4        4905        4906        4957        4956
         4        4906        4907        4958        4957
         4        4907        4908        4959        4958
         4        4908        4909        4960        4959
         4        4909        4910        4961        4960
         4        4910        4911        4962        4961
         4        4911        4912        4963        4962
         4        4912        4913        4964        4963
         4        4913        4914        4965        4964
         4        4914        4915        4966        4965
         4        4915        4916        4967        4966
         4        4916        4917        4968        4967
         4        4917        4918        4969        4968
         4        4918        4919        4970        4969
         4        4919        4920        4971        4970
         4        4920        4921        4972        4971
         4        4921        4922        4973        4972
         4        4922        4923        4974        4973
         4        4923        4924        4975        4974
         4        4924        4925        4976        4975
         4        4925        4926        4977        4976
         4        4926        4927        4978        4977
         4        4927        4928        4979        4978
         4        4928        4929        4980        4979
         4        4929        4930        4981        4980
         4        4930        4931        4982        4981
         4        4931        4932        4983        4982
         4        4932        4933        4984        4983
         4        4933        4934        4985        4984
         4        4934        4935        4986        4985
         4        4935        4936        4987        4986
         4        4936        4937        4988        4987
         4        4937        4938        4989        4988
         4        4938        4939        4990        4989
         4        4939        4940        4991        4990
         4        4940        4941        4992        4991
         4        4941        4942        4993        4992
         4        4942        4943        4994        4993
         4        4943        4944        4995        4994
         4        4944        4945        4996        4995
         4        4945        4946        4997        4996
         4        4947        4948        4999        4998
         4        4948        4949        5000        4999
         4        4949        4950        5001        5000
         4        4950        4951        5002        5001
         4        4951        4952        5003        5002
         4        4952        4953        5004        5003
         4        4953        4954        5005        5004
         4        4954        4955        5006        5005
         4        4955        4956        5007        5006
         4        4956        4957        5008        5007
         4        4957        4958        5009        5008
         4        4958        4959        5010        5009
         4        4959        4960        5011        5010
         4        4960        4961        5012        5011
         4        4961        4962        5013        5012
         4        4962        4963        5014        5013
         4        4963        4964        5015        5014
         4        4964        4965        5016        5015
         4        4965        4966        5017        5016
         4        4966        4967        5018        5017
         4        4967        4968        5019        5018
         4        4968        4969        5020        5019
         4        4969        4970        5021        5020
         4        4970        4971        5022        5021
         4        4971        4972        5023        5022
         4        4972        4973        5024        5023
         4        4973        4974        5025        5024
         4        4974        4975        5026        5025
         4        4975        4976        5027        5026
         4        4976        4977        5028        5027
         4        4977        4978        5029        5028
         4        4978        4979        5030        5029
         4        4979        4980        5031        5030
         4        4980        4981        5032        5031
         4        4981        4982        5033        5032
         4        4982        4983        5034        5033
         4        4983        4984        5035        5034
         4        4984        4985        5036        5035
         4        4985        4986        5037        5036
         4        4986        4987        5038        5037
         4        4987        4988        5039        5038
         4        4988        4989        5040        5039
         4        4989        4990        5041        5040
         4        4990        4991        5042        5041
         4        4991        4992        5043        5042
         4        4992        4993        5044        5043
         4        4993        4994        5045        5044
         4        4994        4995        5046        5045
         4        4995        4996        5047        5046
         4        4996        4997        5048        5047
         4        4998        4999        5050        5049
         4        4999        5000        5051        5050
         4        5000        5001        5052        5051
         4        5001        5002        5053        5052
         4        5002        5003        5054        5053
         4        5003        5004        5055        5054
         4        5004        5005        5056        5055
         4        5005        5006        5057        5056
         4        5006        5007        5058        5057
         4        5007        5008        5059        5058
         4        5008        5009        5060        5059
         4        5009        5010        5061        5060
         4        5010        5011        5062        5061
         4        5011        5012        5063        5062
         4        5012        5013        5064        5063
         4        5013        5014        5065        5064
         4        5014        5015        5066        5065
         4        5015        5016        5067        5066
         4        5016        5017        5068        5067
         4        5017        5018        5069        5068
         4        5018        5019        5070        5069
         4        5019        5020        5071        5070
         4        5020        5021        5072        5071
         4        5021        5022        5073        5072
         4        5022        5023        5074        5073
         4        5023        5024        5075        5074
         4        5024        5025        5076        5075
         4        5025        5026        5077        5076
         4        5026        5027        5078        5077
         4        5027        5028        5079        5078
         4        5028        5029        5080        5079
         4        5029        5030        5081        5080
         4        5030        5031        5082        5081
         4        5031        5032        5083        5082
         4        5032        5033        5084        5083
         4        5033        5034        5085        5084
         4        5034        5035        5086        5085
         4        5035        5036        5087        5086
         4        5036        5037        5088        5087
         4        5037        5038        5089        5088
         4        5038        5039        5090        5089
         4        5039        5040        5091        5090
         4        5040        5041        5092        5091
         4        5041        5042        5093        5092
         4        5042        5043        5094        5093
         4        5043        5044        5095        5094
         4        5044        5045        5096        5095
         4        5045        5046        5097        5096
         4        5046        5047        5098        5097
         4        5047        5048        5099        5098
         4        5049        5050        5101        5100
         4        5050        5051        5102        5101
         4        5051        5052        5103        5102
         4        5052        5053        5104        5103
         4        5053        5054        5105        5104
         4        5054        5055        5106        5105
         4        5055        5056        5107        5106
         4        5056        5057        5108        5107
         4        5057        5058        5109        5108
         4        5058        5059        5110        5109
         4        5059        5060        5111        5110
         4        5060        5061        5112        5111
         4        5061        5062        5113        5112
         4        5062        5063        5114        5113
         4        5063        5064        5115        5114
         4        5064        5065        5116        5115
         4        5065        5066        5117        5116
         4        5066        5067        5118        5117
         4        5067        5068        5119        5118
         4        5068        5069        5120        5119
         4        5069        5070        5121        5120
         4        5070        5071        5122        5121
         4        5071        5072        5123        5122
         4        5072        5073        5124        5123
         4        5073        5074        5125        5124
         4        5074        5075        5126        5125
         4        5075        5076        5127        5126
         4        5076        5077        5128        5127
         4        5077        5078        5129        5128
         4        5078        5079        5130        5129
         4        5079        5080        5131        5130
         4        5080        5081        5132        5131
         4        5081        5082        5133        5132
         4        5082        5083        5134        5133
         4        5083        5084        5135        5134
         4        5084        5085        5136        5135
         4        5085        5086        5137        5136
         4        5086        5087        5138        5137
         4        5087        5088        5139        5138
         4        5088        5089        5140        5139
         4        5089        5090        5141        5140
         4        5090        5091        5142        5141
         4        5091        5092        5143        5142
         4        5092        5093        5144        5143
         4        5093        5094        5145        5144
         4        5094        5095        5146        5145
         4        5095        5096        5147        5146
         4        5096        5097        5148        5147
         4        5097        5098        5149        5148
         4        5098        5099        5150        5149
CELL_TYPES       5000
9
9
9
9
9
9
9
9
9
9
9
9
9
9
9
9
9
9
9
9
9
9
9
9
9
9
9
9
9
9
9
9
9
9
9
9
9
9
9
9
9
9
9
9
9
9
9
9
9
9
9
9
9
9
9
9
9
9
9
9
9
9
9
9
9
9
9
9
9
9
9
9
9
9
9
9
9
9
9
9
9
9
9
9
9
9
9
9
9
9
9
9
9
9
9
9
9
9
9
9
9
9
9
9
9
9
9
9
9
9
9
9
9
9
9
9
9
9
9
9
9
9
9
9
9
9
9
9
9
9
9
9
9
9
9
9
9
9
9
9
9
9
9
9
9
9
9
9
9
9
9
9
9
9
9
9
9
9
9
9
9
9
9
9
9
9
9
9
9
9
9
9
9
9
9
9
9
9
9
9
9
9
9
9
9
9
9
9
9
9
9
9
9
9
9
9
9
9
9
9
9
9
9
9
9
9
9
9
9
9
9
9
9
9
9
9
9
9
9
9
9
9
9
9
9
9
9
9
9
9
9
9
9
9
9
9
9
9
9
9
9
9
9
9
9
9
9
9
9
9
9
9
9
9
9
9
9
9
9
9
9
9
9
9
9
9
9
9
9
9
9
9
9
9
9
9
9
9
9
9
9
9
9
9
9
9
9
9
9
9
9
9
9
9
9
9
9
9
9
9
9
9
9
9
9
9
9
9
9
9
9
9
9
9
9
9
9
9
9
9
9
9
9
9
9
9
9
9
9
9
9
9
9
9
9
9
9
9
9
9
9
9
9
9
9
9
9
9
9
9
9
9
9
9
9
9
9
9
9
9
9
9
9
9
9
9
9
9
9
9
9
9
9
9
9
9
9
9
9
9
9
9
9
9
9
9
9
9
9
9
9
9
9
9
9
9
9
9
9
9
9
9
9
9
9
9
9
9
9
9
9
9
9
9
9
9
9
9
9
9
9
9
9
9
9
9
9
9
9
9
9
9
9
9
9
9
9
9
9
9
9
9
9
9
9
9
9
9
9
9
9
9
9
9
9
9
9
9
9
9
9
9
9
9
9
9
9
9
9
9
9
9
9
9
9
9
9
9
9
9
9
9
9
9
9
9
9
9
9
9
9
9
9
9
9
9
9
9
9
9
9
9
9
9
9
9
9
9
9
9
9
9
9
9
9
9
9
9
9
9
9
9
9
9
9
9
9
9
9
9
9
9
9
9
9
9
9
9
9
9
9
9
9
9
9
9
9
9
9
9
9
9
9
9
9
9
9
9
9
9
9
9
9
9
9
9
9
9
9
9
9
9
9
9
9
9
9
9
9
9
9
9
9
9
9
9
9
9
9
9
9
9
9
9
9
9
9
9
9
9
9
9
9
9
9
9
9
9
9
9
9
9
9
9
9
9
9
9
9
9
9
9
9
9
9
9
9
9
9
9
9
9
9
9
9
9
9
9
9
9
9
9
9
9
9
9
9
9
9
9
9
9
9
9
9
9
9
9
9
9
9
9
9
9
9
9
9
9
9
9
9
9
9
9
9
9
9
9
9
9
9
9
9
9
9
9
9
9
9
9
9
9
9
9
9
9
9
9
9
9
9
9
9
9
9
9
9
9
9
9
9
9
9
9
9
9
9
9
9
9
9
9
9
9
9
9
9
9
9
9
9
9
9
9
9
9
9
9
9
9
9
9
9
9
9
9
9
9
9
9
9
9
9
9
9
9
9
9
9
9
9
9
9
9
9
9
9
9
9
9
9
9
9
9
9
9
9
9
9
9
9
9
9
9
9
9
9
9
9
9
9
9
9
9
9
9
9
9
9
9
9
9
9
9
9
9
9
9
9
9
9
9
9
9
9
9
9
9
9
9
9
9
9
9
9
9
9
9
9
9
9
9
9
9
9
9
9
9
9
9
9
9
9
9
9
9
9
9
9
9
9
9
9
9
9
9
9
9
9
9
9
9
9
9
9
9
9
9
9
9
9
9
9
9
9
9
9
9
9
9
9
9
9
9
9
9
9
9
9
9
9
9
9
9
9
9
9
9
9
9
9
9
9
9
9
9
9
9
9
9
9
9
9
9
9
9
9
9
9
9
9
9
9
9
9
9
9
9
9
9
9
9
9
9
9
9
9
9
9
9
9
9
9
9
9
9
9
9
9
9
9
9
9
9
9
9
9
9
9
9
9
9
9
9
9
9
9
9
9
9
9
9
9
9
9
9
9
9
9
9
9
9
9
9
9
9
9
9
9
9
9
9
9
9
9
9
9
9
9
9
9
9
9
9
9
9
9
9
9
9
9
9
9
9
9
9
9
9
9
9
9
9
9
9
9
9
9
9
9
9
9
9
9
9
9
9
9
9
9
9
9
9
9
9
9
9
9
9
9
9
9
9
9
9
9
9
9
9
9
9
9
9
9
9
9
9
9
9
9
9
9
9
9
9
9
9
9
9
9
9
9
9
9
9
9
9
9
9
9
9
9
9
9
9
9
9
9
9
9
9
9
9
9
9
9
9
9
9
9
9
9
9
9
9
9
9
9
9
9
9
9
9
9
9
9
9
9
9
9
9
9
9
9
9
9
9
9
9
9
9
9
9
9
9
9
9
9
9
9
9
9
9
9
9
9
9
9
9
9
9
9
9
9
9
9
9
9
9
9
9
9
9
9
9
9
9
9
9
9
9
9
9
9
9
9
9
9
9
9
9
9
9
9
9
9
9
9
9
9
9
9
9
9
9
9
9
9
9
9
9
9
9
9
9
9
9
9
9
9
9
9
9
9
9
9
9
9
9
9
9
9
9
9
9
9
9
9
9
9
9
9
9
9
9
9
9
9
9
9
9
9
9
9
9
9
9
9
9
9
9
9
9
9
9
9
9
9
9
9
9
9
9
9
9
9
9
9
9
9
9
9
9
9
9
9
9
9
9
9
9
9
9
9
9
9
9
9
9
9
9
9
9
9
9
9
9
9
9
9
9
9
9
9
9
9
9
9
9
9
9
9
9
9
9
9
9
9
9
9
9
9
9
9
9
9
9
9
9
9
9
9
9
9
9
9
9
9
9
9
9
9
9
9
9
9
9
9
9
9
9
9
9
9
9
9
9
9
9
9
9
9
9
9
9
9
9
9
9
9
9
9
9
9
9
9
9
9
9
9
9
9
9
9
9
9
9
9
9
9
9
9
9
9
9
9
9
9
9
9
9
9
9
9
9
9
9
9
9
9
9
9
9
9
9
9
9
9
9
9
9
9
9
9
9
9
9
9
9
9
9
9
9
9
9
9
9
9
9
9
9
9
9
9
9
9
9
9
9
9
9
9
9
9
9
9
9
9
9
9
9
9
9
9
9
9
9
9
9
9
9
9
9
9
9
9
9
9
9
9
9
9
9
9
9
9
9
9
9
9
9
9
9
9
9
9
9
9
9
9
9
9
9
9
9
9
9
9
9
9
9
9
9
9
9
9
9
9
9
9
9
9
9
9
9
9
9
9
9
9
9
9
9
9
9
9
9
9
9
9
9
9
9
9
9
9
9
9
9
9
9
9
9
9
9
9
9
9
9
9
9
9
9
9
9
9
9
9
9
9
9
9
9
9
9
9
9
9
9
9
9
9
9
9
9
9
9
9
9
9
9
9
9
9
9
9
9
9
9
9
9
9
9
9
9
9
9
9
9
9
9
9
9
9
9
9
9
9
9
9
9
9
9
9
9
9
9
9
9
9
9
9
9
9
9
9
9
9
9
9
9
9
9
9
9
9
9
9
9
9
9
9
9
9
9
9
9
9
9
9
9
9
9
9
9
9
9
9
9
9
9
9
9
9
9
9
9
9
9
9
9
9
9
9
9
9
9
9
9
9
9
9
9
9
9
9
9
9
9
9
9
9
9
9
9
9
9
9
9
9
9
9
9
9
9
9
9
9
9
9
9
9
9
9
9
9
9
9
9
9
9
9
9
9
9
9
9
9
9
9
9
9
9
9
9
9
9
9
9
9
9
9
9
9
9
9
9
9
9
9
9
9
9
9
9
9
9
9
9
9
9
9
9
9
9
9
9
9
9
9
9
9
9
9
9
9
9
9
9
9
9
9
9
9
9
9
9
9
9
9
9
9
9
9
9
9
9
9
9
9
9
9
9
9
9
9
9
9
9
9
9
9
9
9
9
9
9
9
9
9
9
9
9
9
9
9
9
9
9
9
9
9
9
9
9
9
9
9
9
9
9
9
9
9
9
9
9
9
9
9
9
9
9
9
9
9
9
9
9
9
9
9
9
9
9
9
9
9
9
9
9
9
9
9
9
9
9
9
9
9
9
9
9
9
9
9
9
9
9
9
9
9
9
9
9
9
9
9
9
9
9
9
9
9
9
9
9
9
9
9
9
9
9
9
9
9
9
9
9
9
9
9
9
9
9
9
9
9
9
9
9
9
9
9
9
9
9
9
9
9
9
9
9
9
9
9
9
9
9
9
9
9
9
9
9
9
9
9
9
9
9
9
9
9
9
9
9
9
9
9
9
9
9
9
9
9
9
9
9
9
9
9
9
9
9
9
9
9
9
9
9
9
9
9
9
9
9
9
9
9
9
9
9
9
9
9
9
9
9
9
9
9
9
9
9
9
9
9
9
9
9
9
9
9
9
9
9
9
9
9
9
9
9
9
9
9
9
9
9
9
9
9
9
9
9
9
9
9
9
9
9
9
9
9
9
9
9
9
9
9
9
9
9
9
9
9
9
9
9
9
9
9
9
9
9
9
9
9
9
9
9
9
9
9
9
9
9
9
9
9
9
9
9
9
9
9
9
9
9
9
9
9
9
9
9
9
9
9
9
9
9
9
9
9
9
9
9
9
9
9
9
9
9
9
9
9
9
9
9
9
9
9
9
9
9
9
9
9
9
9
9
9
9
9
9
9
9
9
9
9
9
9
9
9
9
9
9
9
9
9
9
9
9
9
9
9
9
9
9
9
9
9
9
9
9
9
9
9
9
9
9
9
9
9
9
9
9
9
9
9
9
9
9
9
9
9
9
9
9
9
9
9
9
9
9
9
9
9
9
9
9
9
9
9
9
9
9
9
9
9
9
9
9
9
9
9
9
9
9
9
9
9
9
9
9
9
9
9
9
9
9
9
9
9
9
9
9
9
9
9
9
9
9
9
9
9
9
9
9
9
9
9
9
9
9
9
9
9
9
9
9
9
9
9
9
9
9
9
9
9
9
9
9
9
9
9
9
9
9
9
9
9
9
9
9
9
9
9
9
9
9
9
9
9
9
9
9
9
9
9
9
9
9
9
9
9
9
9
9
9
9
9
9
9
9
9
9
9
9
9
9
9
9
9
9
9
9
9
9
9
9
9
9
9
9
9
9
9
9
9
9
9
9
9
9
9
9
9
9
9
9
9
9
9
9
9
9
9
9
9
9
9
9
9
9
9
9
9
9
9
9
9
9
9
9
9
9
9
9
9
9
9
9
9
9
9
9
9
9
9
9
9
9
9
9
9
9
9
9
9
9
9
9
9
9
9
9
9
9
9
9
9
9
9
9
9
9
9
9
9
9
9
9
9
9
9
9
9
9
9
9
9
9
9
9
9
9
9
9
9
9
9
9
9
9
9
9
9
9
9
9
9
9
9
9
9
9
9
9
9
9
9
9
9
9
9
9
9
9
9
9
9
9
9
9
9
9
9
9
9
9
9
9
9
9
9
9
9
9
9
9
9
9
9
9
9
9
9
9
9
9
9
9
9
9
9
9
9
9
9
9
9
9
9
9
9
9
9
9
9
9
9
9
9
9
9
9
9
9
9
9
9
9
9
9
9
9
9
9
9
9
9
9
9
9
9
9
9
9
9
9
9
9
9
9
9
9
9
9
9
9
9
9
9
9
9
9
9
9
9
9
9
9
9
9
9
9
9
9
9
9
9
9
9
9
9
9
9
9
9
9
9
9
9
9
9
9
9
9
9
9
9
9
9
9
9
9
9
9
9
9
9
9
9
9
9
9
9
9
9
9
9
9
9
9
9
9
9
9
9
9
9
9
9
9
9
9
9
9
9
9
9
9
9
9
9
9
9
9
9
9
9
9
9
9
9
9
9
9
9
9
9
9
9
9
9
9
9
9
9
9
9
9
9
9
9
9
9
9
9
9
9
9
9
9
9
9
9
9
9
9
9
9
9
9
9
9
9
9
9
9
9
9
9
9
9
9
9
9
9
9
9
9
9
9
9
9
9
9
9
9
9
9
9
9
9
9
9
9
9
9
9
9
9
9
9
9
9
9
9
9
9
9
9
9
9
9
9
9
9
9
9
9
9
9
9
9
9
9
9
9
9
9
9
9
9
9
9
9
9
9
9
9
9
9
9
9
9
9
9
9
9
9
9
9
9
9
9
9
9
9
9
9
9
9
9
9
9
9
9
9
9
9
9
9
9
9
9
9
9
9
9
9
9
9
9
9
9
9
9
9
9
9
9
9
9
9
9
9
9
9
9
9
9
9
9
9
9
9
9
9
9
9
9
9
9
9
9
9
9
9
9
9
9
9
9
9
9
9
9
9
9
9
9
9
9
9
9
9
9
9
9
9
9
9
9
9
9
9
9
9
9
9
9
9
9
9
9
9
9
9
9
9
9
9
9
9
9
9
9
9
9
9
9
9
9
9
9
9
9
9
9
9
9
9
9
9
9
9
9
9
9
9
9
9
9
9
9
9
9
9
9
9
9
9
9
9
9
9
9
9
9
9
9
9
9
9
9
9
9
9
9
9
9
9
9
9
9
9
9
9
9
9
9
9
9
9
9
9
9
9
9
9
9
9
9
9
9
9
9
9
9
9
9
9
9
9
9
9
9
9
9
9
9
9
9
9
9
9
9
9
9
9
9
9
9
9
9
9
9
9
9
9
9
9
9
9
9
9
9
9
9
9
9
9
9
9
9
9
9
9
9
9
9
9
9
9
9
9
9
9
9
9
9
9
9
9
9
9
9
9
9
9
9
9
9
9
9
9
9
9
9
9
9
9
9
9
9
9
9
9
9
9
9
9
9
9
9
9
9
9
9
9
9
9
9
9
9
9
9
9
9
9
9
9
9
9
9
9
9
9
9
9
9
9
9
9
9
9
9
9
9
9
9
9
9
9
9
9
9
9
9
9
9
9
9
9
9
9
9
9
9
9
9
9
9
9
9
9
9
9
9
9
9
9
9
9
9
9
9
9
9
9
9
9
9
9
9
9
9
9
9
9
9
9
9
9
9
9
9
9
9
9
9
9
9
9
9
9
9
9
9
9
9
9
9
9
9
9
9
9
9
9
9
9
9
9
9
9
9
9
9
9
9
9
9
9
9
9
9
9
9
9
9
9
9
9
9
9
9
9
9
9
9
9
9
9
9
9
9
9
9
9
9
9
9
9
9
9
9
9
9
9
9
9
9
9
9
9
9
9
9
9
9
9
9
9
9
9
9
9
9
9
9
9
9
9
9
9
9
9
9
9
9
9
9
9
9
9
9
9
9
9
9
9
9
9
9
9
9
9
9
9
9
9
9
9
9
9
9
9
9
9
9
9
9
9
9
9
9
9
9
9
9
9
9
9
9
9
9
9
9
9
9
9
9
9
9
9
9
9
9
9
9
9
9
9
9
9
9
9
9
9
9
9
9
9
9
9
9
9
9
9
9
9
9
9
9
9
9
9
9
9
9
9
9
9
9
9
9
9
9
9
9
9
9
9
9
9
9
9
9
9
9
9
9
9
9
9
9
9
9
9
9
9
9
9
9
9
9
9
9
9
9
9
9
9
9
9
9
9
9
9
9
9
9
9
9
9
9
9
9
9
9
9
9
9
9
9
9
9
9
9
9
9
9
9
9
9
9
9
9
9
9
9
9
9
9
9
9
9
9
9
9
9
9
9
9
9
9
9
9
9
9
9
9
9
9
9
9
9
9
9
9
9
9
9
9
9
9
9
9
9
9
9
9
9
9
9
9
9
9
9
9
9
9
9
9
9
9
9
9
9
9
9
9
9
9
9
9
9
9
9
9
9
9
9
9
9
9
9
9
9
9
9
9
9
9
9
9
9
9
9
9
9
9
9
9
9
9
9
9
9
9
9
9
9
9
9
9
9
9
9
9
9
9
9
9
9
9
9
9
9
9
9
9
9
9
9
9
9
9
9
9
9
9
9
9
9
9
9
9
9
9
9
9
9
9
9
9
9
9
9
9
9
9
9
9
9
9
9
9
9
9
9
9
9
9
9
9
9
9
9
9
9
9
9
9
9
9
9
9
9
9
9
9
9
9
9
9
9
9
9
9
9
9
9
9
9
9
9
9
9
9
9
9
9
9
9
9
9
9
9
9
9
9
9
9
9
9
9
9
9
9
9
9
9
9
9
9
9
9
9
9
9
9
9
9
9
9
9
9
9
9
9
9
9
9
9
9
9
9
9
9
9
9
9
9
9
9
9
9
9
9
9
9
9
9
9
9
9
9
9
9
9
9
9
9
9
9
9
9
9
9
9
9
9
9
9
9
9
9
9
9
9
9
9
9
9
9
9
9
9
9
9
9
9
9
9
9
9
9
9
9
9
9
9
9
9
9
9
9
9
9
9
9
9
9
9
9
9
9
9
9
9
9
9
9
9
9
9
9
9
9
9
9
9
9
9
9
9
9
9
9
9
9
9
9
9
9
9
9
9
9
9
9
9
9
9
9
9
9
9
9
9
9
9
9
9
9
9
9
9
9
9
9
9
9
9
9
9
9
9
9
9
9
9
9
9
9
9
9
9
9
9
9
9
9
9
9
9
9
9
9
9
9
9
9
9
9
9
9
9
9
9
9
9
9
9
9
9
9
9
9
9
9
9
9
9
9
9
9
9
9
9
9
9
9
9
9
9
9
9
9
9
9
9
9
9
9
9
9
9
9
9
9
9
9
9
9
9
9
9
9
9
9
9
9
9
9
9
9
9
9
9
9
9
9
9
9
9
9
9
9
9
9
9
9
9
9
9
9
9
9
9
9
9
9
9
9
9
9
9
9
9
9
9
9
9
9
9
9
9
9
9
9
9
9
9
9
9
9
9
9
9
9
9
9
9
9
9
9
9
9
9
9
9
9
9
9
9
9
9
9
9
9
9
9
9
9
9
9
9
9
9
9
9
9
9
9
9
9
9
9
9
9
9
9
9
9
9
9
9
9
9
9
9
9
9
9
9
9
9
9
9
9
9
9
9
9
9
9
9
9
9
9
9
9
9
9
9
9
9
9
9
9
9
9
9
9
9
9
9
9
9
9
9
9
9
9
9
9
9
9
9
9
9
9
9
9
9
9
9
9
9
9
9
9
9
9
9
9
9
9
9
9
9
9
9
9
9
9
9
9
9
9
9
9
9
9
9
9
9
9
9
9
9
9
9
9
9
9
9
9
9
9
9
9
9
9
9
9
9
9
9
9
9
9
9
9
9
9
9
9
9
9
9
9
9
9
9
9
9
9
9
9
9
9
9
9
9
9
9
9
9
9
9
9
9
9
9
9
9
9
9
9
9
9
9
9
9
9
9
9
9
9
9
9
9
9
9
9
9
9
9
9
9
9
9
9
9
9
9
9
9
9
9
9
9
9
9
9
9
9
9
9
9
9
9
9
9
9
9
9
9
9
9
9
9
9
9
9
9
9
9
9
9
9
9
9
9
9
9
9
9
9
9
9
9
9
9
9
9
9
9
9
9
9
9
9
9
9
9
9
9
9
9
9
9
9
9
9
9
9
9
9
9
9
9
9
9
9
9
9
9
9
9
9
9
9
9
9
9
9
9
9
9
9
9
9
9
9
9
9
9
9
9
9
9
9
9
9
9
9
9
9
9
9
9
9
9
9
9
9
9
9
9
9
9
9
9
9
9
9
9
9
9
9
9
9
9
9
9
9
9
9
9
9
9
9
9
9
9
9
9
9
9
9
9
9
9
9
9
9
9
9
9
9
9
9
9
9
9
9
9
9
9
9
9
9
9
9
9
9
9
9
9
9
9
9
9
9
9
9
9
9
9
9
9
9
9
9
9
9
9
9
9
9
9
9
9
9
9
9
9
9
9
9
9
9
9
9
9
9
9
9
9
9
9
9
9
9
9
9
9
9
9
9
9
9
9
9
9
9
9
9
9
9
9
9
9
9
9
9
9
9
9
9
9
9
9
9
9
9
9
9
9
9
9
9
9
9
9
9
9
9
9
9
9
9
9
9
9
9
9
9
9
9
9
9
9
9
9
9
9
9
9
9
9
9
9
9
9
9
9
9
9
9
9
9
9
9
9
9
9
9
9
9
9
9
9
9
9
9
9
9
9
9
9
9
9
9
9
9
9
9
9
9
9
9
9
9
9
9
9
9
9
9
9
9
9
9
9
9
9
9
9
9
9
9
9
9
9
9
9
9
9
9
9
9
9
9
9
9
9
9
9
9
9
9
9
9
9
9
9
9
9
9
9
9
9
9
9
9
9
9
9
9
9
9
9
9
9
9
9
9
9
9
9
9
9
9
9
9
9
9
9
9
9
9
9
9
9
9
9
9
9
9
9
9
9
9
9
9
9
9
9
9
9
9
9
9
9
9
9
9
9
9
9
9
9
9
9
9
9
9
9
9
9
9
9
9
9
9
9
9
9
9
9
9
9
9
9
9
9
9
9
9
9
9
9
9
9
9
9
9
9
9
9
9
9
9
9
9
9
9
9
9
9
9
9
9
9
9
9
9
9
9
9
9
9
9
9
9
9
9
9
9
9
9
9
9
9
9
9
9
9
9
9
9
9
9
9
9
9
9
9
9
9
9
9
9
9
9
9
9
9
9
9
9
9
9
9
9
9
9
9
9
9
9
9
9
9
9
9
9
9
9
9
9
9
9
9
9
9
9
9
9
9
9
9
9
9
9
9
9
9
9
9
9
9
9
9
9
9
9
9
9
9
9
9
9
9
9
9
9
9
9
9
9
9
9
9
9
9
9
9
9
9
9
9
9
9
9
9
9
9
9
9
9
9
9
9
9
9
9
9
9
9
9
9
9
9
9
9
9
9
9
9
9
9
9
9
9
9
9
9
9
9
9
9
9
9
9
9
9
9
9
9
9
9
9
9
9
9
9
9
9
9
9
9
9
9
9
9
9
9
9
9
9
9
9
9
9
9
9
9
9
9
9
9
9
9
9
9
9
9
9
9
9
9
9
9
9
9
9
9
9
9
9
9
9
9
9
9
9
9
9
9
9
9
9
9
9
9
9
9
9
9
9
9
9
9
9
9
9
9
9
9
9
9
9
9
9
9
9
9
9
9
9
9
9
9
9
9
9
9
9
9
9
9
POINT_DATA      5151
SCALARS p double 
LOOKUP_TABLE default
   70000000.0000000     
   70000000.0000000     
   70000000.0000000     
   70000000.0000000     
   70000000.0000000     
   70000000.0000000     
   70000000.0000000     
   70000000.0000000     
   70000000.0000000     
   70000000.0000000     
   70000000.0000000     
   70000000.0000000     
   70000000.0000000     
   70000000.0000000     
   70000000.0000000     
   70000000.0000000     
   70000000.0000000     
   70000000.0000000     
   70000000.0000000     
   70000000.0000000     
   70000000.0000000     
   70000000.0000000     
   70000000.0000000     
   70000000.0000000     
   70000000.0000000     
   70000000.0000000     
   70000000.0000000     
   70000000.0000000     
   70000000.0000000     
   70000000.0000000     
   70000000.0000000     
   70000000.0000000     
   70000000.0000000     
   70000000.0000000     
   70000000.0000000     
   70000000.0000000     
   70000000.0000000     
   70000000.0000000     
   70000000.0000000     
   70000000.0000000     
   70000000.0000000     
   70000000.0000000     
   70000000.0000000     
   70000000.0000000     
   70000000.0000000     
   70000000.0000000     
   70000000.0000000     
   70000000.0000000     
   70000000.0000000     
   70000000.0000000     
   70000000.0000000     
   66831431.3961402     
   66831431.3961402     
   66831431.3961401     
   66831431.3961401     
   66831431.3961401     
   66831431.3961401     
   66831431.3961401     
   66831431.3961400     
   66831431.3961400     
   66831431.3961400     
   66831431.3961400     
   66831431.3961400     
   66831431.3961400     
   66831431.3961400     
   66831431.3961400     
   66831431.3961400     
   66831431.3961400     
   66831431.3961400     
   66831431.3961399     
   66831431.3961399     
   66831431.3961399     
   66831431.3961399     
   66831431.3961399     
   66831431.3961399     
   66831431.3961399     
   66831431.3961398     
   66831431.3961398     
   66831431.3961398     
   66831431.3961398     
   66831431.3961398     
   66831431.3961398     
   66831431.3961398     
   66831431.3961397     
   66831431.3961397     
   66831431.3961397     
   66831431.3961397     
   66831431.3961397     
   66831431.3961397     
   66831431.3961397     
   66831431.3961397     
   66831431.3961396     
   66831431.3961396     
   66831431.3961396     
   66831431.3961396     
   66831431.3961396     
   66831431.3961396     
   66831431.3961396     
   66831431.3961396     
   66831431.3961396     
   66831431.3961396     
   66831431.3961395     
   64164854.0257121     
   64164854.0257121     
   64164854.0257121     
   64164854.0257120     
   64164854.0257120     
   64164854.0257119     
   64164854.0257119     
   64164854.0257119     
   64164854.0257119     
   64164854.0257119     
   64164854.0257118     
   64164854.0257118     
   64164854.0257118     
   64164854.0257118     
   64164854.0257118     
   64164854.0257117     
   64164854.0257117     
   64164854.0257116     
   64164854.0257117     
   64164854.0257116     
   64164854.0257116     
   64164854.0257115     
   64164854.0257115     
   64164854.0257115     
   64164854.0257115     
   64164854.0257115     
   64164854.0257115     
   64164854.0257115     
   64164854.0257114     
   64164854.0257114     
   64164854.0257113     
   64164854.0257113     
   64164854.0257113     
   64164854.0257113     
   64164854.0257113     
   64164854.0257113     
   64164854.0257113     
   64164854.0257113     
   64164854.0257112     
   64164854.0257112     
   64164854.0257111     
   64164854.0257111     
   64164854.0257111     
   64164854.0257110     
   64164854.0257110     
   64164854.0257110     
   64164854.0257110     
   64164854.0257110     
   64164854.0257110     
   64164854.0257110     
   64164854.0257110     
   61920738.2021600     
   61920738.2021600     
   61920738.2021599     
   61920738.2021599     
   61920738.2021599     
   61920738.2021598     
   61920738.2021597     
   61920738.2021597     
   61920738.2021596     
   61920738.2021597     
   61920738.2021597     
   61920738.2021596     
   61920738.2021595     
   61920738.2021594     
   61920738.2021593     
   61920738.2021593     
   61920738.2021592     
   61920738.2021592     
   61920738.2021592     
   61920738.2021592     
   61920738.2021592     
   61920738.2021591     
   61920738.2021591     
   61920738.2021591     
   61920738.2021590     
   61920738.2021589     
   61920738.2021589     
   61920738.2021589     
   61920738.2021588     
   61920738.2021589     
   61920738.2021589     
   61920738.2021588     
   61920738.2021588     
   61920738.2021588     
   61920738.2021588     
   61920738.2021588     
   61920738.2021588     
   61920738.2021588     
   61920738.2021587     
   61920738.2021588     
   61920738.2021588     
   61920738.2021588     
   61920738.2021588     
   61920738.2021587     
   61920738.2021587     
   61920738.2021586     
   61920738.2021586     
   61920738.2021586     
   61920738.2021586     
   61920738.2021586     
   61920738.2021586     
   60032153.9987463     
   60032153.9987462     
   60032153.9987462     
   60032153.9987462     
   60032153.9987462     
   60032153.9987462     
   60032153.9987462     
   60032153.9987462     
   60032153.9987462     
   60032153.9987461     
   60032153.9987461     
   60032153.9987460     
   60032153.9987460     
   60032153.9987459     
   60032153.9987458     
   60032153.9987457     
   60032153.9987457     
   60032153.9987456     
   60032153.9987456     
   60032153.9987455     
   60032153.9987454     
   60032153.9987453     
   60032153.9987453     
   60032153.9987453     
   60032153.9987452     
   60032153.9987452     
   60032153.9987451     
   60032153.9987451     
   60032153.9987451     
   60032153.9987450     
   60032153.9987450     
   60032153.9987450     
   60032153.9987450     
   60032153.9987449     
   60032153.9987448     
   60032153.9987448     
   60032153.9987448     
   60032153.9987447     
   60032153.9987447     
   60032153.9987447     
   60032153.9987447     
   60032153.9987447     
   60032153.9987448     
   60032153.9987448     
   60032153.9987447     
   60032153.9987448     
   60032153.9987448     
   60032153.9987448     
   60032153.9987448     
   60032153.9987447     
   60032153.9987447     
   58442775.0881731     
   58442775.0881731     
   58442775.0881731     
   58442775.0881731     
   58442775.0881731     
   58442775.0881730     
   58442775.0881730     
   58442775.0881730     
   58442775.0881730     
   58442775.0881730     
   58442775.0881729     
   58442775.0881729     
   58442775.0881728     
   58442775.0881727     
   58442775.0881727     
   58442775.0881727     
   58442775.0881726     
   58442775.0881725     
   58442775.0881725     
   58442775.0881724     
   58442775.0881723     
   58442775.0881722     
   58442775.0881721     
   58442775.0881721     
   58442775.0881720     
   58442775.0881720     
   58442775.0881720     
   58442775.0881719     
   58442775.0881719     
   58442775.0881718     
   58442775.0881718     
   58442775.0881718     
   58442775.0881717     
   58442775.0881717     
   58442775.0881716     
   58442775.0881715     
   58442775.0881715     
   58442775.0881715     
   58442775.0881714     
   58442775.0881714     
   58442775.0881714     
   58442775.0881714     
   58442775.0881713     
   58442775.0881713     
   58442775.0881713     
   58442775.0881713     
   58442775.0881713     
   58442775.0881714     
   58442775.0881714     
   58442775.0881714     
   58442775.0881714     
   57105198.8306454     
   57105198.8306454     
   57105198.8306453     
   57105198.8306453     
   57105198.8306453     
   57105198.8306453     
   57105198.8306452     
   57105198.8306452     
   57105198.8306451     
   57105198.8306451     
   57105198.8306450     
   57105198.8306450     
   57105198.8306450     
   57105198.8306450     
   57105198.8306449     
   57105198.8306448     
   57105198.8306448     
   57105198.8306447     
   57105198.8306447     
   57105198.8306446     
   57105198.8306446     
   57105198.8306445     
   57105198.8306444     
   57105198.8306444     
   57105198.8306443     
   57105198.8306442     
   57105198.8306441     
   57105198.8306441     
   57105198.8306441     
   57105198.8306440     
   57105198.8306440     
   57105198.8306440     
   57105198.8306439     
   57105198.8306439     
   57105198.8306439     
   57105198.8306439     
   57105198.8306438     
   57105198.8306438     
   57105198.8306437     
   57105198.8306437     
   57105198.8306437     
   57105198.8306437     
   57105198.8306437     
   57105198.8306436     
   57105198.8306436     
   57105198.8306435     
   57105198.8306435     
   57105198.8306435     
   57105198.8306435     
   57105198.8306435     
   57105198.8306435     
   55979532.5076222     
   55979532.5076222     
   55979532.5076223     
   55979532.5076222     
   55979532.5076222     
   55979532.5076221     
   55979532.5076221     
   55979532.5076220     
   55979532.5076220     
   55979532.5076220     
   55979532.5076219     
   55979532.5076219     
   55979532.5076218     
   55979532.5076217     
   55979532.5076218     
   55979532.5076217     
   55979532.5076216     
   55979532.5076215     
   55979532.5076214     
   55979532.5076214     
   55979532.5076213     
   55979532.5076212     
   55979532.5076212     
   55979532.5076211     
   55979532.5076211     
   55979532.5076210     
   55979532.5076210     
   55979532.5076209     
   55979532.5076208     
   55979532.5076207     
   55979532.5076207     
   55979532.5076207     
   55979532.5076206     
   55979532.5076206     
   55979532.5076205     
   55979532.5076205     
   55979532.5076205     
   55979532.5076205     
   55979532.5076206     
   55979532.5076206     
   55979532.5076205     
   55979532.5076205     
   55979532.5076204     
   55979532.5076204     
   55979532.5076204     
   55979532.5076203     
   55979532.5076204     
   55979532.5076204     
   55979532.5076204     
   55979532.5076204     
   55979532.5076203     
   55032203.5362005     
   55032203.5362005     
   55032203.5362004     
   55032203.5362003     
   55032203.5362003     
   55032203.5362003     
   55032203.5362002     
   55032203.5362002     
   55032203.5362002     
   55032203.5362001     
   55032203.5362001     
   55032203.5362001     
   55032203.5362000     
   55032203.5362000     
   55032203.5361999     
   55032203.5361999     
   55032203.5361998     
   55032203.5361998     
   55032203.5361998     
   55032203.5361997     
   55032203.5361996     
   55032203.5361995     
   55032203.5361995     
   55032203.5361994     
   55032203.5361993     
   55032203.5361993     
   55032203.5361993     
   55032203.5361992     
   55032203.5361992     
   55032203.5361991     
   55032203.5361991     
   55032203.5361990     
   55032203.5361990     
   55032203.5361990     
   55032203.5361989     
   55032203.5361989     
   55032203.5361989     
   55032203.5361989     
   55032203.5361988     
   55032203.5361988     
   55032203.5361988     
   55032203.5361987     
   55032203.5361987     
   55032203.5361986     
   55032203.5361986     
   55032203.5361986     
   55032203.5361986     
   55032203.5361987     
   55032203.5361987     
   55032203.5361987     
   55032203.5361987     
   54234958.1792118     
   54234958.1792118     
   54234958.1792118     
   54234958.1792118     
   54234958.1792118     
   54234958.1792118     
   54234958.1792117     
   54234958.1792117     
   54234958.1792117     
   54234958.1792116     
   54234958.1792117     
   54234958.1792117     
   54234958.1792116     
   54234958.1792116     
   54234958.1792116     
   54234958.1792115     
   54234958.1792115     
   54234958.1792114     
   54234958.1792114     
   54234958.1792114     
   54234958.1792113     
   54234958.1792112     
   54234958.1792112     
   54234958.1792111     
   54234958.1792111     
   54234958.1792111     
   54234958.1792111     
   54234958.1792110     
   54234958.1792109     
   54234958.1792109     
   54234958.1792108     
   54234958.1792108     
   54234958.1792107     
   54234958.1792106     
   54234958.1792106     
   54234958.1792105     
   54234958.1792104     
   54234958.1792104     
   54234958.1792104     
   54234958.1792104     
   54234958.1792104     
   54234958.1792104     
   54234958.1792103     
   54234958.1792103     
   54234958.1792103     
   54234958.1792102     
   54234958.1792103     
   54234958.1792104     
   54234958.1792104     
   54234958.1792104     
   54234958.1792104     
   53564018.8879333     
   53564018.8879334     
   53564018.8879334     
   53564018.8879334     
   53564018.8879335     
   53564018.8879334     
   53564018.8879334     
   53564018.8879334     
   53564018.8879335     
   53564018.8879335     
   53564018.8879334     
   53564018.8879334     
   53564018.8879334     
   53564018.8879333     
   53564018.8879333     
   53564018.8879333     
   53564018.8879332     
   53564018.8879332     
   53564018.8879331     
   53564018.8879330     
   53564018.8879329     
   53564018.8879329     
   53564018.8879328     
   53564018.8879328     
   53564018.8879328     
   53564018.8879328     
   53564018.8879327     
   53564018.8879327     
   53564018.8879327     
   53564018.8879327     
   53564018.8879327     
   53564018.8879326     
   53564018.8879326     
   53564018.8879325     
   53564018.8879324     
   53564018.8879323     
   53564018.8879322     
   53564018.8879321     
   53564018.8879321     
   53564018.8879320     
   53564018.8879319     
   53564018.8879320     
   53564018.8879319     
   53564018.8879319     
   53564018.8879319     
   53564018.8879320     
   53564018.8879320     
   53564018.8879320     
   53564018.8879320     
   53564018.8879319     
   53564018.8879319     
   52999375.1454661     
   52999375.1454662     
   52999375.1454662     
   52999375.1454662     
   52999375.1454662     
   52999375.1454662     
   52999375.1454662     
   52999375.1454662     
   52999375.1454662     
   52999375.1454662     
   52999375.1454663     
   52999375.1454662     
   52999375.1454662     
   52999375.1454662     
   52999375.1454662     
   52999375.1454661     
   52999375.1454661     
   52999375.1454661     
   52999375.1454660     
   52999375.1454659     
   52999375.1454658     
   52999375.1454658     
   52999375.1454657     
   52999375.1454657     
   52999375.1454656     
   52999375.1454656     
   52999375.1454656     
   52999375.1454656     
   52999375.1454656     
   52999375.1454656     
   52999375.1454655     
   52999375.1454655     
   52999375.1454654     
   52999375.1454653     
   52999375.1454652     
   52999375.1454651     
   52999375.1454650     
   52999375.1454650     
   52999375.1454649     
   52999375.1454649     
   52999375.1454649     
   52999375.1454648     
   52999375.1454648     
   52999375.1454648     
   52999375.1454648     
   52999375.1454647     
   52999375.1454647     
   52999375.1454647     
   52999375.1454647     
   52999375.1454647     
   52999375.1454647     
   52524186.6604494     
   52524186.6604494     
   52524186.6604493     
   52524186.6604494     
   52524186.6604494     
   52524186.6604493     
   52524186.6604493     
   52524186.6604493     
   52524186.6604493     
   52524186.6604493     
   52524186.6604492     
   52524186.6604492     
   52524186.6604492     
   52524186.6604492     
   52524186.6604491     
   52524186.6604490     
   52524186.6604491     
   52524186.6604490     
   52524186.6604490     
   52524186.6604490     
   52524186.6604490     
   52524186.6604489     
   52524186.6604488     
   52524186.6604488     
   52524186.6604488     
   52524186.6604487     
   52524186.6604486     
   52524186.6604486     
   52524186.6604485     
   52524186.6604485     
   52524186.6604484     
   52524186.6604483     
   52524186.6604483     
   52524186.6604482     
   52524186.6604482     
   52524186.6604481     
   52524186.6604481     
   52524186.6604482     
   52524186.6604482     
   52524186.6604481     
   52524186.6604481     
   52524186.6604481     
   52524186.6604481     
   52524186.6604481     
   52524186.6604481     
   52524186.6604481     
   52524186.6604481     
   52524186.6604480     
   52524186.6604480     
   52524186.6604480     
   52524186.6604480     
   52124281.1115818     
   52124281.1115818     
   52124281.1115818     
   52124281.1115818     
   52124281.1115817     
   52124281.1115817     
   52124281.1115817     
   52124281.1115817     
   52124281.1115816     
   52124281.1115815     
   52124281.1115815     
   52124281.1115814     
   52124281.1115813     
   52124281.1115813     
   52124281.1115813     
   52124281.1115812     
   52124281.1115812     
   52124281.1115812     
   52124281.1115811     
   52124281.1115811     
   52124281.1115810     
   52124281.1115810     
   52124281.1115810     
   52124281.1115809     
   52124281.1115809     
   52124281.1115808     
   52124281.1115808     
   52124281.1115808     
   52124281.1115807     
   52124281.1115807     
   52124281.1115806     
   52124281.1115806     
   52124281.1115805     
   52124281.1115804     
   52124281.1115804     
   52124281.1115804     
   52124281.1115803     
   52124281.1115803     
   52124281.1115804     
   52124281.1115804     
   52124281.1115803     
   52124281.1115804     
   52124281.1115804     
   52124281.1115803     
   52124281.1115803     
   52124281.1115803     
   52124281.1115803     
   52124281.1115803     
   52124281.1115803     
   52124281.1115804     
   52124281.1115804     
   51787731.4633658     
   51787731.4633658     
   51787731.4633658     
   51787731.4633657     
   51787731.4633657     
   51787731.4633657     
   51787731.4633657     
   51787731.4633657     
   51787731.4633656     
   51787731.4633656     
   51787731.4633656     
   51787731.4633656     
   51787731.4633656     
   51787731.4633655     
   51787731.4633655     
   51787731.4633654     
   51787731.4633654     
   51787731.4633653     
   51787731.4633652     
   51787731.4633652     
   51787731.4633651     
   51787731.4633651     
   51787731.4633651     
   51787731.4633651     
   51787731.4633650     
   51787731.4633650     
   51787731.4633650     
   51787731.4633649     
   51787731.4633649     
   51787731.4633648     
   51787731.4633648     
   51787731.4633648     
   51787731.4633648     
   51787731.4633647     
   51787731.4633647     
   51787731.4633647     
   51787731.4633647     
   51787731.4633647     
   51787731.4633646     
   51787731.4633647     
   51787731.4633647     
   51787731.4633647     
   51787731.4633646     
   51787731.4633646     
   51787731.4633646     
   51787731.4633646     
   51787731.4633646     
   51787731.4633646     
   51787731.4633646     
   51787731.4633646     
   51787731.4633646     
   51504500.2466737     
   51504500.2466737     
   51504500.2466737     
   51504500.2466737     
   51504500.2466737     
   51504500.2466736     
   51504500.2466735     
   51504500.2466735     
   51504500.2466735     
   51504500.2466734     
   51504500.2466734     
   51504500.2466734     
   51504500.2466734     
   51504500.2466733     
   51504500.2466733     
   51504500.2466733     
   51504500.2466733     
   51504500.2466733     
   51504500.2466732     
   51504500.2466732     
   51504500.2466732     
   51504500.2466731     
   51504500.2466730     
   51504500.2466730     
   51504500.2466729     
   51504500.2466729     
   51504500.2466729     
   51504500.2466729     
   51504500.2466729     
   51504500.2466728     
   51504500.2466727     
   51504500.2466727     
   51504500.2466727     
   51504500.2466727     
   51504500.2466726     
   51504500.2466726     
   51504500.2466725     
   51504500.2466725     
   51504500.2466725     
   51504500.2466725     
   51504500.2466724     
   51504500.2466724     
   51504500.2466724     
   51504500.2466724     
   51504500.2466724     
   51504500.2466724     
   51504500.2466724     
   51504500.2466723     
   51504500.2466723     
   51504500.2466723     
   51504500.2466723     
   51266140.1949320     
   51266140.1949320     
   51266140.1949320     
   51266140.1949320     
   51266140.1949320     
   51266140.1949319     
   51266140.1949319     
   51266140.1949319     
   51266140.1949318     
   51266140.1949318     
   51266140.1949318     
   51266140.1949318     
   51266140.1949317     
   51266140.1949317     
   51266140.1949316     
   51266140.1949316     
   51266140.1949315     
   51266140.1949315     
   51266140.1949315     
   51266140.1949315     
   51266140.1949314     
   51266140.1949314     
   51266140.1949315     
   51266140.1949314     
   51266140.1949314     
   51266140.1949314     
   51266140.1949313     
   51266140.1949313     
   51266140.1949313     
   51266140.1949312     
   51266140.1949312     
   51266140.1949311     
   51266140.1949311     
   51266140.1949310     
   51266140.1949310     
   51266140.1949309     
   51266140.1949309     
   51266140.1949309     
   51266140.1949309     
   51266140.1949308     
   51266140.1949307     
   51266140.1949307     
   51266140.1949307     
   51266140.1949306     
   51266140.1949306     
   51266140.1949306     
   51266140.1949306     
   51266140.1949306     
   51266140.1949306     
   51266140.1949306     
   51266140.1949306     
   51065542.3075120     
   51065542.3075120     
   51065542.3075120     
   51065542.3075120     
   51065542.3075120     
   51065542.3075120     
   51065542.3075120     
   51065542.3075120     
   51065542.3075120     
   51065542.3075120     
   51065542.3075120     
   51065542.3075120     
   51065542.3075119     
   51065542.3075119     
   51065542.3075119     
   51065542.3075119     
   51065542.3075118     
   51065542.3075118     
   51065542.3075117     
   51065542.3075117     
   51065542.3075116     
   51065542.3075116     
   51065542.3075116     
   51065542.3075116     
   51065542.3075116     
   51065542.3075115     
   51065542.3075115     
   51065542.3075114     
   51065542.3075114     
   51065542.3075114     
   51065542.3075114     
   51065542.3075113     
   51065542.3075112     
   51065542.3075112     
   51065542.3075112     
   51065542.3075112     
   51065542.3075112     
   51065542.3075112     
   51065542.3075111     
   51065542.3075111     
   51065542.3075110     
   51065542.3075109     
   51065542.3075109     
   51065542.3075108     
   51065542.3075108     
   51065542.3075108     
   51065542.3075108     
   51065542.3075109     
   51065542.3075109     
   51065542.3075109     
   51065542.3075109     
   50896723.8264084     
   50896723.8264084     
   50896723.8264084     
   50896723.8264085     
   50896723.8264085     
   50896723.8264085     
   50896723.8264085     
   50896723.8264085     
   50896723.8264086     
   50896723.8264086     
   50896723.8264086     
   50896723.8264086     
   50896723.8264085     
   50896723.8264084     
   50896723.8264084     
   50896723.8264084     
   50896723.8264083     
   50896723.8264084     
   50896723.8264084     
   50896723.8264084     
   50896723.8264083     
   50896723.8264083     
   50896723.8264083     
   50896723.8264082     
   50896723.8264081     
   50896723.8264080     
   50896723.8264080     
   50896723.8264080     
   50896723.8264079     
   50896723.8264079     
   50896723.8264078     
   50896723.8264078     
   50896723.8264077     
   50896723.8264077     
   50896723.8264076     
   50896723.8264075     
   50896723.8264075     
   50896723.8264075     
   50896723.8264075     
   50896723.8264074     
   50896723.8264074     
   50896723.8264074     
   50896723.8264074     
   50896723.8264074     
   50896723.8264074     
   50896723.8264073     
   50896723.8264073     
   50896723.8264073     
   50896723.8264073     
   50896723.8264073     
   50896723.8264073     
   50754649.8026880     
   50754649.8026880     
   50754649.8026880     
   50754649.8026880     
   50754649.8026880     
   50754649.8026880     
   50754649.8026880     
   50754649.8026880     
   50754649.8026881     
   50754649.8026880     
   50754649.8026881     
   50754649.8026881     
   50754649.8026882     
   50754649.8026882     
   50754649.8026882     
   50754649.8026882     
   50754649.8026882     
   50754649.8026882     
   50754649.8026881     
   50754649.8026881     
   50754649.8026880     
   50754649.8026880     
   50754649.8026879     
   50754649.8026879     
   50754649.8026879     
   50754649.8026878     
   50754649.8026878     
   50754649.8026877     
   50754649.8026877     
   50754649.8026876     
   50754649.8026875     
   50754649.8026874     
   50754649.8026873     
   50754649.8026873     
   50754649.8026872     
   50754649.8026872     
   50754649.8026872     
   50754649.8026872     
   50754649.8026871     
   50754649.8026870     
   50754649.8026870     
   50754649.8026869     
   50754649.8026869     
   50754649.8026869     
   50754649.8026868     
   50754649.8026868     
   50754649.8026868     
   50754649.8026869     
   50754649.8026868     
   50754649.8026868     
   50754649.8026868     
   50635082.9309944     
   50635082.9309944     
   50635082.9309944     
   50635082.9309944     
   50635082.9309945     
   50635082.9309945     
   50635082.9309945     
   50635082.9309945     
   50635082.9309945     
   50635082.9309945     
   50635082.9309945     
   50635082.9309945     
   50635082.9309945     
   50635082.9309946     
   50635082.9309946     
   50635082.9309946     
   50635082.9309946     
   50635082.9309946     
   50635082.9309946     
   50635082.9309945     
   50635082.9309945     
   50635082.9309945     
   50635082.9309944     
   50635082.9309944     
   50635082.9309944     
   50635082.9309943     
   50635082.9309942     
   50635082.9309941     
   50635082.9309941     
   50635082.9309940     
   50635082.9309940     
   50635082.9309939     
   50635082.9309939     
   50635082.9309938     
   50635082.9309938     
   50635082.9309937     
   50635082.9309937     
   50635082.9309936     
   50635082.9309936     
   50635082.9309936     
   50635082.9309935     
   50635082.9309935     
   50635082.9309935     
   50635082.9309935     
   50635082.9309935     
   50635082.9309935     
   50635082.9309935     
   50635082.9309935     
   50635082.9309935     
   50635082.9309935     
   50635082.9309935     
   50534457.1734795     
   50534457.1734795     
   50534457.1734795     
   50534457.1734795     
   50534457.1734795     
   50534457.1734795     
   50534457.1734795     
   50534457.1734795     
   50534457.1734795     
   50534457.1734795     
   50534457.1734795     
   50534457.1734795     
   50534457.1734795     
   50534457.1734795     
   50534457.1734796     
   50534457.1734796     
   50534457.1734797     
   50534457.1734797     
   50534457.1734796     
   50534457.1734796     
   50534457.1734796     
   50534457.1734796     
   50534457.1734795     
   50534457.1734795     
   50534457.1734794     
   50534457.1734793     
   50534457.1734793     
   50534457.1734792     
   50534457.1734792     
   50534457.1734791     
   50534457.1734791     
   50534457.1734790     
   50534457.1734789     
   50534457.1734789     
   50534457.1734788     
   50534457.1734788     
   50534457.1734787     
   50534457.1734787     
   50534457.1734787     
   50534457.1734786     
   50534457.1734786     
   50534457.1734786     
   50534457.1734785     
   50534457.1734785     
   50534457.1734785     
   50534457.1734786     
   50534457.1734786     
   50534457.1734786     
   50534457.1734786     
   50534457.1734785     
   50534457.1734785     
   50449771.4040392     
   50449771.4040392     
   50449771.4040392     
   50449771.4040393     
   50449771.4040393     
   50449771.4040393     
   50449771.4040393     
   50449771.4040394     
   50449771.4040394     
   50449771.4040394     
   50449771.4040394     
   50449771.4040395     
   50449771.4040395     
   50449771.4040395     
   50449771.4040395     
   50449771.4040395     
   50449771.4040394     
   50449771.4040394     
   50449771.4040394     
   50449771.4040394     
   50449771.4040393     
   50449771.4040393     
   50449771.4040392     
   50449771.4040392     
   50449771.4040391     
   50449771.4040390     
   50449771.4040390     
   50449771.4040389     
   50449771.4040389     
   50449771.4040388     
   50449771.4040387     
   50449771.4040386     
   50449771.4040385     
   50449771.4040385     
   50449771.4040385     
   50449771.4040384     
   50449771.4040384     
   50449771.4040384     
   50449771.4040384     
   50449771.4040383     
   50449771.4040383     
   50449771.4040384     
   50449771.4040383     
   50449771.4040383     
   50449771.4040383     
   50449771.4040383     
   50449771.4040382     
   50449771.4040382     
   50449771.4040383     
   50449771.4040383     
   50449771.4040383     
   50378499.9008350     
   50378499.9008350     
   50378499.9008350     
   50378499.9008350     
   50378499.9008350     
   50378499.9008349     
   50378499.9008349     
   50378499.9008350     
   50378499.9008350     
   50378499.9008350     
   50378499.9008350     
   50378499.9008350     
   50378499.9008350     
   50378499.9008350     
   50378499.9008349     
   50378499.9008349     
   50378499.9008349     
   50378499.9008348     
   50378499.9008348     
   50378499.9008347     
   50378499.9008347     
   50378499.9008347     
   50378499.9008347     
   50378499.9008346     
   50378499.9008346     
   50378499.9008346     
   50378499.9008345     
   50378499.9008344     
   50378499.9008344     
   50378499.9008344     
   50378499.9008343     
   50378499.9008342     
   50378499.9008342     
   50378499.9008341     
   50378499.9008341     
   50378499.9008340     
   50378499.9008340     
   50378499.9008340     
   50378499.9008340     
   50378499.9008340     
   50378499.9008340     
   50378499.9008339     
   50378499.9008340     
   50378499.9008340     
   50378499.9008340     
   50378499.9008340     
   50378499.9008340     
   50378499.9008340     
   50378499.9008339     
   50378499.9008339     
   50378499.9008339     
   50318517.0175705     
   50318517.0175705     
   50318517.0175705     
   50318517.0175705     
   50318517.0175705     
   50318517.0175705     
   50318517.0175704     
   50318517.0175704     
   50318517.0175704     
   50318517.0175704     
   50318517.0175704     
   50318517.0175703     
   50318517.0175703     
   50318517.0175703     
   50318517.0175703     
   50318517.0175702     
   50318517.0175702     
   50318517.0175702     
   50318517.0175701     
   50318517.0175701     
   50318517.0175701     
   50318517.0175700     
   50318517.0175700     
   50318517.0175700     
   50318517.0175700     
   50318517.0175700     
   50318517.0175700     
   50318517.0175700     
   50318517.0175700     
   50318517.0175700     
   50318517.0175700     
   50318517.0175700     
   50318517.0175699     
   50318517.0175699     
   50318517.0175698     
   50318517.0175698     
   50318517.0175697     
   50318517.0175697     
   50318517.0175697     
   50318517.0175697     
   50318517.0175697     
   50318517.0175697     
   50318517.0175697     
   50318517.0175697     
   50318517.0175697     
   50318517.0175697     
   50318517.0175697     
   50318517.0175698     
   50318517.0175698     
   50318517.0175698     
   50318517.0175698     
   50268033.7868759     
   50268033.7868759     
   50268033.7868759     
   50268033.7868759     
   50268033.7868759     
   50268033.7868760     
   50268033.7868760     
   50268033.7868760     
   50268033.7868759     
   50268033.7868759     
   50268033.7868759     
   50268033.7868759     
   50268033.7868758     
   50268033.7868758     
   50268033.7868758     
   50268033.7868758     
   50268033.7868757     
   50268033.7868757     
   50268033.7868757     
   50268033.7868757     
   50268033.7868756     
   50268033.7868756     
   50268033.7868756     
   50268033.7868756     
   50268033.7868756     
   50268033.7868756     
   50268033.7868755     
   50268033.7868755     
   50268033.7868755     
   50268033.7868755     
   50268033.7868755     
   50268033.7868755     
   50268033.7868755     
   50268033.7868755     
   50268033.7868755     
   50268033.7868754     
   50268033.7868754     
   50268033.7868754     
   50268033.7868754     
   50268033.7868754     
   50268033.7868754     
   50268033.7868754     
   50268033.7868754     
   50268033.7868754     
   50268033.7868754     
   50268033.7868755     
   50268033.7868755     
   50268033.7868755     
   50268033.7868755     
   50268033.7868754     
   50268033.7868754     
   50225544.5650160     
   50225544.5650161     
   50225544.5650160     
   50225544.5650161     
   50225544.5650161     
   50225544.5650161     
   50225544.5650160     
   50225544.5650160     
   50225544.5650159     
   50225544.5650159     
   50225544.5650159     
   50225544.5650159     
   50225544.5650159     
   50225544.5650158     
   50225544.5650158     
   50225544.5650158     
   50225544.5650157     
   50225544.5650157     
   50225544.5650157     
   50225544.5650158     
   50225544.5650158     
   50225544.5650158     
   50225544.5650158     
   50225544.5650158     
   50225544.5650158     
   50225544.5650158     
   50225544.5650158     
   50225544.5650157     
   50225544.5650157     
   50225544.5650156     
   50225544.5650156     
   50225544.5650156     
   50225544.5650156     
   50225544.5650155     
   50225544.5650156     
   50225544.5650156     
   50225544.5650156     
   50225544.5650156     
   50225544.5650155     
   50225544.5650155     
   50225544.5650154     
   50225544.5650154     
   50225544.5650155     
   50225544.5650155     
   50225544.5650155     
   50225544.5650155     
   50225544.5650156     
   50225544.5650156     
   50225544.5650157     
   50225544.5650157     
   50225544.5650156     
   50189782.1266198     
   50189782.1266198     
   50189782.1266198     
   50189782.1266198     
   50189782.1266198     
   50189782.1266197     
   50189782.1266197     
   50189782.1266197     
   50189782.1266197     
   50189782.1266197     
   50189782.1266197     
   50189782.1266197     
   50189782.1266197     
   50189782.1266197     
   50189782.1266197     
   50189782.1266198     
   50189782.1266198     
   50189782.1266197     
   50189782.1266198     
   50189782.1266198     
   50189782.1266197     
   50189782.1266197     
   50189782.1266197     
   50189782.1266197     
   50189782.1266198     
   50189782.1266198     
   50189782.1266198     
   50189782.1266198     
   50189782.1266198     
   50189782.1266198     
   50189782.1266197     
   50189782.1266197     
   50189782.1266197     
   50189782.1266197     
   50189782.1266196     
   50189782.1266195     
   50189782.1266195     
   50189782.1266195     
   50189782.1266195     
   50189782.1266195     
   50189782.1266195     
   50189782.1266194     
   50189782.1266194     
   50189782.1266194     
   50189782.1266195     
   50189782.1266195     
   50189782.1266195     
   50189782.1266195     
   50189782.1266195     
   50189782.1266195     
   50189782.1266195     
   50159679.8701526     
   50159679.8701526     
   50159679.8701526     
   50159679.8701525     
   50159679.8701525     
   50159679.8701525     
   50159679.8701524     
   50159679.8701524     
   50159679.8701524     
   50159679.8701524     
   50159679.8701525     
   50159679.8701525     
   50159679.8701525     
   50159679.8701526     
   50159679.8701526     
   50159679.8701526     
   50159679.8701526     
   50159679.8701527     
   50159679.8701527     
   50159679.8701527     
   50159679.8701528     
   50159679.8701528     
   50159679.8701528     
   50159679.8701528     
   50159679.8701527     
   50159679.8701527     
   50159679.8701527     
   50159679.8701527     
   50159679.8701527     
   50159679.8701527     
   50159679.8701527     
   50159679.8701527     
   50159679.8701527     
   50159679.8701527     
   50159679.8701526     
   50159679.8701526     
   50159679.8701526     
   50159679.8701525     
   50159679.8701525     
   50159679.8701524     
   50159679.8701524     
   50159679.8701523     
   50159679.8701523     
   50159679.8701523     
   50159679.8701523     
   50159679.8701524     
   50159679.8701524     
   50159679.8701524     
   50159679.8701524     
   50159679.8701524     
   50159679.8701524     
   50134340.0069176     
   50134340.0069176     
   50134340.0069177     
   50134340.0069177     
   50134340.0069177     
   50134340.0069178     
   50134340.0069178     
   50134340.0069179     
   50134340.0069179     
   50134340.0069179     
   50134340.0069179     
   50134340.0069179     
   50134340.0069179     
   50134340.0069180     
   50134340.0069180     
   50134340.0069180     
   50134340.0069180     
   50134340.0069181     
   50134340.0069181     
   50134340.0069182     
   50134340.0069182     
   50134340.0069182     
   50134340.0069183     
   50134340.0069183     
   50134340.0069183     
   50134340.0069182     
   50134340.0069182     
   50134340.0069182     
   50134340.0069181     
   50134340.0069181     
   50134340.0069181     
   50134340.0069181     
   50134340.0069180     
   50134340.0069180     
   50134340.0069180     
   50134340.0069180     
   50134340.0069180     
   50134340.0069179     
   50134340.0069180     
   50134340.0069180     
   50134340.0069180     
   50134340.0069180     
   50134340.0069180     
   50134340.0069180     
   50134340.0069180     
   50134340.0069179     
   50134340.0069179     
   50134340.0069180     
   50134340.0069180     
   50134340.0069179     
   50134340.0069179     
   50113006.7848408     
   50113006.7848408     
   50113006.7848408     
   50113006.7848408     
   50113006.7848409     
   50113006.7848408     
   50113006.7848408     
   50113006.7848409     
   50113006.7848409     
   50113006.7848409     
   50113006.7848410     
   50113006.7848410     
   50113006.7848410     
   50113006.7848410     
   50113006.7848410     
   50113006.7848411     
   50113006.7848411     
   50113006.7848411     
   50113006.7848412     
   50113006.7848412     
   50113006.7848412     
   50113006.7848412     
   50113006.7848412     
   50113006.7848412     
   50113006.7848412     
   50113006.7848412     
   50113006.7848412     
   50113006.7848412     
   50113006.7848412     
   50113006.7848412     
   50113006.7848412     
   50113006.7848412     
   50113006.7848412     
   50113006.7848412     
   50113006.7848411     
   50113006.7848411     
   50113006.7848412     
   50113006.7848412     
   50113006.7848412     
   50113006.7848412     
   50113006.7848413     
   50113006.7848413     
   50113006.7848413     
   50113006.7848413     
   50113006.7848413     
   50113006.7848413     
   50113006.7848413     
   50113006.7848412     
   50113006.7848411     
   50113006.7848411     
   50113006.7848411     
   50095043.9484416     
   50095043.9484416     
   50095043.9484416     
   50095043.9484416     
   50095043.9484416     
   50095043.9484417     
   50095043.9484417     
   50095043.9484417     
   50095043.9484417     
   50095043.9484417     
   50095043.9484417     
   50095043.9484417     
   50095043.9484416     
   50095043.9484417     
   50095043.9484418     
   50095043.9484418     
   50095043.9484419     
   50095043.9484419     
   50095043.9484420     
   50095043.9484420     
   50095043.9484420     
   50095043.9484420     
   50095043.9484419     
   50095043.9484419     
   50095043.9484419     
   50095043.9484419     
   50095043.9484420     
   50095043.9484420     
   50095043.9484420     
   50095043.9484419     
   50095043.9484419     
   50095043.9484419     
   50095043.9484419     
   50095043.9484419     
   50095043.9484420     
   50095043.9484419     
   50095043.9484419     
   50095043.9484419     
   50095043.9484419     
   50095043.9484419     
   50095043.9484419     
   50095043.9484419     
   50095043.9484419     
   50095043.9484419     
   50095043.9484420     
   50095043.9484420     
   50095043.9484421     
   50095043.9484421     
   50095043.9484421     
   50095043.9484421     
   50095043.9484421     
   50079915.7627497     
   50079915.7627496     
   50079915.7627497     
   50079915.7627497     
   50079915.7627497     
   50079915.7627497     
   50079915.7627498     
   50079915.7627498     
   50079915.7627498     
   50079915.7627498     
   50079915.7627499     
   50079915.7627499     
   50079915.7627499     
   50079915.7627499     
   50079915.7627499     
   50079915.7627499     
   50079915.7627499     
   50079915.7627499     
   50079915.7627499     
   50079915.7627499     
   50079915.7627499     
   50079915.7627499     
   50079915.7627499     
   50079915.7627499     
   50079915.7627499     
   50079915.7627499     
   50079915.7627500     
   50079915.7627499     
   50079915.7627499     
   50079915.7627500     
   50079915.7627500     
   50079915.7627501     
   50079915.7627501     
   50079915.7627501     
   50079915.7627501     
   50079915.7627501     
   50079915.7627500     
   50079915.7627500     
   50079915.7627500     
   50079915.7627500     
   50079915.7627500     
   50079915.7627500     
   50079915.7627500     
   50079915.7627501     
   50079915.7627501     
   50079915.7627501     
   50079915.7627501     
   50079915.7627501     
   50079915.7627501     
   50079915.7627501     
   50079915.7627501     
   50067171.0352065     
   50067171.0352065     
   50067171.0352066     
   50067171.0352065     
   50067171.0352065     
   50067171.0352065     
   50067171.0352065     
   50067171.0352065     
   50067171.0352066     
   50067171.0352066     
   50067171.0352066     
   50067171.0352066     
   50067171.0352067     
   50067171.0352067     
   50067171.0352067     
   50067171.0352068     
   50067171.0352067     
   50067171.0352067     
   50067171.0352067     
   50067171.0352067     
   50067171.0352068     
   50067171.0352068     
   50067171.0352068     
   50067171.0352068     
   50067171.0352068     
   50067171.0352069     
   50067171.0352069     
   50067171.0352070     
   50067171.0352070     
   50067171.0352070     
   50067171.0352069     
   50067171.0352069     
   50067171.0352069     
   50067171.0352069     
   50067171.0352068     
   50067171.0352068     
   50067171.0352068     
   50067171.0352068     
   50067171.0352067     
   50067171.0352067     
   50067171.0352067     
   50067171.0352068     
   50067171.0352068     
   50067171.0352068     
   50067171.0352068     
   50067171.0352069     
   50067171.0352069     
   50067171.0352070     
   50067171.0352069     
   50067171.0352069     
   50067171.0352069     
   50056429.6590139     
   50056429.6590139     
   50056429.6590139     
   50056429.6590139     
   50056429.6590139     
   50056429.6590138     
   50056429.6590138     
   50056429.6590137     
   50056429.6590138     
   50056429.6590138     
   50056429.6590138     
   50056429.6590138     
   50056429.6590138     
   50056429.6590137     
   50056429.6590138     
   50056429.6590138     
   50056429.6590139     
   50056429.6590139     
   50056429.6590140     
   50056429.6590140     
   50056429.6590140     
   50056429.6590140     
   50056429.6590140     
   50056429.6590140     
   50056429.6590140     
   50056429.6590141     
   50056429.6590141     
   50056429.6590141     
   50056429.6590141     
   50056429.6590141     
   50056429.6590141     
   50056429.6590141     
   50056429.6590141     
   50056429.6590141     
   50056429.6590141     
   50056429.6590141     
   50056429.6590140     
   50056429.6590140     
   50056429.6590140     
   50056429.6590140     
   50056429.6590140     
   50056429.6590140     
   50056429.6590140     
   50056429.6590140     
   50056429.6590140     
   50056429.6590140     
   50056429.6590140     
   50056429.6590140     
   50056429.6590141     
   50056429.6590141     
   50056429.6590141     
   50047371.2765884     
   50047371.2765884     
   50047371.2765883     
   50047371.2765883     
   50047371.2765883     
   50047371.2765883     
   50047371.2765883     
   50047371.2765883     
   50047371.2765883     
   50047371.2765883     
   50047371.2765883     
   50047371.2765883     
   50047371.2765883     
   50047371.2765883     
   50047371.2765883     
   50047371.2765883     
   50047371.2765883     
   50047371.2765883     
   50047371.2765884     
   50047371.2765884     
   50047371.2765884     
   50047371.2765885     
   50047371.2765884     
   50047371.2765884     
   50047371.2765884     
   50047371.2765884     
   50047371.2765884     
   50047371.2765885     
   50047371.2765885     
   50047371.2765884     
   50047371.2765884     
   50047371.2765884     
   50047371.2765883     
   50047371.2765883     
   50047371.2765883     
   50047371.2765883     
   50047371.2765883     
   50047371.2765883     
   50047371.2765883     
   50047371.2765883     
   50047371.2765883     
   50047371.2765883     
   50047371.2765883     
   50047371.2765883     
   50047371.2765883     
   50047371.2765883     
   50047371.2765883     
   50047371.2765883     
   50047371.2765883     
   50047371.2765883     
   50047371.2765883     
   50039725.7250151     
   50039725.7250151     
   50039725.7250151     
   50039725.7250151     
   50039725.7250151     
   50039725.7250151     
   50039725.7250150     
   50039725.7250150     
   50039725.7250151     
   50039725.7250151     
   50039725.7250150     
   50039725.7250151     
   50039725.7250151     
   50039725.7250151     
   50039725.7250151     
   50039725.7250151     
   50039725.7250151     
   50039725.7250151     
   50039725.7250151     
   50039725.7250151     
   50039725.7250151     
   50039725.7250151     
   50039725.7250151     
   50039725.7250151     
   50039725.7250151     
   50039725.7250151     
   50039725.7250151     
   50039725.7250151     
   50039725.7250151     
   50039725.7250151     
   50039725.7250150     
   50039725.7250150     
   50039725.7250150     
   50039725.7250150     
   50039725.7250150     
   50039725.7250150     
   50039725.7250150     
   50039725.7250150     
   50039725.7250150     
   50039725.7250150     
   50039725.7250150     
   50039725.7250150     
   50039725.7250150     
   50039725.7250151     
   50039725.7250151     
   50039725.7250151     
   50039725.7250151     
   50039725.7250152     
   50039725.7250152     
   50039725.7250152     
   50039725.7250152     
   50033264.9785385     
   50033264.9785385     
   50033264.9785384     
   50033264.9785384     
   50033264.9785385     
   50033264.9785385     
   50033264.9785385     
   50033264.9785385     
   50033264.9785385     
   50033264.9785385     
   50033264.9785385     
   50033264.9785384     
   50033264.9785384     
   50033264.9785385     
   50033264.9785384     
   50033264.9785384     
   50033264.9785384     
   50033264.9785384     
   50033264.9785384     
   50033264.9785384     
   50033264.9785384     
   50033264.9785384     
   50033264.9785384     
   50033264.9785384     
   50033264.9785384     
   50033264.9785384     
   50033264.9785384     
   50033264.9785384     
   50033264.9785384     
   50033264.9785384     
   50033264.9785384     
   50033264.9785384     
   50033264.9785383     
   50033264.9785383     
   50033264.9785383     
   50033264.9785383     
   50033264.9785383     
   50033264.9785383     
   50033264.9785383     
   50033264.9785384     
   50033264.9785384     
   50033264.9785385     
   50033264.9785384     
   50033264.9785384     
   50033264.9785384     
   50033264.9785384     
   50033264.9785384     
   50033264.9785385     
   50033264.9785385     
   50033264.9785385     
   50033264.9785385     
   50027796.3477779     
   50027796.3477779     
   50027796.3477779     
   50027796.3477779     
   50027796.3477778     
   50027796.3477778     
   50027796.3477778     
   50027796.3477778     
   50027796.3477779     
   50027796.3477779     
   50027796.3477779     
   50027796.3477779     
   50027796.3477779     
   50027796.3477778     
   50027796.3477778     
   50027796.3477778     
   50027796.3477778     
   50027796.3477777     
   50027796.3477777     
   50027796.3477777     
   50027796.3477776     
   50027796.3477776     
   50027796.3477775     
   50027796.3477776     
   50027796.3477776     
   50027796.3477776     
   50027796.3477776     
   50027796.3477776     
   50027796.3477776     
   50027796.3477776     
   50027796.3477776     
   50027796.3477776     
   50027796.3477775     
   50027796.3477775     
   50027796.3477775     
   50027796.3477775     
   50027796.3477775     
   50027796.3477776     
   50027796.3477776     
   50027796.3477776     
   50027796.3477776     
   50027796.3477777     
   50027796.3477776     
   50027796.3477776     
   50027796.3477776     
   50027796.3477777     
   50027796.3477777     
   50027796.3477777     
   50027796.3477776     
   50027796.3477776     
   50027796.3477776     
   50023156.7328376     
   50023156.7328376     
   50023156.7328376     
   50023156.7328376     
   50023156.7328376     
   50023156.7328376     
   50023156.7328376     
   50023156.7328376     
   50023156.7328376     
   50023156.7328376     
   50023156.7328376     
   50023156.7328376     
   50023156.7328376     
   50023156.7328376     
   50023156.7328376     
   50023156.7328376     
   50023156.7328376     
   50023156.7328376     
   50023156.7328376     
   50023156.7328376     
   50023156.7328376     
   50023156.7328375     
   50023156.7328375     
   50023156.7328375     
   50023156.7328375     
   50023156.7328375     
   50023156.7328375     
   50023156.7328375     
   50023156.7328374     
   50023156.7328374     
   50023156.7328374     
   50023156.7328374     
   50023156.7328374     
   50023156.7328374     
   50023156.7328374     
   50023156.7328374     
   50023156.7328374     
   50023156.7328373     
   50023156.7328373     
   50023156.7328373     
   50023156.7328372     
   50023156.7328372     
   50023156.7328372     
   50023156.7328372     
   50023156.7328372     
   50023156.7328372     
   50023156.7328372     
   50023156.7328372     
   50023156.7328371     
   50023156.7328371     
   50023156.7328371     
   50019207.7589134     
   50019207.7589134     
   50019207.7589134     
   50019207.7589133     
   50019207.7589134     
   50019207.7589134     
   50019207.7589134     
   50019207.7589134     
   50019207.7589135     
   50019207.7589135     
   50019207.7589135     
   50019207.7589135     
   50019207.7589135     
   50019207.7589135     
   50019207.7589135     
   50019207.7589135     
   50019207.7589134     
   50019207.7589134     
   50019207.7589134     
   50019207.7589133     
   50019207.7589133     
   50019207.7589133     
   50019207.7589133     
   50019207.7589133     
   50019207.7589133     
   50019207.7589132     
   50019207.7589132     
   50019207.7589132     
   50019207.7589132     
   50019207.7589132     
   50019207.7589131     
   50019207.7589131     
   50019207.7589130     
   50019207.7589130     
   50019207.7589130     
   50019207.7589129     
   50019207.7589129     
   50019207.7589129     
   50019207.7589129     
   50019207.7589129     
   50019207.7589129     
   50019207.7589129     
   50019207.7589129     
   50019207.7589128     
   50019207.7589129     
   50019207.7589129     
   50019207.7589129     
   50019207.7589128     
   50019207.7589129     
   50019207.7589129     
   50019207.7589129     
   50015831.6493144     
   50015831.6493144     
   50015831.6493144     
   50015831.6493145     
   50015831.6493145     
   50015831.6493145     
   50015831.6493145     
   50015831.6493145     
   50015831.6493145     
   50015831.6493145     
   50015831.6493145     
   50015831.6493146     
   50015831.6493146     
   50015831.6493146     
   50015831.6493145     
   50015831.6493145     
   50015831.6493145     
   50015831.6493145     
   50015831.6493144     
   50015831.6493144     
   50015831.6493144     
   50015831.6493143     
   50015831.6493143     
   50015831.6493143     
   50015831.6493142     
   50015831.6493141     
   50015831.6493141     
   50015831.6493141     
   50015831.6493141     
   50015831.6493141     
   50015831.6493141     
   50015831.6493140     
   50015831.6493140     
   50015831.6493139     
   50015831.6493139     
   50015831.6493139     
   50015831.6493139     
   50015831.6493139     
   50015831.6493138     
   50015831.6493139     
   50015831.6493139     
   50015831.6493139     
   50015831.6493139     
   50015831.6493139     
   50015831.6493139     
   50015831.6493139     
   50015831.6493139     
   50015831.6493139     
   50015831.6493139     
   50015831.6493139     
   50015831.6493139     
   50012927.7128172     
   50012927.7128171     
   50012927.7128171     
   50012927.7128171     
   50012927.7128171     
   50012927.7128171     
   50012927.7128171     
   50012927.7128172     
   50012927.7128173     
   50012927.7128173     
   50012927.7128173     
   50012927.7128172     
   50012927.7128172     
   50012927.7128172     
   50012927.7128172     
   50012927.7128172     
   50012927.7128172     
   50012927.7128172     
   50012927.7128171     
   50012927.7128172     
   50012927.7128171     
   50012927.7128171     
   50012927.7128171     
   50012927.7128170     
   50012927.7128170     
   50012927.7128169     
   50012927.7128168     
   50012927.7128168     
   50012927.7128168     
   50012927.7128167     
   50012927.7128167     
   50012927.7128167     
   50012927.7128166     
   50012927.7128167     
   50012927.7128167     
   50012927.7128167     
   50012927.7128167     
   50012927.7128166     
   50012927.7128166     
   50012927.7128166     
   50012927.7128165     
   50012927.7128165     
   50012927.7128165     
   50012927.7128165     
   50012927.7128166     
   50012927.7128166     
   50012927.7128166     
   50012927.7128165     
   50012927.7128165     
   50012927.7128165     
   50012927.7128164     
   50010409.3405864     
   50010409.3405864     
   50010409.3405864     
   50010409.3405865     
   50010409.3405865     
   50010409.3405865     
   50010409.3405865     
   50010409.3405865     
   50010409.3405865     
   50010409.3405866     
   50010409.3405866     
   50010409.3405866     
   50010409.3405865     
   50010409.3405866     
   50010409.3405866     
   50010409.3405866     
   50010409.3405866     
   50010409.3405866     
   50010409.3405866     
   50010409.3405865     
   50010409.3405865     
   50010409.3405865     
   50010409.3405864     
   50010409.3405863     
   50010409.3405863     
   50010409.3405862     
   50010409.3405862     
   50010409.3405862     
   50010409.3405861     
   50010409.3405861     
   50010409.3405860     
   50010409.3405860     
   50010409.3405860     
   50010409.3405860     
   50010409.3405860     
   50010409.3405860     
   50010409.3405860     
   50010409.3405860     
   50010409.3405860     
   50010409.3405860     
   50010409.3405860     
   50010409.3405860     
   50010409.3405860     
   50010409.3405860     
   50010409.3405859     
   50010409.3405859     
   50010409.3405859     
   50010409.3405860     
   50010409.3405859     
   50010409.3405859     
   50010409.3405859     
   50008201.4230995     
   50008201.4230995     
   50008201.4230995     
   50008201.4230995     
   50008201.4230995     
   50008201.4230996     
   50008201.4230996     
   50008201.4230997     
   50008201.4230997     
   50008201.4230997     
   50008201.4230997     
   50008201.4230997     
   50008201.4230997     
   50008201.4230997     
   50008201.4230998     
   50008201.4230998     
   50008201.4230998     
   50008201.4230997     
   50008201.4230997     
   50008201.4230998     
   50008201.4230998     
   50008201.4230997     
   50008201.4230997     
   50008201.4230997     
   50008201.4230996     
   50008201.4230996     
   50008201.4230995     
   50008201.4230994     
   50008201.4230994     
   50008201.4230994     
   50008201.4230993     
   50008201.4230993     
   50008201.4230993     
   50008201.4230993     
   50008201.4230993     
   50008201.4230992     
   50008201.4230992     
   50008201.4230992     
   50008201.4230992     
   50008201.4230992     
   50008201.4230992     
   50008201.4230992     
   50008201.4230992     
   50008201.4230992     
   50008201.4230992     
   50008201.4230992     
   50008201.4230992     
   50008201.4230991     
   50008201.4230991     
   50008201.4230991     
   50008201.4230992     
   50006238.1100318     
   50006238.1100318     
   50006238.1100318     
   50006238.1100318     
   50006238.1100318     
   50006238.1100318     
   50006238.1100319     
   50006238.1100318     
   50006238.1100318     
   50006238.1100318     
   50006238.1100319     
   50006238.1100319     
   50006238.1100320     
   50006238.1100320     
   50006238.1100319     
   50006238.1100319     
   50006238.1100319     
   50006238.1100319     
   50006238.1100319     
   50006238.1100319     
   50006238.1100319     
   50006238.1100319     
   50006238.1100319     
   50006238.1100319     
   50006238.1100318     
   50006238.1100318     
   50006238.1100318     
   50006238.1100318     
   50006238.1100318     
   50006238.1100318     
   50006238.1100318     
   50006238.1100318     
   50006238.1100318     
   50006238.1100318     
   50006238.1100318     
   50006238.1100318     
   50006238.1100318     
   50006238.1100317     
   50006238.1100317     
   50006238.1100317     
   50006238.1100316     
   50006238.1100316     
   50006238.1100316     
   50006238.1100316     
   50006238.1100316     
   50006238.1100316     
   50006238.1100316     
   50006238.1100317     
   50006238.1100317     
   50006238.1100317     
   50006238.1100317     
   50004460.8462950     
   50004460.8462950     
   50004460.8462951     
   50004460.8462951     
   50004460.8462951     
   50004460.8462950     
   50004460.8462950     
   50004460.8462951     
   50004460.8462951     
   50004460.8462951     
   50004460.8462950     
   50004460.8462950     
   50004460.8462950     
   50004460.8462950     
   50004460.8462950     
   50004460.8462950     
   50004460.8462951     
   50004460.8462950     
   50004460.8462950     
   50004460.8462950     
   50004460.8462950     
   50004460.8462951     
   50004460.8462951     
   50004460.8462951     
   50004460.8462951     
   50004460.8462951     
   50004460.8462951     
   50004460.8462951     
   50004460.8462951     
   50004460.8462951     
   50004460.8462951     
   50004460.8462951     
   50004460.8462951     
   50004460.8462951     
   50004460.8462951     
   50004460.8462951     
   50004460.8462951     
   50004460.8462951     
   50004460.8462951     
   50004460.8462951     
   50004460.8462951     
   50004460.8462951     
   50004460.8462951     
   50004460.8462951     
   50004460.8462951     
   50004460.8462951     
   50004460.8462951     
   50004460.8462951     
   50004460.8462951     
   50004460.8462951     
   50004460.8462951     
   50002816.6256539     
   50002816.6256539     
   50002816.6256538     
   50002816.6256538     
   50002816.6256538     
   50002816.6256538     
   50002816.6256538     
   50002816.6256537     
   50002816.6256537     
   50002816.6256536     
   50002816.6256536     
   50002816.6256536     
   50002816.6256536     
   50002816.6256537     
   50002816.6256537     
   50002816.6256537     
   50002816.6256537     
   50002816.6256537     
   50002816.6256537     
   50002816.6256537     
   50002816.6256537     
   50002816.6256538     
   50002816.6256538     
   50002816.6256538     
   50002816.6256537     
   50002816.6256538     
   50002816.6256538     
   50002816.6256538     
   50002816.6256538     
   50002816.6256538     
   50002816.6256539     
   50002816.6256539     
   50002816.6256539     
   50002816.6256539     
   50002816.6256539     
   50002816.6256539     
   50002816.6256539     
   50002816.6256540     
   50002816.6256540     
   50002816.6256540     
   50002816.6256540     
   50002816.6256540     
   50002816.6256540     
   50002816.6256540     
   50002816.6256541     
   50002816.6256541     
   50002816.6256541     
   50002816.6256541     
   50002816.6256541     
   50002816.6256541     
   50002816.6256541     
   50001256.4098341     
   50001256.4098341     
   50001256.4098342     
   50001256.4098342     
   50001256.4098342     
   50001256.4098342     
   50001256.4098342     
   50001256.4098341     
   50001256.4098341     
   50001256.4098340     
   50001256.4098340     
   50001256.4098339     
   50001256.4098340     
   50001256.4098340     
   50001256.4098339     
   50001256.4098340     
   50001256.4098340     
   50001256.4098339     
   50001256.4098339     
   50001256.4098339     
   50001256.4098339     
   50001256.4098340     
   50001256.4098340     
   50001256.4098340     
   50001256.4098340     
   50001256.4098340     
   50001256.4098340     
   50001256.4098339     
   50001256.4098340     
   50001256.4098340     
   50001256.4098340     
   50001256.4098340     
   50001256.4098340     
   50001256.4098340     
   50001256.4098340     
   50001256.4098340     
   50001256.4098340     
   50001256.4098340     
   50001256.4098341     
   50001256.4098342     
   50001256.4098342     
   50001256.4098342     
   50001256.4098342     
   50001256.4098342     
   50001256.4098343     
   50001256.4098343     
   50001256.4098343     
   50001256.4098343     
   50001256.4098343     
   50001256.4098343     
   50001256.4098344     
   49999733.6659747     
   49999733.6659747     
   49999733.6659747     
   49999733.6659747     
   49999733.6659746     
   49999733.6659746     
   49999733.6659746     
   49999733.6659746     
   49999733.6659745     
   49999733.6659744     
   49999733.6659744     
   49999733.6659743     
   49999733.6659743     
   49999733.6659743     
   49999733.6659743     
   49999733.6659743     
   49999733.6659743     
   49999733.6659744     
   49999733.6659743     
   49999733.6659744     
   49999733.6659743     
   49999733.6659743     
   49999733.6659743     
   49999733.6659743     
   49999733.6659742     
   49999733.6659742     
   49999733.6659742     
   49999733.6659742     
   49999733.6659742     
   49999733.6659742     
   49999733.6659743     
   49999733.6659743     
   49999733.6659744     
   49999733.6659744     
   49999733.6659745     
   49999733.6659745     
   49999733.6659745     
   49999733.6659746     
   49999733.6659746     
   49999733.6659746     
   49999733.6659746     
   49999733.6659746     
   49999733.6659746     
   49999733.6659747     
   49999733.6659747     
   49999733.6659748     
   49999733.6659748     
   49999733.6659748     
   49999733.6659748     
   49999733.6659749     
   49999733.6659748     
   49998202.9788010     
   49998202.9788010     
   49998202.9788010     
   49998202.9788010     
   49998202.9788010     
   49998202.9788010     
   49998202.9788010     
   49998202.9788009     
   49998202.9788009     
   49998202.9788008     
   49998202.9788008     
   49998202.9788009     
   49998202.9788009     
   49998202.9788009     
   49998202.9788009     
   49998202.9788008     
   49998202.9788008     
   49998202.9788007     
   49998202.9788007     
   49998202.9788007     
   49998202.9788007     
   49998202.9788006     
   49998202.9788006     
   49998202.9788006     
   49998202.9788006     
   49998202.9788006     
   49998202.9788007     
   49998202.9788007     
   49998202.9788007     
   49998202.9788007     
   49998202.9788008     
   49998202.9788009     
   49998202.9788009     
   49998202.9788009     
   49998202.9788009     
   49998202.9788010     
   49998202.9788010     
   49998202.9788011     
   49998202.9788011     
   49998202.9788011     
   49998202.9788012     
   49998202.9788011     
   49998202.9788012     
   49998202.9788012     
   49998202.9788012     
   49998202.9788012     
   49998202.9788012     
   49998202.9788011     
   49998202.9788011     
   49998202.9788011     
   49998202.9788010     
   49996618.6961328     
   49996618.6961328     
   49996618.6961329     
   49996618.6961329     
   49996618.6961328     
   49996618.6961328     
   49996618.6961328     
   49996618.6961328     
   49996618.6961328     
   49996618.6961329     
   49996618.6961329     
   49996618.6961328     
   49996618.6961328     
   49996618.6961328     
   49996618.6961328     
   49996618.6961328     
   49996618.6961328     
   49996618.6961327     
   49996618.6961327     
   49996618.6961327     
   49996618.6961327     
   49996618.6961326     
   49996618.6961327     
   49996618.6961327     
   49996618.6961327     
   49996618.6961327     
   49996618.6961327     
   49996618.6961328     
   49996618.6961328     
   49996618.6961329     
   49996618.6961329     
   49996618.6961329     
   49996618.6961329     
   49996618.6961330     
   49996618.6961329     
   49996618.6961329     
   49996618.6961330     
   49996618.6961330     
   49996618.6961330     
   49996618.6961331     
   49996618.6961331     
   49996618.6961332     
   49996618.6961332     
   49996618.6961332     
   49996618.6961332     
   49996618.6961332     
   49996618.6961332     
   49996618.6961332     
   49996618.6961332     
   49996618.6961332     
   49996618.6961332     
   49994933.5673241     
   49994933.5673241     
   49994933.5673241     
   49994933.5673241     
   49994933.5673240     
   49994933.5673241     
   49994933.5673241     
   49994933.5673241     
   49994933.5673241     
   49994933.5673241     
   49994933.5673241     
   49994933.5673241     
   49994933.5673241     
   49994933.5673241     
   49994933.5673240     
   49994933.5673240     
   49994933.5673240     
   49994933.5673240     
   49994933.5673240     
   49994933.5673240     
   49994933.5673240     
   49994933.5673240     
   49994933.5673240     
   49994933.5673240     
   49994933.5673241     
   49994933.5673241     
   49994933.5673241     
   49994933.5673241     
   49994933.5673241     
   49994933.5673242     
   49994933.5673242     
   49994933.5673243     
   49994933.5673243     
   49994933.5673242     
   49994933.5673243     
   49994933.5673243     
   49994933.5673243     
   49994933.5673244     
   49994933.5673244     
   49994933.5673244     
   49994933.5673244     
   49994933.5673245     
   49994933.5673245     
   49994933.5673245     
   49994933.5673246     
   49994933.5673246     
   49994933.5673246     
   49994933.5673246     
   49994933.5673247     
   49994933.5673247     
   49994933.5673247     
   49993097.3340296     
   49993097.3340296     
   49993097.3340296     
   49993097.3340296     
   49993097.3340296     
   49993097.3340296     
   49993097.3340296     
   49993097.3340297     
   49993097.3340297     
   49993097.3340297     
   49993097.3340297     
   49993097.3340296     
   49993097.3340295     
   49993097.3340295     
   49993097.3340295     
   49993097.3340294     
   49993097.3340295     
   49993097.3340295     
   49993097.3340295     
   49993097.3340295     
   49993097.3340295     
   49993097.3340296     
   49993097.3340296     
   49993097.3340297     
   49993097.3340297     
   49993097.3340297     
   49993097.3340297     
   49993097.3340297     
   49993097.3340298     
   49993097.3340298     
   49993097.3340298     
   49993097.3340297     
   49993097.3340298     
   49993097.3340298     
   49993097.3340298     
   49993097.3340298     
   49993097.3340299     
   49993097.3340299     
   49993097.3340299     
   49993097.3340299     
   49993097.3340300     
   49993097.3340300     
   49993097.3340301     
   49993097.3340301     
   49993097.3340302     
   49993097.3340302     
   49993097.3340303     
   49993097.3340303     
   49993097.3340304     
   49993097.3340303     
   49993097.3340303     
   49991055.2312683     
   49991055.2312684     
   49991055.2312684     
   49991055.2312685     
   49991055.2312685     
   49991055.2312686     
   49991055.2312686     
   49991055.2312686     
   49991055.2312685     
   49991055.2312685     
   49991055.2312685     
   49991055.2312685     
   49991055.2312685     
   49991055.2312685     
   49991055.2312685     
   49991055.2312685     
   49991055.2312685     
   49991055.2312685     
   49991055.2312685     
   49991055.2312685     
   49991055.2312686     
   49991055.2312686     
   49991055.2312686     
   49991055.2312687     
   49991055.2312687     
   49991055.2312687     
   49991055.2312687     
   49991055.2312687     
   49991055.2312687     
   49991055.2312687     
   49991055.2312687     
   49991055.2312688     
   49991055.2312688     
   49991055.2312688     
   49991055.2312688     
   49991055.2312688     
   49991055.2312688     
   49991055.2312688     
   49991055.2312688     
   49991055.2312689     
   49991055.2312690     
   49991055.2312691     
   49991055.2312691     
   49991055.2312692     
   49991055.2312692     
   49991055.2312692     
   49991055.2312693     
   49991055.2312692     
   49991055.2312692     
   49991055.2312692     
   49991055.2312692     
   49988746.3540790     
   49988746.3540790     
   49988746.3540790     
   49988746.3540790     
   49988746.3540791     
   49988746.3540791     
   49988746.3540791     
   49988746.3540791     
   49988746.3540791     
   49988746.3540791     
   49988746.3540791     
   49988746.3540791     
   49988746.3540791     
   49988746.3540792     
   49988746.3540792     
   49988746.3540792     
   49988746.3540793     
   49988746.3540793     
   49988746.3540793     
   49988746.3540794     
   49988746.3540794     
   49988746.3540794     
   49988746.3540795     
   49988746.3540794     
   49988746.3540794     
   49988746.3540794     
   49988746.3540794     
   49988746.3540795     
   49988746.3540795     
   49988746.3540795     
   49988746.3540795     
   49988746.3540795     
   49988746.3540795     
   49988746.3540795     
   49988746.3540795     
   49988746.3540796     
   49988746.3540796     
   49988746.3540796     
   49988746.3540796     
   49988746.3540796     
   49988746.3540796     
   49988746.3540796     
   49988746.3540797     
   49988746.3540797     
   49988746.3540797     
   49988746.3540797     
   49988746.3540798     
   49988746.3540798     
   49988746.3540798     
   49988746.3540798     
   49988746.3540798     
   49986101.8410511     
   49986101.8410510     
   49986101.8410510     
   49986101.8410510     
   49986101.8410510     
   49986101.8410510     
   49986101.8410510     
   49986101.8410510     
   49986101.8410510     
   49986101.8410510     
   49986101.8410509     
   49986101.8410509     
   49986101.8410509     
   49986101.8410509     
   49986101.8410510     
   49986101.8410510     
   49986101.8410511     
   49986101.8410511     
   49986101.8410511     
   49986101.8410511     
   49986101.8410512     
   49986101.8410512     
   49986101.8410513     
   49986101.8410513     
   49986101.8410513     
   49986101.8410513     
   49986101.8410514     
   49986101.8410514     
   49986101.8410514     
   49986101.8410514     
   49986101.8410514     
   49986101.8410514     
   49986101.8410514     
   49986101.8410515     
   49986101.8410515     
   49986101.8410515     
   49986101.8410515     
   49986101.8410514     
   49986101.8410514     
   49986101.8410514     
   49986101.8410514     
   49986101.8410514     
   49986101.8410514     
   49986101.8410514     
   49986101.8410515     
   49986101.8410515     
   49986101.8410515     
   49986101.8410514     
   49986101.8410514     
   49986101.8410514     
   49986101.8410514     
   49983042.8205585     
   49983042.8205585     
   49983042.8205586     
   49983042.8205586     
   49983042.8205585     
   49983042.8205585     
   49983042.8205585     
   49983042.8205585     
   49983042.8205585     
   49983042.8205585     
   49983042.8205585     
   49983042.8205585     
   49983042.8205586     
   49983042.8205586     
   49983042.8205586     
   49983042.8205586     
   49983042.8205586     
   49983042.8205586     
   49983042.8205587     
   49983042.8205587     
   49983042.8205588     
   49983042.8205588     
   49983042.8205588     
   49983042.8205588     
   49983042.8205589     
   49983042.8205589     
   49983042.8205589     
   49983042.8205589     
   49983042.8205589     
   49983042.8205589     
   49983042.8205589     
   49983042.8205589     
   49983042.8205589     
   49983042.8205589     
   49983042.8205589     
   49983042.8205589     
   49983042.8205588     
   49983042.8205588     
   49983042.8205588     
   49983042.8205588     
   49983042.8205587     
   49983042.8205587     
   49983042.8205588     
   49983042.8205588     
   49983042.8205588     
   49983042.8205588     
   49983042.8205588     
   49983042.8205588     
   49983042.8205588     
   49983042.8205588     
   49983042.8205587     
   49979478.0584438     
   49979478.0584437     
   49979478.0584437     
   49979478.0584436     
   49979478.0584436     
   49979478.0584436     
   49979478.0584436     
   49979478.0584436     
   49979478.0584436     
   49979478.0584436     
   49979478.0584436     
   49979478.0584437     
   49979478.0584437     
   49979478.0584437     
   49979478.0584437     
   49979478.0584437     
   49979478.0584437     
   49979478.0584437     
   49979478.0584437     
   49979478.0584437     
   49979478.0584437     
   49979478.0584437     
   49979478.0584437     
   49979478.0584437     
   49979478.0584437     
   49979478.0584438     
   49979478.0584438     
   49979478.0584438     
   49979478.0584438     
   49979478.0584438     
   49979478.0584438     
   49979478.0584438     
   49979478.0584437     
   49979478.0584437     
   49979478.0584437     
   49979478.0584437     
   49979478.0584438     
   49979478.0584437     
   49979478.0584437     
   49979478.0584437     
   49979478.0584437     
   49979478.0584437     
   49979478.0584437     
   49979478.0584437     
   49979478.0584437     
   49979478.0584437     
   49979478.0584437     
   49979478.0584436     
   49979478.0584436     
   49979478.0584436     
   49979478.0584437     
   49975301.2369911     
   49975301.2369911     
   49975301.2369911     
   49975301.2369911     
   49975301.2369911     
   49975301.2369911     
   49975301.2369910     
   49975301.2369910     
   49975301.2369910     
   49975301.2369910     
   49975301.2369909     
   49975301.2369909     
   49975301.2369908     
   49975301.2369909     
   49975301.2369909     
   49975301.2369909     
   49975301.2369910     
   49975301.2369909     
   49975301.2369909     
   49975301.2369910     
   49975301.2369910     
   49975301.2369910     
   49975301.2369911     
   49975301.2369910     
   49975301.2369910     
   49975301.2369911     
   49975301.2369911     
   49975301.2369911     
   49975301.2369911     
   49975301.2369911     
   49975301.2369911     
   49975301.2369911     
   49975301.2369911     
   49975301.2369911     
   49975301.2369910     
   49975301.2369910     
   49975301.2369910     
   49975301.2369910     
   49975301.2369911     
   49975301.2369911     
   49975301.2369911     
   49975301.2369911     
   49975301.2369910     
   49975301.2369911     
   49975301.2369910     
   49975301.2369910     
   49975301.2369909     
   49975301.2369909     
   49975301.2369909     
   49975301.2369909     
   49975301.2369909     
   49970387.7840415     
   49970387.7840415     
   49970387.7840415     
   49970387.7840415     
   49970387.7840415     
   49970387.7840415     
   49970387.7840414     
   49970387.7840414     
   49970387.7840413     
   49970387.7840414     
   49970387.7840414     
   49970387.7840414     
   49970387.7840414     
   49970387.7840414     
   49970387.7840413     
   49970387.7840413     
   49970387.7840413     
   49970387.7840413     
   49970387.7840412     
   49970387.7840412     
   49970387.7840412     
   49970387.7840412     
   49970387.7840412     
   49970387.7840413     
   49970387.7840413     
   49970387.7840413     
   49970387.7840413     
   49970387.7840413     
   49970387.7840414     
   49970387.7840414     
   49970387.7840414     
   49970387.7840415     
   49970387.7840414     
   49970387.7840414     
   49970387.7840414     
   49970387.7840415     
   49970387.7840415     
   49970387.7840414     
   49970387.7840414     
   49970387.7840414     
   49970387.7840414     
   49970387.7840414     
   49970387.7840414     
   49970387.7840413     
   49970387.7840413     
   49970387.7840412     
   49970387.7840412     
   49970387.7840412     
   49970387.7840412     
   49970387.7840412     
   49970387.7840412     
   49964591.1576729     
   49964591.1576729     
   49964591.1576729     
   49964591.1576729     
   49964591.1576728     
   49964591.1576728     
   49964591.1576728     
   49964591.1576728     
   49964591.1576728     
   49964591.1576728     
   49964591.1576728     
   49964591.1576728     
   49964591.1576728     
   49964591.1576728     
   49964591.1576728     
   49964591.1576728     
   49964591.1576728     
   49964591.1576728     
   49964591.1576727     
   49964591.1576727     
   49964591.1576727     
   49964591.1576727     
   49964591.1576727     
   49964591.1576727     
   49964591.1576727     
   49964591.1576728     
   49964591.1576728     
   49964591.1576728     
   49964591.1576728     
   49964591.1576729     
   49964591.1576729     
   49964591.1576729     
   49964591.1576729     
   49964591.1576729     
   49964591.1576729     
   49964591.1576729     
   49964591.1576729     
   49964591.1576729     
   49964591.1576728     
   49964591.1576728     
   49964591.1576728     
   49964591.1576728     
   49964591.1576728     
   49964591.1576727     
   49964591.1576727     
   49964591.1576727     
   49964591.1576726     
   49964591.1576726     
   49964591.1576726     
   49964591.1576726     
   49964591.1576725     
   49957738.4756419     
   49957738.4756419     
   49957738.4756419     
   49957738.4756419     
   49957738.4756419     
   49957738.4756419     
   49957738.4756419     
   49957738.4756419     
   49957738.4756420     
   49957738.4756420     
   49957738.4756420     
   49957738.4756420     
   49957738.4756420     
   49957738.4756420     
   49957738.4756421     
   49957738.4756420     
   49957738.4756420     
   49957738.4756420     
   49957738.4756420     
   49957738.4756420     
   49957738.4756420     
   49957738.4756421     
   49957738.4756420     
   49957738.4756420     
   49957738.4756420     
   49957738.4756420     
   49957738.4756420     
   49957738.4756420     
   49957738.4756419     
   49957738.4756419     
   49957738.4756418     
   49957738.4756419     
   49957738.4756419     
   49957738.4756419     
   49957738.4756419     
   49957738.4756419     
   49957738.4756419     
   49957738.4756419     
   49957738.4756419     
   49957738.4756419     
   49957738.4756418     
   49957738.4756418     
   49957738.4756418     
   49957738.4756418     
   49957738.4756418     
   49957738.4756418     
   49957738.4756417     
   49957738.4756417     
   49957738.4756417     
   49957738.4756417     
   49957738.4756417     
   49949625.3592344     
   49949625.3592345     
   49949625.3592345     
   49949625.3592345     
   49949625.3592345     
   49949625.3592345     
   49949625.3592345     
   49949625.3592345     
   49949625.3592345     
   49949625.3592345     
   49949625.3592346     
   49949625.3592346     
   49949625.3592345     
   49949625.3592345     
   49949625.3592345     
   49949625.3592346     
   49949625.3592346     
   49949625.3592345     
   49949625.3592345     
   49949625.3592346     
   49949625.3592345     
   49949625.3592346     
   49949625.3592346     
   49949625.3592346     
   49949625.3592346     
   49949625.3592345     
   49949625.3592345     
   49949625.3592345     
   49949625.3592345     
   49949625.3592344     
   49949625.3592344     
   49949625.3592344     
   49949625.3592345     
   49949625.3592345     
   49949625.3592345     
   49949625.3592346     
   49949625.3592346     
   49949625.3592346     
   49949625.3592345     
   49949625.3592345     
   49949625.3592345     
   49949625.3592344     
   49949625.3592344     
   49949625.3592344     
   49949625.3592344     
   49949625.3592344     
   49949625.3592344     
   49949625.3592344     
   49949625.3592344     
   49949625.3592344     
   49949625.3592344     
   49940009.8377459     
   49940009.8377459     
   49940009.8377459     
   49940009.8377459     
   49940009.8377459     
   49940009.8377460     
   49940009.8377459     
   49940009.8377459     
   49940009.8377459     
   49940009.8377459     
   49940009.8377459     
   49940009.8377459     
   49940009.8377459     
   49940009.8377459     
   49940009.8377459     
   49940009.8377459     
   49940009.8377459     
   49940009.8377459     
   49940009.8377459     
   49940009.8377459     
   49940009.8377459     
   49940009.8377459     
   49940009.8377459     
   49940009.8377460     
   49940009.8377460     
   49940009.8377460     
   49940009.8377459     
   49940009.8377459     
   49940009.8377459     
   49940009.8377459     
   49940009.8377459     
   49940009.8377460     
   49940009.8377460     
   49940009.8377460     
   49940009.8377460     
   49940009.8377460     
   49940009.8377460     
   49940009.8377460     
   49940009.8377459     
   49940009.8377460     
   49940009.8377459     
   49940009.8377459     
   49940009.8377460     
   49940009.8377460     
   49940009.8377460     
   49940009.8377460     
   49940009.8377460     
   49940009.8377460     
   49940009.8377459     
   49940009.8377459     
   49940009.8377459     
   49928605.1317945     
   49928605.1317945     
   49928605.1317945     
   49928605.1317945     
   49928605.1317946     
   49928605.1317946     
   49928605.1317946     
   49928605.1317946     
   49928605.1317946     
   49928605.1317945     
   49928605.1317945     
   49928605.1317945     
   49928605.1317945     
   49928605.1317945     
   49928605.1317946     
   49928605.1317946     
   49928605.1317946     
   49928605.1317946     
   49928605.1317946     
   49928605.1317946     
   49928605.1317946     
   49928605.1317947     
   49928605.1317947     
   49928605.1317947     
   49928605.1317947     
   49928605.1317947     
   49928605.1317946     
   49928605.1317946     
   49928605.1317947     
   49928605.1317947     
   49928605.1317946     
   49928605.1317946     
   49928605.1317947     
   49928605.1317947     
   49928605.1317947     
   49928605.1317947     
   49928605.1317947     
   49928605.1317947     
   49928605.1317947     
   49928605.1317947     
   49928605.1317947     
   49928605.1317948     
   49928605.1317948     
   49928605.1317948     
   49928605.1317948     
   49928605.1317948     
   49928605.1317948     
   49928605.1317948     
   49928605.1317948     
   49928605.1317949     
   49928605.1317949     
   49915071.1002316     
   49915071.1002316     
   49915071.1002317     
   49915071.1002317     
   49915071.1002317     
   49915071.1002317     
   49915071.1002317     
   49915071.1002317     
   49915071.1002317     
   49915071.1002318     
   49915071.1002318     
   49915071.1002318     
   49915071.1002318     
   49915071.1002318     
   49915071.1002318     
   49915071.1002318     
   49915071.1002319     
   49915071.1002319     
   49915071.1002319     
   49915071.1002319     
   49915071.1002319     
   49915071.1002319     
   49915071.1002318     
   49915071.1002318     
   49915071.1002318     
   49915071.1002318     
   49915071.1002318     
   49915071.1002318     
   49915071.1002319     
   49915071.1002319     
   49915071.1002319     
   49915071.1002319     
   49915071.1002320     
   49915071.1002320     
   49915071.1002320     
   49915071.1002320     
   49915071.1002321     
   49915071.1002321     
   49915071.1002321     
   49915071.1002322     
   49915071.1002322     
   49915071.1002322     
   49915071.1002322     
   49915071.1002322     
   49915071.1002322     
   49915071.1002323     
   49915071.1002323     
   49915071.1002323     
   49915071.1002323     
   49915071.1002324     
   49915071.1002324     
   49899004.0955580     
   49899004.0955580     
   49899004.0955580     
   49899004.0955580     
   49899004.0955580     
   49899004.0955580     
   49899004.0955580     
   49899004.0955580     
   49899004.0955580     
   49899004.0955579     
   49899004.0955579     
   49899004.0955579     
   49899004.0955579     
   49899004.0955579     
   49899004.0955579     
   49899004.0955579     
   49899004.0955579     
   49899004.0955579     
   49899004.0955579     
   49899004.0955578     
   49899004.0955578     
   49899004.0955578     
   49899004.0955578     
   49899004.0955578     
   49899004.0955578     
   49899004.0955578     
   49899004.0955579     
   49899004.0955579     
   49899004.0955579     
   49899004.0955579     
   49899004.0955579     
   49899004.0955580     
   49899004.0955580     
   49899004.0955581     
   49899004.0955581     
   49899004.0955582     
   49899004.0955582     
   49899004.0955583     
   49899004.0955583     
   49899004.0955584     
   49899004.0955584     
   49899004.0955585     
   49899004.0955585     
   49899004.0955585     
   49899004.0955585     
   49899004.0955586     
   49899004.0955586     
   49899004.0955586     
   49899004.0955586     
   49899004.0955586     
   49899004.0955586     
   49879924.9252845     
   49879924.9252845     
   49879924.9252844     
   49879924.9252844     
   49879924.9252844     
   49879924.9252845     
   49879924.9252845     
   49879924.9252845     
   49879924.9252845     
   49879924.9252845     
   49879924.9252845     
   49879924.9252845     
   49879924.9252845     
   49879924.9252845     
   49879924.9252845     
   49879924.9252845     
   49879924.9252844     
   49879924.9252845     
   49879924.9252844     
   49879924.9252845     
   49879924.9252845     
   49879924.9252845     
   49879924.9252845     
   49879924.9252845     
   49879924.9252845     
   49879924.9252845     
   49879924.9252845     
   49879924.9252845     
   49879924.9252845     
   49879924.9252846     
   49879924.9252846     
   49879924.9252846     
   49879924.9252846     
   49879924.9252847     
   49879924.9252847     
   49879924.9252848     
   49879924.9252848     
   49879924.9252849     
   49879924.9252849     
   49879924.9252850     
   49879924.9252850     
   49879924.9252850     
   49879924.9252851     
   49879924.9252851     
   49879924.9252851     
   49879924.9252851     
   49879924.9252851     
   49879924.9252851     
   49879924.9252851     
   49879924.9252851     
   49879924.9252851     
   49857264.5601952     
   49857264.5601952     
   49857264.5601952     
   49857264.5601952     
   49857264.5601952     
   49857264.5601953     
   49857264.5601953     
   49857264.5601953     
   49857264.5601953     
   49857264.5601953     
   49857264.5601953     
   49857264.5601953     
   49857264.5601952     
   49857264.5601952     
   49857264.5601952     
   49857264.5601952     
   49857264.5601953     
   49857264.5601953     
   49857264.5601953     
   49857264.5601953     
   49857264.5601953     
   49857264.5601953     
   49857264.5601953     
   49857264.5601953     
   49857264.5601953     
   49857264.5601953     
   49857264.5601953     
   49857264.5601953     
   49857264.5601953     
   49857264.5601952     
   49857264.5601952     
   49857264.5601952     
   49857264.5601953     
   49857264.5601953     
   49857264.5601954     
   49857264.5601954     
   49857264.5601956     
   49857264.5601957     
   49857264.5601957     
   49857264.5601957     
   49857264.5601958     
   49857264.5601958     
   49857264.5601958     
   49857264.5601958     
   49857264.5601959     
   49857264.5601959     
   49857264.5601959     
   49857264.5601959     
   49857264.5601959     
   49857264.5601959     
   49857264.5601959     
   49830347.1632592     
   49830347.1632592     
   49830347.1632592     
   49830347.1632592     
   49830347.1632592     
   49830347.1632592     
   49830347.1632592     
   49830347.1632593     
   49830347.1632593     
   49830347.1632592     
   49830347.1632593     
   49830347.1632593     
   49830347.1632593     
   49830347.1632594     
   49830347.1632593     
   49830347.1632593     
   49830347.1632593     
   49830347.1632593     
   49830347.1632593     
   49830347.1632594     
   49830347.1632593     
   49830347.1632594     
   49830347.1632593     
   49830347.1632593     
   49830347.1632593     
   49830347.1632592     
   49830347.1632592     
   49830347.1632592     
   49830347.1632592     
   49830347.1632592     
   49830347.1632592     
   49830347.1632593     
   49830347.1632593     
   49830347.1632594     
   49830347.1632595     
   49830347.1632596     
   49830347.1632596     
   49830347.1632596     
   49830347.1632596     
   49830347.1632596     
   49830347.1632596     
   49830347.1632597     
   49830347.1632597     
   49830347.1632597     
   49830347.1632597     
   49830347.1632597     
   49830347.1632597     
   49830347.1632596     
   49830347.1632596     
   49830347.1632597     
   49830347.1632597     
   49798369.9330411     
   49798369.9330411     
   49798369.9330412     
   49798369.9330412     
   49798369.9330412     
   49798369.9330412     
   49798369.9330411     
   49798369.9330411     
   49798369.9330411     
   49798369.9330410     
   49798369.9330410     
   49798369.9330410     
   49798369.9330410     
   49798369.9330411     
   49798369.9330411     
   49798369.9330411     
   49798369.9330411     
   49798369.9330411     
   49798369.9330411     
   49798369.9330411     
   49798369.9330410     
   49798369.9330410     
   49798369.9330410     
   49798369.9330409     
   49798369.9330409     
   49798369.9330409     
   49798369.9330409     
   49798369.9330408     
   49798369.9330408     
   49798369.9330408     
   49798369.9330408     
   49798369.9330408     
   49798369.9330408     
   49798369.9330408     
   49798369.9330409     
   49798369.9330409     
   49798369.9330410     
   49798369.9330410     
   49798369.9330410     
   49798369.9330410     
   49798369.9330411     
   49798369.9330411     
   49798369.9330411     
   49798369.9330411     
   49798369.9330411     
   49798369.9330411     
   49798369.9330411     
   49798369.9330410     
   49798369.9330409     
   49798369.9330409     
   49798369.9330409     
   49760379.1604435     
   49760379.1604435     
   49760379.1604435     
   49760379.1604435     
   49760379.1604435     
   49760379.1604435     
   49760379.1604435     
   49760379.1604435     
   49760379.1604434     
   49760379.1604434     
   49760379.1604434     
   49760379.1604435     
   49760379.1604435     
   49760379.1604435     
   49760379.1604435     
   49760379.1604435     
   49760379.1604435     
   49760379.1604434     
   49760379.1604434     
   49760379.1604434     
   49760379.1604433     
   49760379.1604433     
   49760379.1604432     
   49760379.1604432     
   49760379.1604431     
   49760379.1604431     
   49760379.1604430     
   49760379.1604430     
   49760379.1604429     
   49760379.1604429     
   49760379.1604429     
   49760379.1604429     
   49760379.1604429     
   49760379.1604430     
   49760379.1604430     
   49760379.1604430     
   49760379.1604431     
   49760379.1604431     
   49760379.1604431     
   49760379.1604432     
   49760379.1604432     
   49760379.1604432     
   49760379.1604431     
   49760379.1604431     
   49760379.1604431     
   49760379.1604431     
   49760379.1604430     
   49760379.1604430     
   49760379.1604430     
   49760379.1604430     
   49760379.1604430     
   49715241.7846859     
   49715241.7846859     
   49715241.7846859     
   49715241.7846859     
   49715241.7846859     
   49715241.7846859     
   49715241.7846859     
   49715241.7846859     
   49715241.7846858     
   49715241.7846858     
   49715241.7846858     
   49715241.7846858     
   49715241.7846858     
   49715241.7846858     
   49715241.7846859     
   49715241.7846858     
   49715241.7846858     
   49715241.7846859     
   49715241.7846858     
   49715241.7846858     
   49715241.7846857     
   49715241.7846857     
   49715241.7846857     
   49715241.7846857     
   49715241.7846857     
   49715241.7846856     
   49715241.7846855     
   49715241.7846855     
   49715241.7846854     
   49715241.7846854     
   49715241.7846854     
   49715241.7846853     
   49715241.7846853     
   49715241.7846853     
   49715241.7846854     
   49715241.7846854     
   49715241.7846854     
   49715241.7846854     
   49715241.7846854     
   49715241.7846854     
   49715241.7846854     
   49715241.7846854     
   49715241.7846854     
   49715241.7846854     
   49715241.7846853     
   49715241.7846853     
   49715241.7846852     
   49715241.7846852     
   49715241.7846852     
   49715241.7846852     
   49715241.7846852     
   49661611.6001843     
   49661611.6001843     
   49661611.6001844     
   49661611.6001843     
   49661611.6001843     
   49661611.6001843     
   49661611.6001843     
   49661611.6001843     
   49661611.6001844     
   49661611.6001843     
   49661611.6001844     
   49661611.6001843     
   49661611.6001843     
   49661611.6001844     
   49661611.6001843     
   49661611.6001844     
   49661611.6001843     
   49661611.6001843     
   49661611.6001843     
   49661611.6001843     
   49661611.6001842     
   49661611.6001842     
   49661611.6001841     
   49661611.6001841     
   49661611.6001840     
   49661611.6001840     
   49661611.6001839     
   49661611.6001838     
   49661611.6001838     
   49661611.6001838     
   49661611.6001837     
   49661611.6001837     
   49661611.6001837     
   49661611.6001837     
   49661611.6001837     
   49661611.6001837     
   49661611.6001837     
   49661611.6001837     
   49661611.6001837     
   49661611.6001838     
   49661611.6001838     
   49661611.6001838     
   49661611.6001838     
   49661611.6001838     
   49661611.6001838     
   49661611.6001837     
   49661611.6001837     
   49661611.6001837     
   49661611.6001836     
   49661611.6001836     
   49661611.6001837     
   49597889.1064664     
   49597889.1064664     
   49597889.1064664     
   49597889.1064664     
   49597889.1064664     
   49597889.1064664     
   49597889.1064664     
   49597889.1064664     
   49597889.1064665     
   49597889.1064665     
   49597889.1064665     
   49597889.1064665     
   49597889.1064665     
   49597889.1064665     
   49597889.1064665     
   49597889.1064665     
   49597889.1064665     
   49597889.1064665     
   49597889.1064665     
   49597889.1064664     
   49597889.1064664     
   49597889.1064663     
   49597889.1064662     
   49597889.1064662     
   49597889.1064662     
   49597889.1064661     
   49597889.1064660     
   49597889.1064660     
   49597889.1064659     
   49597889.1064659     
   49597889.1064659     
   49597889.1064659     
   49597889.1064659     
   49597889.1064659     
   49597889.1064659     
   49597889.1064659     
   49597889.1064658     
   49597889.1064659     
   49597889.1064658     
   49597889.1064658     
   49597889.1064659     
   49597889.1064659     
   49597889.1064659     
   49597889.1064659     
   49597889.1064660     
   49597889.1064659     
   49597889.1064659     
   49597889.1064659     
   49597889.1064659     
   49597889.1064658     
   49597889.1064658     
   49522173.8036601     
   49522173.8036601     
   49522173.8036601     
   49522173.8036600     
   49522173.8036600     
   49522173.8036600     
   49522173.8036601     
   49522173.8036601     
   49522173.8036601     
   49522173.8036601     
   49522173.8036601     
   49522173.8036600     
   49522173.8036600     
   49522173.8036600     
   49522173.8036601     
   49522173.8036601     
   49522173.8036601     
   49522173.8036601     
   49522173.8036600     
   49522173.8036600     
   49522173.8036599     
   49522173.8036599     
   49522173.8036598     
   49522173.8036598     
   49522173.8036598     
   49522173.8036597     
   49522173.8036597     
   49522173.8036596     
   49522173.8036596     
   49522173.8036596     
   49522173.8036596     
   49522173.8036596     
   49522173.8036596     
   49522173.8036595     
   49522173.8036596     
   49522173.8036595     
   49522173.8036595     
   49522173.8036595     
   49522173.8036595     
   49522173.8036595     
   49522173.8036595     
   49522173.8036595     
   49522173.8036595     
   49522173.8036595     
   49522173.8036595     
   49522173.8036595     
   49522173.8036596     
   49522173.8036595     
   49522173.8036595     
   49522173.8036595     
   49522173.8036595     
   49432207.5107852     
   49432207.5107852     
   49432207.5107851     
   49432207.5107851     
   49432207.5107851     
   49432207.5107851     
   49432207.5107851     
   49432207.5107851     
   49432207.5107851     
   49432207.5107851     
   49432207.5107851     
   49432207.5107851     
   49432207.5107851     
   49432207.5107851     
   49432207.5107851     
   49432207.5107851     
   49432207.5107851     
   49432207.5107851     
   49432207.5107851     
   49432207.5107851     
   49432207.5107850     
   49432207.5107850     
   49432207.5107849     
   49432207.5107849     
   49432207.5107848     
   49432207.5107847     
   49432207.5107847     
   49432207.5107847     
   49432207.5107846     
   49432207.5107846     
   49432207.5107846     
   49432207.5107846     
   49432207.5107846     
   49432207.5107846     
   49432207.5107846     
   49432207.5107846     
   49432207.5107846     
   49432207.5107846     
   49432207.5107846     
   49432207.5107846     
   49432207.5107846     
   49432207.5107846     
   49432207.5107846     
   49432207.5107845     
   49432207.5107845     
   49432207.5107845     
   49432207.5107845     
   49432207.5107845     
   49432207.5107845     
   49432207.5107845     
   49432207.5107846     
   49325307.0163390     
   49325307.0163391     
   49325307.0163390     
   49325307.0163390     
   49325307.0163390     
   49325307.0163390     
   49325307.0163390     
   49325307.0163390     
   49325307.0163389     
   49325307.0163389     
   49325307.0163389     
   49325307.0163389     
   49325307.0163389     
   49325307.0163390     
   49325307.0163390     
   49325307.0163390     
   49325307.0163389     
   49325307.0163389     
   49325307.0163389     
   49325307.0163389     
   49325307.0163389     
   49325307.0163388     
   49325307.0163387     
   49325307.0163387     
   49325307.0163386     
   49325307.0163386     
   49325307.0163385     
   49325307.0163385     
   49325307.0163385     
   49325307.0163385     
   49325307.0163385     
   49325307.0163385     
   49325307.0163385     
   49325307.0163385     
   49325307.0163385     
   49325307.0163385     
   49325307.0163385     
   49325307.0163385     
   49325307.0163385     
   49325307.0163385     
   49325307.0163385     
   49325307.0163385     
   49325307.0163385     
   49325307.0163385     
   49325307.0163385     
   49325307.0163385     
   49325307.0163385     
   49325307.0163385     
   49325307.0163384     
   49325307.0163384     
   49325307.0163384     
   49198284.0525031     
   49198284.0525031     
   49198284.0525031     
   49198284.0525031     
   49198284.0525031     
   49198284.0525031     
   49198284.0525031     
   49198284.0525031     
   49198284.0525031     
   49198284.0525031     
   49198284.0525031     
   49198284.0525031     
   49198284.0525031     
   49198284.0525031     
   49198284.0525031     
   49198284.0525031     
   49198284.0525031     
   49198284.0525030     
   49198284.0525030     
   49198284.0525029     
   49198284.0525029     
   49198284.0525029     
   49198284.0525028     
   49198284.0525028     
   49198284.0525028     
   49198284.0525028     
   49198284.0525027     
   49198284.0525027     
   49198284.0525027     
   49198284.0525027     
   49198284.0525027     
   49198284.0525027     
   49198284.0525026     
   49198284.0525026     
   49198284.0525026     
   49198284.0525026     
   49198284.0525027     
   49198284.0525027     
   49198284.0525027     
   49198284.0525028     
   49198284.0525028     
   49198284.0525028     
   49198284.0525027     
   49198284.0525027     
   49198284.0525027     
   49198284.0525027     
   49198284.0525027     
   49198284.0525027     
   49198284.0525026     
   49198284.0525026     
   49198284.0525026     
   49047350.2062313     
   49047350.2062313     
   49047350.2062313     
   49047350.2062313     
   49047350.2062313     
   49047350.2062313     
   49047350.2062313     
   49047350.2062312     
   49047350.2062312     
   49047350.2062312     
   49047350.2062312     
   49047350.2062312     
   49047350.2062312     
   49047350.2062312     
   49047350.2062312     
   49047350.2062312     
   49047350.2062312     
   49047350.2062312     
   49047350.2062311     
   49047350.2062311     
   49047350.2062311     
   49047350.2062310     
   49047350.2062309     
   49047350.2062309     
   49047350.2062309     
   49047350.2062308     
   49047350.2062308     
   49047350.2062308     
   49047350.2062308     
   49047350.2062308     
   49047350.2062308     
   49047350.2062308     
   49047350.2062308     
   49047350.2062308     
   49047350.2062308     
   49047350.2062308     
   49047350.2062308     
   49047350.2062309     
   49047350.2062309     
   49047350.2062309     
   49047350.2062309     
   49047350.2062309     
   49047350.2062308     
   49047350.2062308     
   49047350.2062308     
   49047350.2062308     
   49047350.2062308     
   49047350.2062307     
   49047350.2062307     
   49047350.2062307     
   49047350.2062307     
   48868003.9312275     
   48868003.9312275     
   48868003.9312275     
   48868003.9312275     
   48868003.9312275     
   48868003.9312274     
   48868003.9312274     
   48868003.9312274     
   48868003.9312273     
   48868003.9312273     
   48868003.9312273     
   48868003.9312273     
   48868003.9312273     
   48868003.9312273     
   48868003.9312273     
   48868003.9312273     
   48868003.9312272     
   48868003.9312272     
   48868003.9312271     
   48868003.9312271     
   48868003.9312271     
   48868003.9312270     
   48868003.9312270     
   48868003.9312270     
   48868003.9312270     
   48868003.9312269     
   48868003.9312269     
   48868003.9312269     
   48868003.9312270     
   48868003.9312270     
   48868003.9312270     
   48868003.9312270     
   48868003.9312270     
   48868003.9312270     
   48868003.9312271     
   48868003.9312271     
   48868003.9312271     
   48868003.9312271     
   48868003.9312272     
   48868003.9312272     
   48868003.9312272     
   48868003.9312271     
   48868003.9312271     
   48868003.9312270     
   48868003.9312271     
   48868003.9312270     
   48868003.9312270     
   48868003.9312270     
   48868003.9312270     
   48868003.9312270     
   48868003.9312269     
   48654896.2909881     
   48654896.2909881     
   48654896.2909881     
   48654896.2909881     
   48654896.2909881     
   48654896.2909881     
   48654896.2909880     
   48654896.2909880     
   48654896.2909880     
   48654896.2909880     
   48654896.2909879     
   48654896.2909879     
   48654896.2909879     
   48654896.2909879     
   48654896.2909879     
   48654896.2909879     
   48654896.2909879     
   48654896.2909879     
   48654896.2909878     
   48654896.2909878     
   48654896.2909878     
   48654896.2909877     
   48654896.2909877     
   48654896.2909877     
   48654896.2909877     
   48654896.2909876     
   48654896.2909876     
   48654896.2909876     
   48654896.2909876     
   48654896.2909877     
   48654896.2909876     
   48654896.2909876     
   48654896.2909876     
   48654896.2909877     
   48654896.2909877     
   48654896.2909878     
   48654896.2909878     
   48654896.2909878     
   48654896.2909878     
   48654896.2909879     
   48654896.2909879     
   48654896.2909879     
   48654896.2909878     
   48654896.2909878     
   48654896.2909878     
   48654896.2909878     
   48654896.2909878     
   48654896.2909877     
   48654896.2909877     
   48654896.2909877     
   48654896.2909877     
   48401671.4287440     
   48401671.4287440     
   48401671.4287440     
   48401671.4287440     
   48401671.4287439     
   48401671.4287439     
   48401671.4287439     
   48401671.4287438     
   48401671.4287438     
   48401671.4287438     
   48401671.4287438     
   48401671.4287438     
   48401671.4287438     
   48401671.4287438     
   48401671.4287437     
   48401671.4287437     
   48401671.4287437     
   48401671.4287437     
   48401671.4287436     
   48401671.4287436     
   48401671.4287436     
   48401671.4287435     
   48401671.4287435     
   48401671.4287435     
   48401671.4287434     
   48401671.4287434     
   48401671.4287434     
   48401671.4287434     
   48401671.4287434     
   48401671.4287434     
   48401671.4287434     
   48401671.4287434     
   48401671.4287435     
   48401671.4287435     
   48401671.4287435     
   48401671.4287436     
   48401671.4287436     
   48401671.4287436     
   48401671.4287437     
   48401671.4287437     
   48401671.4287437     
   48401671.4287437     
   48401671.4287437     
   48401671.4287436     
   48401671.4287436     
   48401671.4287436     
   48401671.4287436     
   48401671.4287435     
   48401671.4287435     
   48401671.4287434     
   48401671.4287434     
   48100777.0063758     
   48100777.0063758     
   48100777.0063758     
   48100777.0063758     
   48100777.0063758     
   48100777.0063758     
   48100777.0063757     
   48100777.0063757     
   48100777.0063757     
   48100777.0063757     
   48100777.0063756     
   48100777.0063756     
   48100777.0063756     
   48100777.0063756     
   48100777.0063756     
   48100777.0063755     
   48100777.0063755     
   48100777.0063755     
   48100777.0063755     
   48100777.0063754     
   48100777.0063754     
   48100777.0063753     
   48100777.0063753     
   48100777.0063752     
   48100777.0063752     
   48100777.0063751     
   48100777.0063752     
   48100777.0063752     
   48100777.0063752     
   48100777.0063752     
   48100777.0063752     
   48100777.0063752     
   48100777.0063752     
   48100777.0063753     
   48100777.0063753     
   48100777.0063753     
   48100777.0063753     
   48100777.0063754     
   48100777.0063754     
   48100777.0063754     
   48100777.0063754     
   48100777.0063754     
   48100777.0063753     
   48100777.0063753     
   48100777.0063753     
   48100777.0063753     
   48100777.0063753     
   48100777.0063753     
   48100777.0063753     
   48100777.0063753     
   48100777.0063753     
   47743238.9587157     
   47743238.9587157     
   47743238.9587157     
   47743238.9587157     
   47743238.9587157     
   47743238.9587157     
   47743238.9587157     
   47743238.9587156     
   47743238.9587156     
   47743238.9587156     
   47743238.9587155     
   47743238.9587155     
   47743238.9587154     
   47743238.9587154     
   47743238.9587154     
   47743238.9587154     
   47743238.9587153     
   47743238.9587153     
   47743238.9587153     
   47743238.9587153     
   47743238.9587153     
   47743238.9587152     
   47743238.9587152     
   47743238.9587151     
   47743238.9587151     
   47743238.9587150     
   47743238.9587151     
   47743238.9587151     
   47743238.9587150     
   47743238.9587151     
   47743238.9587150     
   47743238.9587150     
   47743238.9587150     
   47743238.9587150     
   47743238.9587150     
   47743238.9587150     
   47743238.9587150     
   47743238.9587150     
   47743238.9587150     
   47743238.9587151     
   47743238.9587151     
   47743238.9587151     
   47743238.9587151     
   47743238.9587150     
   47743238.9587150     
   47743238.9587150     
   47743238.9587150     
   47743238.9587151     
   47743238.9587150     
   47743238.9587150     
   47743238.9587150     
   47318393.8453634     
   47318393.8453634     
   47318393.8453634     
   47318393.8453634     
   47318393.8453634     
   47318393.8453633     
   47318393.8453633     
   47318393.8453633     
   47318393.8453633     
   47318393.8453633     
   47318393.8453633     
   47318393.8453632     
   47318393.8453632     
   47318393.8453632     
   47318393.8453632     
   47318393.8453631     
   47318393.8453631     
   47318393.8453630     
   47318393.8453630     
   47318393.8453629     
   47318393.8453629     
   47318393.8453629     
   47318393.8453628     
   47318393.8453628     
   47318393.8453628     
   47318393.8453628     
   47318393.8453628     
   47318393.8453628     
   47318393.8453628     
   47318393.8453628     
   47318393.8453628     
   47318393.8453627     
   47318393.8453627     
   47318393.8453627     
   47318393.8453627     
   47318393.8453627     
   47318393.8453627     
   47318393.8453627     
   47318393.8453627     
   47318393.8453627     
   47318393.8453627     
   47318393.8453627     
   47318393.8453626     
   47318393.8453626     
   47318393.8453626     
   47318393.8453626     
   47318393.8453626     
   47318393.8453626     
   47318393.8453626     
   47318393.8453626     
   47318393.8453626     
   46813570.8175093     
   46813570.8175093     
   46813570.8175093     
   46813570.8175093     
   46813570.8175092     
   46813570.8175093     
   46813570.8175092     
   46813570.8175092     
   46813570.8175092     
   46813570.8175092     
   46813570.8175092     
   46813570.8175092     
   46813570.8175092     
   46813570.8175092     
   46813570.8175092     
   46813570.8175091     
   46813570.8175091     
   46813570.8175090     
   46813570.8175090     
   46813570.8175089     
   46813570.8175089     
   46813570.8175089     
   46813570.8175088     
   46813570.8175088     
   46813570.8175088     
   46813570.8175088     
   46813570.8175087     
   46813570.8175087     
   46813570.8175087     
   46813570.8175087     
   46813570.8175087     
   46813570.8175087     
   46813570.8175087     
   46813570.8175087     
   46813570.8175087     
   46813570.8175087     
   46813570.8175087     
   46813570.8175087     
   46813570.8175087     
   46813570.8175087     
   46813570.8175087     
   46813570.8175087     
   46813570.8175086     
   46813570.8175086     
   46813570.8175085     
   46813570.8175085     
   46813570.8175085     
   46813570.8175085     
   46813570.8175085     
   46813570.8175085     
   46813570.8175085     
   46213713.7145423     
   46213713.7145423     
   46213713.7145424     
   46213713.7145424     
   46213713.7145424     
   46213713.7145424     
   46213713.7145423     
   46213713.7145423     
   46213713.7145423     
   46213713.7145423     
   46213713.7145423     
   46213713.7145423     
   46213713.7145422     
   46213713.7145422     
   46213713.7145422     
   46213713.7145422     
   46213713.7145421     
   46213713.7145421     
   46213713.7145420     
   46213713.7145420     
   46213713.7145419     
   46213713.7145419     
   46213713.7145418     
   46213713.7145418     
   46213713.7145418     
   46213713.7145417     
   46213713.7145417     
   46213713.7145417     
   46213713.7145417     
   46213713.7145417     
   46213713.7145416     
   46213713.7145416     
   46213713.7145416     
   46213713.7145417     
   46213713.7145417     
   46213713.7145417     
   46213713.7145417     
   46213713.7145417     
   46213713.7145417     
   46213713.7145417     
   46213713.7145417     
   46213713.7145416     
   46213713.7145416     
   46213713.7145416     
   46213713.7145416     
   46213713.7145416     
   46213713.7145416     
   46213713.7145416     
   46213713.7145416     
   46213713.7145416     
   46213713.7145416     
   45500932.0196125     
   45500932.0196125     
   45500932.0196125     
   45500932.0196125     
   45500932.0196125     
   45500932.0196125     
   45500932.0196125     
   45500932.0196125     
   45500932.0196125     
   45500932.0196124     
   45500932.0196124     
   45500932.0196124     
   45500932.0196124     
   45500932.0196123     
   45500932.0196123     
   45500932.0196123     
   45500932.0196122     
   45500932.0196122     
   45500932.0196121     
   45500932.0196121     
   45500932.0196120     
   45500932.0196120     
   45500932.0196119     
   45500932.0196119     
   45500932.0196119     
   45500932.0196118     
   45500932.0196119     
   45500932.0196119     
   45500932.0196119     
   45500932.0196119     
   45500932.0196118     
   45500932.0196118     
   45500932.0196118     
   45500932.0196118     
   45500932.0196118     
   45500932.0196118     
   45500932.0196118     
   45500932.0196118     
   45500932.0196118     
   45500932.0196118     
   45500932.0196118     
   45500932.0196118     
   45500932.0196118     
   45500932.0196118     
   45500932.0196118     
   45500932.0196118     
   45500932.0196118     
   45500932.0196118     
   45500932.0196118     
   45500932.0196118     
   45500932.0196118     
   44653967.2815647     
   44653967.2815647     
   44653967.2815647     
   44653967.2815647     
   44653967.2815647     
   44653967.2815647     
   44653967.2815647     
   44653967.2815647     
   44653967.2815647     
   44653967.2815647     
   44653967.2815647     
   44653967.2815646     
   44653967.2815646     
   44653967.2815645     
   44653967.2815645     
   44653967.2815645     
   44653967.2815645     
   44653967.2815644     
   44653967.2815643     
   44653967.2815643     
   44653967.2815643     
   44653967.2815642     
   44653967.2815641     
   44653967.2815641     
   44653967.2815641     
   44653967.2815640     
   44653967.2815641     
   44653967.2815640     
   44653967.2815640     
   44653967.2815640     
   44653967.2815640     
   44653967.2815640     
   44653967.2815640     
   44653967.2815640     
   44653967.2815640     
   44653967.2815640     
   44653967.2815640     
   44653967.2815640     
   44653967.2815640     
   44653967.2815640     
   44653967.2815641     
   44653967.2815641     
   44653967.2815640     
   44653967.2815640     
   44653967.2815640     
   44653967.2815640     
   44653967.2815641     
   44653967.2815640     
   44653967.2815640     
   44653967.2815640     
   44653967.2815641     
   43647559.0894737     
   43647559.0894737     
   43647559.0894737     
   43647559.0894737     
   43647559.0894737     
   43647559.0894737     
   43647559.0894736     
   43647559.0894736     
   43647559.0894736     
   43647559.0894736     
   43647559.0894736     
   43647559.0894736     
   43647559.0894735     
   43647559.0894735     
   43647559.0894735     
   43647559.0894735     
   43647559.0894735     
   43647559.0894734     
   43647559.0894734     
   43647559.0894733     
   43647559.0894733     
   43647559.0894732     
   43647559.0894731     
   43647559.0894731     
   43647559.0894731     
   43647559.0894730     
   43647559.0894730     
   43647559.0894730     
   43647559.0894730     
   43647559.0894730     
   43647559.0894730     
   43647559.0894730     
   43647559.0894730     
   43647559.0894730     
   43647559.0894730     
   43647559.0894730     
   43647559.0894731     
   43647559.0894731     
   43647559.0894731     
   43647559.0894731     
   43647559.0894731     
   43647559.0894731     
   43647559.0894730     
   43647559.0894730     
   43647559.0894730     
   43647559.0894730     
   43647559.0894730     
   43647559.0894730     
   43647559.0894730     
   43647559.0894731     
   43647559.0894731     
   42451691.6902051     
   42451691.6902051     
   42451691.6902051     
   42451691.6902051     
   42451691.6902051     
   42451691.6902051     
   42451691.6902051     
   42451691.6902051     
   42451691.6902050     
   42451691.6902050     
   42451691.6902049     
   42451691.6902050     
   42451691.6902049     
   42451691.6902049     
   42451691.6902049     
   42451691.6902049     
   42451691.6902049     
   42451691.6902048     
   42451691.6902048     
   42451691.6902048     
   42451691.6902047     
   42451691.6902046     
   42451691.6902046     
   42451691.6902045     
   42451691.6902045     
   42451691.6902044     
   42451691.6902045     
   42451691.6902045     
   42451691.6902045     
   42451691.6902045     
   42451691.6902045     
   42451691.6902045     
   42451691.6902045     
   42451691.6902045     
   42451691.6902045     
   42451691.6902045     
   42451691.6902045     
   42451691.6902045     
   42451691.6902045     
   42451691.6902045     
   42451691.6902045     
   42451691.6902046     
   42451691.6902045     
   42451691.6902045     
   42451691.6902045     
   42451691.6902045     
   42451691.6902045     
   42451691.6902045     
   42451691.6902045     
   42451691.6902045     
   42451691.6902045     
   41030698.7796491     
   41030698.7796491     
   41030698.7796491     
   41030698.7796491     
   41030698.7796491     
   41030698.7796491     
   41030698.7796491     
   41030698.7796490     
   41030698.7796490     
   41030698.7796490     
   41030698.7796490     
   41030698.7796489     
   41030698.7796489     
   41030698.7796489     
   41030698.7796489     
   41030698.7796489     
   41030698.7796488     
   41030698.7796488     
   41030698.7796487     
   41030698.7796487     
   41030698.7796486     
   41030698.7796486     
   41030698.7796485     
   41030698.7796485     
   41030698.7796485     
   41030698.7796485     
   41030698.7796485     
   41030698.7796485     
   41030698.7796485     
   41030698.7796485     
   41030698.7796485     
   41030698.7796485     
   41030698.7796485     
   41030698.7796485     
   41030698.7796486     
   41030698.7796486     
   41030698.7796486     
   41030698.7796485     
   41030698.7796486     
   41030698.7796486     
   41030698.7796485     
   41030698.7796485     
   41030698.7796485     
   41030698.7796485     
   41030698.7796485     
   41030698.7796485     
   41030698.7796485     
   41030698.7796485     
   41030698.7796485     
   41030698.7796485     
   41030698.7796485     
   39342199.7683551     
   39342199.7683550     
   39342199.7683551     
   39342199.7683551     
   39342199.7683550     
   39342199.7683550     
   39342199.7683550     
   39342199.7683549     
   39342199.7683549     
   39342199.7683549     
   39342199.7683549     
   39342199.7683549     
   39342199.7683549     
   39342199.7683548     
   39342199.7683548     
   39342199.7683548     
   39342199.7683548     
   39342199.7683548     
   39342199.7683547     
   39342199.7683546     
   39342199.7683546     
   39342199.7683545     
   39342199.7683545     
   39342199.7683545     
   39342199.7683545     
   39342199.7683544     
   39342199.7683545     
   39342199.7683545     
   39342199.7683544     
   39342199.7683544     
   39342199.7683545     
   39342199.7683545     
   39342199.7683545     
   39342199.7683545     
   39342199.7683545     
   39342199.7683545     
   39342199.7683545     
   39342199.7683545     
   39342199.7683545     
   39342199.7683545     
   39342199.7683545     
   39342199.7683545     
   39342199.7683544     
   39342199.7683544     
   39342199.7683544     
   39342199.7683543     
   39342199.7683543     
   39342199.7683544     
   39342199.7683543     
   39342199.7683543     
   39342199.7683543     
   37335835.7960823     
   37335835.7960823     
   37335835.7960823     
   37335835.7960823     
   37335835.7960823     
   37335835.7960823     
   37335835.7960822     
   37335835.7960822     
   37335835.7960822     
   37335835.7960822     
   37335835.7960821     
   37335835.7960821     
   37335835.7960821     
   37335835.7960821     
   37335835.7960821     
   37335835.7960820     
   37335835.7960819     
   37335835.7960819     
   37335835.7960819     
   37335835.7960819     
   37335835.7960818     
   37335835.7960818     
   37335835.7960817     
   37335835.7960817     
   37335835.7960817     
   37335835.7960816     
   37335835.7960817     
   37335835.7960817     
   37335835.7960817     
   37335835.7960817     
   37335835.7960817     
   37335835.7960817     
   37335835.7960817     
   37335835.7960817     
   37335835.7960817     
   37335835.7960817     
   37335835.7960818     
   37335835.7960818     
   37335835.7960817     
   37335835.7960817     
   37335835.7960817     
   37335835.7960817     
   37335835.7960817     
   37335835.7960817     
   37335835.7960816     
   37335835.7960816     
   37335835.7960817     
   37335835.7960816     
   37335835.7960816     
   37335835.7960817     
   37335835.7960817     
   34951767.7973675     
   34951767.7973675     
   34951767.7973676     
   34951767.7973676     
   34951767.7973676     
   34951767.7973676     
   34951767.7973675     
   34951767.7973674     
   34951767.7973674     
   34951767.7973674     
   34951767.7973674     
   34951767.7973673     
   34951767.7973674     
   34951767.7973673     
   34951767.7973673     
   34951767.7973673     
   34951767.7973672     
   34951767.7973672     
   34951767.7973671     
   34951767.7973671     
   34951767.7973671     
   34951767.7973671     
   34951767.7973671     
   34951767.7973670     
   34951767.7973670     
   34951767.7973670     
   34951767.7973670     
   34951767.7973669     
   34951767.7973669     
   34951767.7973669     
   34951767.7973669     
   34951767.7973669     
   34951767.7973669     
   34951767.7973669     
   34951767.7973669     
   34951767.7973669     
   34951767.7973669     
   34951767.7973670     
   34951767.7973670     
   34951767.7973671     
   34951767.7973670     
   34951767.7973670     
   34951767.7973670     
   34951767.7973669     
   34951767.7973670     
   34951767.7973669     
   34951767.7973669     
   34951767.7973669     
   34951767.7973670     
   34951767.7973669     
   34951767.7973669     
   32118891.8234680     
   32118891.8234681     
   32118891.8234680     
   32118891.8234681     
   32118891.8234680     
   32118891.8234680     
   32118891.8234679     
   32118891.8234679     
   32118891.8234679     
   32118891.8234679     
   32118891.8234678     
   32118891.8234678     
   32118891.8234677     
   32118891.8234678     
   32118891.8234677     
   32118891.8234677     
   32118891.8234676     
   32118891.8234676     
   32118891.8234676     
   32118891.8234675     
   32118891.8234675     
   32118891.8234675     
   32118891.8234674     
   32118891.8234674     
   32118891.8234674     
   32118891.8234674     
   32118891.8234675     
   32118891.8234674     
   32118891.8234674     
   32118891.8234674     
   32118891.8234674     
   32118891.8234674     
   32118891.8234674     
   32118891.8234675     
   32118891.8234674     
   32118891.8234675     
   32118891.8234675     
   32118891.8234675     
   32118891.8234675     
   32118891.8234676     
   32118891.8234675     
   32118891.8234676     
   32118891.8234675     
   32118891.8234675     
   32118891.8234675     
   32118891.8234675     
   32118891.8234675     
   32118891.8234675     
   32118891.8234675     
   32118891.8234675     
   32118891.8234675     
   28752718.3933152     
   28752718.3933153     
   28752718.3933152     
   28752718.3933152     
   28752718.3933152     
   28752718.3933152     
   28752718.3933151     
   28752718.3933151     
   28752718.3933151     
   28752718.3933151     
   28752718.3933151     
   28752718.3933150     
   28752718.3933150     
   28752718.3933150     
   28752718.3933150     
   28752718.3933149     
   28752718.3933149     
   28752718.3933149     
   28752718.3933149     
   28752718.3933148     
   28752718.3933148     
   28752718.3933148     
   28752718.3933147     
   28752718.3933148     
   28752718.3933148     
   28752718.3933148     
   28752718.3933148     
   28752718.3933148     
   28752718.3933148     
   28752718.3933148     
   28752718.3933148     
   28752718.3933148     
   28752718.3933149     
   28752718.3933148     
   28752718.3933149     
   28752718.3933149     
   28752718.3933149     
   28752718.3933149     
   28752718.3933149     
   28752718.3933149     
   28752718.3933149     
   28752718.3933150     
   28752718.3933149     
   28752718.3933149     
   28752718.3933149     
   28752718.3933149     
   28752718.3933149     
   28752718.3933149     
   28752718.3933149     
   28752718.3933150     
   28752718.3933149     
   24752852.6259050     
   24752852.6259050     
   24752852.6259050     
   24752852.6259050     
   24752852.6259050     
   24752852.6259050     
   24752852.6259049     
   24752852.6259049     
   24752852.6259049     
   24752852.6259049     
   24752852.6259049     
   24752852.6259049     
   24752852.6259049     
   24752852.6259049     
   24752852.6259049     
   24752852.6259049     
   24752852.6259049     
   24752852.6259049     
   24752852.6259048     
   24752852.6259048     
   24752852.6259048     
   24752852.6259048     
   24752852.6259047     
   24752852.6259047     
   24752852.6259048     
   24752852.6259048     
   24752852.6259048     
   24752852.6259048     
   24752852.6259048     
   24752852.6259048     
   24752852.6259048     
   24752852.6259048     
   24752852.6259049     
   24752852.6259048     
   24752852.6259048     
   24752852.6259049     
   24752852.6259049     
   24752852.6259049     
   24752852.6259049     
   24752852.6259049     
   24752852.6259049     
   24752852.6259049     
   24752852.6259048     
   24752852.6259049     
   24752852.6259049     
   24752852.6259049     
   24752852.6259049     
   24752852.6259049     
   24752852.6259048     
   24752852.6259049     
   24752852.6259048     
   20000000.0000000     
   20000000.0000000     
   20000000.0000000     
   20000000.0000000     
   20000000.0000000     
   20000000.0000000     
   20000000.0000000     
   20000000.0000000     
   20000000.0000000     
   20000000.0000000     
   20000000.0000000     
   20000000.0000000     
   20000000.0000000     
   20000000.0000000     
   20000000.0000000     
   20000000.0000000     
   20000000.0000000     
   20000000.0000000     
   20000000.0000000     
   20000000.0000000     
   20000000.0000000     
   20000000.0000000     
   20000000.0000000     
   20000000.0000000     
   20000000.0000000     
   20000000.0000000     
   20000000.0000000     
   20000000.0000000     
   20000000.0000000     
   20000000.0000000     
   20000000.0000000     
   20000000.0000000     
   20000000.0000000     
   20000000.0000000     
   20000000.0000000     
   20000000.0000000     
   20000000.0000000     
   20000000.0000000     
   20000000.0000000     
   20000000.0000000     
   20000000.0000000     
   20000000.0000000     
   20000000.0000000     
   20000000.0000000     
   20000000.0000000     
   20000000.0000000     
   20000000.0000000     
   20000000.0000000     
   20000000.0000000     
   20000000.0000000     
   20000000.0000000     
VECTORS u double 
    0.00000E+00         0.53027E-01         0.00000E+00
    0.00000E+00         0.51706E-01         0.00000E+00
    0.00000E+00         0.50403E-01         0.00000E+00
    0.00000E+00         0.49126E-01         0.00000E+00
    0.00000E+00         0.47879E-01         0.00000E+00
    0.00000E+00         0.46664E-01         0.00000E+00
    0.00000E+00         0.45481E-01         0.00000E+00
    0.00000E+00         0.44331E-01         0.00000E+00
    0.00000E+00         0.43212E-01         0.00000E+00
    0.00000E+00         0.42104E-01         0.00000E+00
    0.00000E+00         0.41005E-01         0.00000E+00
    0.00000E+00         0.39917E-01         0.00000E+00
    0.00000E+00         0.38838E-01         0.00000E+00
    0.00000E+00         0.37770E-01         0.00000E+00
    0.00000E+00         0.36711E-01         0.00000E+00
    0.00000E+00         0.35662E-01         0.00000E+00
    0.00000E+00         0.34621E-01         0.00000E+00
    0.00000E+00         0.33589E-01         0.00000E+00
    0.00000E+00         0.32566E-01         0.00000E+00
    0.00000E+00         0.31549E-01         0.00000E+00
    0.00000E+00         0.30540E-01         0.00000E+00
    0.00000E+00         0.29538E-01         0.00000E+00
    0.00000E+00         0.28541E-01         0.00000E+00
    0.00000E+00         0.27551E-01         0.00000E+00
    0.00000E+00         0.26565E-01         0.00000E+00
    0.00000E+00         0.25584E-01         0.00000E+00
    0.00000E+00         0.24607E-01         0.00000E+00
    0.00000E+00         0.23633E-01         0.00000E+00
    0.00000E+00         0.22662E-01         0.00000E+00
    0.00000E+00         0.21693E-01         0.00000E+00
    0.00000E+00         0.20726E-01         0.00000E+00
    0.00000E+00         0.19760E-01         0.00000E+00
    0.00000E+00         0.18794E-01         0.00000E+00
    0.00000E+00         0.17827E-01         0.00000E+00
    0.00000E+00         0.16859E-01         0.00000E+00
    0.00000E+00         0.15888E-01         0.00000E+00
    0.00000E+00         0.14915E-01         0.00000E+00
    0.00000E+00         0.13937E-01         0.00000E+00
    0.00000E+00         0.12954E-01         0.00000E+00
    0.00000E+00         0.11964E-01         0.00000E+00
    0.00000E+00         0.10967E-01         0.00000E+00
    0.00000E+00         0.99601E-02         0.00000E+00
    0.00000E+00         0.89420E-02         0.00000E+00
    0.00000E+00         0.79105E-02         0.00000E+00
    0.00000E+00         0.68632E-02         0.00000E+00
    0.00000E+00         0.57971E-02         0.00000E+00
    0.00000E+00         0.47083E-02         0.00000E+00
    0.00000E+00         0.35921E-02         0.00000E+00
    0.00000E+00         0.24419E-02         0.00000E+00
    0.00000E+00         0.12490E-02         0.00000E+00
    0.00000E+00         0.00000E+00         0.00000E+00
    0.78930E-02         0.50650E-01         0.00000E+00
    0.72526E-02         0.49629E-01         0.00000E+00
    0.67349E-02         0.48589E-01         0.00000E+00
    0.63080E-02         0.47537E-01         0.00000E+00
    0.59515E-02         0.46481E-01         0.00000E+00
    0.56511E-02         0.45425E-01         0.00000E+00
    0.53967E-02         0.44373E-01         0.00000E+00
    0.51817E-02         0.43326E-01         0.00000E+00
    0.49990E-02         0.42278E-01         0.00000E+00
    0.48421E-02         0.41233E-01         0.00000E+00
    0.47049E-02         0.40192E-01         0.00000E+00
    0.45835E-02         0.39155E-01         0.00000E+00
    0.44748E-02         0.38123E-01         0.00000E+00
    0.43765E-02         0.37097E-01         0.00000E+00
    0.42867E-02         0.36077E-01         0.00000E+00
    0.42039E-02         0.35063E-01         0.00000E+00
    0.41269E-02         0.34056E-01         0.00000E+00
    0.40548E-02         0.33054E-01         0.00000E+00
    0.39865E-02         0.32057E-01         0.00000E+00
    0.39214E-02         0.31067E-01         0.00000E+00
    0.38589E-02         0.30081E-01         0.00000E+00
    0.37982E-02         0.29101E-01         0.00000E+00
    0.37390E-02         0.28125E-01         0.00000E+00
    0.36807E-02         0.27154E-01         0.00000E+00
    0.36228E-02         0.26186E-01         0.00000E+00
    0.35650E-02         0.25222E-01         0.00000E+00
    0.35068E-02         0.24260E-01         0.00000E+00
    0.34478E-02         0.23301E-01         0.00000E+00
    0.33876E-02         0.22344E-01         0.00000E+00
    0.33259E-02         0.21389E-01         0.00000E+00
    0.32621E-02         0.20434E-01         0.00000E+00
    0.31958E-02         0.19479E-01         0.00000E+00
    0.31266E-02         0.18524E-01         0.00000E+00
    0.30539E-02         0.17568E-01         0.00000E+00
    0.29772E-02         0.16610E-01         0.00000E+00
    0.28959E-02         0.15649E-01         0.00000E+00
    0.28092E-02         0.14684E-01         0.00000E+00
    0.27164E-02         0.13715E-01         0.00000E+00
    0.26165E-02         0.12740E-01         0.00000E+00
    0.25084E-02         0.11759E-01         0.00000E+00
    0.23908E-02         0.10769E-01         0.00000E+00
    0.22623E-02         0.97703E-02         0.00000E+00
    0.21208E-02         0.87602E-02         0.00000E+00
    0.19640E-02         0.77373E-02         0.00000E+00
    0.17890E-02         0.66994E-02         0.00000E+00
    0.15918E-02         0.56441E-02         0.00000E+00
    0.13674E-02         0.45688E-02         0.00000E+00
    0.11087E-02         0.34703E-02         0.00000E+00
    0.80587E-03         0.23452E-02         0.00000E+00
    0.44404E-03         0.11896E-02         0.00000E+00
    0.00000E+00         0.00000E+00         0.00000E+00
    0.13081E-01         0.46968E-01         0.00000E+00
    0.12340E-01         0.46106E-01         0.00000E+00
    0.11671E-01         0.45242E-01         0.00000E+00
    0.11076E-01         0.44371E-01         0.00000E+00
    0.10549E-01         0.43491E-01         0.00000E+00
    0.10083E-01         0.42601E-01         0.00000E+00
    0.96701E-02         0.41703E-01         0.00000E+00
    0.93028E-02         0.40796E-01         0.00000E+00
    0.89748E-02         0.39884E-01         0.00000E+00
    0.86815E-02         0.38968E-01         0.00000E+00
    0.84179E-02         0.38047E-01         0.00000E+00
    0.81799E-02         0.37123E-01         0.00000E+00
    0.79637E-02         0.36197E-01         0.00000E+00
    0.77659E-02         0.35270E-01         0.00000E+00
    0.75838E-02         0.34342E-01         0.00000E+00
    0.74151E-02         0.33414E-01         0.00000E+00
    0.72576E-02         0.32487E-01         0.00000E+00
    0.71095E-02         0.31560E-01         0.00000E+00
    0.69694E-02         0.30635E-01         0.00000E+00
    0.68357E-02         0.29710E-01         0.00000E+00
    0.67072E-02         0.28787E-01         0.00000E+00
    0.65828E-02         0.27865E-01         0.00000E+00
    0.64615E-02         0.26945E-01         0.00000E+00
    0.63424E-02         0.26025E-01         0.00000E+00
    0.62245E-02         0.25107E-01         0.00000E+00
    0.61070E-02         0.24189E-01         0.00000E+00
    0.59891E-02         0.23272E-01         0.00000E+00
    0.58701E-02         0.22355E-01         0.00000E+00
    0.57490E-02         0.21437E-01         0.00000E+00
    0.56253E-02         0.20519E-01         0.00000E+00
    0.54979E-02         0.19600E-01         0.00000E+00
    0.53662E-02         0.18680E-01         0.00000E+00
    0.52293E-02         0.17758E-01         0.00000E+00
    0.50862E-02         0.16833E-01         0.00000E+00
    0.49359E-02         0.15905E-01         0.00000E+00
    0.47773E-02         0.14974E-01         0.00000E+00
    0.46092E-02         0.14038E-01         0.00000E+00
    0.44304E-02         0.13097E-01         0.00000E+00
    0.42392E-02         0.12149E-01         0.00000E+00
    0.40339E-02         0.11195E-01         0.00000E+00
    0.38127E-02         0.10234E-01         0.00000E+00
    0.35731E-02         0.92633E-02         0.00000E+00
    0.33127E-02         0.82832E-02         0.00000E+00
    0.30282E-02         0.72923E-02         0.00000E+00
    0.27163E-02         0.62898E-02         0.00000E+00
    0.23726E-02         0.52745E-02         0.00000E+00
    0.19923E-02         0.42458E-02         0.00000E+00
    0.15701E-02         0.32032E-02         0.00000E+00
    0.11002E-02         0.21470E-02         0.00000E+00
    0.57751E-03         0.10783E-02         0.00000E+00
    0.00000E+00         0.00000E+00         0.00000E+00
    0.16968E-01         0.42880E-01         0.00000E+00
    0.16155E-01         0.42125E-01         0.00000E+00
    0.15409E-01         0.41366E-01         0.00000E+00
    0.14726E-01         0.40604E-01         0.00000E+00
    0.14100E-01         0.39838E-01         0.00000E+00
    0.13527E-01         0.39066E-01         0.00000E+00
    0.13004E-01         0.38289E-01         0.00000E+00
    0.12527E-01         0.37506E-01         0.00000E+00
    0.12091E-01         0.36716E-01         0.00000E+00
    0.11691E-01         0.35921E-01         0.00000E+00
    0.11324E-01         0.35119E-01         0.00000E+00
    0.10987E-01         0.34311E-01         0.00000E+00
    0.10675E-01         0.33499E-01         0.00000E+00
    0.10386E-01         0.32681E-01         0.00000E+00
    0.10118E-01         0.31860E-01         0.00000E+00
    0.98660E-02         0.31034E-01         0.00000E+00
    0.96295E-02         0.30205E-01         0.00000E+00
    0.94059E-02         0.29372E-01         0.00000E+00
    0.91933E-02         0.28537E-01         0.00000E+00
    0.89899E-02         0.27700E-01         0.00000E+00
    0.87942E-02         0.26859E-01         0.00000E+00
    0.86046E-02         0.26017E-01         0.00000E+00
    0.84197E-02         0.25172E-01         0.00000E+00
    0.82383E-02         0.24326E-01         0.00000E+00
    0.80592E-02         0.23477E-01         0.00000E+00
    0.78812E-02         0.22627E-01         0.00000E+00
    0.77031E-02         0.21774E-01         0.00000E+00
    0.75240E-02         0.20918E-01         0.00000E+00
    0.73428E-02         0.20061E-01         0.00000E+00
    0.71583E-02         0.19201E-01         0.00000E+00
    0.69696E-02         0.18337E-01         0.00000E+00
    0.67755E-02         0.17471E-01         0.00000E+00
    0.65749E-02         0.16602E-01         0.00000E+00
    0.63666E-02         0.15728E-01         0.00000E+00
    0.61494E-02         0.14851E-01         0.00000E+00
    0.59221E-02         0.13969E-01         0.00000E+00
    0.56831E-02         0.13082E-01         0.00000E+00
    0.54310E-02         0.12189E-01         0.00000E+00
    0.51641E-02         0.11292E-01         0.00000E+00
    0.48806E-02         0.10388E-01         0.00000E+00
    0.45787E-02         0.94773E-02         0.00000E+00
    0.42562E-02         0.85601E-02         0.00000E+00
    0.39107E-02         0.76357E-02         0.00000E+00
    0.35399E-02         0.67041E-02         0.00000E+00
    0.31410E-02         0.57652E-02         0.00000E+00
    0.27113E-02         0.48190E-02         0.00000E+00
    0.22478E-02         0.38660E-02         0.00000E+00
    0.17478E-02         0.29066E-02         0.00000E+00
    0.12085E-02         0.19419E-02         0.00000E+00
    0.62718E-03         0.97277E-03         0.00000E+00
    0.00000E+00         0.00000E+00         0.00000E+00
    0.19702E-01         0.38569E-01         0.00000E+00
    0.18866E-01         0.37908E-01         0.00000E+00
    0.18087E-01         0.37246E-01         0.00000E+00
    0.17362E-01         0.36581E-01         0.00000E+00
    0.16688E-01         0.35913E-01         0.00000E+00
    0.16060E-01         0.35242E-01         0.00000E+00
    0.15476E-01         0.34566E-01         0.00000E+00
    0.14933E-01         0.33886E-01         0.00000E+00
    0.14427E-01         0.33200E-01         0.00000E+00
    0.13956E-01         0.32508E-01         0.00000E+00
    0.13516E-01         0.31811E-01         0.00000E+00
    0.13105E-01         0.31107E-01         0.00000E+00
    0.12720E-01         0.30398E-01         0.00000E+00
    0.12359E-01         0.29684E-01         0.00000E+00
    0.12018E-01         0.28963E-01         0.00000E+00
    0.11696E-01         0.28237E-01         0.00000E+00
    0.11391E-01         0.27506E-01         0.00000E+00
    0.11100E-01         0.26769E-01         0.00000E+00
    0.10821E-01         0.26028E-01         0.00000E+00
    0.10553E-01         0.25281E-01         0.00000E+00
    0.10295E-01         0.24530E-01         0.00000E+00
    0.10043E-01         0.23775E-01         0.00000E+00
    0.97979E-02         0.23015E-01         0.00000E+00
    0.95571E-02         0.22251E-01         0.00000E+00
    0.93194E-02         0.21482E-01         0.00000E+00
    0.90836E-02         0.20710E-01         0.00000E+00
    0.88484E-02         0.19933E-01         0.00000E+00
    0.86126E-02         0.19152E-01         0.00000E+00
    0.83749E-02         0.18367E-01         0.00000E+00
    0.81341E-02         0.17578E-01         0.00000E+00
    0.78892E-02         0.16785E-01         0.00000E+00
    0.76388E-02         0.15988E-01         0.00000E+00
    0.73818E-02         0.15186E-01         0.00000E+00
    0.71169E-02         0.14379E-01         0.00000E+00
    0.68429E-02         0.13568E-01         0.00000E+00
    0.65584E-02         0.12752E-01         0.00000E+00
    0.62622E-02         0.11932E-01         0.00000E+00
    0.59527E-02         0.11107E-01         0.00000E+00
    0.56286E-02         0.10277E-01         0.00000E+00
    0.52883E-02         0.94414E-02         0.00000E+00
    0.49303E-02         0.86014E-02         0.00000E+00
    0.45529E-02         0.77566E-02         0.00000E+00
    0.41543E-02         0.69071E-02         0.00000E+00
    0.37330E-02         0.60533E-02         0.00000E+00
    0.32871E-02         0.51955E-02         0.00000E+00
    0.28150E-02         0.43341E-02         0.00000E+00
    0.23148E-02         0.34699E-02         0.00000E+00
    0.17848E-02         0.26034E-02         0.00000E+00
    0.12234E-02         0.17355E-02         0.00000E+00
    0.62892E-03         0.86726E-03         0.00000E+00
    0.00000E+00         0.00000E+00         0.00000E+00
    0.21464E-01         0.34286E-01         0.00000E+00
    0.20645E-01         0.33704E-01         0.00000E+00
    0.19872E-01         0.33122E-01         0.00000E+00
    0.19143E-01         0.32540E-01         0.00000E+00
    0.18456E-01         0.31957E-01         0.00000E+00
    0.17808E-01         0.31371E-01         0.00000E+00
    0.17197E-01         0.30782E-01         0.00000E+00
    0.16621E-01         0.30189E-01         0.00000E+00
    0.16077E-01         0.29592E-01         0.00000E+00
    0.15564E-01         0.28991E-01         0.00000E+00
    0.15079E-01         0.28384E-01         0.00000E+00
    0.14620E-01         0.27772E-01         0.00000E+00
    0.14185E-01         0.27154E-01         0.00000E+00
    0.13771E-01         0.26531E-01         0.00000E+00
    0.13378E-01         0.25902E-01         0.00000E+00
    0.13002E-01         0.25267E-01         0.00000E+00
    0.12643E-01         0.24626E-01         0.00000E+00
    0.12298E-01         0.23980E-01         0.00000E+00
    0.11965E-01         0.23327E-01         0.00000E+00
    0.11643E-01         0.22669E-01         0.00000E+00
    0.11331E-01         0.22006E-01         0.00000E+00
    0.11026E-01         0.21336E-01         0.00000E+00
    0.10729E-01         0.20662E-01         0.00000E+00
    0.10436E-01         0.19982E-01         0.00000E+00
    0.10147E-01         0.19296E-01         0.00000E+00
    0.98598E-02         0.18606E-01         0.00000E+00
    0.95742E-02         0.17910E-01         0.00000E+00
    0.92885E-02         0.17210E-01         0.00000E+00
    0.90016E-02         0.16504E-01         0.00000E+00
    0.87122E-02         0.15794E-01         0.00000E+00
    0.84192E-02         0.15078E-01         0.00000E+00
    0.81213E-02         0.14358E-01         0.00000E+00
    0.78175E-02         0.13633E-01         0.00000E+00
    0.75066E-02         0.12903E-01         0.00000E+00
    0.71874E-02         0.12169E-01         0.00000E+00
    0.68587E-02         0.11431E-01         0.00000E+00
    0.65194E-02         0.10688E-01         0.00000E+00
    0.61684E-02         0.99409E-02         0.00000E+00
    0.58043E-02         0.91898E-02         0.00000E+00
    0.54260E-02         0.84349E-02         0.00000E+00
    0.50324E-02         0.76765E-02         0.00000E+00
    0.46222E-02         0.69149E-02         0.00000E+00
    0.41942E-02         0.61504E-02         0.00000E+00
    0.37473E-02         0.53835E-02         0.00000E+00
    0.32804E-02         0.46147E-02         0.00000E+00
    0.27923E-02         0.38446E-02         0.00000E+00
    0.22819E-02         0.30737E-02         0.00000E+00
    0.17484E-02         0.23030E-02         0.00000E+00
    0.11907E-02         0.15332E-02         0.00000E+00
    0.60819E-03         0.76516E-03         0.00000E+00
    0.00000E+00         0.00000E+00         0.00000E+00
    0.22439E-01         0.30181E-01         0.00000E+00
    0.21661E-01         0.29667E-01         0.00000E+00
    0.20919E-01         0.29155E-01         0.00000E+00
    0.20211E-01         0.28643E-01         0.00000E+00
    0.19537E-01         0.28132E-01         0.00000E+00
    0.18894E-01         0.27619E-01         0.00000E+00
    0.18282E-01         0.27104E-01         0.00000E+00
    0.17698E-01         0.26586E-01         0.00000E+00
    0.17141E-01         0.26065E-01         0.00000E+00
    0.16610E-01         0.25541E-01         0.00000E+00
    0.16102E-01         0.25012E-01         0.00000E+00
    0.15617E-01         0.24479E-01         0.00000E+00
    0.15152E-01         0.23942E-01         0.00000E+00
    0.14706E-01         0.23399E-01         0.00000E+00
    0.14278E-01         0.22851E-01         0.00000E+00
    0.13866E-01         0.22297E-01         0.00000E+00
    0.13469E-01         0.21738E-01         0.00000E+00
    0.13084E-01         0.21173E-01         0.00000E+00
    0.12711E-01         0.20603E-01         0.00000E+00
    0.12349E-01         0.20027E-01         0.00000E+00
    0.11995E-01         0.19445E-01         0.00000E+00
    0.11649E-01         0.18858E-01         0.00000E+00
    0.11310E-01         0.18265E-01         0.00000E+00
    0.10975E-01         0.17666E-01         0.00000E+00
    0.10644E-01         0.17062E-01         0.00000E+00
    0.10316E-01         0.16453E-01         0.00000E+00
    0.99899E-02         0.15838E-01         0.00000E+00
    0.96639E-02         0.15218E-01         0.00000E+00
    0.93373E-02         0.14593E-01         0.00000E+00
    0.90089E-02         0.13963E-01         0.00000E+00
    0.86777E-02         0.13328E-01         0.00000E+00
    0.83427E-02         0.12688E-01         0.00000E+00
    0.80027E-02         0.12044E-01         0.00000E+00
    0.76569E-02         0.11395E-01         0.00000E+00
    0.73043E-02         0.10742E-01         0.00000E+00
    0.69437E-02         0.10086E-01         0.00000E+00
    0.65744E-02         0.94250E-02         0.00000E+00
    0.61953E-02         0.87611E-02         0.00000E+00
    0.58055E-02         0.80939E-02         0.00000E+00
    0.54041E-02         0.74239E-02         0.00000E+00
    0.49902E-02         0.67514E-02         0.00000E+00
    0.45630E-02         0.60768E-02         0.00000E+00
    0.41216E-02         0.54006E-02         0.00000E+00
    0.36653E-02         0.47232E-02         0.00000E+00
    0.31933E-02         0.40452E-02         0.00000E+00
    0.27050E-02         0.33671E-02         0.00000E+00
    0.21998E-02         0.26896E-02         0.00000E+00
    0.16771E-02         0.20134E-02         0.00000E+00
    0.11364E-02         0.13392E-02         0.00000E+00
    0.57749E-03         0.66776E-03         0.00000E+00
    0.00000E+00         0.00000E+00         0.00000E+00
    0.22787E-01         0.26346E-01         0.00000E+00
    0.22065E-01         0.25892E-01         0.00000E+00
    0.21369E-01         0.25440E-01         0.00000E+00
    0.20700E-01         0.24989E-01         0.00000E+00
    0.20057E-01         0.24539E-01         0.00000E+00
    0.19437E-01         0.24088E-01         0.00000E+00
    0.18842E-01         0.23637E-01         0.00000E+00
    0.18268E-01         0.23184E-01         0.00000E+00
    0.17716E-01         0.22728E-01         0.00000E+00
    0.17185E-01         0.22271E-01         0.00000E+00
    0.16673E-01         0.21810E-01         0.00000E+00
    0.16179E-01         0.21345E-01         0.00000E+00
    0.15702E-01         0.20877E-01         0.00000E+00
    0.15241E-01         0.20404E-01         0.00000E+00
    0.14794E-01         0.19927E-01         0.00000E+00
    0.14362E-01         0.19446E-01         0.00000E+00
    0.13941E-01         0.18959E-01         0.00000E+00
    0.13532E-01         0.18468E-01         0.00000E+00
    0.13133E-01         0.17971E-01         0.00000E+00
    0.12743E-01         0.17470E-01         0.00000E+00
    0.12361E-01         0.16963E-01         0.00000E+00
    0.11985E-01         0.16451E-01         0.00000E+00
    0.11616E-01         0.15934E-01         0.00000E+00
    0.11251E-01         0.15411E-01         0.00000E+00
    0.10890E-01         0.14884E-01         0.00000E+00
    0.10532E-01         0.14351E-01         0.00000E+00
    0.10175E-01         0.13814E-01         0.00000E+00
    0.98195E-02         0.13271E-01         0.00000E+00
    0.94636E-02         0.12724E-01         0.00000E+00
    0.91067E-02         0.12172E-01         0.00000E+00
    0.87478E-02         0.11616E-01         0.00000E+00
    0.83860E-02         0.11056E-01         0.00000E+00
    0.80205E-02         0.10491E-01         0.00000E+00
    0.76505E-02         0.99230E-02         0.00000E+00
    0.72752E-02         0.93511E-02         0.00000E+00
    0.68937E-02         0.87759E-02         0.00000E+00
    0.65053E-02         0.81976E-02         0.00000E+00
    0.61093E-02         0.76165E-02         0.00000E+00
    0.57049E-02         0.70330E-02         0.00000E+00
    0.52915E-02         0.64474E-02         0.00000E+00
    0.48685E-02         0.58601E-02         0.00000E+00
    0.44352E-02         0.52716E-02         0.00000E+00
    0.39910E-02         0.46821E-02         0.00000E+00
    0.35356E-02         0.40924E-02         0.00000E+00
    0.30684E-02         0.35027E-02         0.00000E+00
    0.25890E-02         0.29138E-02         0.00000E+00
    0.20970E-02         0.23261E-02         0.00000E+00
    0.15923E-02         0.17402E-02         0.00000E+00
    0.10746E-02         0.11568E-02         0.00000E+00
    0.54388E-03         0.57648E-03         0.00000E+00
    0.00000E+00         0.00000E+00         0.00000E+00
    0.22648E-01         0.22834E-01         0.00000E+00
    0.21990E-01         0.22431E-01         0.00000E+00
    0.21350E-01         0.22031E-01         0.00000E+00
    0.20730E-01         0.21633E-01         0.00000E+00
    0.20128E-01         0.21236E-01         0.00000E+00
    0.19544E-01         0.20840E-01         0.00000E+00
    0.18977E-01         0.20443E-01         0.00000E+00
    0.18427E-01         0.20046E-01         0.00000E+00
    0.17894E-01         0.19647E-01         0.00000E+00
    0.17376E-01         0.19247E-01         0.00000E+00
    0.16873E-01         0.18844E-01         0.00000E+00
    0.16384E-01         0.18439E-01         0.00000E+00
    0.15909E-01         0.18031E-01         0.00000E+00
    0.15446E-01         0.17620E-01         0.00000E+00
    0.14995E-01         0.17205E-01         0.00000E+00
    0.14555E-01         0.16787E-01         0.00000E+00
    0.14124E-01         0.16365E-01         0.00000E+00
    0.13703E-01         0.15938E-01         0.00000E+00
    0.13291E-01         0.15507E-01         0.00000E+00
    0.12885E-01         0.15072E-01         0.00000E+00
    0.12487E-01         0.14633E-01         0.00000E+00
    0.12094E-01         0.14189E-01         0.00000E+00
    0.11706E-01         0.13741E-01         0.00000E+00
    0.11323E-01         0.13288E-01         0.00000E+00
    0.10942E-01         0.12831E-01         0.00000E+00
    0.10565E-01         0.12370E-01         0.00000E+00
    0.10189E-01         0.11904E-01         0.00000E+00
    0.98135E-02         0.11434E-01         0.00000E+00
    0.94386E-02         0.10960E-01         0.00000E+00
    0.90632E-02         0.10482E-01         0.00000E+00
    0.86865E-02         0.10000E-01         0.00000E+00
    0.83078E-02         0.95149E-02         0.00000E+00
    0.79265E-02         0.90262E-02         0.00000E+00
    0.75418E-02         0.85344E-02         0.00000E+00
    0.71532E-02         0.80396E-02         0.00000E+00
    0.67600E-02         0.75422E-02         0.00000E+00
    0.63617E-02         0.70423E-02         0.00000E+00
    0.59576E-02         0.65404E-02         0.00000E+00
    0.55473E-02         0.60367E-02         0.00000E+00
    0.51302E-02         0.55316E-02         0.00000E+00
    0.47060E-02         0.50255E-02         0.00000E+00
    0.42741E-02         0.45186E-02         0.00000E+00
    0.38343E-02         0.40115E-02         0.00000E+00
    0.33861E-02         0.35045E-02         0.00000E+00
    0.29294E-02         0.29982E-02         0.00000E+00
    0.24639E-02         0.24929E-02         0.00000E+00
    0.19893E-02         0.19891E-02         0.00000E+00
    0.15057E-02         0.14874E-02         0.00000E+00
    0.10129E-02         0.98833E-03         0.00000E+00
    0.51096E-03         0.49234E-03         0.00000E+00
    0.00000E+00         0.00000E+00         0.00000E+00
    0.22142E-01         0.19666E-01         0.00000E+00
    0.21550E-01         0.19309E-01         0.00000E+00
    0.20970E-01         0.18955E-01         0.00000E+00
    0.20404E-01         0.18603E-01         0.00000E+00
    0.19850E-01         0.18253E-01         0.00000E+00
    0.19308E-01         0.17903E-01         0.00000E+00
    0.18778E-01         0.17554E-01         0.00000E+00
    0.18261E-01         0.17205E-01         0.00000E+00
    0.17755E-01         0.16856E-01         0.00000E+00
    0.17261E-01         0.16505E-01         0.00000E+00
    0.16777E-01         0.16153E-01         0.00000E+00
    0.16304E-01         0.15800E-01         0.00000E+00
    0.15840E-01         0.15444E-01         0.00000E+00
    0.15387E-01         0.15087E-01         0.00000E+00
    0.14941E-01         0.14726E-01         0.00000E+00
    0.14505E-01         0.14363E-01         0.00000E+00
    0.14075E-01         0.13997E-01         0.00000E+00
    0.13653E-01         0.13628E-01         0.00000E+00
    0.13238E-01         0.13255E-01         0.00000E+00
    0.12828E-01         0.12879E-01         0.00000E+00
    0.12424E-01         0.12500E-01         0.00000E+00
    0.12024E-01         0.12117E-01         0.00000E+00
    0.11628E-01         0.11730E-01         0.00000E+00
    0.11236E-01         0.11340E-01         0.00000E+00
    0.10846E-01         0.10947E-01         0.00000E+00
    0.10459E-01         0.10550E-01         0.00000E+00
    0.10073E-01         0.10149E-01         0.00000E+00
    0.96879E-02         0.97450E-02         0.00000E+00
    0.93033E-02         0.93378E-02         0.00000E+00
    0.89184E-02         0.89275E-02         0.00000E+00
    0.85328E-02         0.85142E-02         0.00000E+00
    0.81459E-02         0.80980E-02         0.00000E+00
    0.77571E-02         0.76792E-02         0.00000E+00
    0.73660E-02         0.72579E-02         0.00000E+00
    0.69721E-02         0.68345E-02         0.00000E+00
    0.65748E-02         0.64090E-02         0.00000E+00
    0.61738E-02         0.59818E-02         0.00000E+00
    0.57687E-02         0.55531E-02         0.00000E+00
    0.53591E-02         0.51233E-02         0.00000E+00
    0.49446E-02         0.46926E-02         0.00000E+00
    0.45249E-02         0.42613E-02         0.00000E+00
    0.40997E-02         0.38299E-02         0.00000E+00
    0.36688E-02         0.33986E-02         0.00000E+00
    0.32320E-02         0.29678E-02         0.00000E+00
    0.27890E-02         0.25379E-02         0.00000E+00
    0.23399E-02         0.21093E-02         0.00000E+00
    0.18844E-02         0.16824E-02         0.00000E+00
    0.14227E-02         0.12576E-02         0.00000E+00
    0.95463E-03         0.83531E-03         0.00000E+00
    0.48036E-03         0.41597E-03         0.00000E+00
    0.00000E+00         0.00000E+00         0.00000E+00
    0.21367E-01         0.16847E-01         0.00000E+00
    0.20841E-01         0.16530E-01         0.00000E+00
    0.20322E-01         0.16216E-01         0.00000E+00
    0.19811E-01         0.15905E-01         0.00000E+00
    0.19308E-01         0.15595E-01         0.00000E+00
    0.18812E-01         0.15287E-01         0.00000E+00
    0.18324E-01         0.14979E-01         0.00000E+00
    0.17844E-01         0.14672E-01         0.00000E+00
    0.17372E-01         0.14365E-01         0.00000E+00
    0.16907E-01         0.14058E-01         0.00000E+00
    0.16450E-01         0.13751E-01         0.00000E+00
    0.15999E-01         0.13442E-01         0.00000E+00
    0.15556E-01         0.13132E-01         0.00000E+00
    0.15119E-01         0.12821E-01         0.00000E+00
    0.14688E-01         0.12508E-01         0.00000E+00
    0.14263E-01         0.12193E-01         0.00000E+00
    0.13844E-01         0.11876E-01         0.00000E+00
    0.13429E-01         0.11557E-01         0.00000E+00
    0.13020E-01         0.11235E-01         0.00000E+00
    0.12614E-01         0.10911E-01         0.00000E+00
    0.12213E-01         0.10585E-01         0.00000E+00
    0.11815E-01         0.10255E-01         0.00000E+00
    0.11420E-01         0.99236E-02         0.00000E+00
    0.11027E-01         0.95891E-02         0.00000E+00
    0.10637E-01         0.92520E-02         0.00000E+00
    0.10248E-01         0.89122E-02         0.00000E+00
    0.98603E-02         0.85698E-02         0.00000E+00
    0.94736E-02         0.82249E-02         0.00000E+00
    0.90871E-02         0.78776E-02         0.00000E+00
    0.87006E-02         0.75279E-02         0.00000E+00
    0.83136E-02         0.71760E-02         0.00000E+00
    0.79257E-02         0.68221E-02         0.00000E+00
    0.75366E-02         0.64663E-02         0.00000E+00
    0.71458E-02         0.61087E-02         0.00000E+00
    0.67530E-02         0.57495E-02         0.00000E+00
    0.63578E-02         0.53891E-02         0.00000E+00
    0.59601E-02         0.50275E-02         0.00000E+00
    0.55594E-02         0.46650E-02         0.00000E+00
    0.51555E-02         0.43019E-02         0.00000E+00
    0.47481E-02         0.39384E-02         0.00000E+00
    0.43371E-02         0.35748E-02         0.00000E+00
    0.39222E-02         0.32114E-02         0.00000E+00
    0.35033E-02         0.28484E-02         0.00000E+00
    0.30803E-02         0.24863E-02         0.00000E+00
    0.26531E-02         0.21252E-02         0.00000E+00
    0.22215E-02         0.17655E-02         0.00000E+00
    0.17856E-02         0.14076E-02         0.00000E+00
    0.13455E-02         0.10518E-02         0.00000E+00
    0.90110E-03         0.69833E-03         0.00000E+00
    0.45255E-03         0.34763E-03         0.00000E+00
    0.00000E+00         0.00000E+00         0.00000E+00
    0.20404E-01         0.14364E-01         0.00000E+00
    0.19942E-01         0.14083E-01         0.00000E+00
    0.19482E-01         0.13805E-01         0.00000E+00
    0.19026E-01         0.13529E-01         0.00000E+00
    0.18574E-01         0.13255E-01         0.00000E+00
    0.18126E-01         0.12983E-01         0.00000E+00
    0.17681E-01         0.12712E-01         0.00000E+00
    0.17242E-01         0.12442E-01         0.00000E+00
    0.16806E-01         0.12172E-01         0.00000E+00
    0.16375E-01         0.11903E-01         0.00000E+00
    0.15948E-01         0.11634E-01         0.00000E+00
    0.15525E-01         0.11364E-01         0.00000E+00
    0.15106E-01         0.11094E-01         0.00000E+00
    0.14692E-01         0.10823E-01         0.00000E+00
    0.14281E-01         0.10551E-01         0.00000E+00
    0.13874E-01         0.10278E-01         0.00000E+00
    0.13471E-01         0.10004E-01         0.00000E+00
    0.13071E-01         0.97286E-02         0.00000E+00
    0.12674E-01         0.94516E-02         0.00000E+00
    0.12280E-01         0.91729E-02         0.00000E+00
    0.11888E-01         0.88925E-02         0.00000E+00
    0.11499E-01         0.86103E-02         0.00000E+00
    0.11111E-01         0.83264E-02         0.00000E+00
    0.10725E-01         0.80406E-02         0.00000E+00
    0.10341E-01         0.77530E-02         0.00000E+00
    0.99579E-02         0.74637E-02         0.00000E+00
    0.95754E-02         0.71725E-02         0.00000E+00
    0.91934E-02         0.68797E-02         0.00000E+00
    0.88116E-02         0.65851E-02         0.00000E+00
    0.84298E-02         0.62891E-02         0.00000E+00
    0.80475E-02         0.59915E-02         0.00000E+00
    0.76646E-02         0.56926E-02         0.00000E+00
    0.72807E-02         0.53925E-02         0.00000E+00
    0.68957E-02         0.50914E-02         0.00000E+00
    0.65092E-02         0.47893E-02         0.00000E+00
    0.61211E-02         0.44864E-02         0.00000E+00
    0.57311E-02         0.41830E-02         0.00000E+00
    0.53390E-02         0.38792E-02         0.00000E+00
    0.49446E-02         0.35752E-02         0.00000E+00
    0.45479E-02         0.32713E-02         0.00000E+00
    0.41485E-02         0.29676E-02         0.00000E+00
    0.37465E-02         0.26645E-02         0.00000E+00
    0.33417E-02         0.23621E-02         0.00000E+00
    0.29340E-02         0.20607E-02         0.00000E+00
    0.25235E-02         0.17605E-02         0.00000E+00
    0.21100E-02         0.14618E-02         0.00000E+00
    0.16936E-02         0.11649E-02         0.00000E+00
    0.12743E-02         0.86998E-03         0.00000E+00
    0.85224E-03         0.57736E-03         0.00000E+00
    0.42743E-03         0.28728E-03         0.00000E+00
    0.00000E+00         0.00000E+00         0.00000E+00
    0.19320E-01         0.12198E-01         0.00000E+00
    0.18917E-01         0.11949E-01         0.00000E+00
    0.18513E-01         0.11702E-01         0.00000E+00
    0.18110E-01         0.11458E-01         0.00000E+00
    0.17707E-01         0.11216E-01         0.00000E+00
    0.17305E-01         0.10975E-01         0.00000E+00
    0.16905E-01         0.10736E-01         0.00000E+00
    0.16506E-01         0.10498E-01         0.00000E+00
    0.16108E-01         0.10261E-01         0.00000E+00
    0.15712E-01         0.10025E-01         0.00000E+00
    0.15318E-01         0.97893E-02         0.00000E+00
    0.14926E-01         0.95537E-02         0.00000E+00
    0.14535E-01         0.93182E-02         0.00000E+00
    0.14147E-01         0.90825E-02         0.00000E+00
    0.13761E-01         0.88465E-02         0.00000E+00
    0.13376E-01         0.86101E-02         0.00000E+00
    0.12993E-01         0.83731E-02         0.00000E+00
    0.12612E-01         0.81354E-02         0.00000E+00
    0.12233E-01         0.78969E-02         0.00000E+00
    0.11855E-01         0.76575E-02         0.00000E+00
    0.11478E-01         0.74172E-02         0.00000E+00
    0.11102E-01         0.71759E-02         0.00000E+00
    0.10728E-01         0.69335E-02         0.00000E+00
    0.10354E-01         0.66901E-02         0.00000E+00
    0.99814E-02         0.64457E-02         0.00000E+00
    0.96090E-02         0.62001E-02         0.00000E+00
    0.92369E-02         0.59536E-02         0.00000E+00
    0.88649E-02         0.57060E-02         0.00000E+00
    0.84929E-02         0.54575E-02         0.00000E+00
    0.81206E-02         0.52082E-02         0.00000E+00
    0.77479E-02         0.49580E-02         0.00000E+00
    0.73746E-02         0.47071E-02         0.00000E+00
    0.70005E-02         0.44556E-02         0.00000E+00
    0.66255E-02         0.42037E-02         0.00000E+00
    0.62493E-02         0.39513E-02         0.00000E+00
    0.58719E-02         0.36988E-02         0.00000E+00
    0.54931E-02         0.34461E-02         0.00000E+00
    0.51128E-02         0.31936E-02         0.00000E+00
    0.47309E-02         0.29412E-02         0.00000E+00
    0.43472E-02         0.26893E-02         0.00000E+00
    0.39617E-02         0.24380E-02         0.00000E+00
    0.35743E-02         0.21874E-02         0.00000E+00
    0.31850E-02         0.19379E-02         0.00000E+00
    0.27937E-02         0.16894E-02         0.00000E+00
    0.24003E-02         0.14424E-02         0.00000E+00
    0.20050E-02         0.11969E-02         0.00000E+00
    0.16078E-02         0.95316E-03         0.00000E+00
    0.12086E-02         0.71140E-03         0.00000E+00
    0.80747E-03         0.47182E-03         0.00000E+00
    0.40459E-03         0.23462E-03         0.00000E+00
    0.00000E+00         0.00000E+00         0.00000E+00
    0.18167E-01         0.10324E-01         0.00000E+00
    0.17817E-01         0.10103E-01         0.00000E+00
    0.17466E-01         0.98845E-02         0.00000E+00
    0.17112E-01         0.96682E-02         0.00000E+00
    0.16756E-01         0.94540E-02         0.00000E+00
    0.16399E-01         0.92414E-02         0.00000E+00
    0.16040E-01         0.90305E-02         0.00000E+00
    0.15681E-01         0.88209E-02         0.00000E+00
    0.15321E-01         0.86124E-02         0.00000E+00
    0.14961E-01         0.84050E-02         0.00000E+00
    0.14600E-01         0.81983E-02         0.00000E+00
    0.14240E-01         0.79923E-02         0.00000E+00
    0.13879E-01         0.77868E-02         0.00000E+00
    0.13519E-01         0.75816E-02         0.00000E+00
    0.13159E-01         0.73766E-02         0.00000E+00
    0.12799E-01         0.71717E-02         0.00000E+00
    0.12440E-01         0.69669E-02         0.00000E+00
    0.12081E-01         0.67619E-02         0.00000E+00
    0.11722E-01         0.65567E-02         0.00000E+00
    0.11364E-01         0.63513E-02         0.00000E+00
    0.11006E-01         0.61456E-02         0.00000E+00
    0.10648E-01         0.59395E-02         0.00000E+00
    0.10290E-01         0.57330E-02         0.00000E+00
    0.99329E-02         0.55262E-02         0.00000E+00
    0.95753E-02         0.53189E-02         0.00000E+00
    0.92177E-02         0.51111E-02         0.00000E+00
    0.88598E-02         0.49030E-02         0.00000E+00
    0.85017E-02         0.46945E-02         0.00000E+00
    0.81432E-02         0.44857E-02         0.00000E+00
    0.77842E-02         0.42766E-02         0.00000E+00
    0.74247E-02         0.40673E-02         0.00000E+00
    0.70645E-02         0.38578E-02         0.00000E+00
    0.67035E-02         0.36482E-02         0.00000E+00
    0.63416E-02         0.34387E-02         0.00000E+00
    0.59788E-02         0.32292E-02         0.00000E+00
    0.56149E-02         0.30200E-02         0.00000E+00
    0.52499E-02         0.28111E-02         0.00000E+00
    0.48837E-02         0.26027E-02         0.00000E+00
    0.45163E-02         0.23949E-02         0.00000E+00
    0.41475E-02         0.21878E-02         0.00000E+00
    0.37774E-02         0.19815E-02         0.00000E+00
    0.34059E-02         0.17763E-02         0.00000E+00
    0.30329E-02         0.15722E-02         0.00000E+00
    0.26586E-02         0.13695E-02         0.00000E+00
    0.22828E-02         0.11682E-02         0.00000E+00
    0.19056E-02         0.96849E-03         0.00000E+00
    0.15271E-02         0.77060E-03         0.00000E+00
    0.11472E-02         0.57465E-03         0.00000E+00
    0.76599E-03         0.38080E-03         0.00000E+00
    0.38357E-03         0.18919E-03         0.00000E+00
    0.00000E+00         0.00000E+00         0.00000E+00
    0.16984E-01         0.87129E-02         0.00000E+00
    0.16684E-01         0.85172E-02         0.00000E+00
    0.16379E-01         0.83238E-02         0.00000E+00
    0.16070E-01         0.81323E-02         0.00000E+00
    0.15758E-01         0.79428E-02         0.00000E+00
    0.15442E-01         0.77549E-02         0.00000E+00
    0.15124E-01         0.75687E-02         0.00000E+00
    0.14802E-01         0.73840E-02         0.00000E+00
    0.14479E-01         0.72006E-02         0.00000E+00
    0.14154E-01         0.70183E-02         0.00000E+00
    0.13826E-01         0.68371E-02         0.00000E+00
    0.13498E-01         0.66569E-02         0.00000E+00
    0.13167E-01         0.64774E-02         0.00000E+00
    0.12836E-01         0.62987E-02         0.00000E+00
    0.12504E-01         0.61206E-02         0.00000E+00
    0.12170E-01         0.59430E-02         0.00000E+00
    0.11836E-01         0.57659E-02         0.00000E+00
    0.11501E-01         0.55891E-02         0.00000E+00
    0.11165E-01         0.54126E-02         0.00000E+00
    0.10829E-01         0.52364E-02         0.00000E+00
    0.10491E-01         0.50604E-02         0.00000E+00
    0.10154E-01         0.48845E-02         0.00000E+00
    0.98154E-02         0.47088E-02         0.00000E+00
    0.94765E-02         0.45332E-02         0.00000E+00
    0.91370E-02         0.43577E-02         0.00000E+00
    0.87968E-02         0.41823E-02         0.00000E+00
    0.84560E-02         0.40071E-02         0.00000E+00
    0.81145E-02         0.38320E-02         0.00000E+00
    0.77722E-02         0.36570E-02         0.00000E+00
    0.74292E-02         0.34823E-02         0.00000E+00
    0.70854E-02         0.33078E-02         0.00000E+00
    0.67408E-02         0.31337E-02         0.00000E+00
    0.63953E-02         0.29599E-02         0.00000E+00
    0.60489E-02         0.27865E-02         0.00000E+00
    0.57015E-02         0.26137E-02         0.00000E+00
    0.53532E-02         0.24414E-02         0.00000E+00
    0.50038E-02         0.22699E-02         0.00000E+00
    0.46534E-02         0.20991E-02         0.00000E+00
    0.43019E-02         0.19292E-02         0.00000E+00
    0.39493E-02         0.17603E-02         0.00000E+00
    0.35956E-02         0.15924E-02         0.00000E+00
    0.32408E-02         0.14258E-02         0.00000E+00
    0.28849E-02         0.12605E-02         0.00000E+00
    0.25279E-02         0.10966E-02         0.00000E+00
    0.21698E-02         0.93434E-03         0.00000E+00
    0.18106E-02         0.77371E-03         0.00000E+00
    0.14504E-02         0.61488E-03         0.00000E+00
    0.10892E-02         0.45798E-03         0.00000E+00
    0.72703E-03         0.30312E-03         0.00000E+00
    0.36394E-03         0.15042E-03         0.00000E+00
    0.00000E+00         0.00000E+00         0.00000E+00
    0.15803E-01         0.73367E-02         0.00000E+00
    0.15546E-01         0.71634E-02         0.00000E+00
    0.15284E-01         0.69921E-02         0.00000E+00
    0.15016E-01         0.68226E-02         0.00000E+00
    0.14743E-01         0.66549E-02         0.00000E+00
    0.14466E-01         0.64890E-02         0.00000E+00
    0.14184E-01         0.63246E-02         0.00000E+00
    0.13899E-01         0.61617E-02         0.00000E+00
    0.13610E-01         0.60002E-02         0.00000E+00
    0.13317E-01         0.58400E-02         0.00000E+00
    0.13022E-01         0.56810E-02         0.00000E+00
    0.12724E-01         0.55232E-02         0.00000E+00
    0.12424E-01         0.53664E-02         0.00000E+00
    0.12121E-01         0.52106E-02         0.00000E+00
    0.11816E-01         0.50557E-02         0.00000E+00
    0.11509E-01         0.49017E-02         0.00000E+00
    0.11201E-01         0.47484E-02         0.00000E+00
    0.10890E-01         0.45959E-02         0.00000E+00
    0.10578E-01         0.44440E-02         0.00000E+00
    0.10265E-01         0.42928E-02         0.00000E+00
    0.99501E-02         0.41422E-02         0.00000E+00
    0.96340E-02         0.39922E-02         0.00000E+00
    0.93165E-02         0.38427E-02         0.00000E+00
    0.89979E-02         0.36937E-02         0.00000E+00
    0.86781E-02         0.35453E-02         0.00000E+00
    0.83571E-02         0.33975E-02         0.00000E+00
    0.80351E-02         0.32501E-02         0.00000E+00
    0.77119E-02         0.31034E-02         0.00000E+00
    0.73877E-02         0.29572E-02         0.00000E+00
    0.70625E-02         0.28116E-02         0.00000E+00
    0.67362E-02         0.26666E-02         0.00000E+00
    0.64088E-02         0.25224E-02         0.00000E+00
    0.60804E-02         0.23788E-02         0.00000E+00
    0.57510E-02         0.22361E-02         0.00000E+00
    0.54205E-02         0.20942E-02         0.00000E+00
    0.50891E-02         0.19531E-02         0.00000E+00
    0.47566E-02         0.18131E-02         0.00000E+00
    0.44230E-02         0.16741E-02         0.00000E+00
    0.40885E-02         0.15362E-02         0.00000E+00
    0.37529E-02         0.13995E-02         0.00000E+00
    0.34163E-02         0.12641E-02         0.00000E+00
    0.30788E-02         0.11300E-02         0.00000E+00
    0.27402E-02         0.99742E-03         0.00000E+00
    0.24008E-02         0.86637E-03         0.00000E+00
    0.20603E-02         0.73695E-03         0.00000E+00
    0.17190E-02         0.60926E-03         0.00000E+00
    0.13768E-02         0.48339E-03         0.00000E+00
    0.10338E-02         0.35944E-03         0.00000E+00
    0.68993E-03         0.23749E-03         0.00000E+00
    0.34532E-03         0.11765E-03         0.00000E+00
    0.00000E+00         0.00000E+00         0.00000E+00
    0.14647E-01         0.61669E-02         0.00000E+00
    0.14428E-01         0.60135E-02         0.00000E+00
    0.14203E-01         0.58618E-02         0.00000E+00
    0.13972E-01         0.57119E-02         0.00000E+00
    0.13734E-01         0.55636E-02         0.00000E+00
    0.13492E-01         0.54169E-02         0.00000E+00
    0.13244E-01         0.52717E-02         0.00000E+00
    0.12991E-01         0.51280E-02         0.00000E+00
    0.12734E-01         0.49858E-02         0.00000E+00
    0.12473E-01         0.48449E-02         0.00000E+00
    0.12208E-01         0.47053E-02         0.00000E+00
    0.11940E-01         0.45670E-02         0.00000E+00
    0.11668E-01         0.44299E-02         0.00000E+00
    0.11393E-01         0.42940E-02         0.00000E+00
    0.11115E-01         0.41592E-02         0.00000E+00
    0.10834E-01         0.40254E-02         0.00000E+00
    0.10551E-01         0.38927E-02         0.00000E+00
    0.10265E-01         0.37609E-02         0.00000E+00
    0.99771E-02         0.36302E-02         0.00000E+00
    0.96870E-02         0.35003E-02         0.00000E+00
    0.93949E-02         0.33714E-02         0.00000E+00
    0.91008E-02         0.32433E-02         0.00000E+00
    0.88050E-02         0.31161E-02         0.00000E+00
    0.85074E-02         0.29898E-02         0.00000E+00
    0.82081E-02         0.28643E-02         0.00000E+00
    0.79073E-02         0.27397E-02         0.00000E+00
    0.76050E-02         0.26160E-02         0.00000E+00
    0.73013E-02         0.24931E-02         0.00000E+00
    0.69961E-02         0.23711E-02         0.00000E+00
    0.66896E-02         0.22501E-02         0.00000E+00
    0.63818E-02         0.21300E-02         0.00000E+00
    0.60727E-02         0.20108E-02         0.00000E+00
    0.57624E-02         0.18927E-02         0.00000E+00
    0.54509E-02         0.17756E-02         0.00000E+00
    0.51383E-02         0.16597E-02         0.00000E+00
    0.48245E-02         0.15448E-02         0.00000E+00
    0.45096E-02         0.14312E-02         0.00000E+00
    0.41936E-02         0.13187E-02         0.00000E+00
    0.38766E-02         0.12076E-02         0.00000E+00
    0.35585E-02         0.10979E-02         0.00000E+00
    0.32394E-02         0.98957E-03         0.00000E+00
    0.29194E-02         0.88275E-03         0.00000E+00
    0.25984E-02         0.77748E-03         0.00000E+00
    0.22765E-02         0.67385E-03         0.00000E+00
    0.19537E-02         0.57192E-03         0.00000E+00
    0.16300E-02         0.47175E-03         0.00000E+00
    0.13055E-02         0.37343E-03         0.00000E+00
    0.98024E-03         0.27702E-03         0.00000E+00
    0.65421E-03         0.18260E-03         0.00000E+00
    0.32745E-03         0.90238E-04         0.00000E+00
    0.00000E+00         0.00000E+00         0.00000E+00
    0.13531E-01         0.51769E-02         0.00000E+00
    0.13346E-01         0.50411E-02         0.00000E+00
    0.13153E-01         0.49069E-02         0.00000E+00
    0.12954E-01         0.47742E-02         0.00000E+00
    0.12748E-01         0.46430E-02         0.00000E+00
    0.12537E-01         0.45133E-02         0.00000E+00
    0.12319E-01         0.43851E-02         0.00000E+00
    0.12097E-01         0.42583E-02         0.00000E+00
    0.11869E-01         0.41329E-02         0.00000E+00
    0.11637E-01         0.40090E-02         0.00000E+00
    0.11400E-01         0.38863E-02         0.00000E+00
    0.11159E-01         0.37651E-02         0.00000E+00
    0.10914E-01         0.36451E-02         0.00000E+00
    0.10665E-01         0.35263E-02         0.00000E+00
    0.10413E-01         0.34088E-02         0.00000E+00
    0.10158E-01         0.32926E-02         0.00000E+00
    0.98988E-02         0.31775E-02         0.00000E+00
    0.96372E-02         0.30636E-02         0.00000E+00
    0.93727E-02         0.29508E-02         0.00000E+00
    0.91056E-02         0.28392E-02         0.00000E+00
    0.88360E-02         0.27287E-02         0.00000E+00
    0.85640E-02         0.26192E-02         0.00000E+00
    0.82898E-02         0.25109E-02         0.00000E+00
    0.80134E-02         0.24037E-02         0.00000E+00
    0.77349E-02         0.22976E-02         0.00000E+00
    0.74546E-02         0.21926E-02         0.00000E+00
    0.71724E-02         0.20887E-02         0.00000E+00
    0.68884E-02         0.19860E-02         0.00000E+00
    0.66027E-02         0.18843E-02         0.00000E+00
    0.63154E-02         0.17838E-02         0.00000E+00
    0.60266E-02         0.16845E-02         0.00000E+00
    0.57362E-02         0.15863E-02         0.00000E+00
    0.54445E-02         0.14894E-02         0.00000E+00
    0.51514E-02         0.13937E-02         0.00000E+00
    0.48569E-02         0.12993E-02         0.00000E+00
    0.45612E-02         0.12063E-02         0.00000E+00
    0.42642E-02         0.11146E-02         0.00000E+00
    0.39661E-02         0.10242E-02         0.00000E+00
    0.36668E-02         0.93538E-03         0.00000E+00
    0.33664E-02         0.84800E-03         0.00000E+00
    0.30650E-02         0.76216E-03         0.00000E+00
    0.27625E-02         0.67792E-03         0.00000E+00
    0.24590E-02         0.59531E-03         0.00000E+00
    0.21546E-02         0.51439E-03         0.00000E+00
    0.18493E-02         0.43522E-03         0.00000E+00
    0.15431E-02         0.35786E-03         0.00000E+00
    0.12360E-02         0.28235E-03         0.00000E+00
    0.92818E-03         0.20876E-03         0.00000E+00
    0.61953E-03         0.13713E-03         0.00000E+00
    0.31012E-03         0.67525E-04         0.00000E+00
    0.00000E+00         0.00000E+00         0.00000E+00
    0.12467E-01         0.43419E-02         0.00000E+00
    0.12310E-01         0.42218E-02         0.00000E+00
    0.12146E-01         0.41030E-02         0.00000E+00
    0.11975E-01         0.39856E-02         0.00000E+00
    0.11797E-01         0.38696E-02         0.00000E+00
    0.11613E-01         0.37550E-02         0.00000E+00
    0.11423E-01         0.36417E-02         0.00000E+00
    0.11228E-01         0.35298E-02         0.00000E+00
    0.11027E-01         0.34192E-02         0.00000E+00
    0.10821E-01         0.33101E-02         0.00000E+00
    0.10610E-01         0.32022E-02         0.00000E+00
    0.10394E-01         0.30957E-02         0.00000E+00
    0.10174E-01         0.29906E-02         0.00000E+00
    0.99499E-02         0.28868E-02         0.00000E+00
    0.97219E-02         0.27843E-02         0.00000E+00
    0.94901E-02         0.26830E-02         0.00000E+00
    0.92548E-02         0.25831E-02         0.00000E+00
    0.90162E-02         0.24845E-02         0.00000E+00
    0.87743E-02         0.23871E-02         0.00000E+00
    0.85295E-02         0.22910E-02         0.00000E+00
    0.82817E-02         0.21961E-02         0.00000E+00
    0.80313E-02         0.21026E-02         0.00000E+00
    0.77782E-02         0.20102E-02         0.00000E+00
    0.75227E-02         0.19192E-02         0.00000E+00
    0.72648E-02         0.18293E-02         0.00000E+00
    0.70047E-02         0.17408E-02         0.00000E+00
    0.67424E-02         0.16535E-02         0.00000E+00
    0.64781E-02         0.15676E-02         0.00000E+00
    0.62119E-02         0.14829E-02         0.00000E+00
    0.59438E-02         0.13995E-02         0.00000E+00
    0.56740E-02         0.13175E-02         0.00000E+00
    0.54024E-02         0.12368E-02         0.00000E+00
    0.51293E-02         0.11574E-02         0.00000E+00
    0.48546E-02         0.10795E-02         0.00000E+00
    0.45784E-02         0.10030E-02         0.00000E+00
    0.43007E-02         0.92792E-03         0.00000E+00
    0.40218E-02         0.85434E-03         0.00000E+00
    0.37415E-02         0.78226E-03         0.00000E+00
    0.34599E-02         0.71173E-03         0.00000E+00
    0.31772E-02         0.64277E-03         0.00000E+00
    0.28933E-02         0.57544E-03         0.00000E+00
    0.26083E-02         0.50976E-03         0.00000E+00
    0.23222E-02         0.44578E-03         0.00000E+00
    0.20351E-02         0.38353E-03         0.00000E+00
    0.17471E-02         0.32306E-03         0.00000E+00
    0.14581E-02         0.26442E-03         0.00000E+00
    0.11681E-02         0.20763E-03         0.00000E+00
    0.87733E-03         0.15275E-03         0.00000E+00
    0.58569E-03         0.99827E-04         0.00000E+00
    0.29324E-03         0.48894E-04         0.00000E+00
    0.00000E+00         0.00000E+00         0.00000E+00
    0.11461E-01         0.36398E-02         0.00000E+00
    0.11329E-01         0.35336E-02         0.00000E+00
    0.11189E-01         0.34285E-02         0.00000E+00
    0.11043E-01         0.33247E-02         0.00000E+00
    0.10889E-01         0.32221E-02         0.00000E+00
    0.10730E-01         0.31207E-02         0.00000E+00
    0.10564E-01         0.30206E-02         0.00000E+00
    0.10392E-01         0.29217E-02         0.00000E+00
    0.10215E-01         0.28242E-02         0.00000E+00
    0.10033E-01         0.27280E-02         0.00000E+00
    0.98454E-02         0.26331E-02         0.00000E+00
    0.96531E-02         0.25395E-02         0.00000E+00
    0.94561E-02         0.24473E-02         0.00000E+00
    0.92548E-02         0.23564E-02         0.00000E+00
    0.90492E-02         0.22668E-02         0.00000E+00
    0.88397E-02         0.21786E-02         0.00000E+00
    0.86264E-02         0.20917E-02         0.00000E+00
    0.84095E-02         0.20061E-02         0.00000E+00
    0.81891E-02         0.19219E-02         0.00000E+00
    0.79654E-02         0.18390E-02         0.00000E+00
    0.77386E-02         0.17574E-02         0.00000E+00
    0.75088E-02         0.16772E-02         0.00000E+00
    0.72761E-02         0.15984E-02         0.00000E+00
    0.70408E-02         0.15209E-02         0.00000E+00
    0.68028E-02         0.14448E-02         0.00000E+00
    0.65624E-02         0.13701E-02         0.00000E+00
    0.63196E-02         0.12967E-02         0.00000E+00
    0.60746E-02         0.12248E-02         0.00000E+00
    0.58274E-02         0.11542E-02         0.00000E+00
    0.55782E-02         0.10850E-02         0.00000E+00
    0.53270E-02         0.10173E-02         0.00000E+00
    0.50740E-02         0.95108E-03         0.00000E+00
    0.48191E-02         0.88628E-03         0.00000E+00
    0.45626E-02         0.82298E-03         0.00000E+00
    0.43044E-02         0.76119E-03         0.00000E+00
    0.40447E-02         0.70092E-03         0.00000E+00
    0.37835E-02         0.64222E-03         0.00000E+00
    0.35208E-02         0.58509E-03         0.00000E+00
    0.32568E-02         0.52958E-03         0.00000E+00
    0.29915E-02         0.47570E-03         0.00000E+00
    0.27249E-02         0.42348E-03         0.00000E+00
    0.24571E-02         0.37297E-03         0.00000E+00
    0.21881E-02         0.32418E-03         0.00000E+00
    0.19181E-02         0.27714E-03         0.00000E+00
    0.16470E-02         0.23190E-03         0.00000E+00
    0.13748E-02         0.18849E-03         0.00000E+00
    0.11017E-02         0.14693E-03         0.00000E+00
    0.82761E-03         0.10727E-03         0.00000E+00
    0.55262E-03         0.69539E-04         0.00000E+00
    0.27674E-03         0.33770E-04         0.00000E+00
    0.00000E+00         0.00000E+00         0.00000E+00
    0.10517E-01         0.30509E-02         0.00000E+00
    0.10406E-01         0.29570E-02         0.00000E+00
    0.10288E-01         0.28640E-02         0.00000E+00
    0.10162E-01         0.27721E-02         0.00000E+00
    0.10030E-01         0.26813E-02         0.00000E+00
    0.98919E-02         0.25917E-02         0.00000E+00
    0.97475E-02         0.25032E-02         0.00000E+00
    0.95972E-02         0.24158E-02         0.00000E+00
    0.94414E-02         0.23298E-02         0.00000E+00
    0.92802E-02         0.22449E-02         0.00000E+00
    0.91138E-02         0.21613E-02         0.00000E+00
    0.89425E-02         0.20790E-02         0.00000E+00
    0.87665E-02         0.19980E-02         0.00000E+00
    0.85860E-02         0.19183E-02         0.00000E+00
    0.84012E-02         0.18399E-02         0.00000E+00
    0.82123E-02         0.17628E-02         0.00000E+00
    0.80194E-02         0.16871E-02         0.00000E+00
    0.78227E-02         0.16128E-02         0.00000E+00
    0.76224E-02         0.15398E-02         0.00000E+00
    0.74186E-02         0.14682E-02         0.00000E+00
    0.72115E-02         0.13979E-02         0.00000E+00
    0.70013E-02         0.13291E-02         0.00000E+00
    0.67881E-02         0.12616E-02         0.00000E+00
    0.65719E-02         0.11956E-02         0.00000E+00
    0.63530E-02         0.11310E-02         0.00000E+00
    0.61315E-02         0.10678E-02         0.00000E+00
    0.59075E-02         0.10060E-02         0.00000E+00
    0.56810E-02         0.94573E-03         0.00000E+00
    0.54523E-02         0.88689E-03         0.00000E+00
    0.52213E-02         0.82954E-03         0.00000E+00
    0.49883E-02         0.77367E-03         0.00000E+00
    0.47532E-02         0.71932E-03         0.00000E+00
    0.45162E-02         0.66649E-03         0.00000E+00
    0.42774E-02         0.61520E-03         0.00000E+00
    0.40368E-02         0.56547E-03         0.00000E+00
    0.37945E-02         0.51731E-03         0.00000E+00
    0.35506E-02         0.47076E-03         0.00000E+00
    0.33052E-02         0.42583E-03         0.00000E+00
    0.30583E-02         0.38253E-03         0.00000E+00
    0.28100E-02         0.34090E-03         0.00000E+00
    0.25603E-02         0.30096E-03         0.00000E+00
    0.23093E-02         0.26273E-03         0.00000E+00
    0.20571E-02         0.22623E-03         0.00000E+00
    0.18037E-02         0.19150E-03         0.00000E+00
    0.15491E-02         0.15856E-03         0.00000E+00
    0.12935E-02         0.12743E-03         0.00000E+00
    0.10368E-02         0.98142E-04         0.00000E+00
    0.77903E-03         0.70728E-04         0.00000E+00
    0.52030E-03         0.45214E-04         0.00000E+00
    0.26061E-03         0.21628E-04         0.00000E+00
    0.00000E+00         0.00000E+00         0.00000E+00
    0.96375E-02         0.25578E-02         0.00000E+00
    0.95439E-02         0.24747E-02         0.00000E+00
    0.94434E-02         0.23925E-02         0.00000E+00
    0.93362E-02         0.23111E-02         0.00000E+00
    0.92226E-02         0.22308E-02         0.00000E+00
    0.91028E-02         0.21515E-02         0.00000E+00
    0.89771E-02         0.20732E-02         0.00000E+00
    0.88456E-02         0.19960E-02         0.00000E+00
    0.87086E-02         0.19200E-02         0.00000E+00
    0.85663E-02         0.18451E-02         0.00000E+00
    0.84189E-02         0.17714E-02         0.00000E+00
    0.82666E-02         0.16989E-02         0.00000E+00
    0.81095E-02         0.16277E-02         0.00000E+00
    0.79480E-02         0.15577E-02         0.00000E+00
    0.77820E-02         0.14890E-02         0.00000E+00
    0.76119E-02         0.14216E-02         0.00000E+00
    0.74378E-02         0.13555E-02         0.00000E+00
    0.72598E-02         0.12908E-02         0.00000E+00
    0.70781E-02         0.12274E-02         0.00000E+00
    0.68929E-02         0.11654E-02         0.00000E+00
    0.67043E-02         0.11048E-02         0.00000E+00
    0.65124E-02         0.10455E-02         0.00000E+00
    0.63175E-02         0.98769E-03         0.00000E+00
    0.61195E-02         0.93128E-03         0.00000E+00
    0.59186E-02         0.87630E-03         0.00000E+00
    0.57150E-02         0.82277E-03         0.00000E+00
    0.55088E-02         0.77070E-03         0.00000E+00
    0.53001E-02         0.72010E-03         0.00000E+00
    0.50889E-02         0.67099E-03         0.00000E+00
    0.48754E-02         0.62338E-03         0.00000E+00
    0.46598E-02         0.57729E-03         0.00000E+00
    0.44420E-02         0.53272E-03         0.00000E+00
    0.42221E-02         0.48970E-03         0.00000E+00
    0.40004E-02         0.44824E-03         0.00000E+00
    0.37768E-02         0.40835E-03         0.00000E+00
    0.35513E-02         0.37006E-03         0.00000E+00
    0.33242E-02         0.33338E-03         0.00000E+00
    0.30955E-02         0.29833E-03         0.00000E+00
    0.28652E-02         0.26492E-03         0.00000E+00
    0.26334E-02         0.23318E-03         0.00000E+00
    0.24001E-02         0.20313E-03         0.00000E+00
    0.21655E-02         0.17478E-03         0.00000E+00
    0.19295E-02         0.14815E-03         0.00000E+00
    0.16923E-02         0.12328E-03         0.00000E+00
    0.14539E-02         0.10018E-03         0.00000E+00
    0.12142E-02         0.78863E-04         0.00000E+00
    0.97350E-03         0.59366E-04         0.00000E+00
    0.73167E-03         0.41706E-04         0.00000E+00
    0.48878E-03         0.25909E-04         0.00000E+00
    0.24488E-03         0.11999E-04         0.00000E+00
    0.00000E+00         0.00000E+00         0.00000E+00
    0.88210E-02         0.21454E-02         0.00000E+00
    0.87423E-02         0.20719E-02         0.00000E+00
    0.86571E-02         0.19991E-02         0.00000E+00
    0.85655E-02         0.19272E-02         0.00000E+00
    0.84677E-02         0.18560E-02         0.00000E+00
    0.83641E-02         0.17858E-02         0.00000E+00
    0.82546E-02         0.17166E-02         0.00000E+00
    0.81396E-02         0.16483E-02         0.00000E+00
    0.80193E-02         0.15811E-02         0.00000E+00
    0.78937E-02         0.15150E-02         0.00000E+00
    0.77632E-02         0.14499E-02         0.00000E+00
    0.76278E-02         0.13860E-02         0.00000E+00
    0.74878E-02         0.13233E-02         0.00000E+00
    0.73433E-02         0.12618E-02         0.00000E+00
    0.71945E-02         0.12015E-02         0.00000E+00
    0.70415E-02         0.11425E-02         0.00000E+00
    0.68846E-02         0.10847E-02         0.00000E+00
    0.67238E-02         0.10283E-02         0.00000E+00
    0.65592E-02         0.97310E-03         0.00000E+00
    0.63912E-02         0.91929E-03         0.00000E+00
    0.62196E-02         0.86682E-03         0.00000E+00
    0.60448E-02         0.81573E-03         0.00000E+00
    0.58669E-02         0.76603E-03         0.00000E+00
    0.56859E-02         0.71772E-03         0.00000E+00
    0.55019E-02         0.67084E-03         0.00000E+00
    0.53152E-02         0.62539E-03         0.00000E+00
    0.51258E-02         0.58139E-03         0.00000E+00
    0.49338E-02         0.53886E-03         0.00000E+00
    0.47393E-02         0.49780E-03         0.00000E+00
    0.45424E-02         0.45824E-03         0.00000E+00
    0.43433E-02         0.42018E-03         0.00000E+00
    0.41419E-02         0.38365E-03         0.00000E+00
    0.39385E-02         0.34865E-03         0.00000E+00
    0.37330E-02         0.31520E-03         0.00000E+00
    0.35257E-02         0.28332E-03         0.00000E+00
    0.33164E-02         0.25303E-03         0.00000E+00
    0.31054E-02         0.22433E-03         0.00000E+00
    0.28927E-02         0.19724E-03         0.00000E+00
    0.26783E-02         0.17179E-03         0.00000E+00
    0.24624E-02         0.14798E-03         0.00000E+00
    0.22450E-02         0.12584E-03         0.00000E+00
    0.20261E-02         0.10538E-03         0.00000E+00
    0.18059E-02         0.86621E-04         0.00000E+00
    0.15843E-02         0.69578E-04         0.00000E+00
    0.13614E-02         0.54271E-04         0.00000E+00
    0.11373E-02         0.40720E-04         0.00000E+00
    0.91208E-03         0.28944E-04         0.00000E+00
    0.68567E-03         0.18964E-04         0.00000E+00
    0.45816E-03         0.10799E-04         0.00000E+00
    0.22959E-03         0.44704E-05         0.00000E+00
    0.00000E+00         0.00000E+00         0.00000E+00
    0.80663E-02         0.18008E-02         0.00000E+00
    0.80003E-02         0.17358E-02         0.00000E+00
    0.79280E-02         0.16714E-02         0.00000E+00
    0.78497E-02         0.16077E-02         0.00000E+00
    0.77656E-02         0.15447E-02         0.00000E+00
    0.76758E-02         0.14825E-02         0.00000E+00
    0.75805E-02         0.14212E-02         0.00000E+00
    0.74799E-02         0.13608E-02         0.00000E+00
    0.73742E-02         0.13014E-02         0.00000E+00
    0.72634E-02         0.12429E-02         0.00000E+00
    0.71478E-02         0.11855E-02         0.00000E+00
    0.70276E-02         0.11291E-02         0.00000E+00
    0.69028E-02         0.10738E-02         0.00000E+00
    0.67737E-02         0.10197E-02         0.00000E+00
    0.66403E-02         0.96669E-03         0.00000E+00
    0.65029E-02         0.91489E-03         0.00000E+00
    0.63615E-02         0.86430E-03         0.00000E+00
    0.62163E-02         0.81495E-03         0.00000E+00
    0.60675E-02         0.76686E-03         0.00000E+00
    0.59151E-02         0.72006E-03         0.00000E+00
    0.57594E-02         0.67456E-03         0.00000E+00
    0.56003E-02         0.63039E-03         0.00000E+00
    0.54381E-02         0.58757E-03         0.00000E+00
    0.52729E-02         0.54611E-03         0.00000E+00
    0.51047E-02         0.50603E-03         0.00000E+00
    0.49337E-02         0.46735E-03         0.00000E+00
    0.47600E-02         0.43009E-03         0.00000E+00
    0.45837E-02         0.39425E-03         0.00000E+00
    0.44049E-02         0.35986E-03         0.00000E+00
    0.42237E-02         0.32694E-03         0.00000E+00
    0.40401E-02         0.29549E-03         0.00000E+00
    0.38543E-02         0.26554E-03         0.00000E+00
    0.36664E-02         0.23709E-03         0.00000E+00
    0.34764E-02         0.21016E-03         0.00000E+00
    0.32845E-02         0.18477E-03         0.00000E+00
    0.30906E-02         0.16093E-03         0.00000E+00
    0.28950E-02         0.13866E-03         0.00000E+00
    0.26976E-02         0.11797E-03         0.00000E+00
    0.24985E-02         0.98874E-04         0.00000E+00
    0.22978E-02         0.81390E-04         0.00000E+00
    0.20955E-02         0.65532E-04         0.00000E+00
    0.18918E-02         0.51316E-04         0.00000E+00
    0.16866E-02         0.38759E-04         0.00000E+00
    0.14800E-02         0.27875E-04         0.00000E+00
    0.12722E-02         0.18683E-04         0.00000E+00
    0.10631E-02         0.11198E-04         0.00000E+00
    0.85270E-03         0.54373E-05         0.00000E+00
    0.64118E-03         0.14192E-05         0.00000E+00
    0.42853E-03        -0.83871E-06         0.00000E+00
    0.21479E-03        -0.13181E-05         0.00000E+00
    0.00000E+00         0.00000E+00         0.00000E+00
    0.73713E-02         0.15130E-02         0.00000E+00
    0.73158E-02         0.14554E-02         0.00000E+00
    0.72545E-02         0.13984E-02         0.00000E+00
    0.71876E-02         0.13420E-02         0.00000E+00
    0.71151E-02         0.12862E-02         0.00000E+00
    0.70373E-02         0.12312E-02         0.00000E+00
    0.69543E-02         0.11769E-02         0.00000E+00
    0.68662E-02         0.11234E-02         0.00000E+00
    0.67732E-02         0.10708E-02         0.00000E+00
    0.66755E-02         0.10191E-02         0.00000E+00
    0.65731E-02         0.96830E-03         0.00000E+00
    0.64663E-02         0.91850E-03         0.00000E+00
    0.63551E-02         0.86973E-03         0.00000E+00
    0.62397E-02         0.82201E-03         0.00000E+00
    0.61202E-02         0.77537E-03         0.00000E+00
    0.59967E-02         0.72984E-03         0.00000E+00
    0.58695E-02         0.68546E-03         0.00000E+00
    0.57385E-02         0.64226E-03         0.00000E+00
    0.56040E-02         0.60024E-03         0.00000E+00
    0.54660E-02         0.55945E-03         0.00000E+00
    0.53246E-02         0.51991E-03         0.00000E+00
    0.51801E-02         0.48163E-03         0.00000E+00
    0.50324E-02         0.44465E-03         0.00000E+00
    0.48817E-02         0.40897E-03         0.00000E+00
    0.47281E-02         0.37462E-03         0.00000E+00
    0.45718E-02         0.34161E-03         0.00000E+00
    0.44127E-02         0.30997E-03         0.00000E+00
    0.42510E-02         0.27971E-03         0.00000E+00
    0.40868E-02         0.25085E-03         0.00000E+00
    0.39202E-02         0.22340E-03         0.00000E+00
    0.37513E-02         0.19739E-03         0.00000E+00
    0.35802E-02         0.17282E-03         0.00000E+00
    0.34068E-02         0.14971E-03         0.00000E+00
    0.32315E-02         0.12807E-03         0.00000E+00
    0.30541E-02         0.10793E-03         0.00000E+00
    0.28748E-02         0.89284E-04         0.00000E+00
    0.26937E-02         0.72161E-04         0.00000E+00
    0.25108E-02         0.56570E-04         0.00000E+00
    0.23262E-02         0.42527E-04         0.00000E+00
    0.21400E-02         0.30045E-04         0.00000E+00
    0.19522E-02         0.19138E-04         0.00000E+00
    0.17628E-02         0.98218E-05         0.00000E+00
    0.15721E-02         0.21100E-05         0.00000E+00
    0.13799E-02        -0.39825E-05         0.00000E+00
    0.11864E-02        -0.84406E-05         0.00000E+00
    0.99161E-03        -0.11249E-04         0.00000E+00
    0.79558E-03        -0.12393E-04         0.00000E+00
    0.59836E-03        -0.11856E-04         0.00000E+00
    0.40000E-03        -0.96229E-05         0.00000E+00
    0.20053E-03        -0.56764E-05         0.00000E+00
    0.00000E+00         0.00000E+00         0.00000E+00
    0.67331E-02         0.12725E-02         0.00000E+00
    0.66864E-02         0.12216E-02         0.00000E+00
    0.66344E-02         0.11711E-02         0.00000E+00
    0.65770E-02         0.11211E-02         0.00000E+00
    0.65146E-02         0.10717E-02         0.00000E+00
    0.64471E-02         0.10229E-02         0.00000E+00
    0.63747E-02         0.97482E-03         0.00000E+00
    0.62975E-02         0.92745E-03         0.00000E+00
    0.62157E-02         0.88086E-03         0.00000E+00
    0.61294E-02         0.83508E-03         0.00000E+00
    0.60386E-02         0.79017E-03         0.00000E+00
    0.59437E-02         0.74615E-03         0.00000E+00
    0.58445E-02         0.70307E-03         0.00000E+00
    0.57414E-02         0.66096E-03         0.00000E+00
    0.56343E-02         0.61986E-03         0.00000E+00
    0.55234E-02         0.57980E-03         0.00000E+00
    0.54088E-02         0.54080E-03         0.00000E+00
    0.52907E-02         0.50291E-03         0.00000E+00
    0.51691E-02         0.46614E-03         0.00000E+00
    0.50442E-02         0.43051E-03         0.00000E+00
    0.49160E-02         0.39607E-03         0.00000E+00
    0.47847E-02         0.36282E-03         0.00000E+00
    0.46503E-02         0.33080E-03         0.00000E+00
    0.45130E-02         0.30001E-03         0.00000E+00
    0.43729E-02         0.27050E-03         0.00000E+00
    0.42300E-02         0.24226E-03         0.00000E+00
    0.40845E-02         0.21533E-03         0.00000E+00
    0.39364E-02         0.18971E-03         0.00000E+00
    0.37858E-02         0.16543E-03         0.00000E+00
    0.36328E-02         0.14251E-03         0.00000E+00
    0.34776E-02         0.12096E-03         0.00000E+00
    0.33201E-02         0.10079E-03         0.00000E+00
    0.31605E-02         0.82024E-04         0.00000E+00
    0.29988E-02         0.64674E-04         0.00000E+00
    0.28351E-02         0.48755E-04         0.00000E+00
    0.26695E-02         0.34281E-04         0.00000E+00
    0.25021E-02         0.21266E-04         0.00000E+00
    0.23329E-02         0.97239E-05         0.00000E+00
    0.21620E-02        -0.33104E-06         0.00000E+00
    0.19895E-02        -0.88854E-05         0.00000E+00
    0.18154E-02        -0.15925E-04         0.00000E+00
    0.16398E-02        -0.21438E-04         0.00000E+00
    0.14627E-02        -0.25408E-04         0.00000E+00
    0.12842E-02        -0.27824E-04         0.00000E+00
    0.11044E-02        -0.28670E-04         0.00000E+00
    0.92326E-03        -0.27933E-04         0.00000E+00
    0.74090E-03        -0.25599E-04         0.00000E+00
    0.55735E-03        -0.21653E-04         0.00000E+00
    0.37265E-03        -0.16082E-04         0.00000E+00
    0.18685E-03        -0.88690E-05         0.00000E+00
    0.00000E+00         0.00000E+00         0.00000E+00
    0.61484E-02         0.10716E-02         0.00000E+00
    0.61092E-02         0.10265E-02         0.00000E+00
    0.60649E-02         0.98172E-03         0.00000E+00
    0.60158E-02         0.93744E-03         0.00000E+00
    0.59618E-02         0.89366E-03         0.00000E+00
    0.59031E-02         0.85042E-03         0.00000E+00
    0.58399E-02         0.80780E-03         0.00000E+00
    0.57722E-02         0.76582E-03         0.00000E+00
    0.57001E-02         0.72454E-03         0.00000E+00
    0.56238E-02         0.68399E-03         0.00000E+00
    0.55433E-02         0.64423E-03         0.00000E+00
    0.54588E-02         0.60529E-03         0.00000E+00
    0.53704E-02         0.56720E-03         0.00000E+00
    0.52781E-02         0.53001E-03         0.00000E+00
    0.51821E-02         0.49375E-03         0.00000E+00
    0.50825E-02         0.45845E-03         0.00000E+00
    0.49794E-02         0.42414E-03         0.00000E+00
    0.48728E-02         0.39084E-03         0.00000E+00
    0.47629E-02         0.35860E-03         0.00000E+00
    0.46498E-02         0.32743E-03         0.00000E+00
    0.45336E-02         0.29737E-03         0.00000E+00
    0.44144E-02         0.26843E-03         0.00000E+00
    0.42922E-02         0.24063E-03         0.00000E+00
    0.41671E-02         0.21401E-03         0.00000E+00
    0.40393E-02         0.18858E-03         0.00000E+00
    0.39088E-02         0.16436E-03         0.00000E+00
    0.37757E-02         0.14137E-03         0.00000E+00
    0.36402E-02         0.11963E-03         0.00000E+00
    0.35022E-02         0.99164E-04         0.00000E+00
    0.33619E-02         0.79979E-04         0.00000E+00
    0.32193E-02         0.62096E-04         0.00000E+00
    0.30745E-02         0.45530E-04         0.00000E+00
    0.29277E-02         0.30298E-04         0.00000E+00
    0.27788E-02         0.16414E-04         0.00000E+00
    0.26279E-02         0.38928E-05         0.00000E+00
    0.24752E-02        -0.72510E-05         0.00000E+00
    0.23206E-02        -0.17003E-04         0.00000E+00
    0.21643E-02        -0.25351E-04         0.00000E+00
    0.20063E-02        -0.32280E-04         0.00000E+00
    0.18467E-02        -0.37777E-04         0.00000E+00
    0.16855E-02        -0.41829E-04         0.00000E+00
    0.15228E-02        -0.44423E-04         0.00000E+00
    0.13587E-02        -0.45546E-04         0.00000E+00
    0.11932E-02        -0.45185E-04         0.00000E+00
    0.10263E-02        -0.43327E-04         0.00000E+00
    0.85817E-03        -0.39959E-04         0.00000E+00
    0.68880E-03        -0.35067E-04         0.00000E+00
    0.51825E-03        -0.28639E-04         0.00000E+00
    0.34657E-03        -0.20661E-04         0.00000E+00
    0.17381E-03        -0.11119E-04         0.00000E+00
    0.00000E+00         0.00000E+00         0.00000E+00
    0.56141E-02         0.90352E-03         0.00000E+00
    0.55810E-02         0.86355E-03         0.00000E+00
    0.55433E-02         0.82392E-03         0.00000E+00
    0.55011E-02         0.78467E-03         0.00000E+00
    0.54544E-02         0.74585E-03         0.00000E+00
    0.54033E-02         0.70752E-03         0.00000E+00
    0.53480E-02         0.66973E-03         0.00000E+00
    0.52885E-02         0.63251E-03         0.00000E+00
    0.52249E-02         0.59592E-03         0.00000E+00
    0.51574E-02         0.55999E-03         0.00000E+00
    0.50859E-02         0.52477E-03         0.00000E+00
    0.50106E-02         0.49029E-03         0.00000E+00
    0.49316E-02         0.45660E-03         0.00000E+00
    0.48491E-02         0.42372E-03         0.00000E+00
    0.47629E-02         0.39169E-03         0.00000E+00
    0.46734E-02         0.36055E-03         0.00000E+00
    0.45805E-02         0.33032E-03         0.00000E+00
    0.44843E-02         0.30103E-03         0.00000E+00
    0.43850E-02         0.27272E-03         0.00000E+00
    0.42826E-02         0.24540E-03         0.00000E+00
    0.41772E-02         0.21911E-03         0.00000E+00
    0.40689E-02         0.19386E-03         0.00000E+00
    0.39578E-02         0.16969E-03         0.00000E+00
    0.38439E-02         0.14661E-03         0.00000E+00
    0.37274E-02         0.12465E-03         0.00000E+00
    0.36082E-02         0.10382E-03         0.00000E+00
    0.34866E-02         0.84152E-04         0.00000E+00
    0.33626E-02         0.65657E-04         0.00000E+00
    0.32362E-02         0.48356E-04         0.00000E+00
    0.31076E-02         0.32266E-04         0.00000E+00
    0.29767E-02         0.17403E-04         0.00000E+00
    0.28438E-02         0.37837E-05         0.00000E+00
    0.27088E-02        -0.85759E-05         0.00000E+00
    0.25718E-02        -0.19661E-04         0.00000E+00
    0.24328E-02        -0.29457E-04         0.00000E+00
    0.22921E-02        -0.37949E-04         0.00000E+00
    0.21495E-02        -0.45123E-04         0.00000E+00
    0.20053E-02        -0.50967E-04         0.00000E+00
    0.18594E-02        -0.55466E-04         0.00000E+00
    0.17118E-02        -0.58608E-04         0.00000E+00
    0.15628E-02        -0.60380E-04         0.00000E+00
    0.14123E-02        -0.60769E-04         0.00000E+00
    0.12603E-02        -0.59763E-04         0.00000E+00
    0.11070E-02        -0.57349E-04         0.00000E+00
    0.95239E-03        -0.53515E-04         0.00000E+00
    0.79651E-03        -0.48249E-04         0.00000E+00
    0.63942E-03        -0.41538E-04         0.00000E+00
    0.48118E-03        -0.33370E-04         0.00000E+00
    0.32183E-03        -0.23733E-04         0.00000E+00
    0.16142E-03        -0.12614E-04         0.00000E+00
    0.00000E+00         0.00000E+00         0.00000E+00
    0.51267E-02         0.76282E-03         0.00000E+00
    0.50988E-02         0.72741E-03         0.00000E+00
    0.50666E-02         0.69229E-03         0.00000E+00
    0.50302E-02         0.65749E-03         0.00000E+00
    0.49897E-02         0.62307E-03         0.00000E+00
    0.49452E-02         0.58908E-03         0.00000E+00
    0.48967E-02         0.55556E-03         0.00000E+00
    0.48443E-02         0.52255E-03         0.00000E+00
    0.47881E-02         0.49011E-03         0.00000E+00
    0.47282E-02         0.45826E-03         0.00000E+00
    0.46647E-02         0.42704E-03         0.00000E+00
    0.45975E-02         0.39650E-03         0.00000E+00
    0.45269E-02         0.36667E-03         0.00000E+00
    0.44529E-02         0.33759E-03         0.00000E+00
    0.43756E-02         0.30928E-03         0.00000E+00
    0.42950E-02         0.28178E-03         0.00000E+00
    0.42112E-02         0.25511E-03         0.00000E+00
    0.41244E-02         0.22932E-03         0.00000E+00
    0.40346E-02         0.20442E-03         0.00000E+00
    0.39418E-02         0.18044E-03         0.00000E+00
    0.38462E-02         0.15741E-03         0.00000E+00
    0.37478E-02         0.13535E-03         0.00000E+00
    0.36468E-02         0.11428E-03         0.00000E+00
    0.35431E-02         0.94234E-04         0.00000E+00
    0.34368E-02         0.75225E-04         0.00000E+00
    0.33281E-02         0.57274E-04         0.00000E+00
    0.32170E-02         0.40403E-04         0.00000E+00
    0.31035E-02         0.24629E-04         0.00000E+00
    0.29878E-02         0.99719E-05         0.00000E+00
    0.28699E-02        -0.35519E-05         0.00000E+00
    0.27499E-02        -0.15925E-04         0.00000E+00
    0.26278E-02        -0.27132E-04         0.00000E+00
    0.25038E-02        -0.37157E-04         0.00000E+00
    0.23778E-02        -0.45984E-04         0.00000E+00
    0.22499E-02        -0.53599E-04         0.00000E+00
    0.21203E-02        -0.59988E-04         0.00000E+00
    0.19889E-02        -0.65137E-04         0.00000E+00
    0.18559E-02        -0.69032E-04         0.00000E+00
    0.17212E-02        -0.71662E-04         0.00000E+00
    0.15850E-02        -0.73012E-04         0.00000E+00
    0.14473E-02        -0.73071E-04         0.00000E+00
    0.13082E-02        -0.71826E-04         0.00000E+00
    0.11677E-02        -0.69265E-04         0.00000E+00
    0.10258E-02        -0.65376E-04         0.00000E+00
    0.88271E-03        -0.60148E-04         0.00000E+00
    0.73836E-03        -0.53569E-04         0.00000E+00
    0.59284E-03        -0.45627E-04         0.00000E+00
    0.44619E-03        -0.36310E-04         0.00000E+00
    0.29847E-03        -0.25608E-04         0.00000E+00
    0.14973E-03        -0.13509E-04         0.00000E+00
    0.00000E+00         0.00000E+00         0.00000E+00
    0.46829E-02         0.64487E-03         0.00000E+00
    0.46594E-02         0.61350E-03         0.00000E+00
    0.46318E-02         0.58236E-03         0.00000E+00
    0.46005E-02         0.55151E-03         0.00000E+00
    0.45653E-02         0.52098E-03         0.00000E+00
    0.45263E-02         0.49084E-03         0.00000E+00
    0.44837E-02         0.46110E-03         0.00000E+00
    0.44375E-02         0.43183E-03         0.00000E+00
    0.43877E-02         0.40305E-03         0.00000E+00
    0.43345E-02         0.37481E-03         0.00000E+00
    0.42779E-02         0.34714E-03         0.00000E+00
    0.42179E-02         0.32008E-03         0.00000E+00
    0.41547E-02         0.29366E-03         0.00000E+00
    0.40883E-02         0.26791E-03         0.00000E+00
    0.40188E-02         0.24287E-03         0.00000E+00
    0.39462E-02         0.21857E-03         0.00000E+00
    0.38706E-02         0.19504E-03         0.00000E+00
    0.37921E-02         0.17229E-03         0.00000E+00
    0.37108E-02         0.15037E-03         0.00000E+00
    0.36268E-02         0.12930E-03         0.00000E+00
    0.35400E-02         0.10909E-03         0.00000E+00
    0.34506E-02         0.89787E-04         0.00000E+00
    0.33586E-02         0.71398E-04         0.00000E+00
    0.32641E-02         0.53950E-04         0.00000E+00
    0.31672E-02         0.37463E-04         0.00000E+00
    0.30680E-02         0.21958E-04         0.00000E+00
    0.29664E-02         0.74539E-05         0.00000E+00
    0.28627E-02        -0.60297E-05         0.00000E+00
    0.27567E-02        -0.18475E-04         0.00000E+00
    0.26487E-02        -0.29865E-04         0.00000E+00
    0.25386E-02        -0.40184E-04         0.00000E+00
    0.24265E-02        -0.49414E-04         0.00000E+00
    0.23126E-02        -0.57540E-04         0.00000E+00
    0.21968E-02        -0.64548E-04         0.00000E+00
    0.20792E-02        -0.70423E-04         0.00000E+00
    0.19598E-02        -0.75151E-04         0.00000E+00
    0.18388E-02        -0.78718E-04         0.00000E+00
    0.17162E-02        -0.81112E-04         0.00000E+00
    0.15920E-02        -0.82320E-04         0.00000E+00
    0.14664E-02        -0.82329E-04         0.00000E+00
    0.13392E-02        -0.81127E-04         0.00000E+00
    0.12107E-02        -0.78702E-04         0.00000E+00
    0.10809E-02        -0.75043E-04         0.00000E+00
    0.94972E-03        -0.70139E-04         0.00000E+00
    0.81734E-03        -0.63977E-04         0.00000E+00
    0.68379E-03        -0.56547E-04         0.00000E+00
    0.54910E-03        -0.47839E-04         0.00000E+00
    0.41333E-03        -0.37841E-04         0.00000E+00
    0.27652E-03        -0.26542E-04         0.00000E+00
    0.13873E-03        -0.13932E-04         0.00000E+00
    0.00000E+00         0.00000E+00         0.00000E+00
    0.42797E-02         0.54584E-03         0.00000E+00
    0.42597E-02         0.51804E-03         0.00000E+00
    0.42362E-02         0.49044E-03         0.00000E+00
    0.42090E-02         0.46308E-03         0.00000E+00
    0.41783E-02         0.43601E-03         0.00000E+00
    0.41442E-02         0.40928E-03         0.00000E+00
    0.41067E-02         0.38290E-03         0.00000E+00
    0.40658E-02         0.35694E-03         0.00000E+00
    0.40216E-02         0.33142E-03         0.00000E+00
    0.39742E-02         0.30637E-03         0.00000E+00
    0.39237E-02         0.28184E-03         0.00000E+00
    0.38700E-02         0.25786E-03         0.00000E+00
    0.38133E-02         0.23445E-03         0.00000E+00
    0.37537E-02         0.21166E-03         0.00000E+00
    0.36911E-02         0.18950E-03         0.00000E+00
    0.36256E-02         0.16802E-03         0.00000E+00
    0.35573E-02         0.14723E-03         0.00000E+00
    0.34863E-02         0.12716E-03         0.00000E+00
    0.34127E-02         0.10785E-03         0.00000E+00
    0.33364E-02         0.89308E-04         0.00000E+00
    0.32576E-02         0.71567E-04         0.00000E+00
    0.31763E-02         0.54648E-04         0.00000E+00
    0.30925E-02         0.38573E-04         0.00000E+00
    0.30064E-02         0.23363E-04         0.00000E+00
    0.29180E-02         0.90391E-05         0.00000E+00
    0.28274E-02        -0.43788E-05         0.00000E+00
    0.27345E-02        -0.16872E-04         0.00000E+00
    0.26396E-02        -0.28422E-04         0.00000E+00
    0.25425E-02        -0.39012E-04         0.00000E+00
    0.24435E-02        -0.48623E-04         0.00000E+00
    0.23426E-02        -0.57241E-04         0.00000E+00
    0.22397E-02        -0.64849E-04         0.00000E+00
    0.21350E-02        -0.71433E-04         0.00000E+00
    0.20286E-02        -0.76977E-04         0.00000E+00
    0.19204E-02        -0.81467E-04         0.00000E+00
    0.18106E-02        -0.84890E-04         0.00000E+00
    0.16991E-02        -0.87233E-04         0.00000E+00
    0.15861E-02        -0.88482E-04         0.00000E+00
    0.14717E-02        -0.88626E-04         0.00000E+00
    0.13557E-02        -0.87652E-04         0.00000E+00
    0.12384E-02        -0.85548E-04         0.00000E+00
    0.11198E-02        -0.82304E-04         0.00000E+00
    0.99983E-03        -0.77908E-04         0.00000E+00
    0.87866E-03        -0.72349E-04         0.00000E+00
    0.75630E-03        -0.65616E-04         0.00000E+00
    0.63280E-03        -0.57699E-04         0.00000E+00
    0.50822E-03        -0.48588E-04         0.00000E+00
    0.38260E-03        -0.38273E-04         0.00000E+00
    0.25600E-03        -0.26743E-04         0.00000E+00
    0.12845E-03        -0.13989E-04         0.00000E+00
    0.00000E+00         0.00000E+00         0.00000E+00
    0.39140E-02         0.46253E-03         0.00000E+00
    0.38971E-02         0.43790E-03         0.00000E+00
    0.38768E-02         0.41345E-03         0.00000E+00
    0.38532E-02         0.38920E-03         0.00000E+00
    0.38264E-02         0.36520E-03         0.00000E+00
    0.37964E-02         0.34149E-03         0.00000E+00
    0.37633E-02         0.31811E-03         0.00000E+00
    0.37270E-02         0.29508E-03         0.00000E+00
    0.36877E-02         0.27245E-03         0.00000E+00
    0.36455E-02         0.25025E-03         0.00000E+00
    0.36003E-02         0.22850E-03         0.00000E+00
    0.35521E-02         0.20725E-03         0.00000E+00
    0.35012E-02         0.18651E-03         0.00000E+00
    0.34475E-02         0.16633E-03         0.00000E+00
    0.33910E-02         0.14672E-03         0.00000E+00
    0.33319E-02         0.12773E-03         0.00000E+00
    0.32701E-02         0.10936E-03         0.00000E+00
    0.32058E-02         0.91650E-04         0.00000E+00
    0.31390E-02         0.74624E-04         0.00000E+00
    0.30697E-02         0.58303E-04         0.00000E+00
    0.29980E-02         0.42712E-04         0.00000E+00
    0.29240E-02         0.27872E-04         0.00000E+00
    0.28477E-02         0.13805E-04         0.00000E+00
    0.27691E-02         0.53019E-06         0.00000E+00
    0.26884E-02        -0.11931E-04         0.00000E+00
    0.26056E-02        -0.23561E-04         0.00000E+00
    0.25206E-02        -0.34341E-04         0.00000E+00
    0.24337E-02        -0.44253E-04         0.00000E+00
    0.23448E-02        -0.53279E-04         0.00000E+00
    0.22540E-02        -0.61405E-04         0.00000E+00
    0.21614E-02        -0.68613E-04         0.00000E+00
    0.20669E-02        -0.74889E-04         0.00000E+00
    0.19708E-02        -0.80218E-04         0.00000E+00
    0.18729E-02        -0.84585E-04         0.00000E+00
    0.17734E-02        -0.87978E-04         0.00000E+00
    0.16723E-02        -0.90382E-04         0.00000E+00
    0.15697E-02        -0.91785E-04         0.00000E+00
    0.14655E-02        -0.92174E-04         0.00000E+00
    0.13600E-02        -0.91539E-04         0.00000E+00
    0.12531E-02        -0.89866E-04         0.00000E+00
    0.11448E-02        -0.87145E-04         0.00000E+00
    0.10353E-02        -0.83364E-04         0.00000E+00
    0.92455E-03        -0.78514E-04         0.00000E+00
    0.81261E-03        -0.72584E-04         0.00000E+00
    0.69954E-03        -0.65563E-04         0.00000E+00
    0.58539E-03        -0.57442E-04         0.00000E+00
    0.47019E-03        -0.48211E-04         0.00000E+00
    0.35401E-03        -0.37860E-04         0.00000E+00
    0.23689E-03        -0.26381E-04         0.00000E+00
    0.11887E-03        -0.13764E-04         0.00000E+00
    0.00000E+00         0.00000E+00         0.00000E+00
    0.35830E-02         0.39232E-03         0.00000E+00
    0.35686E-02         0.37051E-03         0.00000E+00
    0.35511E-02         0.34885E-03         0.00000E+00
    0.35306E-02         0.32737E-03         0.00000E+00
    0.35071E-02         0.30611E-03         0.00000E+00
    0.34807E-02         0.28509E-03         0.00000E+00
    0.34513E-02         0.26437E-03         0.00000E+00
    0.34191E-02         0.24396E-03         0.00000E+00
    0.33841E-02         0.22390E-03         0.00000E+00
    0.33462E-02         0.20422E-03         0.00000E+00
    0.33057E-02         0.18496E-03         0.00000E+00
    0.32625E-02         0.16613E-03         0.00000E+00
    0.32166E-02         0.14777E-03         0.00000E+00
    0.31681E-02         0.12990E-03         0.00000E+00
    0.31171E-02         0.11256E-03         0.00000E+00
    0.30636E-02         0.95760E-04         0.00000E+00
    0.30076E-02         0.79534E-04         0.00000E+00
    0.29493E-02         0.63903E-04         0.00000E+00
    0.28886E-02         0.48892E-04         0.00000E+00
    0.28256E-02         0.34522E-04         0.00000E+00
    0.27603E-02         0.20815E-04         0.00000E+00
    0.26928E-02         0.77923E-05         0.00000E+00
    0.26232E-02        -0.45265E-05         0.00000E+00
    0.25514E-02        -0.16122E-04         0.00000E+00
    0.24777E-02        -0.26974E-04         0.00000E+00
    0.24019E-02        -0.37066E-04         0.00000E+00
    0.23241E-02        -0.46379E-04         0.00000E+00
    0.22445E-02        -0.54897E-04         0.00000E+00
    0.21630E-02        -0.62604E-04         0.00000E+00
    0.20797E-02        -0.69483E-04         0.00000E+00
    0.19946E-02        -0.75520E-04         0.00000E+00
    0.19078E-02        -0.80700E-04         0.00000E+00
    0.18194E-02        -0.85009E-04         0.00000E+00
    0.17294E-02        -0.88432E-04         0.00000E+00
    0.16378E-02        -0.90958E-04         0.00000E+00
    0.15447E-02        -0.92572E-04         0.00000E+00
    0.14502E-02        -0.93264E-04         0.00000E+00
    0.13542E-02        -0.93020E-04         0.00000E+00
    0.12569E-02        -0.91831E-04         0.00000E+00
    0.11582E-02        -0.89683E-04         0.00000E+00
    0.10583E-02        -0.86568E-04         0.00000E+00
    0.95722E-03        -0.82473E-04         0.00000E+00
    0.85493E-03        -0.77390E-04         0.00000E+00
    0.75151E-03        -0.71308E-04         0.00000E+00
    0.64701E-03        -0.64218E-04         0.00000E+00
    0.54149E-03        -0.56110E-04         0.00000E+00
    0.43498E-03        -0.46976E-04         0.00000E+00
    0.32753E-03        -0.36807E-04         0.00000E+00
    0.21919E-03        -0.25593E-04         0.00000E+00
    0.10999E-03        -0.13327E-04         0.00000E+00
    0.00000E+00         0.00000E+00         0.00000E+00
    0.32842E-02         0.33301E-03         0.00000E+00
    0.32719E-02         0.31372E-03         0.00000E+00
    0.32567E-02         0.29455E-03         0.00000E+00
    0.32388E-02         0.27553E-03         0.00000E+00
    0.32181E-02         0.25671E-03         0.00000E+00
    0.31947E-02         0.23810E-03         0.00000E+00
    0.31687E-02         0.21975E-03         0.00000E+00
    0.31399E-02         0.20168E-03         0.00000E+00
    0.31086E-02         0.18391E-03         0.00000E+00
    0.30747E-02         0.16649E-03         0.00000E+00
    0.30382E-02         0.14943E-03         0.00000E+00
    0.29993E-02         0.13277E-03         0.00000E+00
    0.29579E-02         0.11652E-03         0.00000E+00
    0.29141E-02         0.10072E-03         0.00000E+00
    0.28679E-02         0.85381E-04         0.00000E+00
    0.28194E-02         0.70538E-04         0.00000E+00
    0.27685E-02         0.56210E-04         0.00000E+00
    0.27155E-02         0.42420E-04         0.00000E+00
    0.26602E-02         0.29190E-04         0.00000E+00
    0.26028E-02         0.16539E-04         0.00000E+00
    0.25433E-02         0.44898E-05         0.00000E+00
    0.24817E-02        -0.69394E-05         0.00000E+00
    0.24181E-02        -0.17729E-04         0.00000E+00
    0.23525E-02        -0.27861E-04         0.00000E+00
    0.22849E-02        -0.37317E-04         0.00000E+00
    0.22155E-02        -0.46080E-04         0.00000E+00
    0.21442E-02        -0.54134E-04         0.00000E+00
    0.20712E-02        -0.61463E-04         0.00000E+00
    0.19964E-02        -0.68050E-04         0.00000E+00
    0.19198E-02        -0.73882E-04         0.00000E+00
    0.18417E-02        -0.78943E-04         0.00000E+00
    0.17619E-02        -0.83219E-04         0.00000E+00
    0.16805E-02        -0.86698E-04         0.00000E+00
    0.15976E-02        -0.89366E-04         0.00000E+00
    0.15133E-02        -0.91211E-04         0.00000E+00
    0.14275E-02        -0.92220E-04         0.00000E+00
    0.13403E-02        -0.92382E-04         0.00000E+00
    0.12518E-02        -0.91686E-04         0.00000E+00
    0.11620E-02        -0.90120E-04         0.00000E+00
    0.10710E-02        -0.87674E-04         0.00000E+00
    0.97874E-03        -0.84339E-04         0.00000E+00
    0.88533E-03        -0.80103E-04         0.00000E+00
    0.79081E-03        -0.74958E-04         0.00000E+00
    0.69523E-03        -0.68894E-04         0.00000E+00
    0.59862E-03        -0.61902E-04         0.00000E+00
    0.50104E-03        -0.53974E-04         0.00000E+00
    0.40252E-03        -0.45101E-04         0.00000E+00
    0.30311E-03        -0.35275E-04         0.00000E+00
    0.20286E-03        -0.24488E-04         0.00000E+00
    0.10181E-03        -0.12732E-04         0.00000E+00
    0.00000E+00         0.00000E+00         0.00000E+00
    0.30150E-02         0.28279E-03         0.00000E+00
    0.30044E-02         0.26574E-03         0.00000E+00
    0.29913E-02         0.24880E-03         0.00000E+00
    0.29756E-02         0.23199E-03         0.00000E+00
    0.29573E-02         0.21534E-03         0.00000E+00
    0.29366E-02         0.19889E-03         0.00000E+00
    0.29133E-02         0.18266E-03         0.00000E+00
    0.28876E-02         0.16668E-03         0.00000E+00
    0.28595E-02         0.15097E-03         0.00000E+00
    0.28290E-02         0.13556E-03         0.00000E+00
    0.27961E-02         0.12048E-03         0.00000E+00
    0.27610E-02         0.10574E-03         0.00000E+00
    0.27235E-02         0.91385E-04         0.00000E+00
    0.26838E-02         0.77422E-04         0.00000E+00
    0.26419E-02         0.63879E-04         0.00000E+00
    0.25978E-02         0.50777E-04         0.00000E+00
    0.25515E-02         0.38138E-04         0.00000E+00
    0.25032E-02         0.25983E-04         0.00000E+00
    0.24528E-02         0.14332E-04         0.00000E+00
    0.24004E-02         0.32032E-05         0.00000E+00
    0.23460E-02        -0.73829E-05         0.00000E+00
    0.22896E-02        -0.17409E-04         0.00000E+00
    0.22314E-02        -0.26856E-04         0.00000E+00
    0.21713E-02        -0.35708E-04         0.00000E+00
    0.21094E-02        -0.43947E-04         0.00000E+00
    0.20457E-02        -0.51559E-04         0.00000E+00
    0.19803E-02        -0.58526E-04         0.00000E+00
    0.19131E-02        -0.64834E-04         0.00000E+00
    0.18444E-02        -0.70469E-04         0.00000E+00
    0.17740E-02        -0.75416E-04         0.00000E+00
    0.17020E-02        -0.79662E-04         0.00000E+00
    0.16286E-02        -0.83194E-04         0.00000E+00
    0.15536E-02        -0.85998E-04         0.00000E+00
    0.14772E-02        -0.88063E-04         0.00000E+00
    0.13994E-02        -0.89377E-04         0.00000E+00
    0.13203E-02        -0.89928E-04         0.00000E+00
    0.12399E-02        -0.89706E-04         0.00000E+00
    0.11581E-02        -0.88699E-04         0.00000E+00
    0.10752E-02        -0.86897E-04         0.00000E+00
    0.99108E-03        -0.84291E-04         0.00000E+00
    0.90582E-03        -0.80871E-04         0.00000E+00
    0.81946E-03        -0.76627E-04         0.00000E+00
    0.73205E-03        -0.71551E-04         0.00000E+00
    0.64363E-03        -0.65634E-04         0.00000E+00
    0.55425E-03        -0.58868E-04         0.00000E+00
    0.46394E-03        -0.51244E-04         0.00000E+00
    0.37274E-03        -0.42755E-04         0.00000E+00
    0.28071E-03        -0.33394E-04         0.00000E+00
    0.18788E-03        -0.23152E-04         0.00000E+00
    0.94295E-04        -0.12023E-04         0.00000E+00
    0.00000E+00         0.00000E+00         0.00000E+00
    0.27732E-02         0.24016E-03         0.00000E+00
    0.27642E-02         0.22512E-03         0.00000E+00
    0.27527E-02         0.21017E-03         0.00000E+00
    0.27389E-02         0.19533E-03         0.00000E+00
    0.27227E-02         0.18065E-03         0.00000E+00
    0.27042E-02         0.16612E-03         0.00000E+00
    0.26834E-02         0.15180E-03         0.00000E+00
    0.26604E-02         0.13769E-03         0.00000E+00
    0.26350E-02         0.12382E-03         0.00000E+00
    0.26075E-02         0.11022E-03         0.00000E+00
    0.25778E-02         0.96909E-04         0.00000E+00
    0.25459E-02         0.83908E-04         0.00000E+00
    0.25119E-02         0.71239E-04         0.00000E+00
    0.24758E-02         0.58924E-04         0.00000E+00
    0.24377E-02         0.46984E-04         0.00000E+00
    0.23975E-02         0.35438E-04         0.00000E+00
    0.23553E-02         0.24307E-04         0.00000E+00
    0.23111E-02         0.13609E-04         0.00000E+00
    0.22651E-02         0.33623E-05         0.00000E+00
    0.22171E-02        -0.64141E-05         0.00000E+00
    0.21673E-02        -0.15703E-04         0.00000E+00
    0.21156E-02        -0.24488E-04         0.00000E+00
    0.20622E-02        -0.32752E-04         0.00000E+00
    0.20070E-02        -0.40479E-04         0.00000E+00
    0.19502E-02        -0.47654E-04         0.00000E+00
    0.18916E-02        -0.54262E-04         0.00000E+00
    0.18314E-02        -0.60288E-04         0.00000E+00
    0.17696E-02        -0.65718E-04         0.00000E+00
    0.17063E-02        -0.70539E-04         0.00000E+00
    0.16415E-02        -0.74738E-04         0.00000E+00
    0.15751E-02        -0.78301E-04         0.00000E+00
    0.15074E-02        -0.81217E-04         0.00000E+00
    0.14382E-02        -0.83473E-04         0.00000E+00
    0.13677E-02        -0.85059E-04         0.00000E+00
    0.12958E-02        -0.85962E-04         0.00000E+00
    0.12227E-02        -0.86173E-04         0.00000E+00
    0.11484E-02        -0.85682E-04         0.00000E+00
    0.10728E-02        -0.84477E-04         0.00000E+00
    0.99609E-03        -0.82550E-04         0.00000E+00
    0.91826E-03        -0.79890E-04         0.00000E+00
    0.83935E-03        -0.76491E-04         0.00000E+00
    0.75941E-03        -0.72342E-04         0.00000E+00
    0.67847E-03        -0.67435E-04         0.00000E+00
    0.59657E-03        -0.61762E-04         0.00000E+00
    0.51376E-03        -0.55316E-04         0.00000E+00
    0.43008E-03        -0.48089E-04         0.00000E+00
    0.34556E-03        -0.40075E-04         0.00000E+00
    0.26026E-03        -0.31265E-04         0.00000E+00
    0.17420E-03        -0.21653E-04         0.00000E+00
    0.87435E-04        -0.11234E-04         0.00000E+00
    0.00000E+00         0.00000E+00         0.00000E+00
    0.25570E-02         0.20385E-03         0.00000E+00
    0.25491E-02         0.19062E-03         0.00000E+00
    0.25391E-02         0.17746E-03         0.00000E+00
    0.25269E-02         0.16441E-03         0.00000E+00
    0.25125E-02         0.15148E-03         0.00000E+00
    0.24960E-02         0.13869E-03         0.00000E+00
    0.24773E-02         0.12608E-03         0.00000E+00
    0.24565E-02         0.11366E-03         0.00000E+00
    0.24336E-02         0.10145E-03         0.00000E+00
    0.24087E-02         0.89474E-04         0.00000E+00
    0.23817E-02         0.77755E-04         0.00000E+00
    0.23527E-02         0.66311E-04         0.00000E+00
    0.23217E-02         0.55163E-04         0.00000E+00
    0.22888E-02         0.44328E-04         0.00000E+00
    0.22540E-02         0.33827E-04         0.00000E+00
    0.22172E-02         0.23677E-04         0.00000E+00
    0.21786E-02         0.13896E-04         0.00000E+00
    0.21382E-02         0.45018E-05         0.00000E+00
    0.20960E-02        -0.44888E-05         0.00000E+00
    0.20519E-02        -0.13059E-04         0.00000E+00
    0.20062E-02        -0.21194E-04         0.00000E+00
    0.19587E-02        -0.28877E-04         0.00000E+00
    0.19096E-02        -0.36093E-04         0.00000E+00
    0.18588E-02        -0.42828E-04         0.00000E+00
    0.18064E-02        -0.49067E-04         0.00000E+00
    0.17525E-02        -0.54797E-04         0.00000E+00
    0.16970E-02        -0.60003E-04         0.00000E+00
    0.16400E-02        -0.64675E-04         0.00000E+00
    0.15815E-02        -0.68797E-04         0.00000E+00
    0.15216E-02        -0.72360E-04         0.00000E+00
    0.14604E-02        -0.75350E-04         0.00000E+00
    0.13977E-02        -0.77756E-04         0.00000E+00
    0.13338E-02        -0.79568E-04         0.00000E+00
    0.12685E-02        -0.80774E-04         0.00000E+00
    0.12020E-02        -0.81365E-04         0.00000E+00
    0.11343E-02        -0.81330E-04         0.00000E+00
    0.10655E-02        -0.80660E-04         0.00000E+00
    0.99549E-03        -0.79347E-04         0.00000E+00
    0.92440E-03        -0.77379E-04         0.00000E+00
    0.85225E-03        -0.74751E-04         0.00000E+00
    0.77909E-03        -0.71452E-04         0.00000E+00
    0.70495E-03        -0.67475E-04         0.00000E+00
    0.62986E-03        -0.62812E-04         0.00000E+00
    0.55388E-03        -0.57457E-04         0.00000E+00
    0.47703E-03        -0.51401E-04         0.00000E+00
    0.39936E-03        -0.44638E-04         0.00000E+00
    0.32090E-03        -0.37162E-04         0.00000E+00
    0.24169E-03        -0.28966E-04         0.00000E+00
    0.16178E-03        -0.20044E-04         0.00000E+00
    0.81205E-04        -0.10391E-04         0.00000E+00
    0.00000E+00         0.00000E+00         0.00000E+00
    0.23643E-02         0.17283E-03         0.00000E+00
    0.23575E-02         0.16122E-03         0.00000E+00
    0.23487E-02         0.14969E-03         0.00000E+00
    0.23379E-02         0.13824E-03         0.00000E+00
    0.23250E-02         0.12690E-03         0.00000E+00
    0.23101E-02         0.11568E-03         0.00000E+00
    0.22933E-02         0.10462E-03         0.00000E+00
    0.22744E-02         0.93717E-04         0.00000E+00
    0.22537E-02         0.83006E-04         0.00000E+00
    0.22310E-02         0.72501E-04         0.00000E+00
    0.22064E-02         0.62221E-04         0.00000E+00
    0.21800E-02         0.52183E-04         0.00000E+00
    0.21517E-02         0.42406E-04         0.00000E+00
    0.21215E-02         0.32907E-04         0.00000E+00
    0.20896E-02         0.23703E-04         0.00000E+00
    0.20559E-02         0.14810E-04         0.00000E+00
    0.20204E-02         0.62441E-05         0.00000E+00
    0.19833E-02        -0.19783E-05         0.00000E+00
    0.19444E-02        -0.98422E-05         0.00000E+00
    0.19039E-02        -0.17333E-04         0.00000E+00
    0.18617E-02        -0.24435E-04         0.00000E+00
    0.18180E-02        -0.31135E-04         0.00000E+00
    0.17726E-02        -0.37419E-04         0.00000E+00
    0.17258E-02        -0.43274E-04         0.00000E+00
    0.16774E-02        -0.48687E-04         0.00000E+00
    0.16275E-02        -0.53644E-04         0.00000E+00
    0.15762E-02        -0.58135E-04         0.00000E+00
    0.15235E-02        -0.62146E-04         0.00000E+00
    0.14694E-02        -0.65667E-04         0.00000E+00
    0.14139E-02        -0.68687E-04         0.00000E+00
    0.13572E-02        -0.71194E-04         0.00000E+00
    0.12991E-02        -0.73178E-04         0.00000E+00
    0.12398E-02        -0.74629E-04         0.00000E+00
    0.11793E-02        -0.75538E-04         0.00000E+00
    0.11176E-02        -0.75894E-04         0.00000E+00
    0.10548E-02        -0.75689E-04         0.00000E+00
    0.99085E-03        -0.74914E-04         0.00000E+00
    0.92585E-03        -0.73561E-04         0.00000E+00
    0.85981E-03        -0.71621E-04         0.00000E+00
    0.79278E-03        -0.69087E-04         0.00000E+00
    0.72478E-03        -0.65950E-04         0.00000E+00
    0.65586E-03        -0.62204E-04         0.00000E+00
    0.58605E-03        -0.57842E-04         0.00000E+00
    0.51538E-03        -0.52856E-04         0.00000E+00
    0.44390E-03        -0.47241E-04         0.00000E+00
    0.37164E-03        -0.40991E-04         0.00000E+00
    0.29865E-03        -0.34098E-04         0.00000E+00
    0.22494E-03        -0.26558E-04         0.00000E+00
    0.15058E-03        -0.18365E-04         0.00000E+00
    0.75584E-04        -0.95141E-05         0.00000E+00
    0.00000E+00         0.00000E+00         0.00000E+00
    0.21936E-02         0.14622E-03         0.00000E+00
    0.21877E-02         0.13609E-03         0.00000E+00
    0.21799E-02         0.12602E-03         0.00000E+00
    0.21702E-02         0.11603E-03         0.00000E+00
    0.21587E-02         0.10612E-03         0.00000E+00
    0.21452E-02         0.96334E-04         0.00000E+00
    0.21299E-02         0.86672E-04         0.00000E+00
    0.21128E-02         0.77156E-04         0.00000E+00
    0.20939E-02         0.67803E-04         0.00000E+00
    0.20732E-02         0.58631E-04         0.00000E+00
    0.20507E-02         0.49656E-04         0.00000E+00
    0.20264E-02         0.40893E-04         0.00000E+00
    0.20004E-02         0.32359E-04         0.00000E+00
    0.19728E-02         0.24070E-04         0.00000E+00
    0.19434E-02         0.16039E-04         0.00000E+00
    0.19123E-02         0.82833E-05         0.00000E+00
    0.18796E-02         0.81588E-06         0.00000E+00
    0.18454E-02        -0.63487E-05         0.00000E+00
    0.18095E-02        -0.13197E-04         0.00000E+00
    0.17720E-02        -0.19715E-04         0.00000E+00
    0.17330E-02        -0.25890E-04         0.00000E+00
    0.16925E-02        -0.31709E-04         0.00000E+00
    0.16506E-02        -0.37160E-04         0.00000E+00
    0.16071E-02        -0.42231E-04         0.00000E+00
    0.15623E-02        -0.46909E-04         0.00000E+00
    0.15161E-02        -0.51185E-04         0.00000E+00
    0.14684E-02        -0.55045E-04         0.00000E+00
    0.14195E-02        -0.58481E-04         0.00000E+00
    0.13692E-02        -0.61481E-04         0.00000E+00
    0.13177E-02        -0.64035E-04         0.00000E+00
    0.12650E-02        -0.66134E-04         0.00000E+00
    0.12110E-02        -0.67768E-04         0.00000E+00
    0.11558E-02        -0.68927E-04         0.00000E+00
    0.10995E-02        -0.69604E-04         0.00000E+00
    0.10421E-02        -0.69789E-04         0.00000E+00
    0.98364E-03        -0.69475E-04         0.00000E+00
    0.92411E-03        -0.68652E-04         0.00000E+00
    0.86356E-03        -0.67314E-04         0.00000E+00
    0.80203E-03        -0.65453E-04         0.00000E+00
    0.73956E-03        -0.63063E-04         0.00000E+00
    0.67618E-03        -0.60135E-04         0.00000E+00
    0.61192E-03        -0.56664E-04         0.00000E+00
    0.54682E-03        -0.52642E-04         0.00000E+00
    0.48091E-03        -0.48065E-04         0.00000E+00
    0.41424E-03        -0.42927E-04         0.00000E+00
    0.34683E-03        -0.37220E-04         0.00000E+00
    0.27872E-03        -0.30941E-04         0.00000E+00
    0.20994E-03        -0.24085E-04         0.00000E+00
    0.14054E-03        -0.16645E-04         0.00000E+00
    0.70548E-04        -0.86185E-05         0.00000E+00
    0.00000E+00         0.00000E+00         0.00000E+00
    0.20434E-02         0.12329E-03         0.00000E+00
    0.20383E-02         0.11451E-03         0.00000E+00
    0.20314E-02         0.10577E-03         0.00000E+00
    0.20226E-02         0.97103E-04         0.00000E+00
    0.20122E-02         0.88514E-04         0.00000E+00
    0.20000E-02         0.80020E-04         0.00000E+00
    0.19860E-02         0.71637E-04         0.00000E+00
    0.19704E-02         0.63382E-04         0.00000E+00
    0.19530E-02         0.55267E-04         0.00000E+00
    0.19340E-02         0.47310E-04         0.00000E+00
    0.19133E-02         0.39523E-04         0.00000E+00
    0.18910E-02         0.31923E-04         0.00000E+00
    0.18670E-02         0.24521E-04         0.00000E+00
    0.18414E-02         0.17333E-04         0.00000E+00
    0.18143E-02         0.10371E-04         0.00000E+00
    0.17855E-02         0.36484E-05         0.00000E+00
    0.17553E-02        -0.28213E-05         0.00000E+00
    0.17235E-02        -0.90261E-05         0.00000E+00
    0.16902E-02        -0.14954E-04         0.00000E+00
    0.16554E-02        -0.20592E-04         0.00000E+00
    0.16192E-02        -0.25929E-04         0.00000E+00
    0.15816E-02        -0.30954E-04         0.00000E+00
    0.15426E-02        -0.35656E-04         0.00000E+00
    0.15022E-02        -0.40024E-04         0.00000E+00
    0.14604E-02        -0.44047E-04         0.00000E+00
    0.14174E-02        -0.47716E-04         0.00000E+00
    0.13730E-02        -0.51020E-04         0.00000E+00
    0.13274E-02        -0.53950E-04         0.00000E+00
    0.12806E-02        -0.56496E-04         0.00000E+00
    0.12325E-02        -0.58650E-04         0.00000E+00
    0.11833E-02        -0.60402E-04         0.00000E+00
    0.11329E-02        -0.61745E-04         0.00000E+00
    0.10814E-02        -0.62669E-04         0.00000E+00
    0.10288E-02        -0.63168E-04         0.00000E+00
    0.97520E-03        -0.63233E-04         0.00000E+00
    0.92055E-03        -0.62856E-04         0.00000E+00
    0.86490E-03        -0.62032E-04         0.00000E+00
    0.80830E-03        -0.60752E-04         0.00000E+00
    0.75076E-03        -0.59011E-04         0.00000E+00
    0.69233E-03        -0.56801E-04         0.00000E+00
    0.63304E-03        -0.54117E-04         0.00000E+00
    0.57292E-03        -0.50953E-04         0.00000E+00
    0.51199E-03        -0.47302E-04         0.00000E+00
    0.45031E-03        -0.43161E-04         0.00000E+00
    0.38790E-03        -0.38522E-04         0.00000E+00
    0.32479E-03        -0.33382E-04         0.00000E+00
    0.26102E-03        -0.27736E-04         0.00000E+00
    0.19662E-03        -0.21579E-04         0.00000E+00
    0.13162E-03        -0.14906E-04         0.00000E+00
    0.66074E-04        -0.77148E-05         0.00000E+00
    0.00000E+00         0.00000E+00         0.00000E+00
    0.19125E-02         0.10342E-03         0.00000E+00
    0.19079E-02         0.95870E-04         0.00000E+00
    0.19017E-02         0.88361E-04         0.00000E+00
    0.18939E-02         0.80906E-04         0.00000E+00
    0.18843E-02         0.73519E-04         0.00000E+00
    0.18732E-02         0.66214E-04         0.00000E+00
    0.18604E-02         0.59004E-04         0.00000E+00
    0.18460E-02         0.51903E-04         0.00000E+00
    0.18300E-02         0.44924E-04         0.00000E+00
    0.18124E-02         0.38080E-04         0.00000E+00
    0.17933E-02         0.31384E-04         0.00000E+00
    0.17726E-02         0.24847E-04         0.00000E+00
    0.17503E-02         0.18482E-04         0.00000E+00
    0.17266E-02         0.12302E-04         0.00000E+00
    0.17013E-02         0.63177E-05         0.00000E+00
    0.16746E-02         0.54071E-06         0.00000E+00
    0.16464E-02        -0.50176E-05         0.00000E+00
    0.16168E-02        -0.10346E-04         0.00000E+00
    0.15858E-02        -0.15434E-04         0.00000E+00
    0.15534E-02        -0.20272E-04         0.00000E+00
    0.15196E-02        -0.24848E-04         0.00000E+00
    0.14844E-02        -0.29153E-04         0.00000E+00
    0.14480E-02        -0.33177E-04         0.00000E+00
    0.14102E-02        -0.36911E-04         0.00000E+00
    0.13712E-02        -0.40346E-04         0.00000E+00
    0.13309E-02        -0.43472E-04         0.00000E+00
    0.12894E-02        -0.46280E-04         0.00000E+00
    0.12467E-02        -0.48763E-04         0.00000E+00
    0.12028E-02        -0.50912E-04         0.00000E+00
    0.11578E-02        -0.52719E-04         0.00000E+00
    0.11116E-02        -0.54176E-04         0.00000E+00
    0.10644E-02        -0.55276E-04         0.00000E+00
    0.10161E-02        -0.56011E-04         0.00000E+00
    0.96677E-03        -0.56375E-04         0.00000E+00
    0.91645E-03        -0.56361E-04         0.00000E+00
    0.86515E-03        -0.55961E-04         0.00000E+00
    0.81292E-03        -0.55171E-04         0.00000E+00
    0.75976E-03        -0.53983E-04         0.00000E+00
    0.70573E-03        -0.52392E-04         0.00000E+00
    0.65085E-03        -0.50392E-04         0.00000E+00
    0.59514E-03        -0.47977E-04         0.00000E+00
    0.53865E-03        -0.45143E-04         0.00000E+00
    0.48139E-03        -0.41885E-04         0.00000E+00
    0.42342E-03        -0.38197E-04         0.00000E+00
    0.36475E-03        -0.34075E-04         0.00000E+00
    0.30542E-03        -0.29515E-04         0.00000E+00
    0.24546E-03        -0.24512E-04         0.00000E+00
    0.18490E-03        -0.19063E-04         0.00000E+00
    0.12379E-03        -0.13164E-04         0.00000E+00
    0.62140E-04        -0.68105E-05         0.00000E+00
    0.00000E+00         0.00000E+00         0.00000E+00
    0.17996E-02         0.86093E-04         0.00000E+00
    0.17956E-02         0.79679E-04         0.00000E+00
    0.17900E-02         0.73298E-04         0.00000E+00
    0.17828E-02         0.66963E-04         0.00000E+00
    0.17740E-02         0.60685E-04         0.00000E+00
    0.17638E-02         0.54476E-04         0.00000E+00
    0.17520E-02         0.48348E-04         0.00000E+00
    0.17386E-02         0.42312E-04         0.00000E+00
    0.17238E-02         0.36380E-04         0.00000E+00
    0.17074E-02         0.30563E-04         0.00000E+00
    0.16896E-02         0.24871E-04         0.00000E+00
    0.16703E-02         0.19315E-04         0.00000E+00
    0.16495E-02         0.13907E-04         0.00000E+00
    0.16274E-02         0.86552E-05         0.00000E+00
    0.16038E-02         0.35710E-05         0.00000E+00
    0.15788E-02        -0.13360E-05         0.00000E+00
    0.15524E-02        -0.60561E-05         0.00000E+00
    0.15246E-02        -0.10580E-04         0.00000E+00
    0.14955E-02        -0.14898E-04         0.00000E+00
    0.14651E-02        -0.19001E-04         0.00000E+00
    0.14334E-02        -0.22881E-04         0.00000E+00
    0.14004E-02        -0.26529E-04         0.00000E+00
    0.13661E-02        -0.29936E-04         0.00000E+00
    0.13306E-02        -0.33094E-04         0.00000E+00
    0.12939E-02        -0.35996E-04         0.00000E+00
    0.12560E-02        -0.38632E-04         0.00000E+00
    0.12169E-02        -0.40997E-04         0.00000E+00
    0.11767E-02        -0.43082E-04         0.00000E+00
    0.11354E-02        -0.44880E-04         0.00000E+00
    0.10930E-02        -0.46384E-04         0.00000E+00
    0.10495E-02        -0.47588E-04         0.00000E+00
    0.10050E-02        -0.48486E-04         0.00000E+00
    0.95950E-03        -0.49070E-04         0.00000E+00
    0.91299E-03        -0.49334E-04         0.00000E+00
    0.86553E-03        -0.49273E-04         0.00000E+00
    0.81714E-03        -0.48882E-04         0.00000E+00
    0.76785E-03        -0.48154E-04         0.00000E+00
    0.71769E-03        -0.47084E-04         0.00000E+00
    0.66668E-03        -0.45667E-04         0.00000E+00
    0.61487E-03        -0.43898E-04         0.00000E+00
    0.56227E-03        -0.41772E-04         0.00000E+00
    0.50892E-03        -0.39286E-04         0.00000E+00
    0.45485E-03        -0.36434E-04         0.00000E+00
    0.40009E-03        -0.33212E-04         0.00000E+00
    0.34466E-03        -0.29617E-04         0.00000E+00
    0.28861E-03        -0.25644E-04         0.00000E+00
    0.23196E-03        -0.21291E-04         0.00000E+00
    0.17474E-03        -0.16553E-04         0.00000E+00
    0.11698E-03        -0.11427E-04         0.00000E+00
    0.58726E-04        -0.59103E-05         0.00000E+00
    0.00000E+00         0.00000E+00         0.00000E+00
    0.17038E-02         0.70863E-04         0.00000E+00
    0.17002E-02         0.65502E-04         0.00000E+00
    0.16951E-02         0.60168E-04         0.00000E+00
    0.16885E-02         0.54872E-04         0.00000E+00
    0.16804E-02         0.49624E-04         0.00000E+00
    0.16709E-02         0.44433E-04         0.00000E+00
    0.16599E-02         0.39310E-04         0.00000E+00
    0.16474E-02         0.34264E-04         0.00000E+00
    0.16335E-02         0.29304E-04         0.00000E+00
    0.16182E-02         0.24441E-04         0.00000E+00
    0.16015E-02         0.19682E-04         0.00000E+00
    0.15834E-02         0.15038E-04         0.00000E+00
    0.15639E-02         0.10516E-04         0.00000E+00
    0.15430E-02         0.61269E-05         0.00000E+00
    0.15208E-02         0.18776E-05         0.00000E+00
    0.14972E-02        -0.22231E-05         0.00000E+00
    0.14724E-02        -0.61669E-05         0.00000E+00
    0.14462E-02        -0.99458E-05         0.00000E+00
    0.14187E-02        -0.13552E-04         0.00000E+00
    0.13900E-02        -0.16978E-04         0.00000E+00
    0.13600E-02        -0.20216E-04         0.00000E+00
    0.13288E-02        -0.23258E-04         0.00000E+00
    0.12964E-02        -0.26099E-04         0.00000E+00
    0.12629E-02        -0.28730E-04         0.00000E+00
    0.12281E-02        -0.31145E-04         0.00000E+00
    0.11923E-02        -0.33337E-04         0.00000E+00
    0.11553E-02        -0.35300E-04         0.00000E+00
    0.11172E-02        -0.37028E-04         0.00000E+00
    0.10780E-02        -0.38514E-04         0.00000E+00
    0.10379E-02        -0.39753E-04         0.00000E+00
    0.99664E-03        -0.40738E-04         0.00000E+00
    0.95444E-03        -0.41465E-04         0.00000E+00
    0.91127E-03        -0.41928E-04         0.00000E+00
    0.86716E-03        -0.42122E-04         0.00000E+00
    0.82213E-03        -0.42042E-04         0.00000E+00
    0.77621E-03        -0.41682E-04         0.00000E+00
    0.72943E-03        -0.41039E-04         0.00000E+00
    0.68181E-03        -0.40107E-04         0.00000E+00
    0.63339E-03        -0.38883E-04         0.00000E+00
    0.58419E-03        -0.37362E-04         0.00000E+00
    0.53424E-03        -0.35539E-04         0.00000E+00
    0.48357E-03        -0.33413E-04         0.00000E+00
    0.43221E-03        -0.30977E-04         0.00000E+00
    0.38019E-03        -0.28230E-04         0.00000E+00
    0.32753E-03        -0.25167E-04         0.00000E+00
    0.27427E-03        -0.21786E-04         0.00000E+00
    0.22044E-03        -0.18083E-04         0.00000E+00
    0.16606E-03        -0.14056E-04         0.00000E+00
    0.11118E-03        -0.97013E-05         0.00000E+00
    0.55814E-04        -0.50168E-05         0.00000E+00
    0.00000E+00         0.00000E+00         0.00000E+00
    0.16242E-02         0.57343E-04         0.00000E+00
    0.16210E-02         0.52967E-04         0.00000E+00
    0.16163E-02         0.48614E-04         0.00000E+00
    0.16101E-02         0.44291E-04         0.00000E+00
    0.16026E-02         0.40007E-04         0.00000E+00
    0.15937E-02         0.35769E-04         0.00000E+00
    0.15833E-02         0.31587E-04         0.00000E+00
    0.15716E-02         0.27467E-04         0.00000E+00
    0.15585E-02         0.23419E-04         0.00000E+00
    0.15441E-02         0.19448E-04         0.00000E+00
    0.15283E-02         0.15563E-04         0.00000E+00
    0.15111E-02         0.11772E-04         0.00000E+00
    0.14927E-02         0.80810E-05         0.00000E+00
    0.14729E-02         0.44977E-05         0.00000E+00
    0.14518E-02         0.10291E-05         0.00000E+00
    0.14294E-02        -0.23179E-05         0.00000E+00
    0.14058E-02        -0.55367E-05         0.00000E+00
    0.13809E-02        -0.86206E-05         0.00000E+00
    0.13548E-02        -0.11563E-04         0.00000E+00
    0.13275E-02        -0.14358E-04         0.00000E+00
    0.12990E-02        -0.16999E-04         0.00000E+00
    0.12693E-02        -0.19480E-04         0.00000E+00
    0.12385E-02        -0.21796E-04         0.00000E+00
    0.12065E-02        -0.23940E-04         0.00000E+00
    0.11734E-02        -0.25907E-04         0.00000E+00
    0.11392E-02        -0.27691E-04         0.00000E+00
    0.11039E-02        -0.29288E-04         0.00000E+00
    0.10676E-02        -0.30692E-04         0.00000E+00
    0.10303E-02        -0.31898E-04         0.00000E+00
    0.99193E-03        -0.32901E-04         0.00000E+00
    0.95260E-03        -0.33696E-04         0.00000E+00
    0.91232E-03        -0.34280E-04         0.00000E+00
    0.87110E-03        -0.34646E-04         0.00000E+00
    0.82898E-03        -0.34792E-04         0.00000E+00
    0.78598E-03        -0.34713E-04         0.00000E+00
    0.74212E-03        -0.34405E-04         0.00000E+00
    0.69742E-03        -0.33865E-04         0.00000E+00
    0.65193E-03        -0.33087E-04         0.00000E+00
    0.60566E-03        -0.32070E-04         0.00000E+00
    0.55864E-03        -0.30808E-04         0.00000E+00
    0.51089E-03        -0.29300E-04         0.00000E+00
    0.46245E-03        -0.27542E-04         0.00000E+00
    0.41335E-03        -0.25530E-04         0.00000E+00
    0.36361E-03        -0.23262E-04         0.00000E+00
    0.31325E-03        -0.20736E-04         0.00000E+00
    0.26232E-03        -0.17948E-04         0.00000E+00
    0.21084E-03        -0.14895E-04         0.00000E+00
    0.15884E-03        -0.11577E-04         0.00000E+00
    0.10634E-03        -0.79893E-05         0.00000E+00
    0.53386E-04        -0.41311E-05         0.00000E+00
    0.00000E+00         0.00000E+00         0.00000E+00
    0.15602E-02         0.45201E-04         0.00000E+00
    0.15572E-02         0.41755E-04         0.00000E+00
    0.15528E-02         0.38327E-04         0.00000E+00
    0.15471E-02         0.34923E-04         0.00000E+00
    0.15400E-02         0.31550E-04         0.00000E+00
    0.15316E-02         0.28213E-04         0.00000E+00
    0.15218E-02         0.24919E-04         0.00000E+00
    0.15106E-02         0.21675E-04         0.00000E+00
    0.14982E-02         0.18487E-04         0.00000E+00
    0.14844E-02         0.15360E-04         0.00000E+00
    0.14693E-02         0.12301E-04         0.00000E+00
    0.14530E-02         0.93145E-05         0.00000E+00
    0.14353E-02         0.64075E-05         0.00000E+00
    0.14164E-02         0.35853E-05         0.00000E+00
    0.13962E-02         0.85326E-06         0.00000E+00
    0.13748E-02        -0.17831E-05         0.00000E+00
    0.13522E-02        -0.43186E-05         0.00000E+00
    0.13284E-02        -0.67479E-05         0.00000E+00
    0.13034E-02        -0.90660E-05         0.00000E+00
    0.12772E-02        -0.11268E-04         0.00000E+00
    0.12498E-02        -0.13349E-04         0.00000E+00
    0.12214E-02        -0.15304E-04         0.00000E+00
    0.11918E-02        -0.17128E-04         0.00000E+00
    0.11611E-02        -0.18818E-04         0.00000E+00
    0.11293E-02        -0.20368E-04         0.00000E+00
    0.10964E-02        -0.21775E-04         0.00000E+00
    0.10626E-02        -0.23034E-04         0.00000E+00
    0.10277E-02        -0.24141E-04         0.00000E+00
    0.99179E-03        -0.25092E-04         0.00000E+00
    0.95493E-03        -0.25883E-04         0.00000E+00
    0.91712E-03        -0.26511E-04         0.00000E+00
    0.87838E-03        -0.26972E-04         0.00000E+00
    0.83874E-03        -0.27262E-04         0.00000E+00
    0.79822E-03        -0.27379E-04         0.00000E+00
    0.75685E-03        -0.27318E-04         0.00000E+00
    0.71464E-03        -0.27077E-04         0.00000E+00
    0.67164E-03        -0.26653E-04         0.00000E+00
    0.62785E-03        -0.26042E-04         0.00000E+00
    0.58331E-03        -0.25242E-04         0.00000E+00
    0.53804E-03        -0.24250E-04         0.00000E+00
    0.49207E-03        -0.23064E-04         0.00000E+00
    0.44543E-03        -0.21680E-04         0.00000E+00
    0.39814E-03        -0.20098E-04         0.00000E+00
    0.35024E-03        -0.18313E-04         0.00000E+00
    0.30175E-03        -0.16324E-04         0.00000E+00
    0.25269E-03        -0.14130E-04         0.00000E+00
    0.20310E-03        -0.11727E-04         0.00000E+00
    0.15301E-03        -0.91146E-05         0.00000E+00
    0.10244E-03        -0.62903E-05         0.00000E+00
    0.51430E-04        -0.32526E-05         0.00000E+00
    0.00000E+00         0.00000E+00         0.00000E+00
    0.15112E-02         0.34142E-04         0.00000E+00
    0.15084E-02         0.31584E-04         0.00000E+00
    0.15043E-02         0.29038E-04         0.00000E+00
    0.14988E-02         0.26510E-04         0.00000E+00
    0.14921E-02         0.24005E-04         0.00000E+00
    0.14840E-02         0.21527E-04         0.00000E+00
    0.14746E-02         0.19082E-04         0.00000E+00
    0.14639E-02         0.16673E-04         0.00000E+00
    0.14520E-02         0.14305E-04         0.00000E+00
    0.14387E-02         0.11983E-04         0.00000E+00
    0.14242E-02         0.97105E-05         0.00000E+00
    0.14084E-02         0.74925E-05         0.00000E+00
    0.13914E-02         0.53330E-05         0.00000E+00
    0.13732E-02         0.32362E-05         0.00000E+00
    0.13537E-02         0.12060E-05         0.00000E+00
    0.13331E-02        -0.75360E-06         0.00000E+00
    0.13112E-02        -0.26386E-05         0.00000E+00
    0.12882E-02        -0.44452E-05         0.00000E+00
    0.12640E-02        -0.61698E-05         0.00000E+00
    0.12387E-02        -0.78085E-05         0.00000E+00
    0.12122E-02        -0.93580E-05         0.00000E+00
    0.11847E-02        -0.10815E-04         0.00000E+00
    0.11560E-02        -0.12175E-04         0.00000E+00
    0.11263E-02        -0.13436E-04         0.00000E+00
    0.10955E-02        -0.14594E-04         0.00000E+00
    0.10637E-02        -0.15646E-04         0.00000E+00
    0.10309E-02        -0.16589E-04         0.00000E+00
    0.99712E-03        -0.17421E-04         0.00000E+00
    0.96234E-03        -0.18137E-04         0.00000E+00
    0.92662E-03        -0.18736E-04         0.00000E+00
    0.88997E-03        -0.19214E-04         0.00000E+00
    0.85241E-03        -0.19569E-04         0.00000E+00
    0.81398E-03        -0.19799E-04         0.00000E+00
    0.77468E-03        -0.19900E-04         0.00000E+00
    0.73456E-03        -0.19871E-04         0.00000E+00
    0.69362E-03        -0.19709E-04         0.00000E+00
    0.65190E-03        -0.19412E-04         0.00000E+00
    0.60942E-03        -0.18978E-04         0.00000E+00
    0.56620E-03        -0.18404E-04         0.00000E+00
    0.52228E-03        -0.17689E-04         0.00000E+00
    0.47767E-03        -0.16831E-04         0.00000E+00
    0.43240E-03        -0.15828E-04         0.00000E+00
    0.38651E-03        -0.14677E-04         0.00000E+00
    0.34001E-03        -0.13379E-04         0.00000E+00
    0.29294E-03        -0.11930E-04         0.00000E+00
    0.24532E-03        -0.10329E-04         0.00000E+00
    0.19718E-03        -0.85748E-05         0.00000E+00
    0.14855E-03        -0.66662E-05         0.00000E+00
    0.99459E-04        -0.46017E-05         0.00000E+00
    0.49932E-04        -0.23800E-05         0.00000E+00
    0.00000E+00         0.00000E+00         0.00000E+00
    0.14767E-02         0.23904E-04         0.00000E+00
    0.14741E-02         0.22199E-04         0.00000E+00
    0.14702E-02         0.20504E-04         0.00000E+00
    0.14649E-02         0.18821E-04         0.00000E+00
    0.14584E-02         0.17153E-04         0.00000E+00
    0.14506E-02         0.15503E-04         0.00000E+00
    0.14415E-02         0.13875E-04         0.00000E+00
    0.14311E-02         0.12271E-04         0.00000E+00
    0.14195E-02         0.10694E-04         0.00000E+00
    0.14066E-02         0.91480E-05         0.00000E+00
    0.13925E-02         0.76345E-05         0.00000E+00
    0.13772E-02         0.61567E-05         0.00000E+00
    0.13606E-02         0.47174E-05         0.00000E+00
    0.13429E-02         0.33193E-05         0.00000E+00
    0.13239E-02         0.19650E-05         0.00000E+00
    0.13038E-02         0.65700E-06         0.00000E+00
    0.12825E-02        -0.60212E-06         0.00000E+00
    0.12600E-02        -0.18099E-05         0.00000E+00
    0.12364E-02        -0.29640E-05         0.00000E+00
    0.12117E-02        -0.40620E-05         0.00000E+00
    0.11859E-02        -0.51017E-05         0.00000E+00
    0.11590E-02        -0.60807E-05         0.00000E+00
    0.11310E-02        -0.69970E-05         0.00000E+00
    0.11020E-02        -0.78483E-05         0.00000E+00
    0.10719E-02        -0.86327E-05         0.00000E+00
    0.10408E-02        -0.93481E-05         0.00000E+00
    0.10088E-02        -0.99925E-05         0.00000E+00
    0.97572E-03        -0.10564E-04         0.00000E+00
    0.94172E-03        -0.11061E-04         0.00000E+00
    0.90680E-03        -0.11481E-04         0.00000E+00
    0.87096E-03        -0.11823E-04         0.00000E+00
    0.83423E-03        -0.12086E-04         0.00000E+00
    0.79664E-03        -0.12266E-04         0.00000E+00
    0.75821E-03        -0.12364E-04         0.00000E+00
    0.71896E-03        -0.12376E-04         0.00000E+00
    0.67891E-03        -0.12303E-04         0.00000E+00
    0.63809E-03        -0.12142E-04         0.00000E+00
    0.59652E-03        -0.11891E-04         0.00000E+00
    0.55424E-03        -0.11551E-04         0.00000E+00
    0.51125E-03        -0.11119E-04         0.00000E+00
    0.46759E-03        -0.10594E-04         0.00000E+00
    0.42329E-03        -0.99751E-05         0.00000E+00
    0.37837E-03        -0.92610E-05         0.00000E+00
    0.33286E-03        -0.84505E-05         0.00000E+00
    0.28678E-03        -0.75428E-05         0.00000E+00
    0.24017E-03        -0.65368E-05         0.00000E+00
    0.19304E-03        -0.54315E-05         0.00000E+00
    0.14543E-03        -0.42260E-05         0.00000E+00
    0.97373E-04        -0.29194E-05         0.00000E+00
    0.48885E-04        -0.15110E-05         0.00000E+00
    0.00000E+00         0.00000E+00         0.00000E+00
    0.14565E-02         0.14246E-04         0.00000E+00
    0.14540E-02         0.13374E-04         0.00000E+00
    0.14502E-02         0.12507E-04         0.00000E+00
    0.14451E-02         0.11647E-04         0.00000E+00
    0.14387E-02         0.10795E-04         0.00000E+00
    0.14310E-02         0.99525E-05         0.00000E+00
    0.14221E-02         0.91210E-05         0.00000E+00
    0.14120E-02         0.83018E-05         0.00000E+00
    0.14006E-02         0.74963E-05         0.00000E+00
    0.13879E-02         0.67059E-05         0.00000E+00
    0.13741E-02         0.59319E-05         0.00000E+00
    0.13590E-02         0.51755E-05         0.00000E+00
    0.13427E-02         0.44380E-05         0.00000E+00
    0.13252E-02         0.37207E-05         0.00000E+00
    0.13065E-02         0.30246E-05         0.00000E+00
    0.12867E-02         0.23511E-05         0.00000E+00
    0.12657E-02         0.17012E-05         0.00000E+00
    0.12436E-02         0.10760E-05         0.00000E+00
    0.12204E-02         0.47669E-06         0.00000E+00
    0.11960E-02        -0.95797E-07         0.00000E+00
    0.11706E-02        -0.64039E-06         0.00000E+00
    0.11440E-02        -0.11561E-05         0.00000E+00
    0.11165E-02        -0.16420E-05         0.00000E+00
    0.10878E-02        -0.20971E-05         0.00000E+00
    0.10582E-02        -0.25205E-05         0.00000E+00
    0.10276E-02        -0.29113E-05         0.00000E+00
    0.99593E-03        -0.32687E-05         0.00000E+00
    0.96334E-03        -0.35918E-05         0.00000E+00
    0.92980E-03        -0.38798E-05         0.00000E+00
    0.89534E-03        -0.41320E-05         0.00000E+00
    0.85998E-03        -0.43476E-05         0.00000E+00
    0.82373E-03        -0.45259E-05         0.00000E+00
    0.78664E-03        -0.46661E-05         0.00000E+00
    0.74870E-03        -0.47676E-05         0.00000E+00
    0.70996E-03        -0.48297E-05         0.00000E+00
    0.67043E-03        -0.48517E-05         0.00000E+00
    0.63013E-03        -0.48331E-05         0.00000E+00
    0.58909E-03        -0.47732E-05         0.00000E+00
    0.54734E-03        -0.46715E-05         0.00000E+00
    0.50490E-03        -0.45274E-05         0.00000E+00
    0.46179E-03        -0.43403E-05         0.00000E+00
    0.41804E-03        -0.41097E-05         0.00000E+00
    0.37369E-03        -0.38352E-05         0.00000E+00
    0.32874E-03        -0.35162E-05         0.00000E+00
    0.28324E-03        -0.31522E-05         0.00000E+00
    0.23720E-03        -0.27429E-05         0.00000E+00
    0.19066E-03        -0.22876E-05         0.00000E+00
    0.14364E-03        -0.17862E-05         0.00000E+00
    0.96172E-04        -0.12380E-05         0.00000E+00
    0.48283E-04        -0.64272E-06         0.00000E+00
    0.00000E+00         0.00000E+00         0.00000E+00
    0.14504E-02         0.49443E-05         0.00000E+00
    0.14479E-02         0.48933E-05         0.00000E+00
    0.14442E-02         0.48436E-05         0.00000E+00
    0.14391E-02         0.47952E-05         0.00000E+00
    0.14328E-02         0.47477E-05         0.00000E+00
    0.14252E-02         0.47011E-05         0.00000E+00
    0.14164E-02         0.46552E-05         0.00000E+00
    0.14063E-02         0.46099E-05         0.00000E+00
    0.13950E-02         0.45649E-05         0.00000E+00
    0.13824E-02         0.45201E-05         0.00000E+00
    0.13687E-02         0.44752E-05         0.00000E+00
    0.13537E-02         0.44300E-05         0.00000E+00
    0.13375E-02         0.43844E-05         0.00000E+00
    0.13201E-02         0.43381E-05         0.00000E+00
    0.13015E-02         0.42909E-05         0.00000E+00
    0.12818E-02         0.42426E-05         0.00000E+00
    0.12609E-02         0.41929E-05         0.00000E+00
    0.12389E-02         0.41415E-05         0.00000E+00
    0.12158E-02         0.40883E-05         0.00000E+00
    0.11916E-02         0.40329E-05         0.00000E+00
    0.11662E-02         0.39752E-05         0.00000E+00
    0.11398E-02         0.39149E-05         0.00000E+00
    0.11124E-02         0.38517E-05         0.00000E+00
    0.10839E-02         0.37854E-05         0.00000E+00
    0.10544E-02         0.37156E-05         0.00000E+00
    0.10239E-02         0.36423E-05         0.00000E+00
    0.99236E-03         0.35651E-05         0.00000E+00
    0.95990E-03         0.34838E-05         0.00000E+00
    0.92650E-03         0.33981E-05         0.00000E+00
    0.89218E-03         0.33077E-05         0.00000E+00
    0.85696E-03         0.32126E-05         0.00000E+00
    0.82085E-03         0.31123E-05         0.00000E+00
    0.78390E-03         0.30068E-05         0.00000E+00
    0.74611E-03         0.28957E-05         0.00000E+00
    0.70751E-03         0.27790E-05         0.00000E+00
    0.66812E-03         0.26563E-05         0.00000E+00
    0.62797E-03         0.25274E-05         0.00000E+00
    0.58708E-03         0.23923E-05         0.00000E+00
    0.54547E-03         0.22507E-05         0.00000E+00
    0.50318E-03         0.21024E-05         0.00000E+00
    0.46023E-03         0.19474E-05         0.00000E+00
    0.41663E-03         0.17854E-05         0.00000E+00
    0.37243E-03         0.16164E-05         0.00000E+00
    0.32764E-03         0.14402E-05         0.00000E+00
    0.28229E-03         0.12568E-05         0.00000E+00
    0.23641E-03         0.10660E-05         0.00000E+00
    0.19002E-03         0.86780E-06         0.00000E+00
    0.14316E-03         0.66213E-06         0.00000E+00
    0.95852E-04         0.44895E-06         0.00000E+00
    0.48122E-04         0.22824E-06         0.00000E+00
    0.00000E+00         0.00000E+00         0.00000E+00
    0.14583E-02        -0.42134E-05         0.00000E+00
    0.14559E-02        -0.34454E-05         0.00000E+00
    0.14521E-02        -0.26799E-05         0.00000E+00
    0.14470E-02        -0.19185E-05         0.00000E+00
    0.14407E-02        -0.11632E-05         0.00000E+00
    0.14331E-02        -0.41555E-06         0.00000E+00
    0.14242E-02         0.32256E-06         0.00000E+00
    0.14141E-02         0.10494E-05         0.00000E+00
    0.14028E-02         0.17633E-05         0.00000E+00
    0.13901E-02         0.24624E-05         0.00000E+00
    0.13763E-02         0.31451E-05         0.00000E+00
    0.13612E-02         0.38096E-05         0.00000E+00
    0.13450E-02         0.44543E-05         0.00000E+00
    0.13275E-02         0.50775E-05         0.00000E+00
    0.13089E-02         0.56775E-05         0.00000E+00
    0.12890E-02         0.62527E-05         0.00000E+00
    0.12681E-02         0.68016E-05         0.00000E+00
    0.12459E-02         0.73224E-05         0.00000E+00
    0.12227E-02         0.78136E-05         0.00000E+00
    0.11983E-02         0.82737E-05         0.00000E+00
    0.11729E-02         0.87011E-05         0.00000E+00
    0.11463E-02         0.90944E-05         0.00000E+00
    0.11187E-02         0.94519E-05         0.00000E+00
    0.10901E-02         0.97724E-05         0.00000E+00
    0.10604E-02         0.10054E-04         0.00000E+00
    0.10297E-02         0.10296E-04         0.00000E+00
    0.99805E-03         0.10497E-04         0.00000E+00
    0.96541E-03         0.10655E-04         0.00000E+00
    0.93183E-03         0.10770E-04         0.00000E+00
    0.89731E-03         0.10839E-04         0.00000E+00
    0.86189E-03         0.10861E-04         0.00000E+00
    0.82559E-03         0.10836E-04         0.00000E+00
    0.78842E-03         0.10763E-04         0.00000E+00
    0.75042E-03         0.10639E-04         0.00000E+00
    0.71160E-03         0.10464E-04         0.00000E+00
    0.67199E-03         0.10237E-04         0.00000E+00
    0.63161E-03         0.99576E-05         0.00000E+00
    0.59048E-03         0.96238E-05         0.00000E+00
    0.54864E-03         0.92349E-05         0.00000E+00
    0.50611E-03         0.87902E-05         0.00000E+00
    0.46290E-03         0.82888E-05         0.00000E+00
    0.41906E-03         0.77299E-05         0.00000E+00
    0.37460E-03         0.71127E-05         0.00000E+00
    0.32955E-03         0.64365E-05         0.00000E+00
    0.28393E-03         0.57006E-05         0.00000E+00
    0.23779E-03         0.49044E-05         0.00000E+00
    0.19113E-03         0.40473E-05         0.00000E+00
    0.14400E-03         0.31288E-05         0.00000E+00
    0.96412E-04         0.21483E-05         0.00000E+00
    0.48403E-04         0.11055E-05         0.00000E+00
    0.00000E+00         0.00000E+00         0.00000E+00
    0.14804E-02        -0.13436E-04         0.00000E+00
    0.14779E-02        -0.11841E-04         0.00000E+00
    0.14740E-02        -0.10253E-04         0.00000E+00
    0.14689E-02        -0.86735E-05         0.00000E+00
    0.14625E-02        -0.71075E-05         0.00000E+00
    0.14548E-02        -0.55580E-05         0.00000E+00
    0.14457E-02        -0.40282E-05         0.00000E+00
    0.14355E-02        -0.25217E-05         0.00000E+00
    0.14239E-02        -0.10416E-05         0.00000E+00
    0.14111E-02         0.40873E-06         0.00000E+00
    0.13971E-02         0.18261E-05         0.00000E+00
    0.13818E-02         0.32072E-05         0.00000E+00
    0.13653E-02         0.45489E-05         0.00000E+00
    0.13475E-02         0.58481E-05         0.00000E+00
    0.13286E-02         0.71016E-05         0.00000E+00
    0.13085E-02         0.83065E-05         0.00000E+00
    0.12872E-02         0.94596E-05         0.00000E+00
    0.12647E-02         0.10558E-04         0.00000E+00
    0.12411E-02         0.11599E-04         0.00000E+00
    0.12164E-02         0.12579E-04         0.00000E+00
    0.11905E-02         0.13497E-04         0.00000E+00
    0.11636E-02         0.14348E-04         0.00000E+00
    0.11356E-02         0.15130E-04         0.00000E+00
    0.11065E-02         0.15841E-04         0.00000E+00
    0.10764E-02         0.16478E-04         0.00000E+00
    0.10452E-02         0.17038E-04         0.00000E+00
    0.10131E-02         0.17519E-04         0.00000E+00
    0.97993E-03         0.17919E-04         0.00000E+00
    0.94583E-03         0.18235E-04         0.00000E+00
    0.91080E-03         0.18464E-04         0.00000E+00
    0.87485E-03         0.18605E-04         0.00000E+00
    0.83799E-03         0.18656E-04         0.00000E+00
    0.80027E-03         0.18614E-04         0.00000E+00
    0.76169E-03         0.18477E-04         0.00000E+00
    0.72229E-03         0.18243E-04         0.00000E+00
    0.68208E-03         0.17910E-04         0.00000E+00
    0.64109E-03         0.17477E-04         0.00000E+00
    0.59935E-03         0.16942E-04         0.00000E+00
    0.55688E-03         0.16303E-04         0.00000E+00
    0.51371E-03         0.15558E-04         0.00000E+00
    0.46985E-03         0.14706E-04         0.00000E+00
    0.42535E-03         0.13745E-04         0.00000E+00
    0.38022E-03         0.12674E-04         0.00000E+00
    0.33449E-03         0.11492E-04         0.00000E+00
    0.28819E-03         0.10197E-04         0.00000E+00
    0.24135E-03         0.87877E-05         0.00000E+00
    0.19400E-03         0.72640E-05         0.00000E+00
    0.14616E-03         0.56242E-05         0.00000E+00
    0.97858E-04         0.38675E-05         0.00000E+00
    0.49129E-04         0.19930E-05         0.00000E+00
    0.00000E+00         0.00000E+00         0.00000E+00
    0.15168E-02        -0.22934E-04         0.00000E+00
    0.15142E-02        -0.20494E-04         0.00000E+00
    0.15102E-02        -0.18065E-04         0.00000E+00
    0.15049E-02        -0.15650E-04         0.00000E+00
    0.14983E-02        -0.13256E-04         0.00000E+00
    0.14904E-02        -0.10887E-04         0.00000E+00
    0.14811E-02        -0.85490E-05         0.00000E+00
    0.14706E-02        -0.62460E-05         0.00000E+00
    0.14587E-02        -0.39832E-05         0.00000E+00
    0.14456E-02        -0.17654E-05         0.00000E+00
    0.14311E-02         0.40239E-06         0.00000E+00
    0.14154E-02         0.25155E-05         0.00000E+00
    0.13985E-02         0.45694E-05         0.00000E+00
    0.13803E-02         0.65592E-05         0.00000E+00
    0.13609E-02         0.84805E-05         0.00000E+00
    0.13403E-02         0.10329E-04         0.00000E+00
    0.13184E-02         0.12099E-04         0.00000E+00
    0.12954E-02         0.13788E-04         0.00000E+00
    0.12712E-02         0.15391E-04         0.00000E+00
    0.12459E-02         0.16903E-04         0.00000E+00
    0.12194E-02         0.18321E-04         0.00000E+00
    0.11918E-02         0.19641E-04         0.00000E+00
    0.11630E-02         0.20858E-04         0.00000E+00
    0.11332E-02         0.21968E-04         0.00000E+00
    0.11024E-02         0.22968E-04         0.00000E+00
    0.10705E-02         0.23854E-04         0.00000E+00
    0.10375E-02         0.24623E-04         0.00000E+00
    0.10036E-02         0.25271E-04         0.00000E+00
    0.96865E-03         0.25793E-04         0.00000E+00
    0.93276E-03         0.26188E-04         0.00000E+00
    0.89593E-03         0.26452E-04         0.00000E+00
    0.85818E-03         0.26581E-04         0.00000E+00
    0.81954E-03         0.26573E-04         0.00000E+00
    0.78003E-03         0.26424E-04         0.00000E+00
    0.73967E-03         0.26132E-04         0.00000E+00
    0.69849E-03         0.25694E-04         0.00000E+00
    0.65651E-03         0.25107E-04         0.00000E+00
    0.61376E-03         0.24368E-04         0.00000E+00
    0.57026E-03         0.23476E-04         0.00000E+00
    0.52604E-03         0.22427E-04         0.00000E+00
    0.48114E-03         0.21220E-04         0.00000E+00
    0.43556E-03         0.19851E-04         0.00000E+00
    0.38935E-03         0.18321E-04         0.00000E+00
    0.34252E-03         0.16625E-04         0.00000E+00
    0.29511E-03         0.14763E-04         0.00000E+00
    0.24714E-03         0.12732E-04         0.00000E+00
    0.19865E-03         0.10531E-04         0.00000E+00
    0.14966E-03         0.81591E-05         0.00000E+00
    0.10020E-03         0.56140E-05         0.00000E+00
    0.50307E-04         0.28947E-05         0.00000E+00
    0.00000E+00         0.00000E+00         0.00000E+00
    0.15678E-02        -0.32923E-04         0.00000E+00
    0.15651E-02        -0.29611E-04         0.00000E+00
    0.15610E-02        -0.26312E-04         0.00000E+00
    0.15554E-02        -0.23035E-04         0.00000E+00
    0.15485E-02        -0.19786E-04         0.00000E+00
    0.15403E-02        -0.16571E-04         0.00000E+00
    0.15307E-02        -0.13397E-04         0.00000E+00
    0.15197E-02        -0.10271E-04         0.00000E+00
    0.15074E-02        -0.71999E-05         0.00000E+00
    0.14938E-02        -0.41894E-05         0.00000E+00
    0.14788E-02        -0.12463E-05         0.00000E+00
    0.14626E-02         0.16231E-05         0.00000E+00
    0.14450E-02         0.44127E-05         0.00000E+00
    0.14262E-02         0.71161E-05         0.00000E+00
    0.14061E-02         0.97275E-05         0.00000E+00
    0.13847E-02         0.12241E-04         0.00000E+00
    0.13621E-02         0.14650E-04         0.00000E+00
    0.13383E-02         0.16949E-04         0.00000E+00
    0.13133E-02         0.19133E-04         0.00000E+00
    0.12871E-02         0.21196E-04         0.00000E+00
    0.12597E-02         0.23132E-04         0.00000E+00
    0.12311E-02         0.24937E-04         0.00000E+00
    0.12014E-02         0.26604E-04         0.00000E+00
    0.11706E-02         0.28128E-04         0.00000E+00
    0.11387E-02         0.29506E-04         0.00000E+00
    0.11057E-02         0.30731E-04         0.00000E+00
    0.10717E-02         0.31799E-04         0.00000E+00
    0.10366E-02         0.32705E-04         0.00000E+00
    0.10005E-02         0.33445E-04         0.00000E+00
    0.96338E-03         0.34014E-04         0.00000E+00
    0.92533E-03         0.34407E-04         0.00000E+00
    0.88632E-03         0.34622E-04         0.00000E+00
    0.84640E-03         0.34653E-04         0.00000E+00
    0.80558E-03         0.34496E-04         0.00000E+00
    0.76388E-03         0.34149E-04         0.00000E+00
    0.72134E-03         0.33607E-04         0.00000E+00
    0.67798E-03         0.32866E-04         0.00000E+00
    0.63382E-03         0.31923E-04         0.00000E+00
    0.58890E-03         0.30776E-04         0.00000E+00
    0.54323E-03         0.29420E-04         0.00000E+00
    0.49685E-03         0.27853E-04         0.00000E+00
    0.44978E-03         0.26071E-04         0.00000E+00
    0.40205E-03         0.24073E-04         0.00000E+00
    0.35369E-03         0.21856E-04         0.00000E+00
    0.30473E-03         0.19416E-04         0.00000E+00
    0.25520E-03         0.16753E-04         0.00000E+00
    0.20513E-03         0.13863E-04         0.00000E+00
    0.15454E-03         0.10744E-04         0.00000E+00
    0.10347E-03         0.73953E-05         0.00000E+00
    0.51946E-04         0.38145E-05         0.00000E+00
    0.00000E+00         0.00000E+00         0.00000E+00
    0.16341E-02        -0.43633E-04         0.00000E+00
    0.16311E-02        -0.39410E-04         0.00000E+00
    0.16267E-02        -0.35204E-04         0.00000E+00
    0.16209E-02        -0.31026E-04         0.00000E+00
    0.16136E-02        -0.26884E-04         0.00000E+00
    0.16050E-02        -0.22786E-04         0.00000E+00
    0.15949E-02        -0.18740E-04         0.00000E+00
    0.15834E-02        -0.14755E-04         0.00000E+00
    0.15705E-02        -0.10840E-04         0.00000E+00
    0.15562E-02        -0.70020E-05         0.00000E+00
    0.15406E-02        -0.32494E-05         0.00000E+00
    0.15236E-02         0.40964E-06         0.00000E+00
    0.15052E-02         0.39674E-05         0.00000E+00
    0.14856E-02         0.74162E-05         0.00000E+00
    0.14646E-02         0.10748E-04         0.00000E+00
    0.14422E-02         0.13956E-04         0.00000E+00
    0.14187E-02         0.17033E-04         0.00000E+00
    0.13938E-02         0.19971E-04         0.00000E+00
    0.13677E-02         0.22762E-04         0.00000E+00
    0.13403E-02         0.25401E-04         0.00000E+00
    0.13117E-02         0.27880E-04         0.00000E+00
    0.12819E-02         0.30193E-04         0.00000E+00
    0.12510E-02         0.32332E-04         0.00000E+00
    0.12189E-02         0.34292E-04         0.00000E+00
    0.11856E-02         0.36066E-04         0.00000E+00
    0.11512E-02         0.37648E-04         0.00000E+00
    0.11157E-02         0.39032E-04         0.00000E+00
    0.10792E-02         0.40213E-04         0.00000E+00
    0.10416E-02         0.41183E-04         0.00000E+00
    0.10029E-02         0.41939E-04         0.00000E+00
    0.96327E-03         0.42474E-04         0.00000E+00
    0.92265E-03         0.42783E-04         0.00000E+00
    0.88107E-03         0.42862E-04         0.00000E+00
    0.83855E-03         0.42705E-04         0.00000E+00
    0.79513E-03         0.42307E-04         0.00000E+00
    0.75083E-03         0.41664E-04         0.00000E+00
    0.70568E-03         0.40772E-04         0.00000E+00
    0.65971E-03         0.39626E-04         0.00000E+00
    0.61294E-03         0.38222E-04         0.00000E+00
    0.56540E-03         0.36556E-04         0.00000E+00
    0.51711E-03         0.34625E-04         0.00000E+00
    0.46812E-03         0.32424E-04         0.00000E+00
    0.41844E-03         0.29951E-04         0.00000E+00
    0.36810E-03         0.27202E-04         0.00000E+00
    0.31715E-03         0.24174E-04         0.00000E+00
    0.26559E-03         0.20865E-04         0.00000E+00
    0.21348E-03         0.17270E-04         0.00000E+00
    0.16083E-03         0.13389E-04         0.00000E+00
    0.10768E-03         0.92185E-05         0.00000E+00
    0.54060E-04         0.47561E-05         0.00000E+00
    0.00000E+00         0.00000E+00         0.00000E+00
    0.17161E-02        -0.55313E-04         0.00000E+00
    0.17129E-02        -0.50128E-04         0.00000E+00
    0.17081E-02        -0.44967E-04         0.00000E+00
    0.17019E-02        -0.39839E-04         0.00000E+00
    0.16942E-02        -0.34755E-04         0.00000E+00
    0.16850E-02        -0.29726E-04         0.00000E+00
    0.16743E-02        -0.24761E-04         0.00000E+00
    0.16621E-02        -0.19871E-04         0.00000E+00
    0.16485E-02        -0.15066E-04         0.00000E+00
    0.16334E-02        -0.10356E-04         0.00000E+00
    0.16169E-02        -0.57500E-05         0.00000E+00
    0.15990E-02        -0.12584E-05         0.00000E+00
    0.15796E-02         0.31096E-05         0.00000E+00
    0.15589E-02         0.73445E-05         0.00000E+00
    0.15368E-02         0.11437E-04         0.00000E+00
    0.15133E-02         0.15378E-04         0.00000E+00
    0.14885E-02         0.19159E-04         0.00000E+00
    0.14623E-02         0.22771E-04         0.00000E+00
    0.14348E-02         0.26205E-04         0.00000E+00
    0.14061E-02         0.29453E-04         0.00000E+00
    0.13760E-02         0.32507E-04         0.00000E+00
    0.13447E-02         0.35358E-04         0.00000E+00
    0.13122E-02         0.37998E-04         0.00000E+00
    0.12784E-02         0.40420E-04         0.00000E+00
    0.12435E-02         0.42617E-04         0.00000E+00
    0.12074E-02         0.44580E-04         0.00000E+00
    0.11701E-02         0.46302E-04         0.00000E+00
    0.11317E-02         0.47777E-04         0.00000E+00
    0.10922E-02         0.48997E-04         0.00000E+00
    0.10517E-02         0.49957E-04         0.00000E+00
    0.10101E-02         0.50648E-04         0.00000E+00
    0.96745E-03         0.51066E-04         0.00000E+00
    0.92382E-03         0.51203E-04         0.00000E+00
    0.87921E-03         0.51055E-04         0.00000E+00
    0.83366E-03         0.50615E-04         0.00000E+00
    0.78720E-03         0.49878E-04         0.00000E+00
    0.73984E-03         0.48838E-04         0.00000E+00
    0.69162E-03         0.47490E-04         0.00000E+00
    0.64257E-03         0.45830E-04         0.00000E+00
    0.59272E-03         0.43852E-04         0.00000E+00
    0.54209E-03         0.41552E-04         0.00000E+00
    0.49072E-03         0.38927E-04         0.00000E+00
    0.43863E-03         0.35970E-04         0.00000E+00
    0.38586E-03         0.32680E-04         0.00000E+00
    0.33244E-03         0.29051E-04         0.00000E+00
    0.27840E-03         0.25081E-04         0.00000E+00
    0.22377E-03         0.20767E-04         0.00000E+00
    0.16858E-03         0.16104E-04         0.00000E+00
    0.11287E-03         0.11090E-04         0.00000E+00
    0.56664E-04         0.57231E-05         0.00000E+00
    0.00000E+00         0.00000E+00         0.00000E+00
    0.18146E-02        -0.68236E-04         0.00000E+00
    0.18110E-02        -0.62029E-04         0.00000E+00
    0.18059E-02        -0.55850E-04         0.00000E+00
    0.17992E-02        -0.49712E-04         0.00000E+00
    0.17909E-02        -0.43627E-04         0.00000E+00
    0.17810E-02        -0.37607E-04         0.00000E+00
    0.17696E-02        -0.31665E-04         0.00000E+00
    0.17566E-02        -0.25813E-04         0.00000E+00
    0.17421E-02        -0.20061E-04         0.00000E+00
    0.17261E-02        -0.14423E-04         0.00000E+00
    0.17085E-02        -0.89100E-05         0.00000E+00
    0.16894E-02        -0.35327E-05         0.00000E+00
    0.16689E-02         0.16972E-05         0.00000E+00
    0.16469E-02         0.67687E-05         0.00000E+00
    0.16234E-02         0.11671E-04         0.00000E+00
    0.15985E-02         0.16393E-04         0.00000E+00
    0.15722E-02         0.20924E-04         0.00000E+00
    0.15445E-02         0.25255E-04         0.00000E+00
    0.15153E-02         0.29374E-04         0.00000E+00
    0.14849E-02         0.33273E-04         0.00000E+00
    0.14531E-02         0.36940E-04         0.00000E+00
    0.14199E-02         0.40367E-04         0.00000E+00
    0.13855E-02         0.43544E-04         0.00000E+00
    0.13498E-02         0.46463E-04         0.00000E+00
    0.13128E-02         0.49113E-04         0.00000E+00
    0.12746E-02         0.51487E-04         0.00000E+00
    0.12352E-02         0.53576E-04         0.00000E+00
    0.11947E-02         0.55372E-04         0.00000E+00
    0.11529E-02         0.56866E-04         0.00000E+00
    0.11101E-02         0.58050E-04         0.00000E+00
    0.10661E-02         0.58918E-04         0.00000E+00
    0.10211E-02         0.59462E-04         0.00000E+00
    0.97498E-03         0.59674E-04         0.00000E+00
    0.92787E-03         0.59547E-04         0.00000E+00
    0.87977E-03         0.59075E-04         0.00000E+00
    0.83071E-03         0.58252E-04         0.00000E+00
    0.78071E-03         0.57071E-04         0.00000E+00
    0.72980E-03         0.55525E-04         0.00000E+00
    0.67802E-03         0.53610E-04         0.00000E+00
    0.62540E-03         0.51320E-04         0.00000E+00
    0.57197E-03         0.48649E-04         0.00000E+00
    0.51775E-03         0.45592E-04         0.00000E+00
    0.46279E-03         0.42145E-04         0.00000E+00
    0.40710E-03         0.38302E-04         0.00000E+00
    0.35073E-03         0.34060E-04         0.00000E+00
    0.29371E-03         0.29414E-04         0.00000E+00
    0.23607E-03         0.24361E-04         0.00000E+00
    0.17785E-03         0.18896E-04         0.00000E+00
    0.11907E-03         0.13016E-04         0.00000E+00
    0.59778E-04         0.67184E-05         0.00000E+00
    0.00000E+00         0.00000E+00         0.00000E+00
    0.19305E-02        -0.82710E-04         0.00000E+00
    0.19265E-02        -0.75407E-04         0.00000E+00
    0.19209E-02        -0.68137E-04         0.00000E+00
    0.19136E-02        -0.60916E-04         0.00000E+00
    0.19046E-02        -0.53757E-04         0.00000E+00
    0.18940E-02        -0.46676E-04         0.00000E+00
    0.18817E-02        -0.39686E-04         0.00000E+00
    0.18677E-02        -0.32801E-04         0.00000E+00
    0.18521E-02        -0.26035E-04         0.00000E+00
    0.18349E-02        -0.19403E-04         0.00000E+00
    0.18161E-02        -0.12916E-04         0.00000E+00
    0.17957E-02        -0.65892E-05         0.00000E+00
    0.17738E-02        -0.43474E-06         0.00000E+00
    0.17502E-02         0.55343E-05         0.00000E+00
    0.17252E-02         0.11305E-04         0.00000E+00
    0.16986E-02         0.16866E-04         0.00000E+00
    0.16705E-02         0.22203E-04         0.00000E+00
    0.16409E-02         0.27306E-04         0.00000E+00
    0.16099E-02         0.32163E-04         0.00000E+00
    0.15774E-02         0.36761E-04         0.00000E+00
    0.15435E-02         0.41091E-04         0.00000E+00
    0.15082E-02         0.45140E-04         0.00000E+00
    0.14715E-02         0.48897E-04         0.00000E+00
    0.14335E-02         0.52353E-04         0.00000E+00
    0.13942E-02         0.55497E-04         0.00000E+00
    0.13535E-02         0.58319E-04         0.00000E+00
    0.13116E-02         0.60808E-04         0.00000E+00
    0.12685E-02         0.62956E-04         0.00000E+00
    0.12241E-02         0.64754E-04         0.00000E+00
    0.11785E-02         0.66191E-04         0.00000E+00
    0.11318E-02         0.67260E-04         0.00000E+00
    0.10839E-02         0.67951E-04         0.00000E+00
    0.10350E-02         0.68257E-04         0.00000E+00
    0.98491E-03         0.68170E-04         0.00000E+00
    0.93381E-03         0.67681E-04         0.00000E+00
    0.88170E-03         0.66783E-04         0.00000E+00
    0.82859E-03         0.65470E-04         0.00000E+00
    0.77454E-03         0.63733E-04         0.00000E+00
    0.71956E-03         0.61567E-04         0.00000E+00
    0.66369E-03         0.58965E-04         0.00000E+00
    0.60697E-03         0.55921E-04         0.00000E+00
    0.54942E-03         0.52428E-04         0.00000E+00
    0.49108E-03         0.48482E-04         0.00000E+00
    0.43198E-03         0.44078E-04         0.00000E+00
    0.37216E-03         0.39209E-04         0.00000E+00
    0.31165E-03         0.33871E-04         0.00000E+00
    0.25049E-03         0.28060E-04         0.00000E+00
    0.18870E-03         0.21771E-04         0.00000E+00
    0.12634E-03         0.15000E-04         0.00000E+00
    0.63425E-04         0.77446E-05         0.00000E+00
    0.00000E+00         0.00000E+00         0.00000E+00
    0.20648E-02        -0.99085E-04         0.00000E+00
    0.20604E-02        -0.90597E-04         0.00000E+00
    0.20542E-02        -0.82149E-04         0.00000E+00
    0.20462E-02        -0.73758E-04         0.00000E+00
    0.20364E-02        -0.65440E-04         0.00000E+00
    0.20248E-02        -0.57212E-04         0.00000E+00
    0.20115E-02        -0.49091E-04         0.00000E+00
    0.19964E-02        -0.41092E-04         0.00000E+00
    0.19795E-02        -0.33232E-04         0.00000E+00
    0.19610E-02        -0.25525E-04         0.00000E+00
    0.19407E-02        -0.17987E-04         0.00000E+00
    0.19187E-02        -0.10635E-04         0.00000E+00
    0.18951E-02        -0.34815E-05         0.00000E+00
    0.18698E-02         0.34574E-05         0.00000E+00
    0.18429E-02         0.10168E-04         0.00000E+00
    0.18143E-02         0.16635E-04         0.00000E+00
    0.17841E-02         0.22845E-04         0.00000E+00
    0.17524E-02         0.28784E-04         0.00000E+00
    0.17191E-02         0.34440E-04         0.00000E+00
    0.16843E-02         0.39798E-04         0.00000E+00
    0.16480E-02         0.44846E-04         0.00000E+00
    0.16102E-02         0.49571E-04         0.00000E+00
    0.15709E-02         0.53961E-04         0.00000E+00
    0.15303E-02         0.58004E-04         0.00000E+00
    0.14882E-02         0.61688E-04         0.00000E+00
    0.14447E-02         0.65002E-04         0.00000E+00
    0.13999E-02         0.67934E-04         0.00000E+00
    0.13537E-02         0.70474E-04         0.00000E+00
    0.13063E-02         0.72611E-04         0.00000E+00
    0.12576E-02         0.74334E-04         0.00000E+00
    0.12077E-02         0.75634E-04         0.00000E+00
    0.11565E-02         0.76501E-04         0.00000E+00
    0.11042E-02         0.76925E-04         0.00000E+00
    0.10507E-02         0.76899E-04         0.00000E+00
    0.99618E-03         0.76411E-04         0.00000E+00
    0.94054E-03         0.75455E-04         0.00000E+00
    0.88386E-03         0.74022E-04         0.00000E+00
    0.82616E-03         0.72104E-04         0.00000E+00
    0.76749E-03         0.69694E-04         0.00000E+00
    0.70787E-03         0.66783E-04         0.00000E+00
    0.64735E-03         0.63366E-04         0.00000E+00
    0.58595E-03         0.59436E-04         0.00000E+00
    0.52371E-03         0.54985E-04         0.00000E+00
    0.46068E-03         0.50009E-04         0.00000E+00
    0.39687E-03         0.44501E-04         0.00000E+00
    0.33234E-03         0.38455E-04         0.00000E+00
    0.26711E-03         0.31868E-04         0.00000E+00
    0.20122E-03         0.24733E-04         0.00000E+00
    0.13472E-03         0.17046E-04         0.00000E+00
    0.67630E-04         0.88030E-05         0.00000E+00
    0.00000E+00         0.00000E+00         0.00000E+00
    0.22189E-02        -0.11776E-03         0.00000E+00
    0.22139E-02        -0.10799E-03         0.00000E+00
    0.22070E-02        -0.98259E-04         0.00000E+00
    0.21981E-02        -0.88596E-04         0.00000E+00
    0.21874E-02        -0.79019E-04         0.00000E+00
    0.21747E-02        -0.69546E-04         0.00000E+00
    0.21602E-02        -0.60195E-04         0.00000E+00
    0.21437E-02        -0.50986E-04         0.00000E+00
    0.21254E-02        -0.41935E-04         0.00000E+00
    0.21053E-02        -0.33062E-04         0.00000E+00
    0.20833E-02        -0.24383E-04         0.00000E+00
    0.20595E-02        -0.15915E-04         0.00000E+00
    0.20339E-02        -0.76761E-05         0.00000E+00
    0.20066E-02         0.31748E-06         0.00000E+00
    0.19775E-02         0.80494E-05         0.00000E+00
    0.19467E-02         0.15503E-04         0.00000E+00
    0.19141E-02         0.22664E-04         0.00000E+00
    0.18799E-02         0.29515E-04         0.00000E+00
    0.18441E-02         0.36042E-04         0.00000E+00
    0.18066E-02         0.42230E-04         0.00000E+00
    0.17675E-02         0.48064E-04         0.00000E+00
    0.17268E-02         0.53530E-04         0.00000E+00
    0.16845E-02         0.58614E-04         0.00000E+00
    0.16408E-02         0.63303E-04         0.00000E+00
    0.15955E-02         0.67583E-04         0.00000E+00
    0.15488E-02         0.71441E-04         0.00000E+00
    0.15006E-02         0.74865E-04         0.00000E+00
    0.14511E-02         0.77843E-04         0.00000E+00
    0.14001E-02         0.80363E-04         0.00000E+00
    0.13478E-02         0.82412E-04         0.00000E+00
    0.12942E-02         0.83981E-04         0.00000E+00
    0.12393E-02         0.85057E-04         0.00000E+00
    0.11832E-02         0.85631E-04         0.00000E+00
    0.11259E-02         0.85692E-04         0.00000E+00
    0.10673E-02         0.85231E-04         0.00000E+00
    0.10077E-02         0.84237E-04         0.00000E+00
    0.94688E-03         0.82701E-04         0.00000E+00
    0.88503E-03         0.80616E-04         0.00000E+00
    0.82214E-03         0.77971E-04         0.00000E+00
    0.75825E-03         0.74760E-04         0.00000E+00
    0.69339E-03         0.70973E-04         0.00000E+00
    0.62760E-03         0.66605E-04         0.00000E+00
    0.56092E-03         0.61646E-04         0.00000E+00
    0.49339E-03         0.56091E-04         0.00000E+00
    0.42504E-03         0.49933E-04         0.00000E+00
    0.35591E-03         0.43166E-04         0.00000E+00
    0.28605E-03         0.35784E-04         0.00000E+00
    0.21549E-03         0.27782E-04         0.00000E+00
    0.14427E-03         0.19153E-04         0.00000E+00
    0.72423E-04         0.98941E-05         0.00000E+00
    0.00000E+00         0.00000E+00         0.00000E+00
    0.23940E-02        -0.13921E-03         0.00000E+00
    0.23883E-02        -0.12803E-03         0.00000E+00
    0.23806E-02        -0.11690E-03         0.00000E+00
    0.23708E-02        -0.10585E-03         0.00000E+00
    0.23589E-02        -0.94895E-04         0.00000E+00
    0.23449E-02        -0.84061E-04         0.00000E+00
    0.23290E-02        -0.73368E-04         0.00000E+00
    0.23110E-02        -0.62836E-04         0.00000E+00
    0.22910E-02        -0.52486E-04         0.00000E+00
    0.22690E-02        -0.42337E-04         0.00000E+00
    0.22451E-02        -0.32410E-04         0.00000E+00
    0.22192E-02        -0.22725E-04         0.00000E+00
    0.21914E-02        -0.13299E-04         0.00000E+00
    0.21617E-02        -0.41518E-05         0.00000E+00
    0.21301E-02         0.46978E-05         0.00000E+00
    0.20967E-02         0.13232E-04         0.00000E+00
    0.20615E-02         0.21433E-04         0.00000E+00
    0.20244E-02         0.29284E-04         0.00000E+00
    0.19856E-02         0.36767E-04         0.00000E+00
    0.19450E-02         0.43866E-04         0.00000E+00
    0.19027E-02         0.50565E-04         0.00000E+00
    0.18588E-02         0.56847E-04         0.00000E+00
    0.18131E-02         0.62697E-04         0.00000E+00
    0.17659E-02         0.68101E-04         0.00000E+00
    0.17170E-02         0.73043E-04         0.00000E+00
    0.16666E-02         0.77508E-04         0.00000E+00
    0.16146E-02         0.81483E-04         0.00000E+00
    0.15612E-02         0.84955E-04         0.00000E+00
    0.15062E-02         0.87909E-04         0.00000E+00
    0.14499E-02         0.90334E-04         0.00000E+00
    0.13921E-02         0.92215E-04         0.00000E+00
    0.13330E-02         0.93543E-04         0.00000E+00
    0.12725E-02         0.94304E-04         0.00000E+00
    0.12108E-02         0.94487E-04         0.00000E+00
    0.11478E-02         0.94081E-04         0.00000E+00
    0.10835E-02         0.93076E-04         0.00000E+00
    0.10181E-02         0.91462E-04         0.00000E+00
    0.95156E-03         0.89228E-04         0.00000E+00
    0.88390E-03         0.86365E-04         0.00000E+00
    0.81517E-03         0.82864E-04         0.00000E+00
    0.74540E-03         0.78716E-04         0.00000E+00
    0.67465E-03         0.73913E-04         0.00000E+00
    0.60295E-03         0.68447E-04         0.00000E+00
    0.53034E-03         0.62310E-04         0.00000E+00
    0.45685E-03         0.55495E-04         0.00000E+00
    0.38254E-03         0.47995E-04         0.00000E+00
    0.30744E-03         0.39803E-04         0.00000E+00
    0.23160E-03         0.30913E-04         0.00000E+00
    0.15505E-03         0.21319E-04         0.00000E+00
    0.77834E-04         0.11017E-04         0.00000E+00
    0.00000E+00         0.00000E+00         0.00000E+00
    0.25917E-02        -0.16398E-03         0.00000E+00
    0.25852E-02        -0.15125E-03         0.00000E+00
    0.25765E-02        -0.13859E-03         0.00000E+00
    0.25655E-02        -0.12601E-03         0.00000E+00
    0.25523E-02        -0.11354E-03         0.00000E+00
    0.25369E-02        -0.10121E-03         0.00000E+00
    0.25193E-02        -0.89047E-04         0.00000E+00
    0.24996E-02        -0.77063E-04         0.00000E+00
    0.24776E-02        -0.65286E-04         0.00000E+00
    0.24536E-02        -0.53738E-04         0.00000E+00
    0.24274E-02        -0.42442E-04         0.00000E+00
    0.23991E-02        -0.31418E-04         0.00000E+00
    0.23688E-02        -0.20688E-04         0.00000E+00
    0.23364E-02        -0.10274E-04         0.00000E+00
    0.23020E-02        -0.19575E-06         0.00000E+00
    0.22656E-02         0.95266E-05         0.00000E+00
    0.22273E-02         0.18873E-04         0.00000E+00
    0.21870E-02         0.27825E-04         0.00000E+00
    0.21448E-02         0.36363E-04         0.00000E+00
    0.21008E-02         0.44468E-04         0.00000E+00
    0.20549E-02         0.52123E-04         0.00000E+00
    0.20072E-02         0.59309E-04         0.00000E+00
    0.19577E-02         0.66010E-04         0.00000E+00
    0.19065E-02         0.72209E-04         0.00000E+00
    0.18536E-02         0.77889E-04         0.00000E+00
    0.17990E-02         0.83035E-04         0.00000E+00
    0.17427E-02         0.87631E-04         0.00000E+00
    0.16849E-02         0.91662E-04         0.00000E+00
    0.16255E-02         0.95113E-04         0.00000E+00
    0.15645E-02         0.97970E-04         0.00000E+00
    0.15020E-02         0.10022E-03         0.00000E+00
    0.14381E-02         0.10185E-03         0.00000E+00
    0.13728E-02         0.10284E-03         0.00000E+00
    0.13061E-02         0.10319E-03         0.00000E+00
    0.12380E-02         0.10288E-03         0.00000E+00
    0.11687E-02         0.10190E-03         0.00000E+00
    0.10980E-02         0.10023E-03         0.00000E+00
    0.10262E-02         0.97877E-04         0.00000E+00
    0.95317E-03         0.94818E-04         0.00000E+00
    0.87901E-03         0.91046E-04         0.00000E+00
    0.80374E-03         0.86551E-04         0.00000E+00
    0.72741E-03         0.81323E-04         0.00000E+00
    0.65007E-03         0.75355E-04         0.00000E+00
    0.57176E-03         0.68638E-04         0.00000E+00
    0.49252E-03         0.61162E-04         0.00000E+00
    0.41239E-03         0.52922E-04         0.00000E+00
    0.33142E-03         0.43909E-04         0.00000E+00
    0.24966E-03         0.34117E-04         0.00000E+00
    0.16713E-03         0.23539E-04         0.00000E+00
    0.83899E-04         0.12168E-04         0.00000E+00
    0.00000E+00         0.00000E+00         0.00000E+00
    0.28138E-02        -0.19272E-03         0.00000E+00
    0.28063E-02        -0.17828E-03         0.00000E+00
    0.27965E-02        -0.16391E-03         0.00000E+00
    0.27842E-02        -0.14965E-03         0.00000E+00
    0.27695E-02        -0.13552E-03         0.00000E+00
    0.27524E-02        -0.12155E-03         0.00000E+00
    0.27329E-02        -0.10775E-03         0.00000E+00
    0.27111E-02        -0.94171E-04         0.00000E+00
    0.26869E-02        -0.80821E-04         0.00000E+00
    0.26604E-02        -0.67730E-04         0.00000E+00
    0.26317E-02        -0.54923E-04         0.00000E+00
    0.26007E-02        -0.42424E-04         0.00000E+00
    0.25675E-02        -0.30256E-04         0.00000E+00
    0.25320E-02        -0.18444E-04         0.00000E+00
    0.24945E-02        -0.70087E-05         0.00000E+00
    0.24547E-02         0.40262E-05         0.00000E+00
    0.24129E-02         0.14639E-04         0.00000E+00
    0.23690E-02         0.24809E-04         0.00000E+00
    0.23230E-02         0.34515E-04         0.00000E+00
    0.22750E-02         0.43736E-04         0.00000E+00
    0.22251E-02         0.52453E-04         0.00000E+00
    0.21732E-02         0.60646E-04         0.00000E+00
    0.21194E-02         0.68295E-04         0.00000E+00
    0.20637E-02         0.75384E-04         0.00000E+00
    0.20062E-02         0.81893E-04         0.00000E+00
    0.19469E-02         0.87805E-04         0.00000E+00
    0.18858E-02         0.93104E-04         0.00000E+00
    0.18230E-02         0.97771E-04         0.00000E+00
    0.17586E-02         0.10179E-03         0.00000E+00
    0.16925E-02         0.10515E-03         0.00000E+00
    0.16248E-02         0.10783E-03         0.00000E+00
    0.15555E-02         0.10982E-03         0.00000E+00
    0.14847E-02         0.11111E-03         0.00000E+00
    0.14124E-02         0.11167E-03         0.00000E+00
    0.13387E-02         0.11150E-03         0.00000E+00
    0.12636E-02         0.11059E-03         0.00000E+00
    0.11872E-02         0.10892E-03         0.00000E+00
    0.11094E-02         0.10647E-03         0.00000E+00
    0.10304E-02         0.10325E-03         0.00000E+00
    0.95017E-03         0.99231E-04         0.00000E+00
    0.86876E-03         0.94411E-04         0.00000E+00
    0.78622E-03         0.88777E-04         0.00000E+00
    0.70259E-03         0.82320E-04         0.00000E+00
    0.61792E-03         0.75030E-04         0.00000E+00
    0.53226E-03         0.66900E-04         0.00000E+00
    0.44565E-03         0.57919E-04         0.00000E+00
    0.35814E-03         0.48080E-04         0.00000E+00
    0.26977E-03         0.37376E-04         0.00000E+00
    0.18059E-03         0.25799E-04         0.00000E+00
    0.90655E-04         0.13343E-04         0.00000E+00
    0.00000E+00         0.00000E+00         0.00000E+00
    0.30622E-02        -0.22618E-03         0.00000E+00
    0.30536E-02        -0.20985E-03         0.00000E+00
    0.30424E-02        -0.19361E-03         0.00000E+00
    0.30286E-02        -0.17748E-03         0.00000E+00
    0.30121E-02        -0.16151E-03         0.00000E+00
    0.29930E-02        -0.14571E-03         0.00000E+00
    0.29714E-02        -0.13012E-03         0.00000E+00
    0.29472E-02        -0.11476E-03         0.00000E+00
    0.29205E-02        -0.99672E-04         0.00000E+00
    0.28913E-02        -0.84874E-04         0.00000E+00
    0.28596E-02        -0.70396E-04         0.00000E+00
    0.28255E-02        -0.56264E-04         0.00000E+00
    0.27890E-02        -0.42504E-04         0.00000E+00
    0.27502E-02        -0.29142E-04         0.00000E+00
    0.27090E-02        -0.16204E-04         0.00000E+00
    0.26654E-02        -0.37135E-05         0.00000E+00
    0.26196E-02         0.83050E-05         0.00000E+00
    0.25716E-02         0.19828E-04         0.00000E+00
    0.25214E-02         0.30833E-04         0.00000E+00
    0.24690E-02         0.41297E-04         0.00000E+00
    0.24145E-02         0.51198E-04         0.00000E+00
    0.23579E-02         0.60515E-04         0.00000E+00
    0.22992E-02         0.69228E-04         0.00000E+00
    0.22385E-02         0.77315E-04         0.00000E+00
    0.21759E-02         0.84758E-04         0.00000E+00
    0.21113E-02         0.91538E-04         0.00000E+00
    0.20449E-02         0.97635E-04         0.00000E+00
    0.19766E-02         0.10303E-03         0.00000E+00
    0.19065E-02         0.10771E-03         0.00000E+00
    0.18346E-02         0.11165E-03         0.00000E+00
    0.17610E-02         0.11485E-03         0.00000E+00
    0.16858E-02         0.11727E-03         0.00000E+00
    0.16089E-02         0.11892E-03         0.00000E+00
    0.15305E-02         0.11976E-03         0.00000E+00
    0.14505E-02         0.11980E-03         0.00000E+00
    0.13690E-02         0.11900E-03         0.00000E+00
    0.12861E-02         0.11737E-03         0.00000E+00
    0.12017E-02         0.11489E-03         0.00000E+00
    0.11161E-02         0.11154E-03         0.00000E+00
    0.10291E-02         0.10732E-03         0.00000E+00
    0.94085E-03         0.10220E-03         0.00000E+00
    0.85141E-03         0.96189E-04         0.00000E+00
    0.76081E-03         0.89267E-04         0.00000E+00
    0.66909E-03         0.81424E-04         0.00000E+00
    0.57631E-03         0.72652E-04         0.00000E+00
    0.48251E-03         0.62940E-04         0.00000E+00
    0.38774E-03         0.52281E-04         0.00000E+00
    0.29206E-03         0.40665E-04         0.00000E+00
    0.19551E-03         0.28084E-04         0.00000E+00
    0.98139E-04         0.14532E-04         0.00000E+00
    0.00000E+00         0.00000E+00         0.00000E+00
    0.33391E-02        -0.26527E-03         0.00000E+00
    0.33292E-02        -0.24684E-03         0.00000E+00
    0.33164E-02        -0.22851E-03         0.00000E+00
    0.33008E-02        -0.21032E-03         0.00000E+00
    0.32822E-02        -0.19229E-03         0.00000E+00
    0.32609E-02        -0.17447E-03         0.00000E+00
    0.32368E-02        -0.15689E-03         0.00000E+00
    0.32099E-02        -0.13957E-03         0.00000E+00
    0.31803E-02        -0.12254E-03         0.00000E+00
    0.31480E-02        -0.10585E-03         0.00000E+00
    0.31130E-02        -0.89517E-04         0.00000E+00
    0.30754E-02        -0.73571E-04         0.00000E+00
    0.30352E-02        -0.58043E-04         0.00000E+00
    0.29924E-02        -0.42960E-04         0.00000E+00
    0.29471E-02        -0.28350E-04         0.00000E+00
    0.28993E-02        -0.14240E-04         0.00000E+00
    0.28491E-02        -0.65646E-06         0.00000E+00
    0.27964E-02         0.12375E-04         0.00000E+00
    0.27414E-02         0.24829E-04         0.00000E+00
    0.26840E-02         0.36682E-04         0.00000E+00
    0.26244E-02         0.47909E-04         0.00000E+00
    0.25625E-02         0.58488E-04         0.00000E+00
    0.24984E-02         0.68395E-04         0.00000E+00
    0.24322E-02         0.77610E-04         0.00000E+00
    0.23638E-02         0.86109E-04         0.00000E+00
    0.22934E-02         0.93874E-04         0.00000E+00
    0.22209E-02         0.10088E-03         0.00000E+00
    0.21465E-02         0.10712E-03         0.00000E+00
    0.20701E-02         0.11256E-03         0.00000E+00
    0.19918E-02         0.11719E-03         0.00000E+00
    0.19117E-02         0.12098E-03         0.00000E+00
    0.18298E-02         0.12393E-03         0.00000E+00
    0.17462E-02         0.12602E-03         0.00000E+00
    0.16609E-02         0.12723E-03         0.00000E+00
    0.15739E-02         0.12754E-03         0.00000E+00
    0.14854E-02         0.12694E-03         0.00000E+00
    0.13953E-02         0.12541E-03         0.00000E+00
    0.13037E-02         0.12295E-03         0.00000E+00
    0.12107E-02         0.11953E-03         0.00000E+00
    0.11162E-02         0.11515E-03         0.00000E+00
    0.10204E-02         0.10979E-03         0.00000E+00
    0.92336E-03         0.10344E-03         0.00000E+00
    0.82505E-03         0.96093E-04         0.00000E+00
    0.72554E-03         0.87729E-04         0.00000E+00
    0.62490E-03         0.78343E-04         0.00000E+00
    0.52316E-03         0.67923E-04         0.00000E+00
    0.42039E-03         0.56460E-04         0.00000E+00
    0.31664E-03         0.43945E-04         0.00000E+00
    0.21196E-03         0.30368E-04         0.00000E+00
    0.10639E-03         0.15723E-04         0.00000E+00
    0.00000E+00         0.00000E+00         0.00000E+00
    0.36470E-02        -0.31108E-03         0.00000E+00
    0.36355E-02        -0.29031E-03         0.00000E+00
    0.36208E-02        -0.26966E-03         0.00000E+00
    0.36030E-02        -0.24916E-03         0.00000E+00
    0.35822E-02        -0.22885E-03         0.00000E+00
    0.35582E-02        -0.20878E-03         0.00000E+00
    0.35313E-02        -0.18897E-03         0.00000E+00
    0.35013E-02        -0.16946E-03         0.00000E+00
    0.34684E-02        -0.15029E-03         0.00000E+00
    0.34325E-02        -0.13149E-03         0.00000E+00
    0.33938E-02        -0.11309E-03         0.00000E+00
    0.33522E-02        -0.95121E-04         0.00000E+00
    0.33078E-02        -0.77622E-04         0.00000E+00
    0.32606E-02        -0.60620E-04         0.00000E+00
    0.32107E-02        -0.44146E-04         0.00000E+00
    0.31581E-02        -0.28228E-04         0.00000E+00
    0.31028E-02        -0.12896E-04         0.00000E+00
    0.30450E-02         0.18218E-05         0.00000E+00
    0.29846E-02         0.15899E-04         0.00000E+00
    0.29217E-02         0.29309E-04         0.00000E+00
    0.28563E-02         0.42026E-04         0.00000E+00
    0.27885E-02         0.54025E-04         0.00000E+00
    0.27184E-02         0.65280E-04         0.00000E+00
    0.26459E-02         0.75770E-04         0.00000E+00
    0.25711E-02         0.85470E-04         0.00000E+00
    0.24942E-02         0.94357E-04         0.00000E+00
    0.24150E-02         0.10241E-03         0.00000E+00
    0.23338E-02         0.10961E-03         0.00000E+00
    0.22504E-02         0.11594E-03         0.00000E+00
    0.21651E-02         0.12137E-03         0.00000E+00
    0.20778E-02         0.12588E-03         0.00000E+00
    0.19885E-02         0.12947E-03         0.00000E+00
    0.18974E-02         0.13210E-03         0.00000E+00
    0.18045E-02         0.13377E-03         0.00000E+00
    0.17098E-02         0.13445E-03         0.00000E+00
    0.16135E-02         0.13413E-03         0.00000E+00
    0.15155E-02         0.13280E-03         0.00000E+00
    0.14158E-02         0.13043E-03         0.00000E+00
    0.13147E-02         0.12702E-03         0.00000E+00
    0.12120E-02         0.12255E-03         0.00000E+00
    0.11079E-02         0.11701E-03         0.00000E+00
    0.10025E-02         0.11038E-03         0.00000E+00
    0.89565E-03         0.10266E-03         0.00000E+00
    0.78758E-03         0.93823E-04         0.00000E+00
    0.67829E-03         0.83867E-04         0.00000E+00
    0.56783E-03         0.72778E-04         0.00000E+00
    0.45626E-03         0.60547E-04         0.00000E+00
    0.34364E-03         0.47163E-04         0.00000E+00
    0.23002E-03         0.32617E-04         0.00000E+00
    0.11545E-03         0.16899E-04         0.00000E+00
    0.00000E+00         0.00000E+00         0.00000E+00
    0.39884E-02        -0.36491E-03         0.00000E+00
    0.39750E-02        -0.34152E-03         0.00000E+00
    0.39582E-02        -0.31826E-03         0.00000E+00
    0.39379E-02        -0.29519E-03         0.00000E+00
    0.39143E-02        -0.27234E-03         0.00000E+00
    0.38874E-02        -0.24975E-03         0.00000E+00
    0.38571E-02        -0.22746E-03         0.00000E+00
    0.38236E-02        -0.20551E-03         0.00000E+00
    0.37869E-02        -0.18394E-03         0.00000E+00
    0.37470E-02        -0.16278E-03         0.00000E+00
    0.37040E-02        -0.14208E-03         0.00000E+00
    0.36579E-02        -0.12186E-03         0.00000E+00
    0.36087E-02        -0.10216E-03         0.00000E+00
    0.35566E-02        -0.83011E-04         0.00000E+00
    0.35015E-02        -0.64451E-04         0.00000E+00
    0.34435E-02        -0.46511E-04         0.00000E+00
    0.33826E-02        -0.29221E-04         0.00000E+00
    0.33190E-02        -0.12611E-04         0.00000E+00
    0.32526E-02         0.32895E-05         0.00000E+00
    0.31834E-02         0.18451E-04         0.00000E+00
    0.31117E-02         0.32847E-04         0.00000E+00
    0.30373E-02         0.46449E-04         0.00000E+00
    0.29604E-02         0.59232E-04         0.00000E+00
    0.28810E-02         0.71169E-04         0.00000E+00
    0.27992E-02         0.82237E-04         0.00000E+00
    0.27149E-02         0.92410E-04         0.00000E+00
    0.26284E-02         0.10167E-03         0.00000E+00
    0.25396E-02         0.10998E-03         0.00000E+00
    0.24485E-02         0.11734E-03         0.00000E+00
    0.23553E-02         0.12371E-03         0.00000E+00
    0.22600E-02         0.12908E-03         0.00000E+00
    0.21627E-02         0.13343E-03         0.00000E+00
    0.20633E-02         0.13674E-03         0.00000E+00
    0.19621E-02         0.13899E-03         0.00000E+00
    0.18589E-02         0.14016E-03         0.00000E+00
    0.17539E-02         0.14023E-03         0.00000E+00
    0.16472E-02         0.13919E-03         0.00000E+00
    0.15387E-02         0.13703E-03         0.00000E+00
    0.14287E-02         0.13372E-03         0.00000E+00
    0.13170E-02         0.12926E-03         0.00000E+00
    0.12038E-02         0.12362E-03         0.00000E+00
    0.10891E-02         0.11680E-03         0.00000E+00
    0.97296E-03         0.10878E-03         0.00000E+00
    0.85549E-03         0.99542E-04         0.00000E+00
    0.73672E-03         0.89084E-04         0.00000E+00
    0.61671E-03         0.77391E-04         0.00000E+00
    0.49551E-03         0.64450E-04         0.00000E+00
    0.37318E-03         0.50251E-04         0.00000E+00
    0.24978E-03         0.34783E-04         0.00000E+00
    0.12537E-03         0.18036E-04         0.00000E+00
    0.00000E+00         0.00000E+00         0.00000E+00
    0.43663E-02        -0.42830E-03         0.00000E+00
    0.43506E-02        -0.40198E-03         0.00000E+00
    0.43312E-02        -0.37582E-03         0.00000E+00
    0.43081E-02        -0.34986E-03         0.00000E+00
    0.42813E-02        -0.32416E-03         0.00000E+00
    0.42509E-02        -0.29876E-03         0.00000E+00
    0.42169E-02        -0.27370E-03         0.00000E+00
    0.41794E-02        -0.24902E-03         0.00000E+00
    0.41383E-02        -0.22476E-03         0.00000E+00
    0.40939E-02        -0.20097E-03         0.00000E+00
    0.40460E-02        -0.17768E-03         0.00000E+00
    0.39948E-02        -0.15494E-03         0.00000E+00
    0.39403E-02        -0.13277E-03         0.00000E+00
    0.38825E-02        -0.11122E-03         0.00000E+00
    0.38216E-02        -0.90326E-04         0.00000E+00
    0.37575E-02        -0.70116E-04         0.00000E+00
    0.36903E-02        -0.50626E-04         0.00000E+00
    0.36202E-02        -0.31888E-04         0.00000E+00
    0.35470E-02        -0.13935E-04         0.00000E+00
    0.34710E-02         0.32031E-05         0.00000E+00
    0.33921E-02         0.19496E-04         0.00000E+00
    0.33104E-02         0.34915E-04         0.00000E+00
    0.32260E-02         0.49432E-04         0.00000E+00
    0.31389E-02         0.63020E-04         0.00000E+00
    0.30492E-02         0.75652E-04         0.00000E+00
    0.29569E-02         0.87303E-04         0.00000E+00
    0.28622E-02         0.97947E-04         0.00000E+00
    0.27650E-02         0.10756E-03         0.00000E+00
    0.26654E-02         0.11612E-03         0.00000E+00
    0.25636E-02         0.12361E-03         0.00000E+00
    0.24595E-02         0.13000E-03         0.00000E+00
    0.23532E-02         0.13527E-03         0.00000E+00
    0.22448E-02         0.13941E-03         0.00000E+00
    0.21343E-02         0.14239E-03         0.00000E+00
    0.20218E-02         0.14419E-03         0.00000E+00
    0.19074E-02         0.14479E-03         0.00000E+00
    0.17911E-02         0.14419E-03         0.00000E+00
    0.16730E-02         0.14235E-03         0.00000E+00
    0.15531E-02         0.13928E-03         0.00000E+00
    0.14315E-02         0.13494E-03         0.00000E+00
    0.13083E-02         0.12932E-03         0.00000E+00
    0.11836E-02         0.12241E-03         0.00000E+00
    0.10573E-02         0.11420E-03         0.00000E+00
    0.92956E-03         0.10467E-03         0.00000E+00
    0.80045E-03         0.93812E-04         0.00000E+00
    0.67000E-03         0.81607E-04         0.00000E+00
    0.53829E-03         0.68044E-04         0.00000E+00
    0.40538E-03         0.53114E-04         0.00000E+00
    0.27131E-03         0.36804E-04         0.00000E+00
    0.13617E-03         0.19103E-04         0.00000E+00
    0.00000E+00         0.00000E+00         0.00000E+00
    0.47838E-02        -0.50313E-03         0.00000E+00
    0.47655E-02        -0.47352E-03         0.00000E+00
    0.47431E-02        -0.44409E-03         0.00000E+00
    0.47166E-02        -0.41491E-03         0.00000E+00
    0.46861E-02        -0.38601E-03         0.00000E+00
    0.46517E-02        -0.35746E-03         0.00000E+00
    0.46134E-02        -0.32928E-03         0.00000E+00
    0.45712E-02        -0.30154E-03         0.00000E+00
    0.45252E-02        -0.27428E-03         0.00000E+00
    0.44755E-02        -0.24753E-03         0.00000E+00
    0.44221E-02        -0.22135E-03         0.00000E+00
    0.43651E-02        -0.19578E-03         0.00000E+00
    0.43046E-02        -0.17085E-03         0.00000E+00
    0.42405E-02        -0.14660E-03         0.00000E+00
    0.41730E-02        -0.12307E-03         0.00000E+00
    0.41021E-02        -0.10031E-03         0.00000E+00
    0.40279E-02        -0.78343E-04         0.00000E+00
    0.39504E-02        -0.57207E-04         0.00000E+00
    0.38698E-02        -0.36935E-04         0.00000E+00
    0.37860E-02        -0.17561E-04         0.00000E+00
    0.36992E-02         0.88349E-06         0.00000E+00
    0.36093E-02         0.18367E-04         0.00000E+00
    0.35166E-02         0.34861E-04         0.00000E+00
    0.34210E-02         0.50336E-04         0.00000E+00
    0.33226E-02         0.64763E-04         0.00000E+00
    0.32214E-02         0.78116E-04         0.00000E+00
    0.31176E-02         0.90370E-04         0.00000E+00
    0.30112E-02         0.10150E-03         0.00000E+00
    0.29023E-02         0.11148E-03         0.00000E+00
    0.27909E-02         0.12028E-03         0.00000E+00
    0.26771E-02         0.12789E-03         0.00000E+00
    0.25610E-02         0.13428E-03         0.00000E+00
    0.24426E-02         0.13943E-03         0.00000E+00
    0.23220E-02         0.14332E-03         0.00000E+00
    0.21993E-02         0.14594E-03         0.00000E+00
    0.20746E-02         0.14725E-03         0.00000E+00
    0.19478E-02         0.14725E-03         0.00000E+00
    0.18191E-02         0.14591E-03         0.00000E+00
    0.16886E-02         0.14322E-03         0.00000E+00
    0.15562E-02         0.13917E-03         0.00000E+00
    0.14221E-02         0.13372E-03         0.00000E+00
    0.12864E-02         0.12688E-03         0.00000E+00
    0.11490E-02         0.11863E-03         0.00000E+00
    0.10101E-02         0.10894E-03         0.00000E+00
    0.86971E-03         0.97812E-04         0.00000E+00
    0.72791E-03         0.85227E-04         0.00000E+00
    0.58477E-03         0.71171E-04         0.00000E+00
    0.44035E-03         0.55633E-04         0.00000E+00
    0.29470E-03         0.38599E-04         0.00000E+00
    0.14790E-03         0.20059E-04         0.00000E+00
    0.00000E+00         0.00000E+00         0.00000E+00
    0.52445E-02        -0.59165E-03         0.00000E+00
    0.52230E-02        -0.55834E-03         0.00000E+00
    0.51970E-02        -0.52524E-03         0.00000E+00
    0.51666E-02        -0.49243E-03         0.00000E+00
    0.51318E-02        -0.45995E-03         0.00000E+00
    0.50927E-02        -0.42785E-03         0.00000E+00
    0.50494E-02        -0.39618E-03         0.00000E+00
    0.50019E-02        -0.36501E-03         0.00000E+00
    0.49503E-02        -0.33436E-03         0.00000E+00
    0.48947E-02        -0.30430E-03         0.00000E+00
    0.48350E-02        -0.27487E-03         0.00000E+00
    0.47715E-02        -0.24611E-03         0.00000E+00
    0.47040E-02        -0.21807E-03         0.00000E+00
    0.46329E-02        -0.19079E-03         0.00000E+00
    0.45580E-02        -0.16430E-03         0.00000E+00
    0.44794E-02        -0.13866E-03         0.00000E+00
    0.43973E-02        -0.11390E-03         0.00000E+00
    0.43117E-02        -0.90047E-04         0.00000E+00
    0.42227E-02        -0.67149E-04         0.00000E+00
    0.41303E-02        -0.45238E-04         0.00000E+00
    0.40346E-02        -0.24348E-04         0.00000E+00
    0.39358E-02        -0.45096E-05         0.00000E+00
    0.38338E-02         0.14244E-04         0.00000E+00
    0.37287E-02         0.31883E-04         0.00000E+00
    0.36207E-02         0.48378E-04         0.00000E+00
    0.35097E-02         0.63701E-04         0.00000E+00
    0.33959E-02         0.77824E-04         0.00000E+00
    0.32794E-02         0.90721E-04         0.00000E+00
    0.31601E-02         0.10237E-03         0.00000E+00
    0.30382E-02         0.11274E-03         0.00000E+00
    0.29138E-02         0.12180E-03         0.00000E+00
    0.27869E-02         0.12955E-03         0.00000E+00
    0.26577E-02         0.13595E-03         0.00000E+00
    0.25260E-02         0.14099E-03         0.00000E+00
    0.23922E-02         0.14464E-03         0.00000E+00
    0.22561E-02         0.14688E-03         0.00000E+00
    0.21179E-02         0.14769E-03         0.00000E+00
    0.19777E-02         0.14706E-03         0.00000E+00
    0.18355E-02         0.14497E-03         0.00000E+00
    0.16914E-02         0.14140E-03         0.00000E+00
    0.15455E-02         0.13633E-03         0.00000E+00
    0.13978E-02         0.12975E-03         0.00000E+00
    0.12484E-02         0.12164E-03         0.00000E+00
    0.10973E-02         0.11199E-03         0.00000E+00
    0.94471E-03         0.10078E-03         0.00000E+00
    0.79062E-03         0.87996E-04         0.00000E+00
    0.63509E-03         0.73625E-04         0.00000E+00
    0.47820E-03         0.57653E-04         0.00000E+00
    0.32001E-03         0.40066E-04         0.00000E+00
    0.16059E-03         0.20853E-04         0.00000E+00
    0.00000E+00         0.00000E+00         0.00000E+00
    0.57520E-02        -0.69657E-03         0.00000E+00
    0.57267E-02        -0.65909E-03         0.00000E+00
    0.56965E-02        -0.62188E-03         0.00000E+00
    0.56615E-02        -0.58498E-03         0.00000E+00
    0.56217E-02        -0.54845E-03         0.00000E+00
    0.55772E-02        -0.51237E-03         0.00000E+00
    0.55282E-02        -0.47678E-03         0.00000E+00
    0.54746E-02        -0.44174E-03         0.00000E+00
    0.54165E-02        -0.40729E-03         0.00000E+00
    0.53541E-02        -0.37350E-03         0.00000E+00
    0.52873E-02        -0.34041E-03         0.00000E+00
    0.52163E-02        -0.30807E-03         0.00000E+00
    0.51412E-02        -0.27652E-03         0.00000E+00
    0.50620E-02        -0.24581E-03         0.00000E+00
    0.49788E-02        -0.21599E-03         0.00000E+00
    0.48916E-02        -0.18709E-03         0.00000E+00
    0.48007E-02        -0.15916E-03         0.00000E+00
    0.47060E-02        -0.13224E-03         0.00000E+00
    0.46076E-02        -0.10636E-03         0.00000E+00
    0.45056E-02        -0.81562E-04         0.00000E+00
    0.44002E-02        -0.57881E-04         0.00000E+00
    0.42913E-02        -0.35351E-04         0.00000E+00
    0.41790E-02        -0.14005E-04         0.00000E+00
    0.40635E-02         0.61259E-05         0.00000E+00
    0.39449E-02         0.25010E-04         0.00000E+00
    0.38231E-02         0.42619E-04         0.00000E+00
    0.36983E-02         0.58924E-04         0.00000E+00
    0.35706E-02         0.73897E-04         0.00000E+00
    0.34400E-02         0.87512E-04         0.00000E+00
    0.33066E-02         0.99743E-04         0.00000E+00
    0.31706E-02         0.11057E-03         0.00000E+00
    0.30319E-02         0.11996E-03         0.00000E+00
    0.28907E-02         0.12789E-03         0.00000E+00
    0.27470E-02         0.13435E-03         0.00000E+00
    0.26010E-02         0.13932E-03         0.00000E+00
    0.24526E-02         0.14276E-03         0.00000E+00
    0.23020E-02         0.14466E-03         0.00000E+00
    0.21492E-02         0.14501E-03         0.00000E+00
    0.19944E-02         0.14378E-03         0.00000E+00
    0.18375E-02         0.14096E-03         0.00000E+00
    0.16787E-02         0.13652E-03         0.00000E+00
    0.15181E-02         0.13046E-03         0.00000E+00
    0.13556E-02         0.12275E-03         0.00000E+00
    0.11915E-02         0.11338E-03         0.00000E+00
    0.10257E-02         0.10233E-03         0.00000E+00
    0.85827E-03         0.89592E-04         0.00000E+00
    0.68937E-03         0.75146E-04         0.00000E+00
    0.51902E-03         0.58977E-04         0.00000E+00
    0.34730E-03         0.41073E-04         0.00000E+00
    0.17427E-03         0.21418E-04         0.00000E+00
    0.00000E+00         0.00000E+00         0.00000E+00
    0.63104E-02        -0.82118E-03         0.00000E+00
    0.62805E-02        -0.77901E-03         0.00000E+00
    0.62454E-02        -0.73713E-03         0.00000E+00
    0.62049E-02        -0.69563E-03         0.00000E+00
    0.61593E-02        -0.65456E-03         0.00000E+00
    0.61086E-02        -0.61399E-03         0.00000E+00
    0.60529E-02        -0.57397E-03         0.00000E+00
    0.59923E-02        -0.53457E-03         0.00000E+00
    0.59269E-02        -0.49585E-03         0.00000E+00
    0.58567E-02        -0.45785E-03         0.00000E+00
    0.57818E-02        -0.42063E-03         0.00000E+00
    0.57024E-02        -0.38424E-03         0.00000E+00
    0.56185E-02        -0.34874E-03         0.00000E+00
    0.55303E-02        -0.31416E-03         0.00000E+00
    0.54377E-02        -0.28056E-03         0.00000E+00
    0.53410E-02        -0.24798E-03         0.00000E+00
    0.52401E-02        -0.21646E-03         0.00000E+00
    0.51352E-02        -0.18604E-03         0.00000E+00
    0.50264E-02        -0.15677E-03         0.00000E+00
    0.49138E-02        -0.12868E-03         0.00000E+00
    0.47975E-02        -0.10180E-03         0.00000E+00
    0.46774E-02        -0.76186E-04         0.00000E+00
    0.45539E-02        -0.51856E-04         0.00000E+00
    0.44269E-02        -0.28847E-04         0.00000E+00
    0.42965E-02        -0.71916E-05         0.00000E+00
    0.41628E-02         0.13080E-04         0.00000E+00
    0.40259E-02         0.31939E-04         0.00000E+00
    0.38859E-02         0.49357E-04         0.00000E+00
    0.37429E-02         0.65307E-04         0.00000E+00
    0.35970E-02         0.79762E-04         0.00000E+00
    0.34482E-02         0.92697E-04         0.00000E+00
    0.32967E-02         0.10409E-03         0.00000E+00
    0.31424E-02         0.11391E-03         0.00000E+00
    0.29856E-02         0.12214E-03         0.00000E+00
    0.28263E-02         0.12877E-03         0.00000E+00
    0.26646E-02         0.13375E-03         0.00000E+00
    0.25005E-02         0.13709E-03         0.00000E+00
    0.23341E-02         0.13875E-03         0.00000E+00
    0.21656E-02         0.13872E-03         0.00000E+00
    0.19949E-02         0.13698E-03         0.00000E+00
    0.18223E-02         0.13350E-03         0.00000E+00
    0.16476E-02         0.12829E-03         0.00000E+00
    0.14711E-02         0.12130E-03         0.00000E+00
    0.12928E-02         0.11254E-03         0.00000E+00
    0.11127E-02         0.10198E-03         0.00000E+00
    0.93101E-03         0.89608E-04         0.00000E+00
    0.74771E-03         0.75406E-04         0.00000E+00
    0.56289E-03         0.59359E-04         0.00000E+00
    0.37661E-03         0.41453E-04         0.00000E+00
    0.18896E-03         0.21671E-04         0.00000E+00
    0.00000E+00         0.00000E+00         0.00000E+00
    0.69240E-02        -0.96944E-03         0.00000E+00
    0.68887E-02        -0.92195E-03         0.00000E+00
    0.68477E-02        -0.87482E-03         0.00000E+00
    0.68008E-02        -0.82812E-03         0.00000E+00
    0.67484E-02        -0.78192E-03         0.00000E+00
    0.66905E-02        -0.73629E-03         0.00000E+00
    0.66271E-02        -0.69128E-03         0.00000E+00
    0.65584E-02        -0.64697E-03         0.00000E+00
    0.64845E-02        -0.60341E-03         0.00000E+00
    0.64054E-02        -0.56067E-03         0.00000E+00
    0.63214E-02        -0.51879E-03         0.00000E+00
    0.62324E-02        -0.47783E-03         0.00000E+00
    0.61387E-02        -0.43785E-03         0.00000E+00
    0.60402E-02        -0.39889E-03         0.00000E+00
    0.59372E-02        -0.36101E-03         0.00000E+00
    0.58296E-02        -0.32424E-03         0.00000E+00
    0.57177E-02        -0.28864E-03         0.00000E+00
    0.56015E-02        -0.25424E-03         0.00000E+00
    0.54811E-02        -0.22109E-03         0.00000E+00
    0.53566E-02        -0.18923E-03         0.00000E+00
    0.52281E-02        -0.15870E-03         0.00000E+00
    0.50958E-02        -0.12952E-03         0.00000E+00
    0.49598E-02        -0.10175E-03         0.00000E+00
    0.48200E-02        -0.75403E-04         0.00000E+00
    0.46767E-02        -0.50523E-04         0.00000E+00
    0.45299E-02        -0.27138E-04         0.00000E+00
    0.43798E-02        -0.52779E-05         0.00000E+00
    0.42264E-02         0.15029E-04         0.00000E+00
    0.40698E-02         0.33754E-04         0.00000E+00
    0.39101E-02         0.50871E-04         0.00000E+00
    0.37474E-02         0.66354E-04         0.00000E+00
    0.35819E-02         0.80179E-04         0.00000E+00
    0.34135E-02         0.92322E-04         0.00000E+00
    0.32425E-02         0.10276E-03         0.00000E+00
    0.30688E-02         0.11147E-03         0.00000E+00
    0.28925E-02         0.11843E-03         0.00000E+00
    0.27138E-02         0.12362E-03         0.00000E+00
    0.25328E-02         0.12702E-03         0.00000E+00
    0.23494E-02         0.12861E-03         0.00000E+00
    0.21639E-02         0.12838E-03         0.00000E+00
    0.19763E-02         0.12629E-03         0.00000E+00
    0.17866E-02         0.12234E-03         0.00000E+00
    0.15949E-02         0.11651E-03         0.00000E+00
    0.14014E-02         0.10878E-03         0.00000E+00
    0.12060E-02         0.99123E-04         0.00000E+00
    0.10089E-02         0.87536E-04         0.00000E+00
    0.81017E-03         0.73998E-04         0.00000E+00
    0.60984E-03         0.58491E-04         0.00000E+00
    0.40798E-03         0.41001E-04         0.00000E+00
    0.20468E-03         0.21509E-04         0.00000E+00
    0.00000E+00         0.00000E+00         0.00000E+00
    0.75974E-02        -0.11461E-02         0.00000E+00
    0.75557E-02        -0.10926E-02         0.00000E+00
    0.75076E-02        -0.10395E-02         0.00000E+00
    0.74533E-02        -0.98698E-03         0.00000E+00
    0.73929E-02        -0.93498E-03         0.00000E+00
    0.73265E-02        -0.88363E-03         0.00000E+00
    0.72542E-02        -0.83299E-03         0.00000E+00
    0.71762E-02        -0.78313E-03         0.00000E+00
    0.70926E-02        -0.73412E-03         0.00000E+00
    0.70035E-02        -0.68600E-03         0.00000E+00
    0.69089E-02        -0.63885E-03         0.00000E+00
    0.68092E-02        -0.59272E-03         0.00000E+00
    0.67042E-02        -0.54767E-03         0.00000E+00
    0.65943E-02        -0.50374E-03         0.00000E+00
    0.64794E-02        -0.46098E-03         0.00000E+00
    0.63597E-02        -0.41946E-03         0.00000E+00
    0.62354E-02        -0.37920E-03         0.00000E+00
    0.61065E-02        -0.34026E-03         0.00000E+00
    0.59732E-02        -0.30267E-03         0.00000E+00
    0.58356E-02        -0.26648E-03         0.00000E+00
    0.56938E-02        -0.23173E-03         0.00000E+00
    0.55479E-02        -0.19846E-03         0.00000E+00
    0.53980E-02        -0.16669E-03         0.00000E+00
    0.52442E-02        -0.13647E-03         0.00000E+00
    0.50867E-02        -0.10782E-03         0.00000E+00
    0.49256E-02        -0.80785E-04         0.00000E+00
    0.47609E-02        -0.55386E-04         0.00000E+00
    0.45928E-02        -0.31655E-04         0.00000E+00
    0.44214E-02        -0.96196E-05         0.00000E+00
    0.42468E-02         0.10693E-04         0.00000E+00
    0.40690E-02         0.29258E-04         0.00000E+00
    0.38882E-02         0.46050E-04         0.00000E+00
    0.37045E-02         0.61044E-04         0.00000E+00
    0.35180E-02         0.74219E-04         0.00000E+00
    0.33287E-02         0.85550E-04         0.00000E+00
    0.31368E-02         0.95017E-04         0.00000E+00
    0.29424E-02         0.10260E-03         0.00000E+00
    0.27454E-02         0.10827E-03         0.00000E+00
    0.25462E-02         0.11202E-03         0.00000E+00
    0.23446E-02         0.11383E-03         0.00000E+00
    0.21409E-02         0.11367E-03         0.00000E+00
    0.19350E-02         0.11152E-03         0.00000E+00
    0.17271E-02         0.10738E-03         0.00000E+00
    0.15173E-02         0.10121E-03         0.00000E+00
    0.13056E-02         0.93006E-04         0.00000E+00
    0.10920E-02         0.82747E-04         0.00000E+00
    0.87679E-03         0.70414E-04         0.00000E+00
    0.65990E-03         0.55991E-04         0.00000E+00
    0.44142E-03         0.39459E-04         0.00000E+00
    0.22143E-03         0.20801E-04         0.00000E+00
    0.00000E+00         0.00000E+00         0.00000E+00
    0.83354E-02        -0.13569E-02         0.00000E+00
    0.82859E-02        -0.12966E-02         0.00000E+00
    0.82295E-02        -0.12369E-02         0.00000E+00
    0.81664E-02        -0.11777E-02         0.00000E+00
    0.80966E-02        -0.11191E-02         0.00000E+00
    0.80204E-02        -0.10613E-02         0.00000E+00
    0.79379E-02        -0.10043E-02         0.00000E+00
    0.78492E-02        -0.94816E-03         0.00000E+00
    0.77544E-02        -0.89297E-03         0.00000E+00
    0.76537E-02        -0.83878E-03         0.00000E+00
    0.75473E-02        -0.78566E-03         0.00000E+00
    0.74352E-02        -0.73366E-03         0.00000E+00
    0.73176E-02        -0.68285E-03         0.00000E+00
    0.71947E-02        -0.63327E-03         0.00000E+00
    0.70666E-02        -0.58497E-03         0.00000E+00
    0.69334E-02        -0.53801E-03         0.00000E+00
    0.67952E-02        -0.49244E-03         0.00000E+00
    0.66522E-02        -0.44829E-03         0.00000E+00
    0.65046E-02        -0.40561E-03         0.00000E+00
    0.63524E-02        -0.36444E-03         0.00000E+00
    0.61958E-02        -0.32482E-03         0.00000E+00
    0.60348E-02        -0.28679E-03         0.00000E+00
    0.58697E-02        -0.25039E-03         0.00000E+00
    0.57006E-02        -0.21564E-03         0.00000E+00
    0.55275E-02        -0.18258E-03         0.00000E+00
    0.53507E-02        -0.15124E-03         0.00000E+00
    0.51701E-02        -0.12166E-03         0.00000E+00
    0.49860E-02        -0.93857E-04         0.00000E+00
    0.47984E-02        -0.67862E-04         0.00000E+00
    0.46075E-02        -0.43703E-04         0.00000E+00
    0.44133E-02        -0.21405E-04         0.00000E+00
    0.42160E-02        -0.99320E-06         0.00000E+00
    0.40157E-02         0.17509E-04         0.00000E+00
    0.38124E-02         0.34078E-04         0.00000E+00
    0.36064E-02         0.48691E-04         0.00000E+00
    0.33976E-02         0.61327E-04         0.00000E+00
    0.31862E-02         0.71965E-04         0.00000E+00
    0.29723E-02         0.80583E-04         0.00000E+00
    0.27559E-02         0.87161E-04         0.00000E+00
    0.25372E-02         0.91680E-04         0.00000E+00
    0.23162E-02         0.94120E-04         0.00000E+00
    0.20931E-02         0.94461E-04         0.00000E+00
    0.18678E-02         0.92685E-04         0.00000E+00
    0.16406E-02         0.88773E-04         0.00000E+00
    0.14114E-02         0.82706E-04         0.00000E+00
    0.11804E-02         0.74465E-04         0.00000E+00
    0.94756E-03         0.64032E-04         0.00000E+00
    0.71305E-03         0.51388E-04         0.00000E+00
    0.47691E-03         0.36514E-04         0.00000E+00
    0.23920E-03         0.19391E-04         0.00000E+00
    0.00000E+00         0.00000E+00         0.00000E+00
    0.91430E-02        -0.16088E-02         0.00000E+00
    0.90842E-02        -0.15409E-02         0.00000E+00
    0.90180E-02        -0.14735E-02         0.00000E+00
    0.89444E-02        -0.14068E-02         0.00000E+00
    0.88637E-02        -0.13408E-02         0.00000E+00
    0.87761E-02        -0.12757E-02         0.00000E+00
    0.86817E-02        -0.12115E-02         0.00000E+00
    0.85806E-02        -0.11482E-02         0.00000E+00
    0.84730E-02        -0.10860E-02         0.00000E+00
    0.83592E-02        -0.10250E-02         0.00000E+00
    0.82392E-02        -0.96508E-03         0.00000E+00
    0.81132E-02        -0.90642E-03         0.00000E+00
    0.79813E-02        -0.84906E-03         0.00000E+00
    0.78438E-02        -0.79304E-03         0.00000E+00
    0.77008E-02        -0.73843E-03         0.00000E+00
    0.75524E-02        -0.68526E-03         0.00000E+00
    0.73988E-02        -0.63359E-03         0.00000E+00
    0.72401E-02        -0.58346E-03         0.00000E+00
    0.70765E-02        -0.53492E-03         0.00000E+00
    0.69082E-02        -0.48800E-03         0.00000E+00
    0.67352E-02        -0.44275E-03         0.00000E+00
    0.65577E-02        -0.39920E-03         0.00000E+00
    0.63759E-02        -0.35738E-03         0.00000E+00
    0.61899E-02        -0.31733E-03         0.00000E+00
    0.59998E-02        -0.27908E-03         0.00000E+00
    0.58057E-02        -0.24267E-03         0.00000E+00
    0.56078E-02        -0.20812E-03         0.00000E+00
    0.54063E-02        -0.17546E-03         0.00000E+00
    0.52011E-02        -0.14472E-03         0.00000E+00
    0.49926E-02        -0.11592E-03         0.00000E+00
    0.47806E-02        -0.89090E-04         0.00000E+00
    0.45655E-02        -0.64255E-04         0.00000E+00
    0.43473E-02        -0.41439E-04         0.00000E+00
    0.41260E-02        -0.20663E-04         0.00000E+00
    0.39019E-02        -0.19502E-05         0.00000E+00
    0.36750E-02         0.14677E-04         0.00000E+00
    0.34454E-02         0.29199E-04         0.00000E+00
    0.32132E-02         0.41593E-04         0.00000E+00
    0.29786E-02         0.51839E-04         0.00000E+00
    0.27415E-02         0.59917E-04         0.00000E+00
    0.25022E-02         0.65807E-04         0.00000E+00
    0.22606E-02         0.69489E-04         0.00000E+00
    0.20169E-02         0.70944E-04         0.00000E+00
    0.17711E-02         0.70151E-04         0.00000E+00
    0.15234E-02         0.67090E-04         0.00000E+00
    0.12738E-02         0.61743E-04         0.00000E+00
    0.10224E-02         0.54089E-04         0.00000E+00
    0.76924E-03         0.44108E-04         0.00000E+00
    0.51440E-03         0.31780E-04         0.00000E+00
    0.25797E-03         0.17084E-04         0.00000E+00
    0.00000E+00         0.00000E+00         0.00000E+00
    0.10025E-01        -0.19101E-02         0.00000E+00
    0.99553E-02        -0.18335E-02         0.00000E+00
    0.98774E-02        -0.17575E-02         0.00000E+00
    0.97916E-02        -0.16823E-02         0.00000E+00
    0.96981E-02        -0.16079E-02         0.00000E+00
    0.95971E-02        -0.15345E-02         0.00000E+00
    0.94889E-02        -0.14621E-02         0.00000E+00
    0.93736E-02        -0.13908E-02         0.00000E+00
    0.92514E-02        -0.13207E-02         0.00000E+00
    0.91225E-02        -0.12518E-02         0.00000E+00
    0.89870E-02        -0.11842E-02         0.00000E+00
    0.88453E-02        -0.11180E-02         0.00000E+00
    0.86973E-02        -0.10532E-02         0.00000E+00
    0.85434E-02        -0.98982E-03         0.00000E+00
    0.83837E-02        -0.92798E-03         0.00000E+00
    0.82183E-02        -0.86770E-03         0.00000E+00
    0.80475E-02        -0.80903E-03         0.00000E+00
    0.78714E-02        -0.75203E-03         0.00000E+00
    0.76902E-02        -0.69671E-03         0.00000E+00
    0.75040E-02        -0.64314E-03         0.00000E+00
    0.73129E-02        -0.59133E-03         0.00000E+00
    0.71173E-02        -0.54134E-03         0.00000E+00
    0.69171E-02        -0.49319E-03         0.00000E+00
    0.67126E-02        -0.44692E-03         0.00000E+00
    0.65039E-02        -0.40256E-03         0.00000E+00
    0.62911E-02        -0.36013E-03         0.00000E+00
    0.60744E-02        -0.31967E-03         0.00000E+00
    0.58539E-02        -0.28120E-03         0.00000E+00
    0.56298E-02        -0.24475E-03         0.00000E+00
    0.54021E-02        -0.21035E-03         0.00000E+00
    0.51710E-02        -0.17801E-03         0.00000E+00
    0.49367E-02        -0.14777E-03         0.00000E+00
    0.46992E-02        -0.11965E-03         0.00000E+00
    0.44586E-02        -0.93664E-04         0.00000E+00
    0.42152E-02        -0.69843E-04         0.00000E+00
    0.39689E-02        -0.48205E-04         0.00000E+00
    0.37198E-02        -0.28773E-04         0.00000E+00
    0.34682E-02        -0.11567E-04         0.00000E+00
    0.32140E-02         0.33909E-05         0.00000E+00
    0.29575E-02         0.16081E-04         0.00000E+00
    0.26986E-02         0.26482E-04         0.00000E+00
    0.24375E-02         0.34574E-04         0.00000E+00
    0.21742E-02         0.40335E-04         0.00000E+00
    0.19088E-02         0.43745E-04         0.00000E+00
    0.16415E-02         0.44784E-04         0.00000E+00
    0.13723E-02         0.43429E-04         0.00000E+00
    0.11012E-02         0.39660E-04         0.00000E+00
    0.82837E-03         0.33454E-04         0.00000E+00
    0.55385E-03         0.24791E-04         0.00000E+00
    0.27771E-03         0.13647E-04         0.00000E+00
    0.00000E+00         0.00000E+00         0.00000E+00
    0.10987E-01        -0.22707E-02         0.00000E+00
    0.10904E-01        -0.21842E-02         0.00000E+00
    0.10812E-01        -0.20985E-02         0.00000E+00
    0.10712E-01        -0.20136E-02         0.00000E+00
    0.10603E-01        -0.19298E-02         0.00000E+00
    0.10487E-01        -0.18470E-02         0.00000E+00
    0.10363E-01        -0.17654E-02         0.00000E+00
    0.10231E-01        -0.16850E-02         0.00000E+00
    0.10092E-01        -0.16058E-02         0.00000E+00
    0.99460E-02        -0.15281E-02         0.00000E+00
    0.97930E-02        -0.14517E-02         0.00000E+00
    0.96334E-02        -0.13769E-02         0.00000E+00
    0.94673E-02        -0.13035E-02         0.00000E+00
    0.92949E-02        -0.12318E-02         0.00000E+00
    0.91165E-02        -0.11616E-02         0.00000E+00
    0.89323E-02        -0.10932E-02         0.00000E+00
    0.87423E-02        -0.10265E-02         0.00000E+00
    0.85469E-02        -0.96153E-03         0.00000E+00
    0.83461E-02        -0.89839E-03         0.00000E+00
    0.81402E-02        -0.83708E-03         0.00000E+00
    0.79294E-02        -0.77765E-03         0.00000E+00
    0.77138E-02        -0.72013E-03         0.00000E+00
    0.74936E-02        -0.66455E-03         0.00000E+00
    0.72689E-02        -0.61095E-03         0.00000E+00
    0.70400E-02        -0.55934E-03         0.00000E+00
    0.68068E-02        -0.50977E-03         0.00000E+00
    0.65697E-02        -0.46226E-03         0.00000E+00
    0.63288E-02        -0.41683E-03         0.00000E+00
    0.60841E-02        -0.37351E-03         0.00000E+00
    0.58359E-02        -0.33232E-03         0.00000E+00
    0.55842E-02        -0.29329E-03         0.00000E+00
    0.53293E-02        -0.25644E-03         0.00000E+00
    0.50711E-02        -0.22179E-03         0.00000E+00
    0.48099E-02        -0.18937E-03         0.00000E+00
    0.45458E-02        -0.15919E-03         0.00000E+00
    0.42788E-02        -0.13129E-03         0.00000E+00
    0.40091E-02        -0.10568E-03         0.00000E+00
    0.37367E-02        -0.82377E-04         0.00000E+00
    0.34619E-02        -0.61412E-04         0.00000E+00
    0.31847E-02        -0.42804E-04         0.00000E+00
    0.29051E-02        -0.26574E-04         0.00000E+00
    0.26233E-02        -0.12744E-04         0.00000E+00
    0.23394E-02        -0.13353E-05         0.00000E+00
    0.20534E-02         0.76288E-05         0.00000E+00
    0.17654E-02         0.14126E-04         0.00000E+00
    0.14755E-02         0.18134E-04         0.00000E+00
    0.11838E-02         0.19629E-04         0.00000E+00
    0.89031E-03         0.18588E-04         0.00000E+00
    0.59515E-03         0.14986E-04         0.00000E+00
    0.29836E-03         0.87981E-05         0.00000E+00
    0.00000E+00         0.00000E+00         0.00000E+00
    0.12034E-01        -0.27025E-02         0.00000E+00
    0.11935E-01        -0.26048E-02         0.00000E+00
    0.11826E-01        -0.25080E-02         0.00000E+00
    0.11709E-01        -0.24123E-02         0.00000E+00
    0.11583E-01        -0.23177E-02         0.00000E+00
    0.11448E-01        -0.22243E-02         0.00000E+00
    0.11306E-01        -0.21321E-02         0.00000E+00
    0.11155E-01        -0.20414E-02         0.00000E+00
    0.10997E-01        -0.19520E-02         0.00000E+00
    0.10831E-01        -0.18642E-02         0.00000E+00
    0.10659E-01        -0.17779E-02         0.00000E+00
    0.10479E-01        -0.16931E-02         0.00000E+00
    0.10292E-01        -0.16101E-02         0.00000E+00
    0.10099E-01        -0.15287E-02         0.00000E+00
    0.99000E-02        -0.14491E-02         0.00000E+00
    0.96947E-02        -0.13713E-02         0.00000E+00
    0.94835E-02        -0.12952E-02         0.00000E+00
    0.92667E-02        -0.12211E-02         0.00000E+00
    0.90445E-02        -0.11489E-02         0.00000E+00
    0.88170E-02        -0.10786E-02         0.00000E+00
    0.85845E-02        -0.10102E-02         0.00000E+00
    0.83471E-02        -0.94387E-03         0.00000E+00
    0.81050E-02        -0.87955E-03         0.00000E+00
    0.78584E-02        -0.81728E-03         0.00000E+00
    0.76075E-02        -0.75710E-03         0.00000E+00
    0.73524E-02        -0.69902E-03         0.00000E+00
    0.70933E-02        -0.64308E-03         0.00000E+00
    0.68303E-02        -0.58929E-03         0.00000E+00
    0.65636E-02        -0.53768E-03         0.00000E+00
    0.62933E-02        -0.48827E-03         0.00000E+00
    0.60196E-02        -0.44109E-03         0.00000E+00
    0.57426E-02        -0.39615E-03         0.00000E+00
    0.54624E-02        -0.35349E-03         0.00000E+00
    0.51792E-02        -0.31312E-03         0.00000E+00
    0.48931E-02        -0.27507E-03         0.00000E+00
    0.46042E-02        -0.23935E-03         0.00000E+00
    0.43125E-02        -0.20599E-03         0.00000E+00
    0.40183E-02        -0.17502E-03         0.00000E+00
    0.37216E-02        -0.14645E-03         0.00000E+00
    0.34226E-02        -0.12031E-03         0.00000E+00
    0.31212E-02        -0.96625E-04         0.00000E+00
    0.28177E-02        -0.75413E-04         0.00000E+00
    0.25120E-02        -0.56700E-04         0.00000E+00
    0.22043E-02        -0.40511E-04         0.00000E+00
    0.18947E-02        -0.26870E-04         0.00000E+00
    0.15832E-02        -0.15803E-04         0.00000E+00
    0.12699E-02        -0.73360E-05         0.00000E+00
    0.95488E-03        -0.14948E-05         0.00000E+00
    0.63818E-03         0.16935E-05         0.00000E+00
    0.31987E-03         0.22012E-05         0.00000E+00
    0.00000E+00         0.00000E+00         0.00000E+00
    0.13169E-01        -0.32195E-02         0.00000E+00
    0.13051E-01        -0.31091E-02         0.00000E+00
    0.12923E-01        -0.29998E-02         0.00000E+00
    0.12786E-01        -0.28917E-02         0.00000E+00
    0.12639E-01        -0.27849E-02         0.00000E+00
    0.12484E-01        -0.26795E-02         0.00000E+00
    0.12320E-01        -0.25755E-02         0.00000E+00
    0.12148E-01        -0.24729E-02         0.00000E+00
    0.11968E-01        -0.23720E-02         0.00000E+00
    0.11780E-01        -0.22726E-02         0.00000E+00
    0.11585E-01        -0.21750E-02         0.00000E+00
    0.11382E-01        -0.20790E-02         0.00000E+00
    0.11173E-01        -0.19848E-02         0.00000E+00
    0.10957E-01        -0.18924E-02         0.00000E+00
    0.10734E-01        -0.18019E-02         0.00000E+00
    0.10505E-01        -0.17132E-02         0.00000E+00
    0.10271E-01        -0.16265E-02         0.00000E+00
    0.10030E-01        -0.15417E-02         0.00000E+00
    0.97846E-02        -0.14588E-02         0.00000E+00
    0.95335E-02        -0.13780E-02         0.00000E+00
    0.92773E-02        -0.12992E-02         0.00000E+00
    0.90162E-02        -0.12225E-02         0.00000E+00
    0.87504E-02        -0.11479E-02         0.00000E+00
    0.84801E-02        -0.10754E-02         0.00000E+00
    0.82055E-02        -0.10050E-02         0.00000E+00
    0.79267E-02        -0.93677E-03         0.00000E+00
    0.76439E-02        -0.87073E-03         0.00000E+00
    0.73573E-02        -0.80689E-03         0.00000E+00
    0.70670E-02        -0.74527E-03         0.00000E+00
    0.67732E-02        -0.68590E-03         0.00000E+00
    0.64760E-02        -0.62879E-03         0.00000E+00
    0.61756E-02        -0.57398E-03         0.00000E+00
    0.58721E-02        -0.52148E-03         0.00000E+00
    0.55656E-02        -0.47132E-03         0.00000E+00
    0.52562E-02        -0.42352E-03         0.00000E+00
    0.49441E-02        -0.37809E-03         0.00000E+00
    0.46294E-02        -0.33508E-03         0.00000E+00
    0.43122E-02        -0.29449E-03         0.00000E+00
    0.39925E-02        -0.25636E-03         0.00000E+00
    0.36705E-02        -0.22071E-03         0.00000E+00
    0.33464E-02        -0.18756E-03         0.00000E+00
    0.30200E-02        -0.15695E-03         0.00000E+00
    0.26917E-02        -0.12889E-03         0.00000E+00
    0.23614E-02        -0.10342E-03         0.00000E+00
    0.20291E-02        -0.80568E-04         0.00000E+00
    0.16951E-02        -0.60357E-04         0.00000E+00
    0.13593E-02        -0.42818E-04         0.00000E+00
    0.10219E-02        -0.27982E-04         0.00000E+00
    0.68281E-03        -0.15879E-04         0.00000E+00
    0.34216E-03        -0.65412E-05         0.00000E+00
    0.00000E+00         0.00000E+00         0.00000E+00
    0.14396E-01        -0.38384E-02         0.00000E+00
    0.14256E-01        -0.37136E-02         0.00000E+00
    0.14105E-01        -0.35901E-02         0.00000E+00
    0.13944E-01        -0.34681E-02         0.00000E+00
    0.13774E-01        -0.33474E-02         0.00000E+00
    0.13595E-01        -0.32283E-02         0.00000E+00
    0.13406E-01        -0.31108E-02         0.00000E+00
    0.13209E-01        -0.29949E-02         0.00000E+00
    0.13004E-01        -0.28808E-02         0.00000E+00
    0.12791E-01        -0.27683E-02         0.00000E+00
    0.12570E-01        -0.26577E-02         0.00000E+00
    0.12342E-01        -0.25489E-02         0.00000E+00
    0.12108E-01        -0.24419E-02         0.00000E+00
    0.11866E-01        -0.23368E-02         0.00000E+00
    0.11618E-01        -0.22337E-02         0.00000E+00
    0.11363E-01        -0.21325E-02         0.00000E+00
    0.11103E-01        -0.20333E-02         0.00000E+00
    0.10837E-01        -0.19362E-02         0.00000E+00
    0.10565E-01        -0.18410E-02         0.00000E+00
    0.10288E-01        -0.17479E-02         0.00000E+00
    0.10006E-01        -0.16569E-02         0.00000E+00
    0.97194E-02        -0.15680E-02         0.00000E+00
    0.94280E-02        -0.14811E-02         0.00000E+00
    0.91322E-02        -0.13965E-02         0.00000E+00
    0.88322E-02        -0.13139E-02         0.00000E+00
    0.85280E-02        -0.12336E-02         0.00000E+00
    0.82200E-02        -0.11554E-02         0.00000E+00
    0.79082E-02        -0.10795E-02         0.00000E+00
    0.75929E-02        -0.10058E-02         0.00000E+00
    0.72741E-02        -0.93435E-03         0.00000E+00
    0.69521E-02        -0.86518E-03         0.00000E+00
    0.66269E-02        -0.79831E-03         0.00000E+00
    0.62988E-02        -0.73376E-03         0.00000E+00
    0.59677E-02        -0.67156E-03         0.00000E+00
    0.56340E-02        -0.61172E-03         0.00000E+00
    0.52975E-02        -0.55429E-03         0.00000E+00
    0.49586E-02        -0.49927E-03         0.00000E+00
    0.46173E-02        -0.44670E-03         0.00000E+00
    0.42736E-02        -0.39661E-03         0.00000E+00
    0.39277E-02        -0.34903E-03         0.00000E+00
    0.35797E-02        -0.30398E-03         0.00000E+00
    0.32297E-02        -0.26149E-03         0.00000E+00
    0.28777E-02        -0.22161E-03         0.00000E+00
    0.25239E-02        -0.18435E-03         0.00000E+00
    0.21682E-02        -0.14975E-03         0.00000E+00
    0.18108E-02        -0.11785E-03         0.00000E+00
    0.14518E-02        -0.88677E-04         0.00000E+00
    0.10911E-02        -0.62270E-04         0.00000E+00
    0.72888E-03        -0.38664E-04         0.00000E+00
    0.36516E-03        -0.17895E-04         0.00000E+00
    0.00000E+00         0.00000E+00         0.00000E+00
    0.15718E-01        -0.45785E-02         0.00000E+00
    0.15551E-01        -0.44374E-02         0.00000E+00
    0.15373E-01        -0.42979E-02         0.00000E+00
    0.15185E-01        -0.41600E-02         0.00000E+00
    0.14987E-01        -0.40237E-02         0.00000E+00
    0.14780E-01        -0.38891E-02         0.00000E+00
    0.14564E-01        -0.37563E-02         0.00000E+00
    0.14339E-01        -0.36253E-02         0.00000E+00
    0.14105E-01        -0.34961E-02         0.00000E+00
    0.13864E-01        -0.33687E-02         0.00000E+00
    0.13615E-01        -0.32432E-02         0.00000E+00
    0.13358E-01        -0.31197E-02         0.00000E+00
    0.13095E-01        -0.29981E-02         0.00000E+00
    0.12824E-01        -0.28785E-02         0.00000E+00
    0.12548E-01        -0.27608E-02         0.00000E+00
    0.12265E-01        -0.26452E-02         0.00000E+00
    0.11977E-01        -0.25315E-02         0.00000E+00
    0.11682E-01        -0.24199E-02         0.00000E+00
    0.11383E-01        -0.23104E-02         0.00000E+00
    0.11078E-01        -0.22029E-02         0.00000E+00
    0.10768E-01        -0.20975E-02         0.00000E+00
    0.10454E-01        -0.19941E-02         0.00000E+00
    0.10135E-01        -0.18929E-02         0.00000E+00
    0.98122E-02        -0.17938E-02         0.00000E+00
    0.94850E-02        -0.16968E-02         0.00000E+00
    0.91539E-02        -0.16020E-02         0.00000E+00
    0.88191E-02        -0.15093E-02         0.00000E+00
    0.84808E-02        -0.14188E-02         0.00000E+00
    0.81390E-02        -0.13305E-02         0.00000E+00
    0.77939E-02        -0.12444E-02         0.00000E+00
    0.74458E-02        -0.11606E-02         0.00000E+00
    0.70947E-02        -0.10790E-02         0.00000E+00
    0.67407E-02        -0.99971E-03         0.00000E+00
    0.63840E-02        -0.92275E-03         0.00000E+00
    0.60248E-02        -0.84812E-03         0.00000E+00
    0.56630E-02        -0.77586E-03         0.00000E+00
    0.52989E-02        -0.70601E-03         0.00000E+00
    0.49324E-02        -0.63859E-03         0.00000E+00
    0.45638E-02        -0.57363E-03         0.00000E+00
    0.41932E-02        -0.51117E-03         0.00000E+00
    0.38205E-02        -0.45125E-03         0.00000E+00
    0.34459E-02        -0.39390E-03         0.00000E+00
    0.30695E-02        -0.33916E-03         0.00000E+00
    0.26913E-02        -0.28707E-03         0.00000E+00
    0.23114E-02        -0.23766E-03         0.00000E+00
    0.19299E-02        -0.19099E-03         0.00000E+00
    0.15469E-02        -0.14708E-03         0.00000E+00
    0.11623E-02        -0.10598E-03         0.00000E+00
    0.77624E-03        -0.67744E-04         0.00000E+00
    0.38880E-03        -0.32401E-04         0.00000E+00
    0.00000E+00         0.00000E+00         0.00000E+00
    0.17135E-01        -0.54624E-02         0.00000E+00
    0.16937E-01        -0.53030E-02         0.00000E+00
    0.16727E-01        -0.51454E-02         0.00000E+00
    0.16507E-01        -0.49895E-02         0.00000E+00
    0.16278E-01        -0.48355E-02         0.00000E+00
    0.16038E-01        -0.46834E-02         0.00000E+00
    0.15790E-01        -0.45332E-02         0.00000E+00
    0.15533E-01        -0.43849E-02         0.00000E+00
    0.15267E-01        -0.42385E-02         0.00000E+00
    0.14994E-01        -0.40942E-02         0.00000E+00
    0.14713E-01        -0.39518E-02         0.00000E+00
    0.14425E-01        -0.38114E-02         0.00000E+00
    0.14130E-01        -0.36730E-02         0.00000E+00
    0.13829E-01        -0.35365E-02         0.00000E+00
    0.13521E-01        -0.34021E-02         0.00000E+00
    0.13207E-01        -0.32697E-02         0.00000E+00
    0.12888E-01        -0.31393E-02         0.00000E+00
    0.12563E-01        -0.30109E-02         0.00000E+00
    0.12234E-01        -0.28845E-02         0.00000E+00
    0.11899E-01        -0.27601E-02         0.00000E+00
    0.11560E-01        -0.26377E-02         0.00000E+00
    0.11216E-01        -0.25174E-02         0.00000E+00
    0.10868E-01        -0.23991E-02         0.00000E+00
    0.10516E-01        -0.22828E-02         0.00000E+00
    0.10160E-01        -0.21686E-02         0.00000E+00
    0.98010E-02        -0.20564E-02         0.00000E+00
    0.94381E-02        -0.19463E-02         0.00000E+00
    0.90718E-02        -0.18383E-02         0.00000E+00
    0.87024E-02        -0.17324E-02         0.00000E+00
    0.83299E-02        -0.16286E-02         0.00000E+00
    0.79546E-02        -0.15270E-02         0.00000E+00
    0.75765E-02        -0.14275E-02         0.00000E+00
    0.71957E-02        -0.13303E-02         0.00000E+00
    0.68125E-02        -0.12353E-02         0.00000E+00
    0.64268E-02        -0.11425E-02         0.00000E+00
    0.60388E-02        -0.10520E-02         0.00000E+00
    0.56486E-02        -0.96393E-03         0.00000E+00
    0.52563E-02        -0.87818E-03         0.00000E+00
    0.48620E-02        -0.79485E-03         0.00000E+00
    0.44658E-02        -0.71398E-03         0.00000E+00
    0.40677E-02        -0.63561E-03         0.00000E+00
    0.36679E-02        -0.55978E-03         0.00000E+00
    0.32663E-02        -0.48655E-03         0.00000E+00
    0.28631E-02        -0.41596E-03         0.00000E+00
    0.24583E-02        -0.34805E-03         0.00000E+00
    0.20521E-02        -0.28289E-03         0.00000E+00
    0.16444E-02        -0.22052E-03         0.00000E+00
    0.12352E-02        -0.16099E-03         0.00000E+00
    0.82479E-03        -0.10436E-03         0.00000E+00
    0.41302E-03        -0.50681E-04         0.00000E+00
    0.00000E+00         0.00000E+00         0.00000E+00
    0.18645E-01        -0.65163E-02         0.00000E+00
    0.18409E-01        -0.63361E-02         0.00000E+00
    0.18163E-01        -0.61579E-02         0.00000E+00
    0.17906E-01        -0.59818E-02         0.00000E+00
    0.17640E-01        -0.58078E-02         0.00000E+00
    0.17364E-01        -0.56358E-02         0.00000E+00
    0.17079E-01        -0.54658E-02         0.00000E+00
    0.16786E-01        -0.52979E-02         0.00000E+00
    0.16485E-01        -0.51321E-02         0.00000E+00
    0.16176E-01        -0.49683E-02         0.00000E+00
    0.15860E-01        -0.48065E-02         0.00000E+00
    0.15537E-01        -0.46468E-02         0.00000E+00
    0.15207E-01        -0.44890E-02         0.00000E+00
    0.14872E-01        -0.43333E-02         0.00000E+00
    0.14530E-01        -0.41795E-02         0.00000E+00
    0.14183E-01        -0.40276E-02         0.00000E+00
    0.13831E-01        -0.38777E-02         0.00000E+00
    0.13474E-01        -0.37296E-02         0.00000E+00
    0.13112E-01        -0.35835E-02         0.00000E+00
    0.12746E-01        -0.34393E-02         0.00000E+00
    0.12375E-01        -0.32970E-02         0.00000E+00
    0.12000E-01        -0.31566E-02         0.00000E+00
    0.11622E-01        -0.30180E-02         0.00000E+00
    0.11239E-01        -0.28813E-02         0.00000E+00
    0.10854E-01        -0.27465E-02         0.00000E+00
    0.10465E-01        -0.26137E-02         0.00000E+00
    0.10073E-01        -0.24827E-02         0.00000E+00
    0.96775E-02        -0.23536E-02         0.00000E+00
    0.92794E-02        -0.22265E-02         0.00000E+00
    0.88787E-02        -0.21014E-02         0.00000E+00
    0.84753E-02        -0.19782E-02         0.00000E+00
    0.80695E-02        -0.18571E-02         0.00000E+00
    0.76612E-02        -0.17380E-02         0.00000E+00
    0.72507E-02        -0.16210E-02         0.00000E+00
    0.68379E-02        -0.15061E-02         0.00000E+00
    0.64231E-02        -0.13934E-02         0.00000E+00
    0.60063E-02        -0.12829E-02         0.00000E+00
    0.55875E-02        -0.11747E-02         0.00000E+00
    0.51670E-02        -0.10688E-02         0.00000E+00
    0.47446E-02        -0.96527E-03         0.00000E+00
    0.43205E-02        -0.86417E-03         0.00000E+00
    0.38948E-02        -0.76554E-03         0.00000E+00
    0.34676E-02        -0.66947E-03         0.00000E+00
    0.30388E-02        -0.57599E-03         0.00000E+00
    0.26086E-02        -0.48519E-03         0.00000E+00
    0.21770E-02        -0.39711E-03         0.00000E+00
    0.17441E-02        -0.31184E-03         0.00000E+00
    0.13099E-02        -0.22942E-03         0.00000E+00
    0.87443E-03        -0.14993E-03         0.00000E+00
    0.43779E-03        -0.73437E-04         0.00000E+00
    0.00000E+00         0.00000E+00         0.00000E+00
    0.20241E-01        -0.77698E-02         0.00000E+00
    0.19963E-01        -0.75661E-02         0.00000E+00
    0.19674E-01        -0.73648E-02         0.00000E+00
    0.19375E-01        -0.71658E-02         0.00000E+00
    0.19067E-01        -0.69690E-02         0.00000E+00
    0.18749E-01        -0.67745E-02         0.00000E+00
    0.18423E-01        -0.65822E-02         0.00000E+00
    0.18090E-01        -0.63920E-02         0.00000E+00
    0.17748E-01        -0.62040E-02         0.00000E+00
    0.17400E-01        -0.60180E-02         0.00000E+00
    0.17045E-01        -0.58341E-02         0.00000E+00
    0.16684E-01        -0.56521E-02         0.00000E+00
    0.16317E-01        -0.54721E-02         0.00000E+00
    0.15945E-01        -0.52940E-02         0.00000E+00
    0.15567E-01        -0.51178E-02         0.00000E+00
    0.15184E-01        -0.49433E-02         0.00000E+00
    0.14797E-01        -0.47707E-02         0.00000E+00
    0.14405E-01        -0.45997E-02         0.00000E+00
    0.14009E-01        -0.44305E-02         0.00000E+00
    0.13610E-01        -0.42630E-02         0.00000E+00
    0.13206E-01        -0.40972E-02         0.00000E+00
    0.12799E-01        -0.39330E-02         0.00000E+00
    0.12389E-01        -0.37705E-02         0.00000E+00
    0.11975E-01        -0.36096E-02         0.00000E+00
    0.11559E-01        -0.34504E-02         0.00000E+00
    0.11140E-01        -0.32928E-02         0.00000E+00
    0.10717E-01        -0.31368E-02         0.00000E+00
    0.10293E-01        -0.29825E-02         0.00000E+00
    0.98656E-02        -0.28300E-02         0.00000E+00
    0.94361E-02        -0.26791E-02         0.00000E+00
    0.90042E-02        -0.25299E-02         0.00000E+00
    0.85702E-02        -0.23826E-02         0.00000E+00
    0.81341E-02        -0.22371E-02         0.00000E+00
    0.76959E-02        -0.20934E-02         0.00000E+00
    0.72558E-02        -0.19517E-02         0.00000E+00
    0.68138E-02        -0.18119E-02         0.00000E+00
    0.63700E-02        -0.16742E-02         0.00000E+00
    0.59245E-02        -0.15386E-02         0.00000E+00
    0.54773E-02        -0.14051E-02         0.00000E+00
    0.50285E-02        -0.12739E-02         0.00000E+00
    0.45781E-02        -0.11449E-02         0.00000E+00
    0.41262E-02        -0.10184E-02         0.00000E+00
    0.36728E-02        -0.89433E-03         0.00000E+00
    0.32181E-02        -0.77278E-03         0.00000E+00
    0.27620E-02        -0.65386E-03         0.00000E+00
    0.23046E-02        -0.53764E-03         0.00000E+00
    0.18460E-02        -0.42421E-03         0.00000E+00
    0.13862E-02        -0.31365E-03         0.00000E+00
    0.92519E-03        -0.20603E-03         0.00000E+00
    0.46312E-03        -0.10146E-03         0.00000E+00
    0.00000E+00         0.00000E+00         0.00000E+00
    0.21914E-01        -0.92563E-02         0.00000E+00
    0.21586E-01        -0.90262E-02         0.00000E+00
    0.21248E-01        -0.87987E-02         0.00000E+00
    0.20901E-01        -0.85738E-02         0.00000E+00
    0.20545E-01        -0.83514E-02         0.00000E+00
    0.20181E-01        -0.81314E-02         0.00000E+00
    0.19809E-01        -0.79137E-02         0.00000E+00
    0.19430E-01        -0.76982E-02         0.00000E+00
    0.19045E-01        -0.74848E-02         0.00000E+00
    0.18654E-01        -0.72735E-02         0.00000E+00
    0.18257E-01        -0.70642E-02         0.00000E+00
    0.17855E-01        -0.68568E-02         0.00000E+00
    0.17447E-01        -0.66512E-02         0.00000E+00
    0.17035E-01        -0.64473E-02         0.00000E+00
    0.16619E-01        -0.62450E-02         0.00000E+00
    0.16198E-01        -0.60444E-02         0.00000E+00
    0.15774E-01        -0.58452E-02         0.00000E+00
    0.15347E-01        -0.56476E-02         0.00000E+00
    0.14915E-01        -0.54514E-02         0.00000E+00
    0.14481E-01        -0.52565E-02         0.00000E+00
    0.14044E-01        -0.50630E-02         0.00000E+00
    0.13604E-01        -0.48708E-02         0.00000E+00
    0.13161E-01        -0.46800E-02         0.00000E+00
    0.12716E-01        -0.44904E-02         0.00000E+00
    0.12268E-01        -0.43020E-02         0.00000E+00
    0.11818E-01        -0.41150E-02         0.00000E+00
    0.11366E-01        -0.39293E-02         0.00000E+00
    0.10912E-01        -0.37448E-02         0.00000E+00
    0.10455E-01        -0.35617E-02         0.00000E+00
    0.99971E-02        -0.33800E-02         0.00000E+00
    0.95369E-02        -0.31996E-02         0.00000E+00
    0.90748E-02        -0.30207E-02         0.00000E+00
    0.86109E-02        -0.28433E-02         0.00000E+00
    0.81452E-02        -0.26675E-02         0.00000E+00
    0.76778E-02        -0.24933E-02         0.00000E+00
    0.72087E-02        -0.23208E-02         0.00000E+00
    0.67380E-02        -0.21501E-02         0.00000E+00
    0.62657E-02        -0.19813E-02         0.00000E+00
    0.57919E-02        -0.18144E-02         0.00000E+00
    0.53166E-02        -0.16495E-02         0.00000E+00
    0.48397E-02        -0.14868E-02         0.00000E+00
    0.43615E-02        -0.13264E-02         0.00000E+00
    0.38818E-02        -0.11682E-02         0.00000E+00
    0.34008E-02        -0.10125E-02         0.00000E+00
    0.29185E-02        -0.85937E-03         0.00000E+00
    0.24350E-02        -0.70888E-03         0.00000E+00
    0.19502E-02        -0.56115E-03         0.00000E+00
    0.14643E-02        -0.41629E-03         0.00000E+00
    0.97721E-03        -0.27440E-03         0.00000E+00
    0.48911E-03        -0.13561E-03         0.00000E+00
    0.00000E+00         0.00000E+00         0.00000E+00
    0.23648E-01        -0.11013E-01         0.00000E+00
    0.23262E-01        -0.10753E-01         0.00000E+00
    0.22868E-01        -0.10496E-01         0.00000E+00
    0.22466E-01        -0.10242E-01         0.00000E+00
    0.22057E-01        -0.99904E-02         0.00000E+00
    0.21640E-01        -0.97415E-02         0.00000E+00
    0.21218E-01        -0.94950E-02         0.00000E+00
    0.20790E-01        -0.92507E-02         0.00000E+00
    0.20357E-01        -0.90085E-02         0.00000E+00
    0.19919E-01        -0.87683E-02         0.00000E+00
    0.19476E-01        -0.85299E-02         0.00000E+00
    0.19030E-01        -0.82932E-02         0.00000E+00
    0.18580E-01        -0.80580E-02         0.00000E+00
    0.18126E-01        -0.78244E-02         0.00000E+00
    0.17670E-01        -0.75920E-02         0.00000E+00
    0.17210E-01        -0.73609E-02         0.00000E+00
    0.16748E-01        -0.71310E-02         0.00000E+00
    0.16283E-01        -0.69022E-02         0.00000E+00
    0.15816E-01        -0.66743E-02         0.00000E+00
    0.15347E-01        -0.64474E-02         0.00000E+00
    0.14876E-01        -0.62214E-02         0.00000E+00
    0.14403E-01        -0.59962E-02         0.00000E+00
    0.13928E-01        -0.57719E-02         0.00000E+00
    0.13451E-01        -0.55483E-02         0.00000E+00
    0.12972E-01        -0.53255E-02         0.00000E+00
    0.12492E-01        -0.51036E-02         0.00000E+00
    0.12011E-01        -0.48824E-02         0.00000E+00
    0.11527E-01        -0.46620E-02         0.00000E+00
    0.11042E-01        -0.44425E-02         0.00000E+00
    0.10556E-01        -0.42239E-02         0.00000E+00
    0.10068E-01        -0.40062E-02         0.00000E+00
    0.95785E-02        -0.37896E-02         0.00000E+00
    0.90875E-02        -0.35740E-02         0.00000E+00
    0.85950E-02        -0.33596E-02         0.00000E+00
    0.81010E-02        -0.31464E-02         0.00000E+00
    0.76054E-02        -0.29346E-02         0.00000E+00
    0.71084E-02        -0.27243E-02         0.00000E+00
    0.66098E-02        -0.25154E-02         0.00000E+00
    0.61097E-02        -0.23083E-02         0.00000E+00
    0.56081E-02        -0.21029E-02         0.00000E+00
    0.51051E-02        -0.18995E-02         0.00000E+00
    0.46006E-02        -0.16980E-02         0.00000E+00
    0.40946E-02        -0.14988E-02         0.00000E+00
    0.35873E-02        -0.13019E-02         0.00000E+00
    0.30785E-02        -0.11074E-02         0.00000E+00
    0.25685E-02        -0.91556E-03         0.00000E+00
    0.20571E-02        -0.72642E-03         0.00000E+00
    0.15446E-02        -0.54016E-03         0.00000E+00
    0.10308E-02        -0.35691E-03         0.00000E+00
    0.51592E-03        -0.17681E-03         0.00000E+00
    0.00000E+00         0.00000E+00         0.00000E+00
    0.25417E-01        -0.13079E-01         0.00000E+00
    0.24966E-01        -0.12786E-01         0.00000E+00
    0.24509E-01        -0.12496E-01         0.00000E+00
    0.24045E-01        -0.12209E-01         0.00000E+00
    0.23576E-01        -0.11924E-01         0.00000E+00
    0.23103E-01        -0.11643E-01         0.00000E+00
    0.22625E-01        -0.11364E-01         0.00000E+00
    0.22143E-01        -0.11087E-01         0.00000E+00
    0.21658E-01        -0.10812E-01         0.00000E+00
    0.21171E-01        -0.10538E-01         0.00000E+00
    0.20680E-01        -0.10267E-01         0.00000E+00
    0.20188E-01        -0.99962E-02         0.00000E+00
    0.19693E-01        -0.97271E-02         0.00000E+00
    0.19196E-01        -0.94591E-02         0.00000E+00
    0.18699E-01        -0.91919E-02         0.00000E+00
    0.18199E-01        -0.89255E-02         0.00000E+00
    0.17699E-01        -0.86598E-02         0.00000E+00
    0.17197E-01        -0.83945E-02         0.00000E+00
    0.16694E-01        -0.81297E-02         0.00000E+00
    0.16191E-01        -0.78653E-02         0.00000E+00
    0.15686E-01        -0.76011E-02         0.00000E+00
    0.15181E-01        -0.73372E-02         0.00000E+00
    0.14675E-01        -0.70734E-02         0.00000E+00
    0.14168E-01        -0.68099E-02         0.00000E+00
    0.13660E-01        -0.65464E-02         0.00000E+00
    0.13151E-01        -0.62831E-02         0.00000E+00
    0.12641E-01        -0.60200E-02         0.00000E+00
    0.12130E-01        -0.57571E-02         0.00000E+00
    0.11619E-01        -0.54944E-02         0.00000E+00
    0.11106E-01        -0.52320E-02         0.00000E+00
    0.10591E-01        -0.49699E-02         0.00000E+00
    0.10076E-01        -0.47083E-02         0.00000E+00
    0.95596E-02        -0.44473E-02         0.00000E+00
    0.90416E-02        -0.41869E-02         0.00000E+00
    0.85223E-02        -0.39273E-02         0.00000E+00
    0.80014E-02        -0.36685E-02         0.00000E+00
    0.74791E-02        -0.34108E-02         0.00000E+00
    0.69553E-02        -0.31542E-02         0.00000E+00
    0.64298E-02        -0.28989E-02         0.00000E+00
    0.59027E-02        -0.26451E-02         0.00000E+00
    0.53740E-02        -0.23929E-02         0.00000E+00
    0.48437E-02        -0.21426E-02         0.00000E+00
    0.43117E-02        -0.18942E-02         0.00000E+00
    0.37781E-02        -0.16480E-02         0.00000E+00
    0.32428E-02        -0.14041E-02         0.00000E+00
    0.27060E-02        -0.11627E-02         0.00000E+00
    0.21676E-02        -0.92402E-03         0.00000E+00
    0.16277E-02        -0.68823E-03         0.00000E+00
    0.10865E-02        -0.45552E-03         0.00000E+00
    0.54386E-03        -0.22605E-03         0.00000E+00
    0.00000E+00         0.00000E+00         0.00000E+00
    0.27187E-01        -0.15498E-01         0.00000E+00
    0.26663E-01        -0.15167E-01         0.00000E+00
    0.26135E-01        -0.14839E-01         0.00000E+00
    0.25604E-01        -0.14515E-01         0.00000E+00
    0.25070E-01        -0.14194E-01         0.00000E+00
    0.24534E-01        -0.13875E-01         0.00000E+00
    0.23996E-01        -0.13559E-01         0.00000E+00
    0.23458E-01        -0.13245E-01         0.00000E+00
    0.22918E-01        -0.12932E-01         0.00000E+00
    0.22378E-01        -0.12621E-01         0.00000E+00
    0.21838E-01        -0.12311E-01         0.00000E+00
    0.21298E-01        -0.12002E-01         0.00000E+00
    0.20758E-01        -0.11694E-01         0.00000E+00
    0.20218E-01        -0.11386E-01         0.00000E+00
    0.19679E-01        -0.11079E-01         0.00000E+00
    0.19140E-01        -0.10772E-01         0.00000E+00
    0.18603E-01        -0.10464E-01         0.00000E+00
    0.18065E-01        -0.10157E-01         0.00000E+00
    0.17528E-01        -0.98489E-02         0.00000E+00
    0.16992E-01        -0.95406E-02         0.00000E+00
    0.16456E-01        -0.92319E-02         0.00000E+00
    0.15921E-01        -0.89226E-02         0.00000E+00
    0.15386E-01        -0.86126E-02         0.00000E+00
    0.14851E-01        -0.83020E-02         0.00000E+00
    0.14316E-01        -0.79908E-02         0.00000E+00
    0.13781E-01        -0.76789E-02         0.00000E+00
    0.13246E-01        -0.73664E-02         0.00000E+00
    0.12710E-01        -0.70533E-02         0.00000E+00
    0.12174E-01        -0.67397E-02         0.00000E+00
    0.11638E-01        -0.64256E-02         0.00000E+00
    0.11100E-01        -0.61112E-02         0.00000E+00
    0.10561E-01        -0.57965E-02         0.00000E+00
    0.10022E-01        -0.54817E-02         0.00000E+00
    0.94805E-02        -0.51669E-02         0.00000E+00
    0.89380E-02        -0.48522E-02         0.00000E+00
    0.83940E-02        -0.45379E-02         0.00000E+00
    0.78483E-02        -0.42241E-02         0.00000E+00
    0.73008E-02        -0.39110E-02         0.00000E+00
    0.67515E-02        -0.35987E-02         0.00000E+00
    0.62001E-02        -0.32875E-02         0.00000E+00
    0.56468E-02        -0.29776E-02         0.00000E+00
    0.50914E-02        -0.26692E-02         0.00000E+00
    0.45339E-02        -0.23625E-02         0.00000E+00
    0.39743E-02        -0.20579E-02         0.00000E+00
    0.34125E-02        -0.17554E-02         0.00000E+00
    0.28486E-02        -0.14553E-02         0.00000E+00
    0.22827E-02        -0.11580E-02         0.00000E+00
    0.17148E-02        -0.86351E-03         0.00000E+00
    0.11450E-02        -0.57221E-03         0.00000E+00
    0.57335E-03        -0.28430E-03         0.00000E+00
    0.00000E+00         0.00000E+00         0.00000E+00
    0.28913E-01        -0.18312E-01         0.00000E+00
    0.28308E-01        -0.17939E-01         0.00000E+00
    0.27702E-01        -0.17570E-01         0.00000E+00
    0.27097E-01        -0.17203E-01         0.00000E+00
    0.26492E-01        -0.16840E-01         0.00000E+00
    0.25890E-01        -0.16480E-01         0.00000E+00
    0.25289E-01        -0.16121E-01         0.00000E+00
    0.24690E-01        -0.15765E-01         0.00000E+00
    0.24094E-01        -0.15409E-01         0.00000E+00
    0.23501E-01        -0.15055E-01         0.00000E+00
    0.22910E-01        -0.14702E-01         0.00000E+00
    0.22323E-01        -0.14348E-01         0.00000E+00
    0.21738E-01        -0.13995E-01         0.00000E+00
    0.21157E-01        -0.13641E-01         0.00000E+00
    0.20578E-01        -0.13287E-01         0.00000E+00
    0.20002E-01        -0.12933E-01         0.00000E+00
    0.19429E-01        -0.12577E-01         0.00000E+00
    0.18859E-01        -0.12220E-01         0.00000E+00
    0.18291E-01        -0.11863E-01         0.00000E+00
    0.17726E-01        -0.11503E-01         0.00000E+00
    0.17162E-01        -0.11143E-01         0.00000E+00
    0.16600E-01        -0.10780E-01         0.00000E+00
    0.16040E-01        -0.10417E-01         0.00000E+00
    0.15482E-01        -0.10051E-01         0.00000E+00
    0.14924E-01        -0.96840E-02         0.00000E+00
    0.14367E-01        -0.93153E-02         0.00000E+00
    0.13811E-01        -0.89450E-02         0.00000E+00
    0.13254E-01        -0.85732E-02         0.00000E+00
    0.12698E-01        -0.81999E-02         0.00000E+00
    0.12142E-01        -0.78254E-02         0.00000E+00
    0.11584E-01        -0.74496E-02         0.00000E+00
    0.11026E-01        -0.70727E-02         0.00000E+00
    0.10467E-01        -0.66949E-02         0.00000E+00
    0.99063E-02        -0.63163E-02         0.00000E+00
    0.93440E-02        -0.59372E-02         0.00000E+00
    0.87798E-02        -0.55577E-02         0.00000E+00
    0.82134E-02        -0.51781E-02         0.00000E+00
    0.76448E-02        -0.47986E-02         0.00000E+00
    0.70738E-02        -0.44195E-02         0.00000E+00
    0.65001E-02        -0.40409E-02         0.00000E+00
    0.59237E-02        -0.36633E-02         0.00000E+00
    0.53445E-02        -0.32868E-02         0.00000E+00
    0.47624E-02        -0.29118E-02         0.00000E+00
    0.41773E-02        -0.25385E-02         0.00000E+00
    0.35892E-02        -0.21672E-02         0.00000E+00
    0.29981E-02        -0.17984E-02         0.00000E+00
    0.24040E-02        -0.14321E-02         0.00000E+00
    0.18071E-02        -0.10689E-02         0.00000E+00
    0.12074E-02        -0.70891E-03         0.00000E+00
    0.60495E-03        -0.35251E-03         0.00000E+00
    0.00000E+00         0.00000E+00         0.00000E+00
    0.30533E-01        -0.21565E-01         0.00000E+00
    0.29839E-01        -0.21144E-01         0.00000E+00
    0.29149E-01        -0.20727E-01         0.00000E+00
    0.28465E-01        -0.20313E-01         0.00000E+00
    0.27786E-01        -0.19903E-01         0.00000E+00
    0.27114E-01        -0.19495E-01         0.00000E+00
    0.26448E-01        -0.19089E-01         0.00000E+00
    0.25788E-01        -0.18684E-01         0.00000E+00
    0.25135E-01        -0.18280E-01         0.00000E+00
    0.24489E-01        -0.17876E-01         0.00000E+00
    0.23850E-01        -0.17472E-01         0.00000E+00
    0.23217E-01        -0.17068E-01         0.00000E+00
    0.22590E-01        -0.16663E-01         0.00000E+00
    0.21969E-01        -0.16256E-01         0.00000E+00
    0.21355E-01        -0.15849E-01         0.00000E+00
    0.20746E-01        -0.15439E-01         0.00000E+00
    0.20142E-01        -0.15028E-01         0.00000E+00
    0.19544E-01        -0.14614E-01         0.00000E+00
    0.18950E-01        -0.14198E-01         0.00000E+00
    0.18360E-01        -0.13780E-01         0.00000E+00
    0.17775E-01        -0.13359E-01         0.00000E+00
    0.17193E-01        -0.12936E-01         0.00000E+00
    0.16613E-01        -0.12509E-01         0.00000E+00
    0.16037E-01        -0.12080E-01         0.00000E+00
    0.15462E-01        -0.11648E-01         0.00000E+00
    0.14889E-01        -0.11214E-01         0.00000E+00
    0.14318E-01        -0.10776E-01         0.00000E+00
    0.13747E-01        -0.10336E-01         0.00000E+00
    0.13176E-01        -0.98940E-02         0.00000E+00
    0.12605E-01        -0.94492E-02         0.00000E+00
    0.12034E-01        -0.90022E-02         0.00000E+00
    0.11462E-01        -0.85532E-02         0.00000E+00
    0.10888E-01        -0.81023E-02         0.00000E+00
    0.10312E-01        -0.76497E-02         0.00000E+00
    0.97344E-02        -0.71958E-02         0.00000E+00
    0.91542E-02        -0.67408E-02         0.00000E+00
    0.85711E-02        -0.62848E-02         0.00000E+00
    0.79849E-02        -0.58283E-02         0.00000E+00
    0.73953E-02        -0.53716E-02         0.00000E+00
    0.68020E-02        -0.49149E-02         0.00000E+00
    0.62048E-02        -0.44587E-02         0.00000E+00
    0.56036E-02        -0.40032E-02         0.00000E+00
    0.49983E-02        -0.35488E-02         0.00000E+00
    0.43886E-02        -0.30959E-02         0.00000E+00
    0.37745E-02        -0.26449E-02         0.00000E+00
    0.31561E-02        -0.21961E-02         0.00000E+00
    0.25333E-02        -0.17500E-02         0.00000E+00
    0.19062E-02        -0.13070E-02         0.00000E+00
    0.12748E-02        -0.86734E-03         0.00000E+00
    0.63935E-03        -0.43156E-03         0.00000E+00
    0.00000E+00         0.00000E+00         0.00000E+00
    0.31969E-01        -0.25293E-01         0.00000E+00
    0.31179E-01        -0.24818E-01         0.00000E+00
    0.30401E-01        -0.24348E-01         0.00000E+00
    0.29634E-01        -0.23881E-01         0.00000E+00
    0.28879E-01        -0.23417E-01         0.00000E+00
    0.28136E-01        -0.22955E-01         0.00000E+00
    0.27405E-01        -0.22494E-01         0.00000E+00
    0.26685E-01        -0.22034E-01         0.00000E+00
    0.25978E-01        -0.21574E-01         0.00000E+00
    0.25281E-01        -0.21114E-01         0.00000E+00
    0.24596E-01        -0.20652E-01         0.00000E+00
    0.23922E-01        -0.20189E-01         0.00000E+00
    0.23258E-01        -0.19725E-01         0.00000E+00
    0.22604E-01        -0.19258E-01         0.00000E+00
    0.21960E-01        -0.18788E-01         0.00000E+00
    0.21324E-01        -0.18316E-01         0.00000E+00
    0.20697E-01        -0.17840E-01         0.00000E+00
    0.20078E-01        -0.17361E-01         0.00000E+00
    0.19465E-01        -0.16878E-01         0.00000E+00
    0.18859E-01        -0.16392E-01         0.00000E+00
    0.18259E-01        -0.15901E-01         0.00000E+00
    0.17665E-01        -0.15407E-01         0.00000E+00
    0.17074E-01        -0.14909E-01         0.00000E+00
    0.16488E-01        -0.14406E-01         0.00000E+00
    0.15905E-01        -0.13900E-01         0.00000E+00
    0.15324E-01        -0.13390E-01         0.00000E+00
    0.14745E-01        -0.12875E-01         0.00000E+00
    0.14167E-01        -0.12357E-01         0.00000E+00
    0.13589E-01        -0.11835E-01         0.00000E+00
    0.13012E-01        -0.11310E-01         0.00000E+00
    0.12434E-01        -0.10781E-01         0.00000E+00
    0.11854E-01        -0.10249E-01         0.00000E+00
    0.11272E-01        -0.97147E-02         0.00000E+00
    0.10688E-01        -0.91774E-02         0.00000E+00
    0.10101E-01        -0.86378E-02         0.00000E+00
    0.95106E-02        -0.80962E-02         0.00000E+00
    0.89160E-02        -0.75528E-02         0.00000E+00
    0.83169E-02        -0.70082E-02         0.00000E+00
    0.77129E-02        -0.64626E-02         0.00000E+00
    0.71038E-02        -0.59164E-02         0.00000E+00
    0.64891E-02        -0.53701E-02         0.00000E+00
    0.58686E-02        -0.48241E-02         0.00000E+00
    0.52420E-02        -0.42788E-02         0.00000E+00
    0.46092E-02        -0.37347E-02         0.00000E+00
    0.39700E-02        -0.31923E-02         0.00000E+00
    0.33243E-02        -0.26520E-02         0.00000E+00
    0.26721E-02        -0.21143E-02         0.00000E+00
    0.20135E-02        -0.15798E-02         0.00000E+00
    0.13485E-02        -0.10489E-02         0.00000E+00
    0.67726E-03        -0.52211E-03         0.00000E+00
    0.00000E+00         0.00000E+00         0.00000E+00
    0.33121E-01        -0.29526E-01         0.00000E+00
    0.32232E-01        -0.28991E-01         0.00000E+00
    0.31362E-01        -0.28461E-01         0.00000E+00
    0.30512E-01        -0.27933E-01         0.00000E+00
    0.29681E-01        -0.27408E-01         0.00000E+00
    0.28869E-01        -0.26885E-01         0.00000E+00
    0.28076E-01        -0.26362E-01         0.00000E+00
    0.27301E-01        -0.25838E-01         0.00000E+00
    0.26543E-01        -0.25314E-01         0.00000E+00
    0.25803E-01        -0.24789E-01         0.00000E+00
    0.25079E-01        -0.24261E-01         0.00000E+00
    0.24371E-01        -0.23731E-01         0.00000E+00
    0.23678E-01        -0.23198E-01         0.00000E+00
    0.23000E-01        -0.22661E-01         0.00000E+00
    0.22334E-01        -0.22120E-01         0.00000E+00
    0.21681E-01        -0.21575E-01         0.00000E+00
    0.21040E-01        -0.21026E-01         0.00000E+00
    0.20410E-01        -0.20472E-01         0.00000E+00
    0.19789E-01        -0.19912E-01         0.00000E+00
    0.19178E-01        -0.19348E-01         0.00000E+00
    0.18574E-01        -0.18778E-01         0.00000E+00
    0.17977E-01        -0.18203E-01         0.00000E+00
    0.17386E-01        -0.17622E-01         0.00000E+00
    0.16800E-01        -0.17036E-01         0.00000E+00
    0.16219E-01        -0.16445E-01         0.00000E+00
    0.15640E-01        -0.15848E-01         0.00000E+00
    0.15064E-01        -0.15246E-01         0.00000E+00
    0.14489E-01        -0.14640E-01         0.00000E+00
    0.13915E-01        -0.14028E-01         0.00000E+00
    0.13340E-01        -0.13411E-01         0.00000E+00
    0.12764E-01        -0.12790E-01         0.00000E+00
    0.12186E-01        -0.12165E-01         0.00000E+00
    0.11605E-01        -0.11535E-01         0.00000E+00
    0.11021E-01        -0.10902E-01         0.00000E+00
    0.10432E-01        -0.10266E-01         0.00000E+00
    0.98383E-02        -0.96269E-02         0.00000E+00
    0.92389E-02        -0.89850E-02         0.00000E+00
    0.86332E-02        -0.83409E-02         0.00000E+00
    0.80206E-02        -0.76951E-02         0.00000E+00
    0.74007E-02        -0.70481E-02         0.00000E+00
    0.67729E-02        -0.64002E-02         0.00000E+00
    0.61368E-02        -0.57521E-02         0.00000E+00
    0.54921E-02        -0.51042E-02         0.00000E+00
    0.48384E-02        -0.44571E-02         0.00000E+00
    0.41755E-02        -0.38114E-02         0.00000E+00
    0.35032E-02        -0.31676E-02         0.00000E+00
    0.28215E-02        -0.25264E-02         0.00000E+00
    0.21302E-02        -0.18885E-02         0.00000E+00
    0.14294E-02        -0.12543E-02         0.00000E+00
    0.71929E-03        -0.62459E-03         0.00000E+00
    0.00000E+00         0.00000E+00         0.00000E+00
    0.33865E-01        -0.34282E-01         0.00000E+00
    0.32877E-01        -0.33679E-01         0.00000E+00
    0.31917E-01        -0.33079E-01         0.00000E+00
    0.30987E-01        -0.32483E-01         0.00000E+00
    0.30084E-01        -0.31888E-01         0.00000E+00
    0.29209E-01        -0.31294E-01         0.00000E+00
    0.28361E-01        -0.30700E-01         0.00000E+00
    0.27538E-01        -0.30104E-01         0.00000E+00
    0.26740E-01        -0.29507E-01         0.00000E+00
    0.25965E-01        -0.28907E-01         0.00000E+00
    0.25214E-01        -0.28303E-01         0.00000E+00
    0.24483E-01        -0.27695E-01         0.00000E+00
    0.23773E-01        -0.27083E-01         0.00000E+00
    0.23082E-01        -0.26466E-01         0.00000E+00
    0.22408E-01        -0.25844E-01         0.00000E+00
    0.21751E-01        -0.25216E-01         0.00000E+00
    0.21109E-01        -0.24581E-01         0.00000E+00
    0.20481E-01        -0.23941E-01         0.00000E+00
    0.19865E-01        -0.23294E-01         0.00000E+00
    0.19261E-01        -0.22641E-01         0.00000E+00
    0.18667E-01        -0.21981E-01         0.00000E+00
    0.18081E-01        -0.21314E-01         0.00000E+00
    0.17503E-01        -0.20641E-01         0.00000E+00
    0.16931E-01        -0.19960E-01         0.00000E+00
    0.16363E-01        -0.19273E-01         0.00000E+00
    0.15800E-01        -0.18580E-01         0.00000E+00
    0.15239E-01        -0.17880E-01         0.00000E+00
    0.14679E-01        -0.17174E-01         0.00000E+00
    0.14120E-01        -0.16462E-01         0.00000E+00
    0.13560E-01        -0.15743E-01         0.00000E+00
    0.12997E-01        -0.15020E-01         0.00000E+00
    0.12432E-01        -0.14290E-01         0.00000E+00
    0.11862E-01        -0.13556E-01         0.00000E+00
    0.11288E-01        -0.12817E-01         0.00000E+00
    0.10707E-01        -0.12074E-01         0.00000E+00
    0.10119E-01        -0.11326E-01         0.00000E+00
    0.95238E-02        -0.10576E-01         0.00000E+00
    0.89197E-02        -0.98215E-02         0.00000E+00
    0.83060E-02        -0.90649E-02         0.00000E+00
    0.76821E-02        -0.83062E-02         0.00000E+00
    0.70474E-02        -0.75459E-02         0.00000E+00
    0.64012E-02        -0.67846E-02         0.00000E+00
    0.57428E-02        -0.60230E-02         0.00000E+00
    0.50720E-02        -0.52617E-02         0.00000E+00
    0.43881E-02        -0.45013E-02         0.00000E+00
    0.36910E-02        -0.37425E-02         0.00000E+00
    0.29803E-02        -0.29862E-02         0.00000E+00
    0.22558E-02        -0.22329E-02         0.00000E+00
    0.15176E-02        -0.14836E-02         0.00000E+00
    0.76560E-03        -0.73904E-03         0.00000E+00
    0.00000E+00         0.00000E+00         0.00000E+00
    0.34053E-01        -0.39554E-01         0.00000E+00
    0.32969E-01        -0.38874E-01         0.00000E+00
    0.31927E-01        -0.38196E-01         0.00000E+00
    0.30924E-01        -0.37521E-01         0.00000E+00
    0.29960E-01        -0.36847E-01         0.00000E+00
    0.29033E-01        -0.36172E-01         0.00000E+00
    0.28141E-01        -0.35495E-01         0.00000E+00
    0.27284E-01        -0.34816E-01         0.00000E+00
    0.26460E-01        -0.34134E-01         0.00000E+00
    0.25666E-01        -0.33447E-01         0.00000E+00
    0.24902E-01        -0.32756E-01         0.00000E+00
    0.24165E-01        -0.32059E-01         0.00000E+00
    0.23454E-01        -0.31356E-01         0.00000E+00
    0.22766E-01        -0.30647E-01         0.00000E+00
    0.22101E-01        -0.29930E-01         0.00000E+00
    0.21456E-01        -0.29207E-01         0.00000E+00
    0.20830E-01        -0.28477E-01         0.00000E+00
    0.20221E-01        -0.27738E-01         0.00000E+00
    0.19627E-01        -0.26992E-01         0.00000E+00
    0.19046E-01        -0.26239E-01         0.00000E+00
    0.18477E-01        -0.25477E-01         0.00000E+00
    0.17918E-01        -0.24708E-01         0.00000E+00
    0.17368E-01        -0.23930E-01         0.00000E+00
    0.16825E-01        -0.23145E-01         0.00000E+00
    0.16287E-01        -0.22352E-01         0.00000E+00
    0.15754E-01        -0.21552E-01         0.00000E+00
    0.15222E-01        -0.20744E-01         0.00000E+00
    0.14692E-01        -0.19929E-01         0.00000E+00
    0.14161E-01        -0.19107E-01         0.00000E+00
    0.13629E-01        -0.18278E-01         0.00000E+00
    0.13094E-01        -0.17442E-01         0.00000E+00
    0.12554E-01        -0.16600E-01         0.00000E+00
    0.12008E-01        -0.15752E-01         0.00000E+00
    0.11455E-01        -0.14898E-01         0.00000E+00
    0.10894E-01        -0.14039E-01         0.00000E+00
    0.10324E-01        -0.13175E-01         0.00000E+00
    0.97436E-02        -0.12306E-01         0.00000E+00
    0.91514E-02        -0.11434E-01         0.00000E+00
    0.85465E-02        -0.10557E-01         0.00000E+00
    0.79279E-02        -0.96781E-02         0.00000E+00
    0.72948E-02        -0.87963E-02         0.00000E+00
    0.66461E-02        -0.79125E-02         0.00000E+00
    0.59811E-02        -0.70276E-02         0.00000E+00
    0.52990E-02        -0.61422E-02         0.00000E+00
    0.45991E-02        -0.52570E-02         0.00000E+00
    0.38808E-02        -0.43729E-02         0.00000E+00
    0.31436E-02        -0.34908E-02         0.00000E+00
    0.23872E-02        -0.26114E-02         0.00000E+00
    0.16112E-02        -0.17359E-02         0.00000E+00
    0.81548E-03        -0.86505E-03         0.00000E+00
    0.00000E+00         0.00000E+00         0.00000E+00
    0.33504E-01        -0.45309E-01         0.00000E+00
    0.32337E-01        -0.44540E-01         0.00000E+00
    0.31225E-01        -0.43773E-01         0.00000E+00
    0.30166E-01        -0.43007E-01         0.00000E+00
    0.29157E-01        -0.42240E-01         0.00000E+00
    0.28196E-01        -0.41472E-01         0.00000E+00
    0.27282E-01        -0.40700E-01         0.00000E+00
    0.26410E-01        -0.39924E-01         0.00000E+00
    0.25580E-01        -0.39143E-01         0.00000E+00
    0.24788E-01        -0.38357E-01         0.00000E+00
    0.24033E-01        -0.37564E-01         0.00000E+00
    0.23311E-01        -0.36764E-01         0.00000E+00
    0.22620E-01        -0.35956E-01         0.00000E+00
    0.21958E-01        -0.35141E-01         0.00000E+00
    0.21322E-01        -0.34317E-01         0.00000E+00
    0.20710E-01        -0.33486E-01         0.00000E+00
    0.20119E-01        -0.32645E-01         0.00000E+00
    0.19549E-01        -0.31797E-01         0.00000E+00
    0.18995E-01        -0.30939E-01         0.00000E+00
    0.18457E-01        -0.30073E-01         0.00000E+00
    0.17932E-01        -0.29199E-01         0.00000E+00
    0.17418E-01        -0.28316E-01         0.00000E+00
    0.16913E-01        -0.27424E-01         0.00000E+00
    0.16416E-01        -0.26524E-01         0.00000E+00
    0.15924E-01        -0.25616E-01         0.00000E+00
    0.15436E-01        -0.24700E-01         0.00000E+00
    0.14950E-01        -0.23776E-01         0.00000E+00
    0.14465E-01        -0.22844E-01         0.00000E+00
    0.13978E-01        -0.21905E-01         0.00000E+00
    0.13488E-01        -0.20958E-01         0.00000E+00
    0.12994E-01        -0.20004E-01         0.00000E+00
    0.12495E-01        -0.19043E-01         0.00000E+00
    0.11987E-01        -0.18076E-01         0.00000E+00
    0.11471E-01        -0.17102E-01         0.00000E+00
    0.10944E-01        -0.16121E-01         0.00000E+00
    0.10405E-01        -0.15135E-01         0.00000E+00
    0.98525E-02        -0.14143E-01         0.00000E+00
    0.92854E-02        -0.13147E-01         0.00000E+00
    0.87021E-02        -0.12145E-01         0.00000E+00
    0.81013E-02        -0.11139E-01         0.00000E+00
    0.74815E-02        -0.10130E-01         0.00000E+00
    0.68417E-02        -0.91175E-02         0.00000E+00
    0.61805E-02        -0.81027E-02         0.00000E+00
    0.54967E-02        -0.70861E-02         0.00000E+00
    0.47893E-02        -0.60687E-02         0.00000E+00
    0.40573E-02        -0.50512E-02         0.00000E+00
    0.32998E-02        -0.40347E-02         0.00000E+00
    0.25159E-02        -0.30202E-02         0.00000E+00
    0.17050E-02        -0.20088E-02         0.00000E+00
    0.86645E-03        -0.10016E-02         0.00000E+00
    0.00000E+00         0.00000E+00         0.00000E+00
    0.32005E-01        -0.51467E-01         0.00000E+00
    0.30777E-01        -0.50596E-01         0.00000E+00
    0.29620E-01        -0.49726E-01         0.00000E+00
    0.28530E-01        -0.48855E-01         0.00000E+00
    0.27504E-01        -0.47981E-01         0.00000E+00
    0.26538E-01        -0.47104E-01         0.00000E+00
    0.25628E-01        -0.46221E-01         0.00000E+00
    0.24772E-01        -0.45332E-01         0.00000E+00
    0.23965E-01        -0.44436E-01         0.00000E+00
    0.23204E-01        -0.43533E-01         0.00000E+00
    0.22485E-01        -0.42622E-01         0.00000E+00
    0.21806E-01        -0.41702E-01         0.00000E+00
    0.21162E-01        -0.40774E-01         0.00000E+00
    0.20551E-01        -0.39837E-01         0.00000E+00
    0.19969E-01        -0.38891E-01         0.00000E+00
    0.19414E-01        -0.37936E-01         0.00000E+00
    0.18882E-01        -0.36972E-01         0.00000E+00
    0.18372E-01        -0.36000E-01         0.00000E+00
    0.17880E-01        -0.35018E-01         0.00000E+00
    0.17404E-01        -0.34029E-01         0.00000E+00
    0.16942E-01        -0.33031E-01         0.00000E+00
    0.16491E-01        -0.32025E-01         0.00000E+00
    0.16049E-01        -0.31010E-01         0.00000E+00
    0.15615E-01        -0.29988E-01         0.00000E+00
    0.15185E-01        -0.28958E-01         0.00000E+00
    0.14759E-01        -0.27920E-01         0.00000E+00
    0.14335E-01        -0.26875E-01         0.00000E+00
    0.13910E-01        -0.25822E-01         0.00000E+00
    0.13483E-01        -0.24762E-01         0.00000E+00
    0.13051E-01        -0.23695E-01         0.00000E+00
    0.12614E-01        -0.22621E-01         0.00000E+00
    0.12170E-01        -0.21539E-01         0.00000E+00
    0.11716E-01        -0.20451E-01         0.00000E+00
    0.11252E-01        -0.19356E-01         0.00000E+00
    0.10775E-01        -0.18254E-01         0.00000E+00
    0.10283E-01        -0.17146E-01         0.00000E+00
    0.97758E-02        -0.16031E-01         0.00000E+00
    0.92503E-02        -0.14910E-01         0.00000E+00
    0.87053E-02        -0.13783E-01         0.00000E+00
    0.81388E-02        -0.12650E-01         0.00000E+00
    0.75491E-02        -0.11513E-01         0.00000E+00
    0.69344E-02        -0.10370E-01         0.00000E+00
    0.62929E-02        -0.92234E-02         0.00000E+00
    0.56229E-02        -0.80731E-02         0.00000E+00
    0.49226E-02        -0.69200E-02         0.00000E+00
    0.41905E-02        -0.57650E-02         0.00000E+00
    0.34249E-02        -0.46090E-02         0.00000E+00
    0.26243E-02        -0.34532E-02         0.00000E+00
    0.17874E-02        -0.22988E-02         0.00000E+00
    0.91303E-03        -0.11473E-02         0.00000E+00
    0.00000E+00         0.00000E+00         0.00000E+00
    0.29305E-01        -0.57888E-01         0.00000E+00
    0.28054E-01        -0.56900E-01         0.00000E+00
    0.26891E-01        -0.55909E-01         0.00000E+00
    0.25811E-01        -0.54915E-01         0.00000E+00
    0.24809E-01        -0.53916E-01         0.00000E+00
    0.23879E-01        -0.52910E-01         0.00000E+00
    0.23016E-01        -0.51896E-01         0.00000E+00
    0.22215E-01        -0.50874E-01         0.00000E+00
    0.21471E-01        -0.49844E-01         0.00000E+00
    0.20778E-01        -0.48804E-01         0.00000E+00
    0.20132E-01        -0.47755E-01         0.00000E+00
    0.19530E-01        -0.46697E-01         0.00000E+00
    0.18965E-01        -0.45630E-01         0.00000E+00
    0.18435E-01        -0.44553E-01         0.00000E+00
    0.17935E-01        -0.43469E-01         0.00000E+00
    0.17462E-01        -0.42376E-01         0.00000E+00
    0.17014E-01        -0.41275E-01         0.00000E+00
    0.16586E-01        -0.40166E-01         0.00000E+00
    0.16176E-01        -0.39051E-01         0.00000E+00
    0.15781E-01        -0.37928E-01         0.00000E+00
    0.15399E-01        -0.36799E-01         0.00000E+00
    0.15028E-01        -0.35663E-01         0.00000E+00
    0.14665E-01        -0.34521E-01         0.00000E+00
    0.14308E-01        -0.33372E-01         0.00000E+00
    0.13956E-01        -0.32218E-01         0.00000E+00
    0.13606E-01        -0.31058E-01         0.00000E+00
    0.13256E-01        -0.29892E-01         0.00000E+00
    0.12906E-01        -0.28719E-01         0.00000E+00
    0.12552E-01        -0.27541E-01         0.00000E+00
    0.12193E-01        -0.26357E-01         0.00000E+00
    0.11828E-01        -0.25167E-01         0.00000E+00
    0.11454E-01        -0.23970E-01         0.00000E+00
    0.11070E-01        -0.22767E-01         0.00000E+00
    0.10674E-01        -0.21557E-01         0.00000E+00
    0.10264E-01        -0.20341E-01         0.00000E+00
    0.98385E-02        -0.19117E-01         0.00000E+00
    0.93950E-02        -0.17887E-01         0.00000E+00
    0.89316E-02        -0.16649E-01         0.00000E+00
    0.84461E-02        -0.15405E-01         0.00000E+00
    0.79362E-02        -0.14152E-01         0.00000E+00
    0.73995E-02        -0.12893E-01         0.00000E+00
    0.68336E-02        -0.11627E-01         0.00000E+00
    0.62359E-02        -0.10353E-01         0.00000E+00
    0.56039E-02        -0.90732E-02         0.00000E+00
    0.49349E-02        -0.77873E-02         0.00000E+00
    0.42264E-02        -0.64962E-02         0.00000E+00
    0.34756E-02        -0.52007E-02         0.00000E+00
    0.26801E-02        -0.39019E-02         0.00000E+00
    0.18372E-02        -0.26011E-02         0.00000E+00
    0.94451E-03        -0.12998E-02         0.00000E+00
    0.00000E+00         0.00000E+00         0.00000E+00
    0.25117E-01        -0.64341E-01         0.00000E+00
    0.23902E-01        -0.63215E-01         0.00000E+00
    0.22795E-01        -0.62083E-01         0.00000E+00
    0.21787E-01        -0.60943E-01         0.00000E+00
    0.20870E-01        -0.59795E-01         0.00000E+00
    0.20036E-01        -0.58637E-01         0.00000E+00
    0.19277E-01        -0.57468E-01         0.00000E+00
    0.18586E-01        -0.56288E-01         0.00000E+00
    0.17956E-01        -0.55098E-01         0.00000E+00
    0.17379E-01        -0.53898E-01         0.00000E+00
    0.16850E-01        -0.52690E-01         0.00000E+00
    0.16362E-01        -0.51472E-01         0.00000E+00
    0.15911E-01        -0.50247E-01         0.00000E+00
    0.15493E-01        -0.49016E-01         0.00000E+00
    0.15102E-01        -0.47778E-01         0.00000E+00
    0.14736E-01        -0.46535E-01         0.00000E+00
    0.14391E-01        -0.45288E-01         0.00000E+00
    0.14064E-01        -0.44036E-01         0.00000E+00
    0.13752E-01        -0.42780E-01         0.00000E+00
    0.13453E-01        -0.41521E-01         0.00000E+00
    0.13165E-01        -0.40259E-01         0.00000E+00
    0.12885E-01        -0.38994E-01         0.00000E+00
    0.12612E-01        -0.37726E-01         0.00000E+00
    0.12344E-01        -0.36456E-01         0.00000E+00
    0.12078E-01        -0.35183E-01         0.00000E+00
    0.11814E-01        -0.33906E-01         0.00000E+00
    0.11549E-01        -0.32627E-01         0.00000E+00
    0.11282E-01        -0.31345E-01         0.00000E+00
    0.11012E-01        -0.30059E-01         0.00000E+00
    0.10737E-01        -0.28769E-01         0.00000E+00
    0.10455E-01        -0.27476E-01         0.00000E+00
    0.10165E-01        -0.26177E-01         0.00000E+00
    0.98652E-02        -0.24874E-01         0.00000E+00
    0.95536E-02        -0.23565E-01         0.00000E+00
    0.92285E-02        -0.22250E-01         0.00000E+00
    0.88880E-02        -0.20928E-01         0.00000E+00
    0.85299E-02        -0.19599E-01         0.00000E+00
    0.81521E-02        -0.18262E-01         0.00000E+00
    0.77520E-02        -0.16917E-01         0.00000E+00
    0.73270E-02        -0.15563E-01         0.00000E+00
    0.68741E-02        -0.14199E-01         0.00000E+00
    0.63903E-02        -0.12825E-01         0.00000E+00
    0.58719E-02        -0.11440E-01         0.00000E+00
    0.53154E-02        -0.10044E-01         0.00000E+00
    0.47167E-02        -0.86374E-02         0.00000E+00
    0.40716E-02        -0.72199E-02         0.00000E+00
    0.33758E-02        -0.57920E-02         0.00000E+00
    0.26250E-02        -0.43548E-02         0.00000E+00
    0.18152E-02        -0.29094E-02         0.00000E+00
    0.94205E-03        -0.14574E-02         0.00000E+00
    0.00000E+00         0.00000E+00         0.00000E+00
    0.19103E-01        -0.70445E-01         0.00000E+00
    0.18022E-01        -0.69157E-01         0.00000E+00
    0.17066E-01        -0.67859E-01         0.00000E+00
    0.16226E-01        -0.66547E-01         0.00000E+00
    0.15489E-01        -0.65218E-01         0.00000E+00
    0.14840E-01        -0.63875E-01         0.00000E+00
    0.14266E-01        -0.62519E-01         0.00000E+00
    0.13755E-01        -0.61152E-01         0.00000E+00
    0.13299E-01        -0.59776E-01         0.00000E+00
    0.12890E-01        -0.58393E-01         0.00000E+00
    0.12520E-01        -0.57006E-01         0.00000E+00
    0.12183E-01        -0.55615E-01         0.00000E+00
    0.11875E-01        -0.54222E-01         0.00000E+00
    0.11592E-01        -0.52828E-01         0.00000E+00
    0.11330E-01        -0.51435E-01         0.00000E+00
    0.11086E-01        -0.50042E-01         0.00000E+00
    0.10857E-01        -0.48650E-01         0.00000E+00
    0.10642E-01        -0.47261E-01         0.00000E+00
    0.10436E-01        -0.45873E-01         0.00000E+00
    0.10240E-01        -0.44488E-01         0.00000E+00
    0.10051E-01        -0.43105E-01         0.00000E+00
    0.98670E-02        -0.41724E-01         0.00000E+00
    0.96875E-02        -0.40345E-01         0.00000E+00
    0.95108E-02        -0.38968E-01         0.00000E+00
    0.93356E-02        -0.37592E-01         0.00000E+00
    0.91608E-02        -0.36218E-01         0.00000E+00
    0.89851E-02        -0.34845E-01         0.00000E+00
    0.88075E-02        -0.33472E-01         0.00000E+00
    0.86268E-02        -0.32098E-01         0.00000E+00
    0.84418E-02        -0.30724E-01         0.00000E+00
    0.82514E-02        -0.29349E-01         0.00000E+00
    0.80543E-02        -0.27971E-01         0.00000E+00
    0.78493E-02        -0.26591E-01         0.00000E+00
    0.76349E-02        -0.25206E-01         0.00000E+00
    0.74097E-02        -0.23817E-01         0.00000E+00
    0.71720E-02        -0.22423E-01         0.00000E+00
    0.69200E-02        -0.21021E-01         0.00000E+00
    0.66518E-02        -0.19612E-01         0.00000E+00
    0.63649E-02        -0.18194E-01         0.00000E+00
    0.60570E-02        -0.16766E-01         0.00000E+00
    0.57249E-02        -0.15326E-01         0.00000E+00
    0.53654E-02        -0.13873E-01         0.00000E+00
    0.49745E-02        -0.12405E-01         0.00000E+00
    0.45475E-02        -0.10921E-01         0.00000E+00
    0.40791E-02        -0.94201E-02         0.00000E+00
    0.35631E-02        -0.78997E-02         0.00000E+00
    0.29921E-02        -0.63591E-02         0.00000E+00
    0.23581E-02        -0.47977E-02         0.00000E+00
    0.16524E-02        -0.32158E-02         0.00000E+00
    0.86738E-03        -0.16150E-02         0.00000E+00
    0.00000E+00         0.00000E+00         0.00000E+00
    0.10869E-01        -0.75564E-01         0.00000E+00
    0.10090E-01        -0.74087E-01         0.00000E+00
    0.94727E-02        -0.72574E-01         0.00000E+00
    0.89699E-02        -0.71036E-01         0.00000E+00
    0.85511E-02        -0.69481E-01         0.00000E+00
    0.81961E-02        -0.67917E-01         0.00000E+00
    0.78908E-02        -0.66348E-01         0.00000E+00
    0.76253E-02        -0.64779E-01         0.00000E+00
    0.73917E-02        -0.63213E-01         0.00000E+00
    0.71845E-02        -0.61651E-01         0.00000E+00
    0.69991E-02        -0.60096E-01         0.00000E+00
    0.68318E-02        -0.58547E-01         0.00000E+00
    0.66797E-02        -0.57007E-01         0.00000E+00
    0.65405E-02        -0.55476E-01         0.00000E+00
    0.64120E-02        -0.53954E-01         0.00000E+00
    0.62926E-02        -0.52440E-01         0.00000E+00
    0.61809E-02        -0.50935E-01         0.00000E+00
    0.60755E-02        -0.49439E-01         0.00000E+00
    0.59754E-02        -0.47952E-01         0.00000E+00
    0.58796E-02        -0.46472E-01         0.00000E+00
    0.57872E-02        -0.45001E-01         0.00000E+00
    0.56973E-02        -0.43536E-01         0.00000E+00
    0.56094E-02        -0.42078E-01         0.00000E+00
    0.55226E-02        -0.40627E-01         0.00000E+00
    0.54364E-02        -0.39181E-01         0.00000E+00
    0.53502E-02        -0.37740E-01         0.00000E+00
    0.52632E-02        -0.36303E-01         0.00000E+00
    0.51751E-02        -0.34869E-01         0.00000E+00
    0.50850E-02        -0.33438E-01         0.00000E+00
    0.49925E-02        -0.32010E-01         0.00000E+00
    0.48970E-02        -0.30582E-01         0.00000E+00
    0.47976E-02        -0.29154E-01         0.00000E+00
    0.46939E-02        -0.27726E-01         0.00000E+00
    0.45849E-02        -0.26295E-01         0.00000E+00
    0.44699E-02        -0.24862E-01         0.00000E+00
    0.43479E-02        -0.23425E-01         0.00000E+00
    0.42178E-02        -0.21981E-01         0.00000E+00
    0.40785E-02        -0.20531E-01         0.00000E+00
    0.39286E-02        -0.19073E-01         0.00000E+00
    0.37664E-02        -0.17604E-01         0.00000E+00
    0.35899E-02        -0.16123E-01         0.00000E+00
    0.33969E-02        -0.14628E-01         0.00000E+00
    0.31845E-02        -0.13116E-01         0.00000E+00
    0.29491E-02        -0.11585E-01         0.00000E+00
    0.26863E-02        -0.10031E-01         0.00000E+00
    0.23902E-02        -0.84516E-02         0.00000E+00
    0.20532E-02        -0.68417E-02         0.00000E+00
    0.16648E-02        -0.51970E-02         0.00000E+00
    0.12100E-02        -0.35122E-02         0.00000E+00
    0.66671E-03        -0.17816E-02         0.00000E+00
    0.00000E+00         0.00000E+00         0.00000E+00
    0.00000E+00        -0.78240E-01         0.00000E+00
    0.00000E+00        -0.76501E-01         0.00000E+00
    0.00000E+00        -0.74757E-01         0.00000E+00
    0.00000E+00        -0.73019E-01         0.00000E+00
    0.00000E+00        -0.71292E-01         0.00000E+00
    0.00000E+00        -0.69580E-01         0.00000E+00
    0.00000E+00        -0.67882E-01         0.00000E+00
    0.00000E+00        -0.66201E-01         0.00000E+00
    0.00000E+00        -0.64535E-01         0.00000E+00
    0.00000E+00        -0.62886E-01         0.00000E+00
    0.00000E+00        -0.61252E-01         0.00000E+00
    0.00000E+00        -0.59633E-01         0.00000E+00
    0.00000E+00        -0.58029E-01         0.00000E+00
    0.00000E+00        -0.56440E-01         0.00000E+00
    0.00000E+00        -0.54865E-01         0.00000E+00
    0.00000E+00        -0.53302E-01         0.00000E+00
    0.00000E+00        -0.51753E-01         0.00000E+00
    0.00000E+00        -0.50216E-01         0.00000E+00
    0.00000E+00        -0.48690E-01         0.00000E+00
    0.00000E+00        -0.47175E-01         0.00000E+00
    0.00000E+00        -0.45670E-01         0.00000E+00
    0.00000E+00        -0.44174E-01         0.00000E+00
    0.00000E+00        -0.42688E-01         0.00000E+00
    0.00000E+00        -0.41209E-01         0.00000E+00
    0.00000E+00        -0.39737E-01         0.00000E+00
    0.00000E+00        -0.38272E-01         0.00000E+00
    0.00000E+00        -0.36813E-01         0.00000E+00
    0.00000E+00        -0.35358E-01         0.00000E+00
    0.00000E+00        -0.33907E-01         0.00000E+00
    0.00000E+00        -0.32459E-01         0.00000E+00
    0.00000E+00        -0.31014E-01         0.00000E+00
    0.00000E+00        -0.29569E-01         0.00000E+00
    0.00000E+00        -0.28125E-01         0.00000E+00
    0.00000E+00        -0.26679E-01         0.00000E+00
    0.00000E+00        -0.25231E-01         0.00000E+00
    0.00000E+00        -0.23780E-01         0.00000E+00
    0.00000E+00        -0.22324E-01         0.00000E+00
    0.00000E+00        -0.20861E-01         0.00000E+00
    0.00000E+00        -0.19390E-01         0.00000E+00
    0.00000E+00        -0.17910E-01         0.00000E+00
    0.00000E+00        -0.16418E-01         0.00000E+00
    0.00000E+00        -0.14911E-01         0.00000E+00
    0.00000E+00        -0.13387E-01         0.00000E+00
    0.00000E+00        -0.11844E-01         0.00000E+00
    0.00000E+00        -0.10276E-01         0.00000E+00
    0.00000E+00        -0.86802E-02         0.00000E+00
    0.00000E+00        -0.70502E-02         0.00000E+00
    0.00000E+00        -0.53791E-02         0.00000E+00
    0.00000E+00        -0.36570E-02         0.00000E+00
    0.00000E+00        -0.18705E-02         0.00000E+00
    0.00000E+00         0.00000E+00         0.00000E+00
CELL_DATA       5000
VECTORS vDarcy double 
    0.31686E-06         0.00000E+00         0.00000E+00
    0.31686E-06        -0.69849E-20         0.00000E+00
    0.31686E-06        -0.46566E-20         0.00000E+00
    0.31686E-06        -0.55879E-20         0.00000E+00
    0.31686E-06        -0.10245E-19         0.00000E+00
    0.31686E-06        -0.51223E-20         0.00000E+00
    0.31686E-06        -0.41910E-20         0.00000E+00
    0.31686E-06        -0.93132E-20         0.00000E+00
    0.31686E-06        -0.46566E-20         0.00000E+00
    0.31686E-06         0.18626E-20         0.00000E+00
    0.31686E-06        -0.18626E-20         0.00000E+00
    0.31686E-06        -0.46566E-21         0.00000E+00
    0.31686E-06        -0.18626E-20         0.00000E+00
    0.31686E-06        -0.37253E-20         0.00000E+00
    0.31686E-06         0.46566E-21         0.00000E+00
    0.31686E-06         0.00000E+00         0.00000E+00
    0.31686E-06        -0.46566E-21         0.00000E+00
    0.31686E-06        -0.93132E-20         0.00000E+00
    0.31686E-06        -0.88476E-20         0.00000E+00
    0.31686E-06        -0.23283E-20         0.00000E+00
    0.31686E-06         0.00000E+00         0.00000E+00
    0.31686E-06        -0.46566E-20         0.00000E+00
    0.31686E-06         0.46566E-20         0.00000E+00
    0.31686E-06        -0.60536E-20         0.00000E+00
    0.31686E-06        -0.37253E-20         0.00000E+00
    0.31686E-06        -0.41910E-20         0.00000E+00
    0.31686E-06        -0.32596E-20         0.00000E+00
    0.31686E-06        -0.46566E-20         0.00000E+00
    0.31686E-06        -0.41910E-20         0.00000E+00
    0.31686E-06         0.18626E-20         0.00000E+00
    0.31686E-06        -0.93132E-20         0.00000E+00
    0.31686E-06        -0.46566E-20         0.00000E+00
    0.31686E-06         0.18626E-20         0.00000E+00
    0.31686E-06        -0.46566E-20         0.00000E+00
    0.31686E-06        -0.69849E-20         0.00000E+00
    0.31686E-06         0.23283E-20         0.00000E+00
    0.31686E-06        -0.65193E-20         0.00000E+00
    0.31686E-06        -0.27940E-20         0.00000E+00
    0.31686E-06        -0.46566E-20         0.00000E+00
    0.31686E-06        -0.46566E-20         0.00000E+00
    0.31686E-06        -0.74506E-20         0.00000E+00
    0.31686E-06        -0.65193E-20         0.00000E+00
    0.31686E-06         0.00000E+00         0.00000E+00
    0.31686E-06        -0.46566E-21         0.00000E+00
    0.31686E-06        -0.46566E-21         0.00000E+00
    0.31686E-06         0.51223E-20         0.00000E+00
    0.31686E-06         0.46566E-21         0.00000E+00
    0.31686E-06         0.00000E+00         0.00000E+00
    0.31686E-06        -0.46566E-20         0.00000E+00
    0.31686E-06        -0.74506E-20         0.00000E+00
    0.26666E-06         0.23283E-20         0.00000E+00
    0.26666E-06        -0.14901E-19         0.00000E+00
    0.26666E-06        -0.15832E-19         0.00000E+00
    0.26666E-06        -0.15600E-19         0.00000E+00
    0.26666E-06        -0.14435E-19         0.00000E+00
    0.26666E-06        -0.23283E-20         0.00000E+00
    0.26666E-06        -0.72177E-20         0.00000E+00
    0.26666E-06        -0.69849E-20         0.00000E+00
    0.26666E-06        -0.10710E-19         0.00000E+00
    0.26666E-06        -0.21886E-19         0.00000E+00
    0.26666E-06        -0.88476E-20         0.00000E+00
    0.26666E-06         0.00000E+00         0.00000E+00
    0.26666E-06        -0.72177E-20         0.00000E+00
    0.26666E-06         0.37253E-20         0.00000E+00
    0.26666E-06        -0.12806E-19         0.00000E+00
    0.26666E-06        -0.14435E-19         0.00000E+00
    0.26666E-06        -0.97789E-20         0.00000E+00
    0.26666E-06        -0.23283E-20         0.00000E+00
    0.26666E-06        -0.20955E-19         0.00000E+00
    0.26666E-06        -0.20489E-19         0.00000E+00
    0.26666E-06        -0.69849E-20         0.00000E+00
    0.26666E-06        -0.65193E-20         0.00000E+00
    0.26666E-06        -0.51223E-20         0.00000E+00
    0.26666E-06         0.23283E-20         0.00000E+00
    0.26666E-06        -0.25611E-20         0.00000E+00
    0.26666E-06        -0.10477E-19         0.00000E+00
    0.26666E-06        -0.13737E-19         0.00000E+00
    0.26666E-06        -0.12573E-19         0.00000E+00
    0.26666E-06        -0.17695E-19         0.00000E+00
    0.26666E-06        -0.10245E-19         0.00000E+00
    0.26666E-06        -0.69849E-20         0.00000E+00
    0.26666E-06        -0.60536E-20         0.00000E+00
    0.26666E-06        -0.97789E-20         0.00000E+00
    0.26666E-06        -0.10710E-19         0.00000E+00
    0.26666E-06        -0.74506E-20         0.00000E+00
    0.26666E-06         0.18626E-20         0.00000E+00
    0.26666E-06        -0.32596E-20         0.00000E+00
    0.26666E-06        -0.69849E-20         0.00000E+00
    0.26666E-06        -0.26543E-19         0.00000E+00
    0.26666E-06        -0.10710E-19         0.00000E+00
    0.26666E-06        -0.13504E-19         0.00000E+00
    0.26666E-06        -0.15832E-19         0.00000E+00
    0.26666E-06        -0.46566E-20         0.00000E+00
    0.26666E-06         0.23283E-21         0.00000E+00
    0.26666E-06        -0.48894E-20         0.00000E+00
    0.26666E-06        -0.13970E-20         0.00000E+00
    0.26666E-06        -0.11642E-20         0.00000E+00
    0.26666E-06        -0.51223E-20         0.00000E+00
    0.26666E-06         0.79162E-20         0.00000E+00
    0.26666E-06        -0.13970E-20         0.00000E+00
    0.22441E-06         0.18626E-20         0.00000E+00
    0.22441E-06        -0.16531E-19         0.00000E+00
    0.22441E-06        -0.20489E-19         0.00000E+00
    0.22441E-06        -0.16065E-19         0.00000E+00
    0.22441E-06        -0.13504E-19         0.00000E+00
    0.22441E-06        -0.16764E-19         0.00000E+00
    0.22441E-06        -0.13970E-19         0.00000E+00
    0.22441E-06        -0.10245E-19         0.00000E+00
    0.22441E-06        -0.46566E-20         0.00000E+00
    0.22441E-06        -0.21886E-19         0.00000E+00
    0.22441E-06        -0.30734E-19         0.00000E+00
    0.22441E-06        -0.12340E-19         0.00000E+00
    0.22441E-06        -0.33062E-19         0.00000E+00
    0.22441E-06        -0.24214E-19         0.00000E+00
    0.22441E-06        -0.17229E-19         0.00000E+00
    0.22441E-06        -0.22352E-19         0.00000E+00
    0.22441E-06        -0.11176E-19         0.00000E+00
    0.22441E-06        -0.60536E-20         0.00000E+00
    0.22441E-06        -0.18626E-19         0.00000E+00
    0.22441E-06        -0.13970E-19         0.00000E+00
    0.22441E-06        -0.17229E-19         0.00000E+00
    0.22441E-06        -0.18161E-19         0.00000E+00
    0.22441E-06        -0.11642E-19         0.00000E+00
    0.22441E-06        -0.16531E-19         0.00000E+00
    0.22441E-06        -0.12107E-19         0.00000E+00
    0.22441E-06        -0.13039E-19         0.00000E+00
    0.22441E-06        -0.88476E-20         0.00000E+00
    0.22441E-06        -0.19558E-19         0.00000E+00
    0.22441E-06        -0.10245E-19         0.00000E+00
    0.22441E-06        -0.10477E-19         0.00000E+00
    0.22441E-06        -0.14435E-19         0.00000E+00
    0.22441E-06         0.41910E-20         0.00000E+00
    0.22441E-06        -0.13504E-19         0.00000E+00
    0.22441E-06        -0.27940E-20         0.00000E+00
    0.22441E-06        -0.46566E-20         0.00000E+00
    0.22441E-06        -0.27940E-20         0.00000E+00
    0.22441E-06        -0.34925E-20         0.00000E+00
    0.22441E-06        -0.12107E-19         0.00000E+00
    0.22441E-06        -0.65193E-20         0.00000E+00
    0.22441E-06        -0.65193E-20         0.00000E+00
    0.22441E-06        -0.60536E-20         0.00000E+00
    0.22441E-06        -0.20489E-19         0.00000E+00
    0.22441E-06        -0.15367E-19         0.00000E+00
    0.22441E-06        -0.13039E-19         0.00000E+00
    0.22441E-06        -0.20955E-19         0.00000E+00
    0.22441E-06        -0.12107E-19         0.00000E+00
    0.22441E-06        -0.58208E-20         0.00000E+00
    0.22441E-06         0.13970E-20         0.00000E+00
    0.22441E-06         0.15832E-19         0.00000E+00
    0.22441E-06         0.23283E-20         0.00000E+00
    0.18886E-06        -0.69849E-20         0.00000E+00
    0.18886E-06        -0.18626E-19         0.00000E+00
    0.18886E-06        -0.12573E-19         0.00000E+00
    0.18886E-06         0.20955E-20         0.00000E+00
    0.18886E-06        -0.60536E-20         0.00000E+00
    0.18886E-06        -0.19325E-19         0.00000E+00
    0.18886E-06        -0.15367E-19         0.00000E+00
    0.18886E-06        -0.20955E-19         0.00000E+00
    0.18886E-06        -0.97789E-20         0.00000E+00
    0.18886E-06        -0.83819E-20         0.00000E+00
    0.18886E-06        -0.35856E-19         0.00000E+00
    0.18886E-06        -0.30268E-19         0.00000E+00
    0.18886E-06        -0.44471E-19         0.00000E+00
    0.18886E-06        -0.53551E-19         0.00000E+00
    0.18886E-06        -0.32131E-19         0.00000E+00
    0.18886E-06        -0.14901E-19         0.00000E+00
    0.18886E-06        -0.11642E-19         0.00000E+00
    0.18886E-06        -0.28405E-19         0.00000E+00
    0.18886E-06        -0.27940E-19         0.00000E+00
    0.18886E-06        -0.21886E-19         0.00000E+00
    0.18886E-06        -0.20955E-19         0.00000E+00
    0.18886E-06        -0.17695E-19         0.00000E+00
    0.18886E-06        -0.13504E-19         0.00000E+00
    0.18886E-06        -0.37020E-19         0.00000E+00
    0.18886E-06        -0.26776E-19         0.00000E+00
    0.18886E-06        -0.15600E-19         0.00000E+00
    0.18886E-06        -0.32596E-20         0.00000E+00
    0.18886E-06        -0.27474E-19         0.00000E+00
    0.18886E-06        -0.14435E-19         0.00000E+00
    0.18886E-06        -0.46566E-21         0.00000E+00
    0.18886E-06        -0.16764E-19         0.00000E+00
    0.18886E-06        -0.46566E-21         0.00000E+00
    0.18886E-06        -0.13504E-19         0.00000E+00
    0.18886E-06        -0.17695E-19         0.00000E+00
    0.18886E-06        -0.13504E-19         0.00000E+00
    0.18886E-06        -0.13504E-19         0.00000E+00
    0.18886E-06        -0.21420E-19         0.00000E+00
    0.18886E-06        -0.97789E-20         0.00000E+00
    0.18886E-06         0.74506E-20         0.00000E+00
    0.18886E-06         0.88476E-20         0.00000E+00
    0.18886E-06         0.79162E-20         0.00000E+00
    0.18886E-06        -0.30268E-20         0.00000E+00
    0.18886E-06        -0.13970E-19         0.00000E+00
    0.18886E-06        -0.18394E-19         0.00000E+00
    0.18886E-06        -0.13271E-19         0.00000E+00
    0.18886E-06         0.93132E-21         0.00000E+00
    0.18886E-06        -0.30268E-20         0.00000E+00
    0.18886E-06         0.46566E-21         0.00000E+00
    0.18886E-06        -0.13970E-20         0.00000E+00
    0.18886E-06        -0.65193E-20         0.00000E+00
    0.15894E-06        -0.37253E-20         0.00000E+00
    0.15894E-06        -0.11642E-19         0.00000E+00
    0.15894E-06        -0.10245E-19         0.00000E+00
    0.15894E-06        -0.46566E-21         0.00000E+00
    0.15894E-06        -0.51223E-20         0.00000E+00
    0.15894E-06        -0.32596E-20         0.00000E+00
    0.15894E-06        -0.32596E-20         0.00000E+00
    0.15894E-06        -0.11642E-19         0.00000E+00
    0.15894E-06        -0.18626E-19         0.00000E+00
    0.15894E-06        -0.27008E-19         0.00000E+00
    0.15894E-06        -0.27008E-19         0.00000E+00
    0.15894E-06        -0.38184E-19         0.00000E+00
    0.15894E-06        -0.25146E-19         0.00000E+00
    0.15894E-06        -0.30268E-19         0.00000E+00
    0.15894E-06        -0.40513E-19         0.00000E+00
    0.15894E-06        -0.30734E-19         0.00000E+00
    0.15894E-06        -0.27940E-19         0.00000E+00
    0.15894E-06        -0.32596E-19         0.00000E+00
    0.15894E-06        -0.40047E-19         0.00000E+00
    0.15894E-06        -0.45169E-19         0.00000E+00
    0.15894E-06        -0.27474E-19         0.00000E+00
    0.15894E-06        -0.25146E-19         0.00000E+00
    0.15894E-06        -0.27940E-19         0.00000E+00
    0.15894E-06        -0.27474E-19         0.00000E+00
    0.15894E-06        -0.22585E-19         0.00000E+00
    0.15894E-06        -0.11642E-19         0.00000E+00
    0.15894E-06        -0.97789E-20         0.00000E+00
    0.15894E-06        -0.26543E-19         0.00000E+00
    0.15894E-06        -0.31199E-19         0.00000E+00
    0.15894E-06        -0.16298E-19         0.00000E+00
    0.15894E-06        -0.69849E-20         0.00000E+00
    0.15894E-06        -0.15367E-19         0.00000E+00
    0.15894E-06        -0.18161E-19         0.00000E+00
    0.15894E-06        -0.27474E-19         0.00000E+00
    0.15894E-06        -0.36787E-19         0.00000E+00
    0.15894E-06        -0.20955E-19         0.00000E+00
    0.15894E-06        -0.26543E-19         0.00000E+00
    0.15894E-06        -0.65193E-20         0.00000E+00
    0.15894E-06        -0.17229E-19         0.00000E+00
    0.15894E-06         0.46566E-21         0.00000E+00
    0.15894E-06         0.83819E-20         0.00000E+00
    0.15894E-06         0.46566E-20         0.00000E+00
    0.15894E-06        -0.37253E-20         0.00000E+00
    0.15894E-06        -0.16298E-20         0.00000E+00
    0.15894E-06        -0.65193E-20         0.00000E+00
    0.15894E-06         0.37253E-20         0.00000E+00
    0.15894E-06         0.15600E-19         0.00000E+00
    0.15894E-06        -0.51223E-20         0.00000E+00
    0.15894E-06        -0.74506E-20         0.00000E+00
    0.15894E-06        -0.23283E-20         0.00000E+00
    0.13376E-06        -0.69849E-20         0.00000E+00
    0.13376E-06        -0.10710E-19         0.00000E+00
    0.13376E-06        -0.93132E-20         0.00000E+00
    0.13376E-06        -0.11409E-19         0.00000E+00
    0.13376E-06        -0.11176E-19         0.00000E+00
    0.13376E-06        -0.20256E-19         0.00000E+00
    0.13376E-06        -0.76834E-20         0.00000E+00
    0.13376E-06        -0.14435E-19         0.00000E+00
    0.13376E-06        -0.17928E-19         0.00000E+00
    0.13376E-06        -0.27940E-19         0.00000E+00
    0.13376E-06        -0.20023E-19         0.00000E+00
    0.13376E-06        -0.26776E-19         0.00000E+00
    0.13376E-06        -0.20023E-19         0.00000E+00
    0.13376E-06        -0.23749E-19         0.00000E+00
    0.13376E-06        -0.36089E-19         0.00000E+00
    0.13376E-06        -0.29337E-19         0.00000E+00
    0.13376E-06        -0.35390E-19         0.00000E+00
    0.13376E-06        -0.29337E-19         0.00000E+00
    0.13376E-06        -0.33993E-19         0.00000E+00
    0.13376E-06        -0.30268E-19         0.00000E+00
    0.13376E-06        -0.40047E-19         0.00000E+00
    0.13376E-06        -0.32596E-19         0.00000E+00
    0.13376E-06        -0.31665E-19         0.00000E+00
    0.13376E-06        -0.34226E-19         0.00000E+00
    0.13376E-06        -0.30035E-19         0.00000E+00
    0.13376E-06        -0.27474E-19         0.00000E+00
    0.13376E-06        -0.10710E-19         0.00000E+00
    0.13376E-06        -0.15367E-19         0.00000E+00
    0.13376E-06        -0.23749E-19         0.00000E+00
    0.13376E-06        -0.25611E-19         0.00000E+00
    0.13376E-06        -0.14435E-19         0.00000E+00
    0.13376E-06        -0.18626E-19         0.00000E+00
    0.13376E-06        -0.15134E-19         0.00000E+00
    0.13376E-06        -0.14435E-19         0.00000E+00
    0.13376E-06        -0.21886E-19         0.00000E+00
    0.13376E-06        -0.23283E-19         0.00000E+00
    0.13376E-06        -0.30268E-19         0.00000E+00
    0.13376E-06        -0.22119E-19         0.00000E+00
    0.13376E-06        -0.97789E-20         0.00000E+00
    0.13376E-06        -0.10245E-19         0.00000E+00
    0.13376E-06        -0.69849E-20         0.00000E+00
    0.13376E-06        -0.18626E-20         0.00000E+00
    0.13376E-06        -0.74506E-20         0.00000E+00
    0.13376E-06        -0.13504E-19         0.00000E+00
    0.13376E-06        -0.19558E-19         0.00000E+00
    0.13376E-06        -0.67521E-20         0.00000E+00
    0.13376E-06         0.37253E-20         0.00000E+00
    0.13376E-06         0.00000E+00         0.00000E+00
    0.13376E-06        -0.46566E-21         0.00000E+00
    0.13376E-06         0.11642E-20         0.00000E+00
    0.11257E-06        -0.51223E-20         0.00000E+00
    0.11257E-06        -0.44238E-20         0.00000E+00
    0.11257E-06        -0.13039E-19         0.00000E+00
    0.11257E-06        -0.22352E-19         0.00000E+00
    0.11257E-06        -0.20955E-19         0.00000E+00
    0.11257E-06        -0.21420E-19         0.00000E+00
    0.11257E-06        -0.16997E-19         0.00000E+00
    0.11257E-06        -0.17695E-19         0.00000E+00
    0.11257E-06        -0.24214E-19         0.00000E+00
    0.11257E-06        -0.28405E-19         0.00000E+00
    0.11257E-06        -0.15832E-19         0.00000E+00
    0.11257E-06        -0.26077E-19         0.00000E+00
    0.11257E-06        -0.25146E-19         0.00000E+00
    0.11257E-06        -0.12107E-19         0.00000E+00
    0.11257E-06        -0.27940E-19         0.00000E+00
    0.11257E-06        -0.35390E-19         0.00000E+00
    0.11257E-06        -0.47032E-19         0.00000E+00
    0.11257E-06        -0.40513E-19         0.00000E+00
    0.11257E-06        -0.25146E-19         0.00000E+00
    0.11257E-06        -0.25146E-19         0.00000E+00
    0.11257E-06        -0.42841E-19         0.00000E+00
    0.11257E-06        -0.24680E-19         0.00000E+00
    0.11257E-06        -0.28871E-19         0.00000E+00
    0.11257E-06        -0.40978E-19         0.00000E+00
    0.11257E-06        -0.36787E-19         0.00000E+00
    0.11257E-06        -0.27940E-19         0.00000E+00
    0.11257E-06        -0.27474E-19         0.00000E+00
    0.11257E-06        -0.22352E-19         0.00000E+00
    0.11257E-06        -0.28405E-19         0.00000E+00
    0.11257E-06        -0.20955E-19         0.00000E+00
    0.11257E-06        -0.97789E-20         0.00000E+00
    0.11257E-06        -0.22817E-19         0.00000E+00
    0.11257E-06        -0.19092E-19         0.00000E+00
    0.11257E-06        -0.18161E-19         0.00000E+00
    0.11257E-06        -0.32596E-20         0.00000E+00
    0.11257E-06        -0.13039E-19         0.00000E+00
    0.11257E-06        -0.11176E-19         0.00000E+00
    0.11257E-06        -0.11409E-19         0.00000E+00
    0.11257E-06         0.00000E+00         0.00000E+00
    0.11257E-06        -0.18626E-19         0.00000E+00
    0.11257E-06        -0.13271E-19         0.00000E+00
    0.11257E-06        -0.14435E-19         0.00000E+00
    0.11257E-06        -0.11642E-19         0.00000E+00
    0.11257E-06        -0.20023E-19         0.00000E+00
    0.11257E-06        -0.15367E-19         0.00000E+00
    0.11257E-06        -0.51223E-20         0.00000E+00
    0.11257E-06        -0.44238E-20         0.00000E+00
    0.11257E-06        -0.58208E-20         0.00000E+00
    0.11257E-06         0.00000E+00         0.00000E+00
    0.11257E-06         0.13970E-20         0.00000E+00
    0.94733E-07        -0.39581E-20         0.00000E+00
    0.94733E-07        -0.97789E-20         0.00000E+00
    0.94733E-07        -0.28405E-19         0.00000E+00
    0.94733E-07        -0.28405E-19         0.00000E+00
    0.94733E-07        -0.22817E-19         0.00000E+00
    0.94733E-07        -0.17928E-19         0.00000E+00
    0.94733E-07        -0.10710E-19         0.00000E+00
    0.94733E-07        -0.15367E-19         0.00000E+00
    0.94733E-07        -0.25611E-19         0.00000E+00
    0.94733E-07        -0.17695E-19         0.00000E+00
    0.94733E-07        -0.22352E-19         0.00000E+00
    0.94733E-07        -0.27940E-19         0.00000E+00
    0.94733E-07        -0.22817E-19         0.00000E+00
    0.94733E-07        -0.44238E-20         0.00000E+00
    0.94733E-07        -0.27474E-19         0.00000E+00
    0.94733E-07        -0.42375E-19         0.00000E+00
    0.94733E-07        -0.30734E-19         0.00000E+00
    0.94733E-07        -0.20023E-19         0.00000E+00
    0.94733E-07        -0.38650E-19         0.00000E+00
    0.94733E-07        -0.30734E-19         0.00000E+00
    0.94733E-07        -0.42375E-19         0.00000E+00
    0.94733E-07        -0.34925E-19         0.00000E+00
    0.94733E-07        -0.27008E-19         0.00000E+00
    0.94733E-07        -0.33295E-19         0.00000E+00
    0.94733E-07        -0.28173E-19         0.00000E+00
    0.94733E-07        -0.17928E-19         0.00000E+00
    0.94733E-07        -0.32131E-19         0.00000E+00
    0.94733E-07        -0.34925E-19         0.00000E+00
    0.94733E-07        -0.29802E-19         0.00000E+00
    0.94733E-07        -0.27940E-19         0.00000E+00
    0.94733E-07        -0.93132E-20         0.00000E+00
    0.94733E-07        -0.14901E-19         0.00000E+00
    0.94733E-07        -0.25146E-19         0.00000E+00
    0.94733E-07        -0.18626E-19         0.00000E+00
    0.94733E-07        -0.10245E-19         0.00000E+00
    0.94733E-07        -0.27940E-20         0.00000E+00
    0.94733E-07        -0.46566E-20         0.00000E+00
    0.94733E-07        -0.74506E-20         0.00000E+00
    0.94733E-07        -0.93132E-20         0.00000E+00
    0.94733E-07        -0.21420E-19         0.00000E+00
    0.94733E-07        -0.26543E-19         0.00000E+00
    0.94733E-07        -0.24447E-19         0.00000E+00
    0.94733E-07        -0.10710E-19         0.00000E+00
    0.94733E-07        -0.93132E-20         0.00000E+00
    0.94733E-07        -0.30268E-20         0.00000E+00
    0.94733E-07         0.41910E-20         0.00000E+00
    0.94733E-07         0.11874E-19         0.00000E+00
    0.94733E-07         0.65193E-20         0.00000E+00
    0.94733E-07         0.65193E-20         0.00000E+00
    0.94733E-07        -0.13970E-20         0.00000E+00
    0.79725E-07        -0.51223E-20         0.00000E+00
    0.79725E-07        -0.20489E-19         0.00000E+00
    0.79725E-07        -0.19791E-19         0.00000E+00
    0.79725E-07        -0.93132E-20         0.00000E+00
    0.79725E-07        -0.76834E-20         0.00000E+00
    0.79725E-07        -0.27008E-19         0.00000E+00
    0.79725E-07        -0.13504E-19         0.00000E+00
    0.79725E-07        -0.20955E-19         0.00000E+00
    0.79725E-07        -0.16764E-19         0.00000E+00
    0.79725E-07         0.32596E-20         0.00000E+00
    0.79725E-07        -0.97789E-20         0.00000E+00
    0.79725E-07        -0.14203E-19         0.00000E+00
    0.79725E-07        -0.17462E-19         0.00000E+00
    0.79725E-07        -0.16764E-19         0.00000E+00
    0.79725E-07        -0.36089E-19         0.00000E+00
    0.79725E-07        -0.23749E-19         0.00000E+00
    0.79725E-07        -0.20489E-19         0.00000E+00
    0.79725E-07        -0.74506E-20         0.00000E+00
    0.79725E-07        -0.28871E-19         0.00000E+00
    0.79725E-07        -0.33993E-19         0.00000E+00
    0.79725E-07        -0.36322E-19         0.00000E+00
    0.79725E-07        -0.33528E-19         0.00000E+00
    0.79725E-07        -0.20489E-19         0.00000E+00
    0.79725E-07        -0.23749E-19         0.00000E+00
    0.79725E-07        -0.14435E-19         0.00000E+00
    0.79725E-07        -0.19092E-19         0.00000E+00
    0.79725E-07        -0.29337E-19         0.00000E+00
    0.79725E-07        -0.31199E-19         0.00000E+00
    0.79725E-07        -0.23749E-19         0.00000E+00
    0.79725E-07        -0.21420E-19         0.00000E+00
    0.79725E-07        -0.26077E-19         0.00000E+00
    0.79725E-07        -0.25611E-19         0.00000E+00
    0.79725E-07        -0.24214E-19         0.00000E+00
    0.79725E-07        -0.16298E-19         0.00000E+00
    0.79725E-07        -0.24680E-19         0.00000E+00
    0.79725E-07        -0.24214E-19         0.00000E+00
    0.79725E-07        -0.18161E-19         0.00000E+00
    0.79725E-07        -0.93132E-20         0.00000E+00
    0.79725E-07        -0.46566E-20         0.00000E+00
    0.79725E-07        -0.11874E-19         0.00000E+00
    0.79725E-07        -0.26776E-19         0.00000E+00
    0.79725E-07        -0.14435E-19         0.00000E+00
    0.79725E-07        -0.18626E-19         0.00000E+00
    0.79725E-07        -0.13271E-19         0.00000E+00
    0.79725E-07        -0.58208E-20         0.00000E+00
    0.79725E-07         0.18626E-19         0.00000E+00
    0.79725E-07         0.18394E-19         0.00000E+00
    0.79725E-07         0.14435E-19         0.00000E+00
    0.79725E-07         0.97789E-20         0.00000E+00
    0.79725E-07        -0.13970E-20         0.00000E+00
    0.67094E-07         0.20955E-20         0.00000E+00
    0.67094E-07         0.90804E-20         0.00000E+00
    0.67094E-07         0.10477E-19         0.00000E+00
    0.67094E-07         0.65193E-20         0.00000E+00
    0.67094E-07        -0.10710E-19         0.00000E+00
    0.67094E-07        -0.12573E-19         0.00000E+00
    0.67094E-07        -0.55879E-20         0.00000E+00
    0.67094E-07        -0.18626E-20         0.00000E+00
    0.67094E-07         0.23283E-20         0.00000E+00
    0.67094E-07        -0.13504E-19         0.00000E+00
    0.67094E-07        -0.10477E-19         0.00000E+00
    0.67094E-07        -0.81491E-20         0.00000E+00
    0.67094E-07        -0.16764E-19         0.00000E+00
    0.67094E-07        -0.93132E-20         0.00000E+00
    0.67094E-07        -0.27940E-19         0.00000E+00
    0.67094E-07        -0.22352E-19         0.00000E+00
    0.67094E-07        -0.31199E-19         0.00000E+00
    0.67094E-07        -0.30734E-19         0.00000E+00
    0.67094E-07        -0.27940E-19         0.00000E+00
    0.67094E-07        -0.32596E-19         0.00000E+00
    0.67094E-07        -0.29337E-19         0.00000E+00
    0.67094E-07        -0.19092E-19         0.00000E+00
    0.67094E-07        -0.88476E-20         0.00000E+00
    0.67094E-07        -0.97789E-20         0.00000E+00
    0.67094E-07        -0.15832E-19         0.00000E+00
    0.67094E-07        -0.15600E-19         0.00000E+00
    0.67094E-07        -0.19791E-19         0.00000E+00
    0.67094E-07        -0.21886E-19         0.00000E+00
    0.67094E-07        -0.16764E-19         0.00000E+00
    0.67094E-07        -0.15367E-19         0.00000E+00
    0.67094E-07        -0.33062E-19         0.00000E+00
    0.67094E-07        -0.39348E-19         0.00000E+00
    0.67094E-07        -0.32131E-19         0.00000E+00
    0.67094E-07        -0.26543E-19         0.00000E+00
    0.67094E-07        -0.44703E-19         0.00000E+00
    0.67094E-07        -0.42375E-19         0.00000E+00
    0.67094E-07        -0.20023E-19         0.00000E+00
    0.67094E-07        -0.20955E-19         0.00000E+00
    0.67094E-07        -0.12806E-19         0.00000E+00
    0.67094E-07        -0.15367E-19         0.00000E+00
    0.67094E-07        -0.51223E-20         0.00000E+00
    0.67094E-07        -0.15367E-19         0.00000E+00
    0.67094E-07        -0.51223E-20         0.00000E+00
    0.67094E-07        -0.13504E-19         0.00000E+00
    0.67094E-07         0.16298E-20         0.00000E+00
    0.67094E-07         0.21886E-19         0.00000E+00
    0.67094E-07         0.11642E-19         0.00000E+00
    0.67094E-07        -0.69849E-21         0.00000E+00
    0.67094E-07        -0.27940E-20         0.00000E+00
    0.67094E-07        -0.39581E-20         0.00000E+00
    0.56464E-07         0.13039E-19         0.00000E+00
    0.56464E-07         0.24680E-19         0.00000E+00
    0.56464E-07         0.55879E-20         0.00000E+00
    0.56464E-07        -0.13970E-20         0.00000E+00
    0.56464E-07        -0.11642E-19         0.00000E+00
    0.56464E-07         0.51223E-20         0.00000E+00
    0.56464E-07         0.93132E-20         0.00000E+00
    0.56464E-07         0.23283E-20         0.00000E+00
    0.56464E-07         0.69849E-20         0.00000E+00
    0.56464E-07        -0.83819E-20         0.00000E+00
    0.56464E-07        -0.13271E-19         0.00000E+00
    0.56464E-07        -0.10710E-19         0.00000E+00
    0.56464E-07        -0.16298E-19         0.00000E+00
    0.56464E-07        -0.23283E-20         0.00000E+00
    0.56464E-07        -0.13970E-19         0.00000E+00
    0.56464E-07        -0.21886E-19         0.00000E+00
    0.56464E-07        -0.32131E-19         0.00000E+00
    0.56464E-07        -0.36787E-19         0.00000E+00
    0.56464E-07        -0.40513E-19         0.00000E+00
    0.56464E-07        -0.37253E-19         0.00000E+00
    0.56464E-07        -0.28405E-19         0.00000E+00
    0.56464E-07        -0.29802E-19         0.00000E+00
    0.56464E-07        -0.14435E-19         0.00000E+00
    0.56464E-07        -0.13504E-19         0.00000E+00
    0.56464E-07        -0.13039E-19         0.00000E+00
    0.56464E-07        -0.27940E-20         0.00000E+00
    0.56464E-07        -0.69849E-20         0.00000E+00
    0.56464E-07        -0.27940E-20         0.00000E+00
    0.56464E-07        -0.46566E-20         0.00000E+00
    0.56464E-07        -0.25844E-19         0.00000E+00
    0.56464E-07        -0.25146E-19         0.00000E+00
    0.56464E-07        -0.33993E-19         0.00000E+00
    0.56464E-07        -0.46566E-19         0.00000E+00
    0.56464E-07        -0.39581E-19         0.00000E+00
    0.56464E-07        -0.47032E-19         0.00000E+00
    0.56464E-07        -0.43306E-19         0.00000E+00
    0.56464E-07        -0.36322E-19         0.00000E+00
    0.56464E-07        -0.25611E-19         0.00000E+00
    0.56464E-07        -0.20023E-19         0.00000E+00
    0.56464E-07        -0.16298E-19         0.00000E+00
    0.56464E-07        -0.15367E-19         0.00000E+00
    0.56464E-07        -0.10245E-19         0.00000E+00
    0.56464E-07        -0.79162E-20         0.00000E+00
    0.56464E-07        -0.37253E-20         0.00000E+00
    0.56464E-07         0.23283E-21         0.00000E+00
    0.56464E-07        -0.60536E-20         0.00000E+00
    0.56464E-07        -0.16298E-20         0.00000E+00
    0.56464E-07        -0.74506E-20         0.00000E+00
    0.56464E-07        -0.60536E-20         0.00000E+00
    0.56464E-07        -0.41910E-20         0.00000E+00
    0.47519E-07         0.69849E-20         0.00000E+00
    0.47519E-07         0.48894E-20         0.00000E+00
    0.47519E-07         0.23283E-21         0.00000E+00
    0.47519E-07        -0.27940E-20         0.00000E+00
    0.47519E-07        -0.93132E-20         0.00000E+00
    0.47519E-07         0.13970E-20         0.00000E+00
    0.47519E-07         0.20955E-20         0.00000E+00
    0.47519E-07        -0.74506E-20         0.00000E+00
    0.47519E-07        -0.81491E-20         0.00000E+00
    0.47519E-07         0.18626E-20         0.00000E+00
    0.47519E-07        -0.44238E-20         0.00000E+00
    0.47519E-07        -0.11176E-19         0.00000E+00
    0.47519E-07        -0.14668E-19         0.00000E+00
    0.47519E-07        -0.17695E-19         0.00000E+00
    0.47519E-07        -0.20023E-19         0.00000E+00
    0.47519E-07        -0.69849E-21         0.00000E+00
    0.47519E-07        -0.24447E-19         0.00000E+00
    0.47519E-07        -0.19092E-19         0.00000E+00
    0.47519E-07        -0.19558E-19         0.00000E+00
    0.47519E-07        -0.27241E-19         0.00000E+00
    0.47519E-07        -0.30966E-19         0.00000E+00
    0.47519E-07        -0.33062E-19         0.00000E+00
    0.47519E-07        -0.20489E-19         0.00000E+00
    0.47519E-07        -0.28638E-19         0.00000E+00
    0.47519E-07        -0.26776E-19         0.00000E+00
    0.47519E-07        -0.13737E-19         0.00000E+00
    0.47519E-07        -0.13737E-19         0.00000E+00
    0.47519E-07        -0.32596E-20         0.00000E+00
    0.47519E-07        -0.17695E-19         0.00000E+00
    0.47519E-07        -0.27940E-19         0.00000E+00
    0.47519E-07        -0.36322E-19         0.00000E+00
    0.47519E-07        -0.40047E-19         0.00000E+00
    0.47519E-07        -0.37719E-19         0.00000E+00
    0.47519E-07        -0.37253E-19         0.00000E+00
    0.47519E-07        -0.25611E-19         0.00000E+00
    0.47519E-07        -0.18626E-19         0.00000E+00
    0.47519E-07        -0.11874E-19         0.00000E+00
    0.47519E-07        -0.83819E-20         0.00000E+00
    0.47519E-07        -0.10012E-19         0.00000E+00
    0.47519E-07        -0.79162E-20         0.00000E+00
    0.47519E-07        -0.16997E-19         0.00000E+00
    0.47519E-07        -0.13504E-19         0.00000E+00
    0.47519E-07        -0.12107E-19         0.00000E+00
    0.47519E-07         0.69849E-20         0.00000E+00
    0.47519E-07        -0.97789E-20         0.00000E+00
    0.47519E-07        -0.14668E-19         0.00000E+00
    0.47519E-07        -0.16298E-19         0.00000E+00
    0.47519E-07        -0.97789E-20         0.00000E+00
    0.47519E-07        -0.32596E-20         0.00000E+00
    0.47519E-07         0.93132E-21         0.00000E+00
    0.39991E-07        -0.46566E-20         0.00000E+00
    0.39991E-07        -0.88476E-20         0.00000E+00
    0.39991E-07        -0.74506E-20         0.00000E+00
    0.39991E-07        -0.12573E-19         0.00000E+00
    0.39991E-07        -0.12107E-19         0.00000E+00
    0.39991E-07        -0.12107E-19         0.00000E+00
    0.39991E-07        -0.74506E-20         0.00000E+00
    0.39991E-07        -0.17695E-19         0.00000E+00
    0.39991E-07        -0.20489E-19         0.00000E+00
    0.39991E-07        -0.27008E-19         0.00000E+00
    0.39991E-07        -0.21420E-19         0.00000E+00
    0.39991E-07        -0.20489E-19         0.00000E+00
    0.39991E-07        -0.17928E-19         0.00000E+00
    0.39991E-07        -0.16531E-19         0.00000E+00
    0.39991E-07        -0.28405E-19         0.00000E+00
    0.39991E-07        -0.10245E-19         0.00000E+00
    0.39991E-07        -0.93132E-20         0.00000E+00
    0.39991E-07        -0.74506E-20         0.00000E+00
    0.39991E-07        -0.19791E-19         0.00000E+00
    0.39991E-07        -0.21420E-19         0.00000E+00
    0.39991E-07        -0.25146E-19         0.00000E+00
    0.39991E-07        -0.22352E-19         0.00000E+00
    0.39991E-07        -0.19558E-19         0.00000E+00
    0.39991E-07        -0.28871E-19         0.00000E+00
    0.39991E-07        -0.33062E-19         0.00000E+00
    0.39991E-07        -0.26543E-19         0.00000E+00
    0.39991E-07        -0.18626E-19         0.00000E+00
    0.39991E-07        -0.26077E-19         0.00000E+00
    0.39991E-07        -0.19558E-19         0.00000E+00
    0.39991E-07        -0.25611E-19         0.00000E+00
    0.39991E-07        -0.31199E-19         0.00000E+00
    0.39991E-07        -0.38650E-19         0.00000E+00
    0.39991E-07        -0.20955E-19         0.00000E+00
    0.39991E-07        -0.33062E-19         0.00000E+00
    0.39991E-07        -0.14435E-19         0.00000E+00
    0.39991E-07        -0.41910E-20         0.00000E+00
    0.39991E-07         0.93132E-20         0.00000E+00
    0.39991E-07         0.20955E-20         0.00000E+00
    0.39991E-07        -0.79162E-20         0.00000E+00
    0.39991E-07        -0.65193E-20         0.00000E+00
    0.39991E-07         0.23283E-20         0.00000E+00
    0.39991E-07        -0.69849E-20         0.00000E+00
    0.39991E-07        -0.60536E-20         0.00000E+00
    0.39991E-07         0.46566E-21         0.00000E+00
    0.39991E-07        -0.69849E-20         0.00000E+00
    0.39991E-07         0.46566E-21         0.00000E+00
    0.39991E-07        -0.58208E-20         0.00000E+00
    0.39991E-07        -0.74506E-20         0.00000E+00
    0.39991E-07         0.51223E-20         0.00000E+00
    0.39991E-07         0.00000E+00         0.00000E+00
    0.33655E-07        -0.13504E-19         0.00000E+00
    0.33655E-07        -0.13039E-19         0.00000E+00
    0.33655E-07        -0.19558E-19         0.00000E+00
    0.33655E-07        -0.16764E-19         0.00000E+00
    0.33655E-07        -0.79162E-20         0.00000E+00
    0.33655E-07        -0.15367E-19         0.00000E+00
    0.33655E-07         0.23283E-21         0.00000E+00
    0.33655E-07        -0.28871E-19         0.00000E+00
    0.33655E-07        -0.19558E-19         0.00000E+00
    0.33655E-07        -0.17695E-19         0.00000E+00
    0.33655E-07        -0.20489E-19         0.00000E+00
    0.33655E-07        -0.23749E-19         0.00000E+00
    0.33655E-07        -0.18626E-19         0.00000E+00
    0.33655E-07        -0.97789E-20         0.00000E+00
    0.33655E-07        -0.23283E-19         0.00000E+00
    0.33655E-07        -0.26543E-19         0.00000E+00
    0.33655E-07        -0.25611E-19         0.00000E+00
    0.33655E-07        -0.24214E-19         0.00000E+00
    0.33655E-07        -0.25379E-19         0.00000E+00
    0.33655E-07        -0.21886E-19         0.00000E+00
    0.33655E-07        -0.19558E-19         0.00000E+00
    0.33655E-07        -0.93132E-20         0.00000E+00
    0.33655E-07        -0.22817E-19         0.00000E+00
    0.33655E-07        -0.13504E-19         0.00000E+00
    0.33655E-07        -0.23283E-19         0.00000E+00
    0.33655E-07        -0.16764E-19         0.00000E+00
    0.33655E-07        -0.26077E-19         0.00000E+00
    0.33655E-07        -0.26077E-19         0.00000E+00
    0.33655E-07        -0.17695E-19         0.00000E+00
    0.33655E-07        -0.26077E-19         0.00000E+00
    0.33655E-07        -0.83819E-20         0.00000E+00
    0.33655E-07        -0.26077E-19         0.00000E+00
    0.33655E-07        -0.13970E-19         0.00000E+00
    0.33655E-07        -0.21420E-19         0.00000E+00
    0.33655E-07        -0.97789E-20         0.00000E+00
    0.33655E-07        -0.65193E-20         0.00000E+00
    0.33655E-07        -0.69849E-20         0.00000E+00
    0.33655E-07        -0.30268E-20         0.00000E+00
    0.33655E-07         0.11409E-19         0.00000E+00
    0.33655E-07        -0.48894E-20         0.00000E+00
    0.33655E-07         0.16298E-20         0.00000E+00
    0.33655E-07        -0.25611E-20         0.00000E+00
    0.33655E-07        -0.69849E-20         0.00000E+00
    0.33655E-07        -0.93132E-20         0.00000E+00
    0.33655E-07        -0.12107E-19         0.00000E+00
    0.33655E-07        -0.55879E-20         0.00000E+00
    0.33655E-07         0.32596E-20         0.00000E+00
    0.33655E-07         0.46566E-20         0.00000E+00
    0.33655E-07         0.97789E-20         0.00000E+00
    0.33655E-07         0.69849E-20         0.00000E+00
    0.28323E-07        -0.48894E-20         0.00000E+00
    0.28323E-07        -0.81491E-20         0.00000E+00
    0.28323E-07        -0.51223E-20         0.00000E+00
    0.28323E-07        -0.93132E-20         0.00000E+00
    0.28323E-07        -0.19791E-19         0.00000E+00
    0.28323E-07        -0.20955E-19         0.00000E+00
    0.28323E-07        -0.15600E-19         0.00000E+00
    0.28323E-07        -0.10710E-19         0.00000E+00
    0.28323E-07        -0.12806E-19         0.00000E+00
    0.28323E-07        -0.97789E-20         0.00000E+00
    0.28323E-07        -0.74506E-20         0.00000E+00
    0.28323E-07        -0.20023E-19         0.00000E+00
    0.28323E-07        -0.16764E-19         0.00000E+00
    0.28323E-07        -0.11874E-19         0.00000E+00
    0.28323E-07        -0.10012E-19         0.00000E+00
    0.28323E-07        -0.19092E-19         0.00000E+00
    0.28323E-07        -0.26543E-19         0.00000E+00
    0.28323E-07        -0.31199E-19         0.00000E+00
    0.28323E-07        -0.20489E-19         0.00000E+00
    0.28323E-07        -0.12573E-19         0.00000E+00
    0.28323E-07        -0.24447E-19         0.00000E+00
    0.28323E-07        -0.14435E-19         0.00000E+00
    0.28323E-07        -0.13970E-19         0.00000E+00
    0.28323E-07        -0.23283E-19         0.00000E+00
    0.28323E-07        -0.25379E-19         0.00000E+00
    0.28323E-07        -0.10943E-19         0.00000E+00
    0.28323E-07        -0.16298E-19         0.00000E+00
    0.28323E-07        -0.14435E-19         0.00000E+00
    0.28323E-07        -0.25146E-19         0.00000E+00
    0.28323E-07        -0.21886E-19         0.00000E+00
    0.28323E-07        -0.58208E-20         0.00000E+00
    0.28323E-07        -0.93132E-20         0.00000E+00
    0.28323E-07        -0.18161E-19         0.00000E+00
    0.28323E-07        -0.22817E-19         0.00000E+00
    0.28323E-07        -0.12573E-19         0.00000E+00
    0.28323E-07        -0.12573E-19         0.00000E+00
    0.28323E-07        -0.12573E-19         0.00000E+00
    0.28323E-07        -0.10943E-19         0.00000E+00
    0.28323E-07         0.41910E-20         0.00000E+00
    0.28323E-07        -0.97789E-20         0.00000E+00
    0.28323E-07        -0.51223E-20         0.00000E+00
    0.28323E-07        -0.60536E-20         0.00000E+00
    0.28323E-07        -0.11642E-19         0.00000E+00
    0.28323E-07        -0.65193E-20         0.00000E+00
    0.28323E-07        -0.60536E-20         0.00000E+00
    0.28323E-07        -0.55879E-20         0.00000E+00
    0.28323E-07        -0.58208E-20         0.00000E+00
    0.28323E-07        -0.20955E-20         0.00000E+00
    0.28323E-07        -0.46566E-21         0.00000E+00
    0.28323E-07         0.97789E-20         0.00000E+00
    0.23836E-07         0.23283E-20         0.00000E+00
    0.23836E-07        -0.58208E-20         0.00000E+00
    0.23836E-07         0.69849E-20         0.00000E+00
    0.23836E-07        -0.51223E-20         0.00000E+00
    0.23836E-07        -0.27940E-19         0.00000E+00
    0.23836E-07        -0.24214E-19         0.00000E+00
    0.23836E-07        -0.22352E-19         0.00000E+00
    0.23836E-07        -0.97789E-20         0.00000E+00
    0.23836E-07        -0.13039E-19         0.00000E+00
    0.23836E-07        -0.14435E-19         0.00000E+00
    0.23836E-07        -0.13970E-19         0.00000E+00
    0.23836E-07        -0.14668E-19         0.00000E+00
    0.23836E-07        -0.23283E-19         0.00000E+00
    0.23836E-07        -0.20256E-19         0.00000E+00
    0.23836E-07        -0.10012E-19         0.00000E+00
    0.23836E-07        -0.19092E-19         0.00000E+00
    0.23836E-07        -0.13970E-19         0.00000E+00
    0.23836E-07        -0.17928E-19         0.00000E+00
    0.23836E-07        -0.93132E-20         0.00000E+00
    0.23836E-07        -0.12107E-19         0.00000E+00
    0.23836E-07        -0.97789E-20         0.00000E+00
    0.23836E-07        -0.10245E-19         0.00000E+00
    0.23836E-07        -0.17229E-19         0.00000E+00
    0.23836E-07        -0.30035E-19         0.00000E+00
    0.23836E-07        -0.20722E-19         0.00000E+00
    0.23836E-07        -0.97789E-20         0.00000E+00
    0.23836E-07        -0.23283E-20         0.00000E+00
    0.23836E-07        -0.19092E-19         0.00000E+00
    0.23836E-07        -0.20955E-19         0.00000E+00
    0.23836E-07        -0.32131E-19         0.00000E+00
    0.23836E-07        -0.19325E-19         0.00000E+00
    0.23836E-07        -0.16298E-19         0.00000E+00
    0.23836E-07        -0.25146E-19         0.00000E+00
    0.23836E-07        -0.23749E-19         0.00000E+00
    0.23836E-07        -0.21420E-19         0.00000E+00
    0.23836E-07        -0.10245E-19         0.00000E+00
    0.23836E-07        -0.14435E-19         0.00000E+00
    0.23836E-07        -0.83819E-20         0.00000E+00
    0.23836E-07        -0.21886E-19         0.00000E+00
    0.23836E-07        -0.24680E-19         0.00000E+00
    0.23836E-07        -0.20256E-19         0.00000E+00
    0.23836E-07        -0.53551E-20         0.00000E+00
    0.23836E-07        -0.13039E-19         0.00000E+00
    0.23836E-07        -0.30268E-20         0.00000E+00
    0.23836E-07        -0.23283E-20         0.00000E+00
    0.23836E-07        -0.51223E-20         0.00000E+00
    0.23836E-07        -0.76834E-20         0.00000E+00
    0.23836E-07        -0.60536E-20         0.00000E+00
    0.23836E-07         0.46566E-21         0.00000E+00
    0.23836E-07         0.39581E-20         0.00000E+00
    0.20060E-07         0.60536E-20         0.00000E+00
    0.20060E-07        -0.67521E-20         0.00000E+00
    0.20060E-07        -0.81491E-20         0.00000E+00
    0.20060E-07         0.10477E-19         0.00000E+00
    0.20060E-07        -0.11642E-19         0.00000E+00
    0.20060E-07        -0.46566E-20         0.00000E+00
    0.20060E-07        -0.14901E-19         0.00000E+00
    0.20060E-07        -0.15832E-19         0.00000E+00
    0.20060E-07        -0.93132E-21         0.00000E+00
    0.20060E-07        -0.79162E-20         0.00000E+00
    0.20060E-07        -0.10710E-19         0.00000E+00
    0.20060E-07        -0.69849E-20         0.00000E+00
    0.20060E-07        -0.18626E-19         0.00000E+00
    0.20060E-07        -0.19791E-19         0.00000E+00
    0.20060E-07        -0.24214E-19         0.00000E+00
    0.20060E-07        -0.13970E-19         0.00000E+00
    0.20060E-07        -0.22817E-19         0.00000E+00
    0.20060E-07        -0.19791E-19         0.00000E+00
    0.20060E-07        -0.13970E-19         0.00000E+00
    0.20060E-07        -0.15600E-19         0.00000E+00
    0.20060E-07        -0.20955E-20         0.00000E+00
    0.20060E-07        -0.65193E-20         0.00000E+00
    0.20060E-07        -0.93132E-20         0.00000E+00
    0.20060E-07        -0.93132E-20         0.00000E+00
    0.20060E-07        -0.16298E-19         0.00000E+00
    0.20060E-07        -0.22585E-19         0.00000E+00
    0.20060E-07        -0.20256E-19         0.00000E+00
    0.20060E-07        -0.16997E-19         0.00000E+00
    0.20060E-07        -0.18161E-19         0.00000E+00
    0.20060E-07        -0.17695E-19         0.00000E+00
    0.20060E-07        -0.32363E-19         0.00000E+00
    0.20060E-07        -0.21886E-19         0.00000E+00
    0.20060E-07        -0.22352E-19         0.00000E+00
    0.20060E-07        -0.16764E-19         0.00000E+00
    0.20060E-07        -0.97789E-20         0.00000E+00
    0.20060E-07         0.23283E-21         0.00000E+00
    0.20060E-07        -0.16764E-19         0.00000E+00
    0.20060E-07        -0.23749E-19         0.00000E+00
    0.20060E-07        -0.21653E-19         0.00000E+00
    0.20060E-07        -0.31199E-19         0.00000E+00
    0.20060E-07        -0.40047E-19         0.00000E+00
    0.20060E-07        -0.21653E-19         0.00000E+00
    0.20060E-07        -0.19558E-19         0.00000E+00
    0.20060E-07        -0.74506E-20         0.00000E+00
    0.20060E-07         0.79162E-20         0.00000E+00
    0.20060E-07        -0.23283E-20         0.00000E+00
    0.20060E-07         0.18626E-20         0.00000E+00
    0.20060E-07        -0.69849E-21         0.00000E+00
    0.20060E-07         0.39581E-20         0.00000E+00
    0.20060E-07         0.18626E-20         0.00000E+00
    0.16882E-07        -0.13970E-20         0.00000E+00
    0.16882E-07         0.34925E-20         0.00000E+00
    0.16882E-07         0.00000E+00         0.00000E+00
    0.16882E-07         0.16764E-19         0.00000E+00
    0.16882E-07         0.93132E-20         0.00000E+00
    0.16882E-07         0.60536E-20         0.00000E+00
    0.16882E-07        -0.88476E-20         0.00000E+00
    0.16882E-07        -0.27940E-20         0.00000E+00
    0.16882E-07         0.76834E-20         0.00000E+00
    0.16882E-07         0.44238E-20         0.00000E+00
    0.16882E-07        -0.12107E-19         0.00000E+00
    0.16882E-07        -0.26077E-19         0.00000E+00
    0.16882E-07        -0.18626E-19         0.00000E+00
    0.16882E-07        -0.58208E-20         0.00000E+00
    0.16882E-07        -0.17229E-19         0.00000E+00
    0.16882E-07        -0.13504E-19         0.00000E+00
    0.16882E-07        -0.60536E-20         0.00000E+00
    0.16882E-07        -0.60536E-20         0.00000E+00
    0.16882E-07        -0.19092E-19         0.00000E+00
    0.16882E-07        -0.22817E-19         0.00000E+00
    0.16882E-07        -0.20023E-19         0.00000E+00
    0.16882E-07        -0.14901E-19         0.00000E+00
    0.16882E-07        -0.18859E-19         0.00000E+00
    0.16882E-07        -0.20955E-19         0.00000E+00
    0.16882E-07        -0.23749E-19         0.00000E+00
    0.16882E-07        -0.23516E-19         0.00000E+00
    0.16882E-07        -0.23749E-19         0.00000E+00
    0.16882E-07        -0.26077E-19         0.00000E+00
    0.16882E-07        -0.14435E-19         0.00000E+00
    0.16882E-07        -0.12573E-19         0.00000E+00
    0.16882E-07        -0.29802E-19         0.00000E+00
    0.16882E-07        -0.26077E-19         0.00000E+00
    0.16882E-07        -0.24913E-19         0.00000E+00
    0.16882E-07        -0.26543E-19         0.00000E+00
    0.16882E-07        -0.15832E-19         0.00000E+00
    0.16882E-07        -0.53551E-20         0.00000E+00
    0.16882E-07        -0.11642E-19         0.00000E+00
    0.16882E-07        -0.14435E-19         0.00000E+00
    0.16882E-07        -0.14901E-19         0.00000E+00
    0.16882E-07        -0.19092E-19         0.00000E+00
    0.16882E-07        -0.26077E-19         0.00000E+00
    0.16882E-07        -0.15367E-19         0.00000E+00
    0.16882E-07        -0.24214E-19         0.00000E+00
    0.16882E-07        -0.37253E-20         0.00000E+00
    0.16882E-07         0.46566E-21         0.00000E+00
    0.16882E-07         0.13970E-20         0.00000E+00
    0.16882E-07         0.55879E-20         0.00000E+00
    0.16882E-07         0.18626E-20         0.00000E+00
    0.16882E-07         0.00000E+00         0.00000E+00
    0.16882E-07        -0.93132E-21         0.00000E+00
    0.14207E-07        -0.39581E-20         0.00000E+00
    0.14207E-07         0.10012E-19         0.00000E+00
    0.14207E-07         0.13737E-19         0.00000E+00
    0.14207E-07         0.14901E-19         0.00000E+00
    0.14207E-07         0.88476E-20         0.00000E+00
    0.14207E-07        -0.32596E-20         0.00000E+00
    0.14207E-07         0.58208E-20         0.00000E+00
    0.14207E-07         0.65193E-20         0.00000E+00
    0.14207E-07         0.32596E-20         0.00000E+00
    0.14207E-07         0.44238E-20         0.00000E+00
    0.14207E-07         0.83819E-20         0.00000E+00
    0.14207E-07        -0.53551E-20         0.00000E+00
    0.14207E-07        -0.37253E-20         0.00000E+00
    0.14207E-07        -0.81491E-20         0.00000E+00
    0.14207E-07        -0.14203E-19         0.00000E+00
    0.14207E-07        -0.51223E-20         0.00000E+00
    0.14207E-07         0.23283E-20         0.00000E+00
    0.14207E-07        -0.46566E-21         0.00000E+00
    0.14207E-07        -0.24214E-19         0.00000E+00
    0.14207E-07        -0.21886E-19         0.00000E+00
    0.14207E-07        -0.27474E-19         0.00000E+00
    0.14207E-07        -0.17695E-19         0.00000E+00
    0.14207E-07        -0.23283E-19         0.00000E+00
    0.14207E-07        -0.25611E-19         0.00000E+00
    0.14207E-07        -0.21420E-19         0.00000E+00
    0.14207E-07        -0.23749E-19         0.00000E+00
    0.14207E-07        -0.18161E-19         0.00000E+00
    0.14207E-07        -0.33062E-19         0.00000E+00
    0.14207E-07        -0.29337E-19         0.00000E+00
    0.14207E-07        -0.38650E-19         0.00000E+00
    0.14207E-07        -0.30734E-19         0.00000E+00
    0.14207E-07        -0.28638E-19         0.00000E+00
    0.14207E-07        -0.30966E-19         0.00000E+00
    0.14207E-07        -0.24680E-19         0.00000E+00
    0.14207E-07        -0.25146E-19         0.00000E+00
    0.14207E-07        -0.11176E-19         0.00000E+00
    0.14207E-07        -0.10710E-19         0.00000E+00
    0.14207E-07        -0.16764E-19         0.00000E+00
    0.14207E-07        -0.30501E-19         0.00000E+00
    0.14207E-07        -0.15367E-19         0.00000E+00
    0.14207E-07        -0.11874E-19         0.00000E+00
    0.14207E-07        -0.55879E-20         0.00000E+00
    0.14207E-07        -0.16065E-19         0.00000E+00
    0.14207E-07        -0.86147E-20         0.00000E+00
    0.14207E-07        -0.10012E-19         0.00000E+00
    0.14207E-07         0.93132E-21         0.00000E+00
    0.14207E-07         0.30268E-20         0.00000E+00
    0.14207E-07        -0.83819E-20         0.00000E+00
    0.14207E-07        -0.18626E-20         0.00000E+00
    0.14207E-07         0.69849E-21         0.00000E+00
    0.11957E-07        -0.23283E-20         0.00000E+00
    0.11957E-07         0.32596E-20         0.00000E+00
    0.11957E-07         0.30268E-20         0.00000E+00
    0.11957E-07         0.15134E-19         0.00000E+00
    0.11957E-07         0.65193E-20         0.00000E+00
    0.11957E-07        -0.30268E-20         0.00000E+00
    0.11957E-07         0.46566E-21         0.00000E+00
    0.11957E-07         0.37253E-20         0.00000E+00
    0.11957E-07         0.93132E-21         0.00000E+00
    0.11957E-07         0.83819E-20         0.00000E+00
    0.11957E-07         0.19558E-19         0.00000E+00
    0.11957E-07         0.18626E-19         0.00000E+00
    0.11957E-07         0.12107E-19         0.00000E+00
    0.11957E-07         0.11642E-19         0.00000E+00
    0.11957E-07         0.00000E+00         0.00000E+00
    0.11957E-07        -0.44238E-20         0.00000E+00
    0.11957E-07        -0.53551E-20         0.00000E+00
    0.11957E-07        -0.13504E-19         0.00000E+00
    0.11957E-07        -0.22817E-19         0.00000E+00
    0.11957E-07        -0.14901E-19         0.00000E+00
    0.11957E-07        -0.21886E-19         0.00000E+00
    0.11957E-07        -0.20489E-19         0.00000E+00
    0.11957E-07        -0.97789E-20         0.00000E+00
    0.11957E-07        -0.19558E-19         0.00000E+00
    0.11957E-07        -0.27008E-19         0.00000E+00
    0.11957E-07        -0.39116E-19         0.00000E+00
    0.11957E-07        -0.31199E-19         0.00000E+00
    0.11957E-07        -0.29337E-19         0.00000E+00
    0.11957E-07        -0.29337E-19         0.00000E+00
    0.11957E-07        -0.43306E-19         0.00000E+00
    0.11957E-07        -0.37253E-19         0.00000E+00
    0.11957E-07        -0.27008E-19         0.00000E+00
    0.11957E-07        -0.20489E-19         0.00000E+00
    0.11957E-07        -0.23749E-19         0.00000E+00
    0.11957E-07        -0.19558E-19         0.00000E+00
    0.11957E-07        -0.16764E-19         0.00000E+00
    0.11957E-07        -0.19558E-19         0.00000E+00
    0.11957E-07        -0.24214E-19         0.00000E+00
    0.11957E-07        -0.24214E-19         0.00000E+00
    0.11957E-07        -0.21886E-19         0.00000E+00
    0.11957E-07        -0.13737E-19         0.00000E+00
    0.11957E-07        -0.30268E-20         0.00000E+00
    0.11957E-07         0.18626E-20         0.00000E+00
    0.11957E-07        -0.11176E-19         0.00000E+00
    0.11957E-07        -0.30268E-20         0.00000E+00
    0.11957E-07        -0.51223E-20         0.00000E+00
    0.11957E-07        -0.13970E-20         0.00000E+00
    0.11957E-07        -0.11874E-19         0.00000E+00
    0.11957E-07         0.23283E-20         0.00000E+00
    0.11957E-07         0.93132E-21         0.00000E+00
    0.10063E-07         0.46566E-21         0.00000E+00
    0.10063E-07         0.46566E-20         0.00000E+00
    0.10063E-07        -0.53551E-20         0.00000E+00
    0.10063E-07         0.12573E-19         0.00000E+00
    0.10063E-07        -0.37253E-20         0.00000E+00
    0.10063E-07        -0.51223E-20         0.00000E+00
    0.10063E-07        -0.27940E-20         0.00000E+00
    0.10063E-07         0.88476E-20         0.00000E+00
    0.10063E-07         0.65193E-20         0.00000E+00
    0.10063E-07         0.13970E-20         0.00000E+00
    0.10063E-07         0.62864E-20         0.00000E+00
    0.10063E-07         0.58208E-20         0.00000E+00
    0.10063E-07         0.13039E-19         0.00000E+00
    0.10063E-07         0.21886E-19         0.00000E+00
    0.10063E-07         0.44238E-20         0.00000E+00
    0.10063E-07         0.13737E-19         0.00000E+00
    0.10063E-07        -0.46566E-20         0.00000E+00
    0.10063E-07        -0.10710E-19         0.00000E+00
    0.10063E-07        -0.74506E-20         0.00000E+00
    0.10063E-07        -0.11176E-19         0.00000E+00
    0.10063E-07        -0.14435E-19         0.00000E+00
    0.10063E-07        -0.23749E-19         0.00000E+00
    0.10063E-07        -0.23283E-19         0.00000E+00
    0.10063E-07        -0.37020E-19         0.00000E+00
    0.10063E-07        -0.37253E-19         0.00000E+00
    0.10063E-07        -0.25611E-19         0.00000E+00
    0.10063E-07        -0.35856E-19         0.00000E+00
    0.10063E-07        -0.21886E-19         0.00000E+00
    0.10063E-07        -0.20023E-19         0.00000E+00
    0.10063E-07        -0.29104E-19         0.00000E+00
    0.10063E-07        -0.32596E-19         0.00000E+00
    0.10063E-07        -0.20023E-19         0.00000E+00
    0.10063E-07        -0.26077E-19         0.00000E+00
    0.10063E-07        -0.28871E-19         0.00000E+00
    0.10063E-07        -0.32131E-19         0.00000E+00
    0.10063E-07        -0.25146E-19         0.00000E+00
    0.10063E-07        -0.24680E-19         0.00000E+00
    0.10063E-07        -0.51223E-20         0.00000E+00
    0.10063E-07        -0.11642E-19         0.00000E+00
    0.10063E-07        -0.18626E-19         0.00000E+00
    0.10063E-07        -0.12107E-19         0.00000E+00
    0.10063E-07        -0.10477E-19         0.00000E+00
    0.10063E-07         0.20955E-20         0.00000E+00
    0.10063E-07         0.46566E-20         0.00000E+00
    0.10063E-07         0.51223E-20         0.00000E+00
    0.10063E-07        -0.69849E-20         0.00000E+00
    0.10063E-07         0.25611E-20         0.00000E+00
    0.10063E-07        -0.60536E-20         0.00000E+00
    0.10063E-07        -0.74506E-20         0.00000E+00
    0.10063E-07        -0.39581E-20         0.00000E+00
    0.84686E-08         0.18626E-20         0.00000E+00
    0.84686E-08         0.10245E-19         0.00000E+00
    0.84686E-08         0.79162E-20         0.00000E+00
    0.84686E-08         0.20955E-20         0.00000E+00
    0.84686E-08        -0.93132E-21         0.00000E+00
    0.84686E-08        -0.46566E-21         0.00000E+00
    0.84686E-08         0.88476E-20         0.00000E+00
    0.84686E-08         0.12573E-19         0.00000E+00
    0.84686E-08         0.60536E-20         0.00000E+00
    0.84686E-08         0.88476E-20         0.00000E+00
    0.84686E-08         0.46566E-20         0.00000E+00
    0.84686E-08         0.27940E-20         0.00000E+00
    0.84686E-08         0.27940E-20         0.00000E+00
    0.84686E-08         0.10943E-19         0.00000E+00
    0.84686E-08        -0.53551E-20         0.00000E+00
    0.84686E-08         0.10012E-19         0.00000E+00
    0.84686E-08         0.93132E-21         0.00000E+00
    0.84686E-08        -0.97789E-20         0.00000E+00
    0.84686E-08        -0.10710E-19         0.00000E+00
    0.84686E-08        -0.13504E-19         0.00000E+00
    0.84686E-08        -0.17229E-19         0.00000E+00
    0.84686E-08        -0.26543E-19         0.00000E+00
    0.84686E-08        -0.33062E-19         0.00000E+00
    0.84686E-08        -0.44936E-19         0.00000E+00
    0.84686E-08        -0.38184E-19         0.00000E+00
    0.84686E-08        -0.22352E-19         0.00000E+00
    0.84686E-08        -0.18626E-19         0.00000E+00
    0.84686E-08        -0.26543E-19         0.00000E+00
    0.84686E-08        -0.33062E-19         0.00000E+00
    0.84686E-08        -0.43074E-19         0.00000E+00
    0.84686E-08        -0.39116E-19         0.00000E+00
    0.84686E-08        -0.24214E-19         0.00000E+00
    0.84686E-08        -0.21886E-19         0.00000E+00
    0.84686E-08        -0.25146E-19         0.00000E+00
    0.84686E-08        -0.27940E-19         0.00000E+00
    0.84686E-08        -0.17695E-19         0.00000E+00
    0.84686E-08        -0.16764E-19         0.00000E+00
    0.84686E-08        -0.32596E-20         0.00000E+00
    0.84686E-08        -0.14668E-19         0.00000E+00
    0.84686E-08        -0.95461E-20         0.00000E+00
    0.84686E-08        -0.23283E-20         0.00000E+00
    0.84686E-08        -0.18626E-19         0.00000E+00
    0.84686E-08        -0.55879E-20         0.00000E+00
    0.84686E-08        -0.93132E-21         0.00000E+00
    0.84686E-08        -0.46566E-21         0.00000E+00
    0.84686E-08        -0.74506E-20         0.00000E+00
    0.84686E-08         0.37253E-20         0.00000E+00
    0.84686E-08         0.74506E-20         0.00000E+00
    0.84686E-08         0.46566E-20         0.00000E+00
    0.84686E-08        -0.44238E-20         0.00000E+00
    0.71272E-08        -0.25611E-20         0.00000E+00
    0.71272E-08        -0.46566E-20         0.00000E+00
    0.71272E-08         0.39581E-20         0.00000E+00
    0.71272E-08         0.65193E-20         0.00000E+00
    0.71272E-08        -0.74506E-20         0.00000E+00
    0.71272E-08        -0.11642E-20         0.00000E+00
    0.71272E-08         0.19558E-19         0.00000E+00
    0.71272E-08         0.15600E-19         0.00000E+00
    0.71272E-08         0.65193E-20         0.00000E+00
    0.71272E-08         0.72177E-20         0.00000E+00
    0.71272E-08         0.51223E-20         0.00000E+00
    0.71272E-08         0.83819E-20         0.00000E+00
    0.71272E-08        -0.15832E-19         0.00000E+00
    0.71272E-08        -0.19558E-19         0.00000E+00
    0.71272E-08        -0.41910E-20         0.00000E+00
    0.71272E-08        -0.18626E-19         0.00000E+00
    0.71272E-08        -0.10477E-19         0.00000E+00
    0.71272E-08        -0.93132E-20         0.00000E+00
    0.71272E-08        -0.27008E-19         0.00000E+00
    0.71272E-08        -0.15832E-19         0.00000E+00
    0.71272E-08        -0.10943E-19         0.00000E+00
    0.71272E-08        -0.18161E-19         0.00000E+00
    0.71272E-08        -0.13271E-19         0.00000E+00
    0.71272E-08        -0.32596E-19         0.00000E+00
    0.71272E-08        -0.36322E-19         0.00000E+00
    0.71272E-08        -0.24680E-19         0.00000E+00
    0.71272E-08        -0.31199E-19         0.00000E+00
    0.71272E-08        -0.21653E-19         0.00000E+00
    0.71272E-08        -0.29802E-19         0.00000E+00
    0.71272E-08        -0.46100E-19         0.00000E+00
    0.71272E-08        -0.34925E-19         0.00000E+00
    0.71272E-08        -0.19558E-19         0.00000E+00
    0.71272E-08        -0.26543E-19         0.00000E+00
    0.71272E-08        -0.26776E-19         0.00000E+00
    0.71272E-08        -0.16531E-19         0.00000E+00
    0.71272E-08        -0.79162E-20         0.00000E+00
    0.71272E-08        -0.51223E-20         0.00000E+00
    0.71272E-08        -0.15367E-19         0.00000E+00
    0.71272E-08        -0.69849E-21         0.00000E+00
    0.71272E-08        -0.69849E-20         0.00000E+00
    0.71272E-08        -0.55879E-20         0.00000E+00
    0.71272E-08        -0.11642E-20         0.00000E+00
    0.71272E-08         0.46566E-21         0.00000E+00
    0.71272E-08        -0.27940E-20         0.00000E+00
    0.71272E-08        -0.83819E-20         0.00000E+00
    0.71272E-08        -0.12107E-19         0.00000E+00
    0.71272E-08        -0.23283E-20         0.00000E+00
    0.71272E-08         0.23283E-20         0.00000E+00
    0.71272E-08         0.10710E-19         0.00000E+00
    0.71272E-08         0.11642E-20         0.00000E+00
    0.59983E-08         0.41910E-20         0.00000E+00
    0.59983E-08        -0.48894E-20         0.00000E+00
    0.59983E-08        -0.44238E-20         0.00000E+00
    0.59983E-08        -0.10245E-19         0.00000E+00
    0.59983E-08        -0.12573E-19         0.00000E+00
    0.59983E-08        -0.14203E-19         0.00000E+00
    0.59983E-08         0.30268E-20         0.00000E+00
    0.59983E-08         0.41910E-20         0.00000E+00
    0.59983E-08         0.20955E-20         0.00000E+00
    0.59983E-08        -0.23283E-20         0.00000E+00
    0.59983E-08        -0.12107E-19         0.00000E+00
    0.59983E-08        -0.72177E-20         0.00000E+00
    0.59983E-08        -0.18161E-19         0.00000E+00
    0.59983E-08        -0.19092E-19         0.00000E+00
    0.59983E-08        -0.97789E-20         0.00000E+00
    0.59983E-08        -0.14901E-19         0.00000E+00
    0.59983E-08        -0.17928E-19         0.00000E+00
    0.59983E-08        -0.21420E-19         0.00000E+00
    0.59983E-08        -0.22352E-19         0.00000E+00
    0.59983E-08        -0.74506E-20         0.00000E+00
    0.59983E-08        -0.10943E-19         0.00000E+00
    0.59983E-08        -0.16298E-19         0.00000E+00
    0.59983E-08        -0.12340E-19         0.00000E+00
    0.59983E-08        -0.67521E-20         0.00000E+00
    0.59983E-08        -0.10245E-19         0.00000E+00
    0.59983E-08        -0.12806E-19         0.00000E+00
    0.59983E-08        -0.22817E-19         0.00000E+00
    0.59983E-08         0.11642E-20         0.00000E+00
    0.59983E-08        -0.10245E-19         0.00000E+00
    0.59983E-08        -0.14901E-19         0.00000E+00
    0.59983E-08        -0.22352E-19         0.00000E+00
    0.59983E-08        -0.27940E-19         0.00000E+00
    0.59983E-08        -0.25146E-19         0.00000E+00
    0.59983E-08        -0.27474E-19         0.00000E+00
    0.59983E-08        -0.19325E-19         0.00000E+00
    0.59983E-08        -0.16298E-19         0.00000E+00
    0.59983E-08        -0.39581E-20         0.00000E+00
    0.59983E-08        -0.51223E-20         0.00000E+00
    0.59983E-08        -0.37253E-20         0.00000E+00
    0.59983E-08        -0.15832E-19         0.00000E+00
    0.59983E-08        -0.25611E-20         0.00000E+00
    0.59983E-08         0.65193E-20         0.00000E+00
    0.59983E-08         0.11642E-20         0.00000E+00
    0.59983E-08         0.62864E-20         0.00000E+00
    0.59983E-08         0.44238E-20         0.00000E+00
    0.59983E-08         0.46566E-21         0.00000E+00
    0.59983E-08         0.60536E-20         0.00000E+00
    0.59983E-08        -0.37253E-20         0.00000E+00
    0.59983E-08         0.13970E-20         0.00000E+00
    0.59983E-08        -0.20955E-20         0.00000E+00
    0.50483E-08        -0.51223E-20         0.00000E+00
    0.50483E-08         0.93132E-21         0.00000E+00
    0.50483E-08        -0.60536E-20         0.00000E+00
    0.50483E-08        -0.27940E-20         0.00000E+00
    0.50483E-08         0.53551E-20         0.00000E+00
    0.50483E-08         0.41910E-20         0.00000E+00
    0.50483E-08        -0.14435E-19         0.00000E+00
    0.50483E-08        -0.88476E-20         0.00000E+00
    0.50483E-08        -0.69849E-20         0.00000E+00
    0.50483E-08        -0.55879E-20         0.00000E+00
    0.50483E-08        -0.15832E-19         0.00000E+00
    0.50483E-08        -0.20955E-19         0.00000E+00
    0.50483E-08        -0.11176E-19         0.00000E+00
    0.50483E-08        -0.69849E-20         0.00000E+00
    0.50483E-08        -0.79162E-20         0.00000E+00
    0.50483E-08        -0.11874E-19         0.00000E+00
    0.50483E-08        -0.12107E-19         0.00000E+00
    0.50483E-08        -0.12107E-19         0.00000E+00
    0.50483E-08        -0.18626E-19         0.00000E+00
    0.50483E-08        -0.16298E-19         0.00000E+00
    0.50483E-08        -0.21420E-19         0.00000E+00
    0.50483E-08        -0.93132E-21         0.00000E+00
    0.50483E-08        -0.14435E-19         0.00000E+00
    0.50483E-08         0.93132E-21         0.00000E+00
    0.50483E-08         0.93132E-21         0.00000E+00
    0.50483E-08        -0.21420E-19         0.00000E+00
    0.50483E-08        -0.18626E-20         0.00000E+00
    0.50483E-08         0.32596E-20         0.00000E+00
    0.50483E-08         0.37253E-20         0.00000E+00
    0.50483E-08         0.23283E-20         0.00000E+00
    0.50483E-08        -0.18626E-20         0.00000E+00
    0.50483E-08        -0.16764E-19         0.00000E+00
    0.50483E-08        -0.13737E-19         0.00000E+00
    0.50483E-08        -0.22352E-19         0.00000E+00
    0.50483E-08        -0.21653E-19         0.00000E+00
    0.50483E-08        -0.15832E-19         0.00000E+00
    0.50483E-08        -0.74506E-20         0.00000E+00
    0.50483E-08        -0.32596E-20         0.00000E+00
    0.50483E-08        -0.83819E-20         0.00000E+00
    0.50483E-08        -0.11642E-20         0.00000E+00
    0.50483E-08         0.48894E-20         0.00000E+00
    0.50483E-08        -0.13970E-20         0.00000E+00
    0.50483E-08         0.69849E-20         0.00000E+00
    0.50483E-08         0.46566E-20         0.00000E+00
    0.50483E-08         0.17229E-19         0.00000E+00
    0.50483E-08         0.13970E-20         0.00000E+00
    0.50483E-08         0.10245E-19         0.00000E+00
    0.50483E-08        -0.27940E-20         0.00000E+00
    0.50483E-08         0.93132E-21         0.00000E+00
    0.50483E-08        -0.46566E-20         0.00000E+00
    0.42489E-08        -0.51223E-20         0.00000E+00
    0.42489E-08        -0.65193E-20         0.00000E+00
    0.42489E-08         0.13970E-20         0.00000E+00
    0.42489E-08         0.97789E-20         0.00000E+00
    0.42489E-08         0.37253E-20         0.00000E+00
    0.42489E-08         0.23283E-20         0.00000E+00
    0.42489E-08        -0.10710E-19         0.00000E+00
    0.42489E-08        -0.21420E-19         0.00000E+00
    0.42489E-08        -0.17229E-19         0.00000E+00
    0.42489E-08        -0.16764E-19         0.00000E+00
    0.42489E-08        -0.46566E-20         0.00000E+00
    0.42489E-08        -0.11176E-19         0.00000E+00
    0.42489E-08        -0.20489E-19         0.00000E+00
    0.42489E-08        -0.88476E-20         0.00000E+00
    0.42489E-08        -0.46566E-20         0.00000E+00
    0.42489E-08        -0.15367E-19         0.00000E+00
    0.42489E-08        -0.83819E-20         0.00000E+00
    0.42489E-08         0.00000E+00         0.00000E+00
    0.42489E-08        -0.51223E-20         0.00000E+00
    0.42489E-08        -0.62864E-20         0.00000E+00
    0.42489E-08         0.00000E+00         0.00000E+00
    0.42489E-08         0.97789E-20         0.00000E+00
    0.42489E-08        -0.32596E-20         0.00000E+00
    0.42489E-08        -0.10245E-19         0.00000E+00
    0.42489E-08        -0.11176E-19         0.00000E+00
    0.42489E-08        -0.15832E-19         0.00000E+00
    0.42489E-08        -0.19558E-19         0.00000E+00
    0.42489E-08        -0.17229E-19         0.00000E+00
    0.42489E-08        -0.14668E-19         0.00000E+00
    0.42489E-08         0.41910E-20         0.00000E+00
    0.42489E-08         0.18626E-20         0.00000E+00
    0.42489E-08        -0.11176E-19         0.00000E+00
    0.42489E-08        -0.12573E-19         0.00000E+00
    0.42489E-08        -0.27940E-20         0.00000E+00
    0.42489E-08         0.18626E-20         0.00000E+00
    0.42489E-08        -0.60536E-20         0.00000E+00
    0.42489E-08        -0.93132E-20         0.00000E+00
    0.42489E-08        -0.16764E-19         0.00000E+00
    0.42489E-08        -0.17695E-19         0.00000E+00
    0.42489E-08        -0.74506E-20         0.00000E+00
    0.42489E-08         0.11642E-20         0.00000E+00
    0.42489E-08         0.10710E-19         0.00000E+00
    0.42489E-08         0.14435E-19         0.00000E+00
    0.42489E-08         0.11176E-19         0.00000E+00
    0.42489E-08         0.16764E-19         0.00000E+00
    0.42489E-08         0.93132E-20         0.00000E+00
    0.42489E-08         0.74506E-20         0.00000E+00
    0.42489E-08         0.10245E-19         0.00000E+00
    0.42489E-08        -0.83819E-20         0.00000E+00
    0.42489E-08        -0.65193E-20         0.00000E+00
    0.35762E-08        -0.46566E-21         0.00000E+00
    0.35762E-08        -0.18626E-20         0.00000E+00
    0.35762E-08         0.46566E-21         0.00000E+00
    0.35762E-08        -0.69849E-20         0.00000E+00
    0.35762E-08        -0.10245E-19         0.00000E+00
    0.35762E-08        -0.14435E-19         0.00000E+00
    0.35762E-08        -0.74506E-20         0.00000E+00
    0.35762E-08        -0.13504E-19         0.00000E+00
    0.35762E-08        -0.11874E-19         0.00000E+00
    0.35762E-08        -0.18626E-20         0.00000E+00
    0.35762E-08        -0.46566E-20         0.00000E+00
    0.35762E-08        -0.65193E-20         0.00000E+00
    0.35762E-08        -0.93132E-20         0.00000E+00
    0.35762E-08        -0.74506E-20         0.00000E+00
    0.35762E-08         0.83819E-20         0.00000E+00
    0.35762E-08        -0.74506E-20         0.00000E+00
    0.35762E-08        -0.12340E-19         0.00000E+00
    0.35762E-08         0.46566E-20         0.00000E+00
    0.35762E-08         0.93132E-20         0.00000E+00
    0.35762E-08         0.51223E-20         0.00000E+00
    0.35762E-08         0.74506E-20         0.00000E+00
    0.35762E-08         0.00000E+00         0.00000E+00
    0.35762E-08         0.18626E-20         0.00000E+00
    0.35762E-08         0.93132E-21         0.00000E+00
    0.35762E-08         0.27940E-20         0.00000E+00
    0.35762E-08         0.74506E-20         0.00000E+00
    0.35762E-08        -0.12573E-19         0.00000E+00
    0.35762E-08        -0.11176E-19         0.00000E+00
    0.35762E-08        -0.19558E-19         0.00000E+00
    0.35762E-08        -0.11642E-19         0.00000E+00
    0.35762E-08        -0.10245E-19         0.00000E+00
    0.35762E-08        -0.18626E-19         0.00000E+00
    0.35762E-08        -0.20955E-19         0.00000E+00
    0.35762E-08        -0.88476E-20         0.00000E+00
    0.35762E-08        -0.74506E-20         0.00000E+00
    0.35762E-08        -0.13504E-19         0.00000E+00
    0.35762E-08        -0.93132E-20         0.00000E+00
    0.35762E-08        -0.93132E-20         0.00000E+00
    0.35762E-08        -0.11642E-19         0.00000E+00
    0.35762E-08        -0.16764E-19         0.00000E+00
    0.35762E-08        -0.27940E-20         0.00000E+00
    0.35762E-08         0.51223E-20         0.00000E+00
    0.35762E-08         0.12107E-19         0.00000E+00
    0.35762E-08         0.14435E-19         0.00000E+00
    0.35762E-08         0.46566E-20         0.00000E+00
    0.35762E-08         0.90804E-20         0.00000E+00
    0.35762E-08         0.79162E-20         0.00000E+00
    0.35762E-08         0.15832E-19         0.00000E+00
    0.35762E-08         0.39581E-20         0.00000E+00
    0.35762E-08        -0.41910E-20         0.00000E+00
    0.30102E-08        -0.69849E-21         0.00000E+00
    0.30102E-08        -0.13271E-19         0.00000E+00
    0.30102E-08        -0.17229E-19         0.00000E+00
    0.30102E-08        -0.17229E-19         0.00000E+00
    0.30102E-08        -0.11874E-19         0.00000E+00
    0.30102E-08        -0.12573E-19         0.00000E+00
    0.30102E-08        -0.79162E-20         0.00000E+00
    0.30102E-08        -0.93132E-21         0.00000E+00
    0.30102E-08         0.41910E-20         0.00000E+00
    0.30102E-08         0.18626E-19         0.00000E+00
    0.30102E-08         0.12573E-19         0.00000E+00
    0.30102E-08         0.27940E-20         0.00000E+00
    0.30102E-08         0.46566E-20         0.00000E+00
    0.30102E-08         0.93132E-20         0.00000E+00
    0.30102E-08         0.10710E-19         0.00000E+00
    0.30102E-08         0.51223E-20         0.00000E+00
    0.30102E-08         0.15832E-19         0.00000E+00
    0.30102E-08         0.10245E-19         0.00000E+00
    0.30102E-08         0.27940E-20         0.00000E+00
    0.30102E-08         0.65193E-20         0.00000E+00
    0.30102E-08         0.74506E-20         0.00000E+00
    0.30102E-08         0.46566E-20         0.00000E+00
    0.30102E-08        -0.15832E-19         0.00000E+00
    0.30102E-08        -0.79162E-20         0.00000E+00
    0.30102E-08        -0.51223E-20         0.00000E+00
    0.30102E-08         0.46566E-21         0.00000E+00
    0.30102E-08         0.41910E-20         0.00000E+00
    0.30102E-08        -0.18626E-20         0.00000E+00
    0.30102E-08        -0.13970E-20         0.00000E+00
    0.30102E-08        -0.60536E-20         0.00000E+00
    0.30102E-08        -0.41910E-20         0.00000E+00
    0.30102E-08        -0.93132E-20         0.00000E+00
    0.30102E-08        -0.18626E-19         0.00000E+00
    0.30102E-08        -0.17229E-19         0.00000E+00
    0.30102E-08        -0.22585E-19         0.00000E+00
    0.30102E-08        -0.18161E-19         0.00000E+00
    0.30102E-08        -0.12107E-19         0.00000E+00
    0.30102E-08        -0.12107E-19         0.00000E+00
    0.30102E-08        -0.19558E-19         0.00000E+00
    0.30102E-08        -0.17695E-19         0.00000E+00
    0.30102E-08        -0.11642E-19         0.00000E+00
    0.30102E-08        -0.18626E-20         0.00000E+00
    0.30102E-08         0.27940E-20         0.00000E+00
    0.30102E-08         0.27940E-20         0.00000E+00
    0.30102E-08         0.79162E-20         0.00000E+00
    0.30102E-08         0.51223E-20         0.00000E+00
    0.30102E-08         0.62864E-20         0.00000E+00
    0.30102E-08         0.44238E-20         0.00000E+00
    0.30102E-08         0.79162E-20         0.00000E+00
    0.30102E-08        -0.18626E-20         0.00000E+00
    0.25340E-08         0.46566E-21         0.00000E+00
    0.25340E-08        -0.41910E-20         0.00000E+00
    0.25340E-08         0.46566E-21         0.00000E+00
    0.25340E-08        -0.60536E-20         0.00000E+00
    0.25340E-08         0.23283E-21         0.00000E+00
    0.25340E-08         0.46566E-20         0.00000E+00
    0.25340E-08         0.16298E-20         0.00000E+00
    0.25340E-08         0.93132E-20         0.00000E+00
    0.25340E-08         0.20955E-20         0.00000E+00
    0.25340E-08         0.72177E-20         0.00000E+00
    0.25340E-08         0.20256E-19         0.00000E+00
    0.25340E-08         0.10012E-19         0.00000E+00
    0.25340E-08         0.14901E-19         0.00000E+00
    0.25340E-08         0.22119E-19         0.00000E+00
    0.25340E-08        -0.18626E-20         0.00000E+00
    0.25340E-08         0.13970E-19         0.00000E+00
    0.25340E-08         0.33528E-19         0.00000E+00
    0.25340E-08         0.17229E-19         0.00000E+00
    0.25340E-08         0.11176E-19         0.00000E+00
    0.25340E-08         0.13504E-19         0.00000E+00
    0.25340E-08         0.21420E-19         0.00000E+00
    0.25340E-08         0.15367E-19         0.00000E+00
    0.25340E-08        -0.55879E-20         0.00000E+00
    0.25340E-08        -0.16298E-19         0.00000E+00
    0.25340E-08        -0.14901E-19         0.00000E+00
    0.25340E-08        -0.13970E-19         0.00000E+00
    0.25340E-08        -0.79162E-20         0.00000E+00
    0.25340E-08        -0.11176E-19         0.00000E+00
    0.25340E-08         0.32596E-20         0.00000E+00
    0.25340E-08        -0.23283E-20         0.00000E+00
    0.25340E-08        -0.13504E-19         0.00000E+00
    0.25340E-08        -0.12107E-19         0.00000E+00
    0.25340E-08        -0.13970E-19         0.00000E+00
    0.25340E-08         0.74506E-20         0.00000E+00
    0.25340E-08        -0.15832E-19         0.00000E+00
    0.25340E-08        -0.18161E-19         0.00000E+00
    0.25340E-08        -0.17229E-19         0.00000E+00
    0.25340E-08        -0.69849E-20         0.00000E+00
    0.25340E-08        -0.74506E-20         0.00000E+00
    0.25340E-08        -0.16764E-19         0.00000E+00
    0.25340E-08         0.39581E-20         0.00000E+00
    0.25340E-08         0.39581E-20         0.00000E+00
    0.25340E-08        -0.65193E-20         0.00000E+00
    0.25340E-08        -0.65193E-20         0.00000E+00
    0.25340E-08        -0.23283E-20         0.00000E+00
    0.25340E-08         0.83819E-20         0.00000E+00
    0.25340E-08         0.60536E-20         0.00000E+00
    0.25340E-08         0.25611E-20         0.00000E+00
    0.25340E-08        -0.67521E-20         0.00000E+00
    0.25340E-08         0.23283E-20         0.00000E+00
    0.21333E-08         0.65193E-20         0.00000E+00
    0.21333E-08         0.53551E-20         0.00000E+00
    0.21333E-08         0.17229E-19         0.00000E+00
    0.21333E-08         0.14435E-19         0.00000E+00
    0.21333E-08        -0.46566E-21         0.00000E+00
    0.21333E-08         0.13504E-19         0.00000E+00
    0.21333E-08         0.19092E-19         0.00000E+00
    0.21333E-08         0.13970E-19         0.00000E+00
    0.21333E-08         0.10012E-19         0.00000E+00
    0.21333E-08         0.51223E-20         0.00000E+00
    0.21333E-08         0.72177E-20         0.00000E+00
    0.21333E-08         0.18161E-19         0.00000E+00
    0.21333E-08         0.10710E-19         0.00000E+00
    0.21333E-08         0.39581E-20         0.00000E+00
    0.21333E-08         0.14668E-19         0.00000E+00
    0.21333E-08         0.10012E-19         0.00000E+00
    0.21333E-08         0.23283E-19         0.00000E+00
    0.21333E-08         0.25146E-19         0.00000E+00
    0.21333E-08         0.16764E-19         0.00000E+00
    0.21333E-08         0.97789E-20         0.00000E+00
    0.21333E-08         0.11409E-19         0.00000E+00
    0.21333E-08         0.88476E-20         0.00000E+00
    0.21333E-08         0.11642E-19         0.00000E+00
    0.21333E-08        -0.97789E-20         0.00000E+00
    0.21333E-08        -0.13271E-19         0.00000E+00
    0.21333E-08        -0.74506E-20         0.00000E+00
    0.21333E-08        -0.74506E-20         0.00000E+00
    0.21333E-08        -0.46566E-20         0.00000E+00
    0.21333E-08        -0.69849E-20         0.00000E+00
    0.21333E-08        -0.11176E-19         0.00000E+00
    0.21333E-08        -0.93132E-20         0.00000E+00
    0.21333E-08        -0.10245E-19         0.00000E+00
    0.21333E-08        -0.14435E-19         0.00000E+00
    0.21333E-08        -0.46566E-20         0.00000E+00
    0.21333E-08        -0.69849E-20         0.00000E+00
    0.21333E-08         0.44238E-20         0.00000E+00
    0.21333E-08        -0.27940E-20         0.00000E+00
    0.21333E-08         0.10477E-19         0.00000E+00
    0.21333E-08         0.11176E-19         0.00000E+00
    0.21333E-08         0.12806E-19         0.00000E+00
    0.21333E-08         0.10245E-19         0.00000E+00
    0.21333E-08         0.11642E-19         0.00000E+00
    0.21333E-08        -0.93132E-20         0.00000E+00
    0.21333E-08         0.93132E-21         0.00000E+00
    0.21333E-08        -0.19092E-19         0.00000E+00
    0.21333E-08        -0.97789E-20         0.00000E+00
    0.21333E-08        -0.20256E-19         0.00000E+00
    0.21333E-08        -0.11176E-19         0.00000E+00
    0.21333E-08        -0.55879E-20         0.00000E+00
    0.21333E-08        -0.27940E-20         0.00000E+00
    0.17963E-08         0.32596E-20         0.00000E+00
    0.17963E-08         0.41910E-20         0.00000E+00
    0.17963E-08         0.93132E-21         0.00000E+00
    0.17963E-08         0.93132E-20         0.00000E+00
    0.17963E-08         0.27940E-20         0.00000E+00
    0.17963E-08         0.30268E-20         0.00000E+00
    0.17963E-08         0.12573E-19         0.00000E+00
    0.17963E-08         0.69849E-20         0.00000E+00
    0.17963E-08         0.74506E-20         0.00000E+00
    0.17963E-08         0.93132E-21         0.00000E+00
    0.17963E-08         0.41910E-20         0.00000E+00
    0.17963E-08        -0.23283E-20         0.00000E+00
    0.17963E-08         0.12107E-19         0.00000E+00
    0.17963E-08         0.18626E-19         0.00000E+00
    0.17963E-08         0.24680E-19         0.00000E+00
    0.17963E-08         0.22585E-19         0.00000E+00
    0.17963E-08         0.22817E-19         0.00000E+00
    0.17963E-08         0.24447E-19         0.00000E+00
    0.17963E-08         0.12340E-19         0.00000E+00
    0.17963E-08         0.25611E-20         0.00000E+00
    0.17963E-08        -0.41910E-20         0.00000E+00
    0.17963E-08        -0.18394E-19         0.00000E+00
    0.17963E-08        -0.74506E-20         0.00000E+00
    0.17963E-08         0.46566E-21         0.00000E+00
    0.17963E-08         0.46566E-20         0.00000E+00
    0.17963E-08         0.11874E-19         0.00000E+00
    0.17963E-08         0.69849E-20         0.00000E+00
    0.17963E-08         0.23283E-20         0.00000E+00
    0.17963E-08        -0.20955E-19         0.00000E+00
    0.17963E-08        -0.17928E-19         0.00000E+00
    0.17963E-08         0.88476E-20         0.00000E+00
    0.17963E-08         0.13039E-19         0.00000E+00
    0.17963E-08        -0.12340E-19         0.00000E+00
    0.17963E-08        -0.88476E-20         0.00000E+00
    0.17963E-08        -0.69849E-20         0.00000E+00
    0.17963E-08         0.69849E-20         0.00000E+00
    0.17963E-08        -0.32596E-20         0.00000E+00
    0.17963E-08         0.97789E-20         0.00000E+00
    0.17963E-08         0.93132E-20         0.00000E+00
    0.17963E-08         0.12107E-19         0.00000E+00
    0.17963E-08         0.69849E-20         0.00000E+00
    0.17963E-08         0.97789E-20         0.00000E+00
    0.17963E-08         0.23283E-20         0.00000E+00
    0.17963E-08         0.14901E-19         0.00000E+00
    0.17963E-08         0.93132E-21         0.00000E+00
    0.17963E-08         0.86147E-20         0.00000E+00
    0.17963E-08        -0.13970E-19         0.00000E+00
    0.17963E-08        -0.90804E-20         0.00000E+00
    0.17963E-08        -0.74506E-20         0.00000E+00
    0.17963E-08        -0.60536E-20         0.00000E+00
    0.15128E-08        -0.60536E-20         0.00000E+00
    0.15128E-08         0.83819E-20         0.00000E+00
    0.15128E-08         0.97789E-20         0.00000E+00
    0.15128E-08         0.18626E-20         0.00000E+00
    0.15128E-08         0.17462E-19         0.00000E+00
    0.15128E-08         0.11176E-19         0.00000E+00
    0.15128E-08         0.83819E-20         0.00000E+00
    0.15128E-08         0.46566E-20         0.00000E+00
    0.15128E-08         0.27940E-20         0.00000E+00
    0.15128E-08         0.88476E-20         0.00000E+00
    0.15128E-08        -0.23283E-20         0.00000E+00
    0.15128E-08        -0.46566E-20         0.00000E+00
    0.15128E-08         0.20023E-19         0.00000E+00
    0.15128E-08         0.27008E-19         0.00000E+00
    0.15128E-08         0.12107E-19         0.00000E+00
    0.15128E-08         0.20489E-19         0.00000E+00
    0.15128E-08         0.46566E-20         0.00000E+00
    0.15128E-08         0.11642E-20         0.00000E+00
    0.15128E-08        -0.20955E-20         0.00000E+00
    0.15128E-08        -0.25611E-20         0.00000E+00
    0.15128E-08        -0.37253E-20         0.00000E+00
    0.15128E-08        -0.62864E-20         0.00000E+00
    0.15128E-08         0.41910E-20         0.00000E+00
    0.15128E-08         0.93132E-21         0.00000E+00
    0.15128E-08         0.11642E-19         0.00000E+00
    0.15128E-08         0.13970E-19         0.00000E+00
    0.15128E-08         0.30268E-20         0.00000E+00
    0.15128E-08        -0.13970E-20         0.00000E+00
    0.15128E-08        -0.37253E-20         0.00000E+00
    0.15128E-08        -0.32596E-20         0.00000E+00
    0.15128E-08         0.15367E-19         0.00000E+00
    0.15128E-08         0.10710E-19         0.00000E+00
    0.15128E-08         0.27940E-20         0.00000E+00
    0.15128E-08         0.00000E+00         0.00000E+00
    0.15128E-08        -0.11642E-19         0.00000E+00
    0.15128E-08        -0.16298E-19         0.00000E+00
    0.15128E-08        -0.10710E-19         0.00000E+00
    0.15128E-08        -0.23283E-20         0.00000E+00
    0.15128E-08         0.46566E-20         0.00000E+00
    0.15128E-08         0.10245E-19         0.00000E+00
    0.15128E-08         0.10943E-19         0.00000E+00
    0.15128E-08        -0.13970E-20         0.00000E+00
    0.15128E-08         0.21420E-19         0.00000E+00
    0.15128E-08         0.17229E-19         0.00000E+00
    0.15128E-08         0.14435E-19         0.00000E+00
    0.15128E-08         0.20955E-19         0.00000E+00
    0.15128E-08         0.72177E-20         0.00000E+00
    0.15128E-08         0.20955E-20         0.00000E+00
    0.15128E-08        -0.74506E-20         0.00000E+00
    0.15128E-08        -0.34925E-20         0.00000E+00
    0.12745E-08        -0.13970E-20         0.00000E+00
    0.12745E-08         0.14435E-19         0.00000E+00
    0.12745E-08         0.23283E-20         0.00000E+00
    0.12745E-08        -0.41910E-20         0.00000E+00
    0.12745E-08         0.00000E+00         0.00000E+00
    0.12745E-08         0.55879E-20         0.00000E+00
    0.12745E-08         0.18161E-19         0.00000E+00
    0.12745E-08         0.93132E-20         0.00000E+00
    0.12745E-08         0.65193E-20         0.00000E+00
    0.12745E-08         0.19558E-19         0.00000E+00
    0.12745E-08         0.88476E-20         0.00000E+00
    0.12745E-08         0.16764E-19         0.00000E+00
    0.12745E-08         0.15600E-19         0.00000E+00
    0.12745E-08         0.12573E-19         0.00000E+00
    0.12745E-08         0.93132E-21         0.00000E+00
    0.12745E-08        -0.51223E-20         0.00000E+00
    0.12745E-08        -0.55879E-20         0.00000E+00
    0.12745E-08        -0.10710E-19         0.00000E+00
    0.12745E-08        -0.18626E-20         0.00000E+00
    0.12745E-08         0.74506E-20         0.00000E+00
    0.12745E-08         0.23283E-20         0.00000E+00
    0.12745E-08         0.15832E-19         0.00000E+00
    0.12745E-08         0.11176E-19         0.00000E+00
    0.12745E-08         0.76834E-20         0.00000E+00
    0.12745E-08         0.13039E-19         0.00000E+00
    0.12745E-08         0.10710E-19         0.00000E+00
    0.12745E-08         0.12107E-19         0.00000E+00
    0.12745E-08         0.69849E-20         0.00000E+00
    0.12745E-08         0.93132E-20         0.00000E+00
    0.12745E-08         0.00000E+00         0.00000E+00
    0.12745E-08         0.51223E-20         0.00000E+00
    0.12745E-08        -0.65193E-20         0.00000E+00
    0.12745E-08        -0.20955E-20         0.00000E+00
    0.12745E-08        -0.11176E-19         0.00000E+00
    0.12745E-08        -0.60536E-20         0.00000E+00
    0.12745E-08        -0.16764E-19         0.00000E+00
    0.12745E-08        -0.51223E-20         0.00000E+00
    0.12745E-08        -0.18161E-19         0.00000E+00
    0.12745E-08        -0.83819E-20         0.00000E+00
    0.12745E-08         0.17229E-19         0.00000E+00
    0.12745E-08         0.51223E-20         0.00000E+00
    0.12745E-08         0.41910E-20         0.00000E+00
    0.12745E-08         0.65193E-20         0.00000E+00
    0.12745E-08         0.13504E-19         0.00000E+00
    0.12745E-08         0.21886E-19         0.00000E+00
    0.12745E-08         0.15832E-19         0.00000E+00
    0.12745E-08         0.46566E-20         0.00000E+00
    0.12745E-08        -0.18626E-20         0.00000E+00
    0.12745E-08        -0.37253E-20         0.00000E+00
    0.12745E-08        -0.13970E-20         0.00000E+00
    0.10741E-08        -0.13970E-20         0.00000E+00
    0.10741E-08         0.55879E-20         0.00000E+00
    0.10741E-08        -0.12806E-19         0.00000E+00
    0.10741E-08        -0.83819E-20         0.00000E+00
    0.10741E-08        -0.16298E-19         0.00000E+00
    0.10741E-08        -0.17229E-19         0.00000E+00
    0.10741E-08         0.51223E-20         0.00000E+00
    0.10741E-08         0.11642E-19         0.00000E+00
    0.10741E-08         0.81491E-20         0.00000E+00
    0.10741E-08         0.10477E-19         0.00000E+00
    0.10741E-08        -0.18626E-20         0.00000E+00
    0.10741E-08         0.10710E-19         0.00000E+00
    0.10741E-08        -0.23283E-20         0.00000E+00
    0.10741E-08         0.19092E-19         0.00000E+00
    0.10741E-08         0.83819E-20         0.00000E+00
    0.10741E-08         0.10943E-19         0.00000E+00
    0.10741E-08         0.17462E-19         0.00000E+00
    0.10741E-08         0.20489E-19         0.00000E+00
    0.10741E-08         0.51223E-20         0.00000E+00
    0.10741E-08         0.32596E-20         0.00000E+00
    0.10741E-08         0.53551E-20         0.00000E+00
    0.10741E-08         0.37253E-20         0.00000E+00
    0.10741E-08        -0.11642E-20         0.00000E+00
    0.10741E-08         0.12107E-19         0.00000E+00
    0.10741E-08         0.19558E-19         0.00000E+00
    0.10741E-08         0.13504E-19         0.00000E+00
    0.10741E-08         0.14668E-19         0.00000E+00
    0.10741E-08         0.39581E-20         0.00000E+00
    0.10741E-08        -0.46566E-20         0.00000E+00
    0.10741E-08        -0.53551E-20         0.00000E+00
    0.10741E-08        -0.18626E-20         0.00000E+00
    0.10741E-08        -0.15600E-19         0.00000E+00
    0.10741E-08        -0.11409E-19         0.00000E+00
    0.10741E-08        -0.20955E-20         0.00000E+00
    0.10741E-08        -0.62864E-20         0.00000E+00
    0.10741E-08        -0.16997E-19         0.00000E+00
    0.10741E-08        -0.55879E-20         0.00000E+00
    0.10741E-08        -0.10245E-19         0.00000E+00
    0.10741E-08        -0.13737E-19         0.00000E+00
    0.10741E-08         0.37253E-20         0.00000E+00
    0.10741E-08         0.11409E-19         0.00000E+00
    0.10741E-08         0.72177E-20         0.00000E+00
    0.10741E-08         0.93132E-21         0.00000E+00
    0.10741E-08         0.60536E-20         0.00000E+00
    0.10741E-08         0.15367E-19         0.00000E+00
    0.10741E-08         0.14435E-19         0.00000E+00
    0.10741E-08         0.88476E-20         0.00000E+00
    0.10741E-08         0.41910E-20         0.00000E+00
    0.10741E-08         0.25611E-20         0.00000E+00
    0.10741E-08         0.60536E-20         0.00000E+00
    0.90584E-09         0.00000E+00         0.00000E+00
    0.90584E-09        -0.13504E-19         0.00000E+00
    0.90584E-09        -0.53551E-20         0.00000E+00
    0.90584E-09        -0.12107E-19         0.00000E+00
    0.90584E-09        -0.13504E-19         0.00000E+00
    0.90584E-09        -0.46566E-20         0.00000E+00
    0.90584E-09        -0.69849E-20         0.00000E+00
    0.90584E-09         0.27940E-20         0.00000E+00
    0.90584E-09         0.30268E-20         0.00000E+00
    0.90584E-09         0.32596E-20         0.00000E+00
    0.90584E-09        -0.74506E-20         0.00000E+00
    0.90584E-09        -0.93132E-21         0.00000E+00
    0.90584E-09        -0.10245E-19         0.00000E+00
    0.90584E-09         0.90804E-20         0.00000E+00
    0.90584E-09         0.69849E-21         0.00000E+00
    0.90584E-09         0.16531E-19         0.00000E+00
    0.90584E-09         0.23982E-19         0.00000E+00
    0.90584E-09         0.28871E-19         0.00000E+00
    0.90584E-09         0.14435E-19         0.00000E+00
    0.90584E-09         0.16531E-19         0.00000E+00
    0.90584E-09         0.10477E-19         0.00000E+00
    0.90584E-09        -0.46566E-20         0.00000E+00
    0.90584E-09        -0.46566E-21         0.00000E+00
    0.90584E-09         0.18626E-20         0.00000E+00
    0.90584E-09         0.83819E-20         0.00000E+00
    0.90584E-09         0.11642E-19         0.00000E+00
    0.90584E-09         0.30268E-20         0.00000E+00
    0.90584E-09        -0.41910E-20         0.00000E+00
    0.90584E-09        -0.15367E-19         0.00000E+00
    0.90584E-09        -0.39581E-20         0.00000E+00
    0.90584E-09        -0.44238E-20         0.00000E+00
    0.90584E-09        -0.10012E-19         0.00000E+00
    0.90584E-09        -0.60536E-20         0.00000E+00
    0.90584E-09         0.25611E-20         0.00000E+00
    0.90584E-09         0.13970E-20         0.00000E+00
    0.90584E-09        -0.10245E-19         0.00000E+00
    0.90584E-09        -0.74506E-20         0.00000E+00
    0.90584E-09         0.12107E-19         0.00000E+00
    0.90584E-09        -0.14901E-19         0.00000E+00
    0.90584E-09        -0.93132E-21         0.00000E+00
    0.90584E-09         0.39581E-20         0.00000E+00
    0.90584E-09         0.60536E-20         0.00000E+00
    0.90584E-09         0.44238E-20         0.00000E+00
    0.90584E-09        -0.74506E-20         0.00000E+00
    0.90584E-09         0.18626E-20         0.00000E+00
    0.90584E-09        -0.88476E-20         0.00000E+00
    0.90584E-09         0.13970E-20         0.00000E+00
    0.90584E-09         0.37253E-20         0.00000E+00
    0.90584E-09         0.79162E-20         0.00000E+00
    0.90584E-09         0.46566E-21         0.00000E+00
    0.76456E-09         0.44238E-20         0.00000E+00
    0.76456E-09         0.00000E+00         0.00000E+00
    0.76456E-09        -0.46566E-20         0.00000E+00
    0.76456E-09        -0.12806E-19         0.00000E+00
    0.76456E-09        -0.39581E-20         0.00000E+00
    0.76456E-09        -0.44238E-20         0.00000E+00
    0.76456E-09         0.93132E-21         0.00000E+00
    0.76456E-09        -0.13970E-20         0.00000E+00
    0.76456E-09        -0.55879E-20         0.00000E+00
    0.76456E-09        -0.65193E-20         0.00000E+00
    0.76456E-09         0.65193E-20         0.00000E+00
    0.76456E-09        -0.18626E-20         0.00000E+00
    0.76456E-09         0.18626E-20         0.00000E+00
    0.76456E-09         0.46566E-20         0.00000E+00
    0.76456E-09        -0.74506E-20         0.00000E+00
    0.76456E-09         0.00000E+00         0.00000E+00
    0.76456E-09         0.51223E-20         0.00000E+00
    0.76456E-09         0.21420E-19         0.00000E+00
    0.76456E-09         0.74506E-20         0.00000E+00
    0.76456E-09         0.16764E-19         0.00000E+00
    0.76456E-09         0.46566E-21         0.00000E+00
    0.76456E-09        -0.12107E-19         0.00000E+00
    0.76456E-09         0.23283E-20         0.00000E+00
    0.76456E-09         0.74506E-20         0.00000E+00
    0.76456E-09         0.23283E-20         0.00000E+00
    0.76456E-09         0.93132E-21         0.00000E+00
    0.76456E-09        -0.23283E-21         0.00000E+00
    0.76456E-09        -0.69849E-20         0.00000E+00
    0.76456E-09        -0.88476E-20         0.00000E+00
    0.76456E-09        -0.21420E-19         0.00000E+00
    0.76456E-09        -0.13039E-19         0.00000E+00
    0.76456E-09        -0.41910E-20         0.00000E+00
    0.76456E-09        -0.93132E-21         0.00000E+00
    0.76456E-09        -0.41910E-20         0.00000E+00
    0.76456E-09         0.27940E-20         0.00000E+00
    0.76456E-09         0.46566E-20         0.00000E+00
    0.76456E-09         0.23283E-20         0.00000E+00
    0.76456E-09         0.51223E-20         0.00000E+00
    0.76456E-09        -0.74506E-20         0.00000E+00
    0.76456E-09         0.93132E-21         0.00000E+00
    0.76456E-09        -0.67521E-20         0.00000E+00
    0.76456E-09         0.11409E-19         0.00000E+00
    0.76456E-09         0.62864E-20         0.00000E+00
    0.76456E-09         0.72177E-20         0.00000E+00
    0.76456E-09         0.93132E-21         0.00000E+00
    0.76456E-09         0.55879E-20         0.00000E+00
    0.76456E-09         0.76834E-20         0.00000E+00
    0.76456E-09        -0.18626E-20         0.00000E+00
    0.76456E-09         0.18626E-20         0.00000E+00
    0.76456E-09        -0.23283E-20         0.00000E+00
    0.64607E-09         0.51223E-20         0.00000E+00
    0.64607E-09         0.25611E-20         0.00000E+00
    0.64607E-09        -0.20955E-20         0.00000E+00
    0.64607E-09        -0.18626E-20         0.00000E+00
    0.64607E-09        -0.34925E-20         0.00000E+00
    0.64607E-09        -0.69849E-20         0.00000E+00
    0.64607E-09         0.30268E-20         0.00000E+00
    0.64607E-09        -0.32596E-20         0.00000E+00
    0.64607E-09        -0.46566E-21         0.00000E+00
    0.64607E-09        -0.95461E-20         0.00000E+00
    0.64607E-09         0.23283E-20         0.00000E+00
    0.64607E-09         0.46566E-21         0.00000E+00
    0.64607E-09         0.23283E-20         0.00000E+00
    0.64607E-09         0.32596E-20         0.00000E+00
    0.64607E-09        -0.18626E-20         0.00000E+00
    0.64607E-09         0.23283E-20         0.00000E+00
    0.64607E-09        -0.11176E-19         0.00000E+00
    0.64607E-09        -0.65193E-20         0.00000E+00
    0.64607E-09         0.00000E+00         0.00000E+00
    0.64607E-09         0.46566E-20         0.00000E+00
    0.64607E-09        -0.27940E-20         0.00000E+00
    0.64607E-09         0.51223E-20         0.00000E+00
    0.64607E-09         0.65193E-20         0.00000E+00
    0.64607E-09         0.46566E-20         0.00000E+00
    0.64607E-09        -0.11642E-20         0.00000E+00
    0.64607E-09        -0.76834E-20         0.00000E+00
    0.64607E-09         0.69849E-21         0.00000E+00
    0.64607E-09         0.93132E-21         0.00000E+00
    0.64607E-09        -0.93132E-20         0.00000E+00
    0.64607E-09        -0.14901E-19         0.00000E+00
    0.64607E-09        -0.13970E-19         0.00000E+00
    0.64607E-09        -0.25611E-20         0.00000E+00
    0.64607E-09        -0.46566E-21         0.00000E+00
    0.64607E-09        -0.93132E-21         0.00000E+00
    0.64607E-09        -0.23283E-20         0.00000E+00
    0.64607E-09         0.10245E-19         0.00000E+00
    0.64607E-09        -0.18626E-20         0.00000E+00
    0.64607E-09        -0.18626E-20         0.00000E+00
    0.64607E-09         0.69849E-20         0.00000E+00
    0.64607E-09         0.11642E-19         0.00000E+00
    0.64607E-09         0.46566E-20         0.00000E+00
    0.64607E-09         0.51223E-20         0.00000E+00
    0.64607E-09         0.46566E-21         0.00000E+00
    0.64607E-09         0.90804E-20         0.00000E+00
    0.64607E-09         0.41910E-20         0.00000E+00
    0.64607E-09         0.65193E-20         0.00000E+00
    0.64607E-09         0.16298E-19         0.00000E+00
    0.64607E-09         0.34925E-20         0.00000E+00
    0.64607E-09        -0.46566E-21         0.00000E+00
    0.64607E-09         0.13970E-20         0.00000E+00
    0.54686E-09        -0.23283E-20         0.00000E+00
    0.54686E-09        -0.88476E-20         0.00000E+00
    0.54686E-09        -0.55879E-20         0.00000E+00
    0.54686E-09        -0.41910E-20         0.00000E+00
    0.54686E-09         0.18626E-20         0.00000E+00
    0.54686E-09         0.55879E-20         0.00000E+00
    0.54686E-09         0.55879E-20         0.00000E+00
    0.54686E-09        -0.23283E-20         0.00000E+00
    0.54686E-09         0.46566E-21         0.00000E+00
    0.54686E-09         0.37253E-20         0.00000E+00
    0.54686E-09        -0.51223E-20         0.00000E+00
    0.54686E-09        -0.88476E-20         0.00000E+00
    0.54686E-09        -0.10245E-19         0.00000E+00
    0.54686E-09        -0.18626E-20         0.00000E+00
    0.54686E-09        -0.44238E-20         0.00000E+00
    0.54686E-09        -0.23283E-20         0.00000E+00
    0.54686E-09        -0.16764E-19         0.00000E+00
    0.54686E-09        -0.93132E-20         0.00000E+00
    0.54686E-09        -0.14435E-19         0.00000E+00
    0.54686E-09        -0.16764E-19         0.00000E+00
    0.54686E-09         0.93132E-21         0.00000E+00
    0.54686E-09        -0.41910E-20         0.00000E+00
    0.54686E-09         0.41910E-20         0.00000E+00
    0.54686E-09         0.00000E+00         0.00000E+00
    0.54686E-09         0.69849E-20         0.00000E+00
    0.54686E-09        -0.53551E-20         0.00000E+00
    0.54686E-09         0.83819E-20         0.00000E+00
    0.54686E-09         0.13970E-20         0.00000E+00
    0.54686E-09        -0.18626E-19         0.00000E+00
    0.54686E-09         0.46566E-21         0.00000E+00
    0.54686E-09        -0.60536E-20         0.00000E+00
    0.54686E-09        -0.13039E-19         0.00000E+00
    0.54686E-09        -0.46566E-20         0.00000E+00
    0.54686E-09        -0.46566E-21         0.00000E+00
    0.54686E-09        -0.16298E-20         0.00000E+00
    0.54686E-09         0.46566E-21         0.00000E+00
    0.54686E-09         0.13970E-20         0.00000E+00
    0.54686E-09         0.46566E-20         0.00000E+00
    0.54686E-09         0.18626E-19         0.00000E+00
    0.54686E-09         0.18161E-19         0.00000E+00
    0.54686E-09         0.14668E-19         0.00000E+00
    0.54686E-09        -0.86147E-20         0.00000E+00
    0.54686E-09        -0.39581E-20         0.00000E+00
    0.54686E-09        -0.46566E-21         0.00000E+00
    0.54686E-09         0.55879E-20         0.00000E+00
    0.54686E-09        -0.13970E-20         0.00000E+00
    0.54686E-09         0.60536E-20         0.00000E+00
    0.54686E-09        -0.20955E-20         0.00000E+00
    0.54686E-09        -0.18626E-20         0.00000E+00
    0.54686E-09         0.95461E-20         0.00000E+00
    0.46396E-09        -0.65193E-20         0.00000E+00
    0.46396E-09        -0.10245E-19         0.00000E+00
    0.46396E-09        -0.46566E-20         0.00000E+00
    0.46396E-09        -0.88476E-20         0.00000E+00
    0.46396E-09         0.16298E-20         0.00000E+00
    0.46396E-09         0.11642E-20         0.00000E+00
    0.46396E-09         0.18626E-20         0.00000E+00
    0.46396E-09         0.74506E-20         0.00000E+00
    0.46396E-09         0.11176E-19         0.00000E+00
    0.46396E-09         0.74506E-20         0.00000E+00
    0.46396E-09         0.23283E-20         0.00000E+00
    0.46396E-09        -0.13271E-19         0.00000E+00
    0.46396E-09        -0.76834E-20         0.00000E+00
    0.46396E-09         0.20955E-20         0.00000E+00
    0.46396E-09         0.39581E-20         0.00000E+00
    0.46396E-09        -0.69849E-20         0.00000E+00
    0.46396E-09        -0.13970E-19         0.00000E+00
    0.46396E-09        -0.51223E-20         0.00000E+00
    0.46396E-09        -0.24913E-19         0.00000E+00
    0.46396E-09        -0.18626E-19         0.00000E+00
    0.46396E-09        -0.13039E-19         0.00000E+00
    0.46396E-09        -0.16298E-19         0.00000E+00
    0.46396E-09         0.88476E-20         0.00000E+00
    0.46396E-09         0.69849E-20         0.00000E+00
    0.46396E-09         0.46566E-20         0.00000E+00
    0.46396E-09        -0.27940E-20         0.00000E+00
    0.46396E-09        -0.74506E-20         0.00000E+00
    0.46396E-09        -0.15832E-19         0.00000E+00
    0.46396E-09        -0.46566E-21         0.00000E+00
    0.46396E-09        -0.32596E-20         0.00000E+00
    0.46396E-09        -0.69849E-20         0.00000E+00
    0.46396E-09        -0.11176E-19         0.00000E+00
    0.46396E-09        -0.60536E-20         0.00000E+00
    0.46396E-09         0.62864E-20         0.00000E+00
    0.46396E-09        -0.62864E-20         0.00000E+00
    0.46396E-09         0.32596E-20         0.00000E+00
    0.46396E-09        -0.55879E-20         0.00000E+00
    0.46396E-09        -0.37253E-20         0.00000E+00
    0.46396E-09         0.60536E-20         0.00000E+00
    0.46396E-09        -0.37253E-20         0.00000E+00
    0.46396E-09         0.46566E-21         0.00000E+00
    0.46396E-09        -0.27940E-20         0.00000E+00
    0.46396E-09         0.27940E-20         0.00000E+00
    0.46396E-09        -0.11642E-19         0.00000E+00
    0.46396E-09         0.18626E-20         0.00000E+00
    0.46396E-09         0.37253E-20         0.00000E+00
    0.46396E-09        -0.41910E-20         0.00000E+00
    0.46396E-09        -0.14668E-19         0.00000E+00
    0.46396E-09         0.23283E-20         0.00000E+00
    0.46396E-09         0.25611E-20         0.00000E+00
    0.39490E-09        -0.32596E-20         0.00000E+00
    0.39490E-09        -0.17229E-19         0.00000E+00
    0.39490E-09        -0.14435E-19         0.00000E+00
    0.39490E-09         0.37253E-20         0.00000E+00
    0.39490E-09         0.37253E-20         0.00000E+00
    0.39490E-09         0.79162E-20         0.00000E+00
    0.39490E-09         0.18626E-20         0.00000E+00
    0.39490E-09         0.97789E-20         0.00000E+00
    0.39490E-09         0.18859E-19         0.00000E+00
    0.39490E-09         0.18626E-20         0.00000E+00
    0.39490E-09         0.79162E-20         0.00000E+00
    0.39490E-09        -0.18626E-20         0.00000E+00
    0.39490E-09         0.55879E-20         0.00000E+00
    0.39490E-09         0.23283E-20         0.00000E+00
    0.39490E-09        -0.46566E-21         0.00000E+00
    0.39490E-09        -0.13039E-19         0.00000E+00
    0.39490E-09        -0.19092E-19         0.00000E+00
    0.39490E-09        -0.19092E-19         0.00000E+00
    0.39490E-09        -0.16764E-19         0.00000E+00
    0.39490E-09        -0.93132E-20         0.00000E+00
    0.39490E-09        -0.83819E-20         0.00000E+00
    0.39490E-09        -0.46566E-20         0.00000E+00
    0.39490E-09        -0.25611E-20         0.00000E+00
    0.39490E-09         0.46566E-21         0.00000E+00
    0.39490E-09        -0.51223E-20         0.00000E+00
    0.39490E-09        -0.12573E-19         0.00000E+00
    0.39490E-09        -0.48894E-20         0.00000E+00
    0.39490E-09        -0.15367E-19         0.00000E+00
    0.39490E-09        -0.12340E-19         0.00000E+00
    0.39490E-09        -0.20023E-19         0.00000E+00
    0.39490E-09        -0.81491E-20         0.00000E+00
    0.39490E-09        -0.11176E-19         0.00000E+00
    0.39490E-09        -0.15832E-19         0.00000E+00
    0.39490E-09        -0.79162E-20         0.00000E+00
    0.39490E-09        -0.12340E-19         0.00000E+00
    0.39490E-09        -0.51223E-20         0.00000E+00
    0.39490E-09        -0.11176E-19         0.00000E+00
    0.39490E-09        -0.93132E-20         0.00000E+00
    0.39490E-09        -0.60536E-20         0.00000E+00
    0.39490E-09        -0.93132E-20         0.00000E+00
    0.39490E-09        -0.41910E-20         0.00000E+00
    0.39490E-09        -0.62864E-20         0.00000E+00
    0.39490E-09        -0.37253E-20         0.00000E+00
    0.39490E-09        -0.83819E-20         0.00000E+00
    0.39490E-09        -0.11642E-20         0.00000E+00
    0.39490E-09         0.30268E-20         0.00000E+00
    0.39490E-09        -0.62864E-20         0.00000E+00
    0.39490E-09        -0.18626E-20         0.00000E+00
    0.39490E-09         0.60536E-20         0.00000E+00
    0.39490E-09        -0.60536E-20         0.00000E+00
    0.33761E-09         0.23283E-20         0.00000E+00
    0.33761E-09         0.27940E-20         0.00000E+00
    0.33761E-09        -0.51223E-20         0.00000E+00
    0.33761E-09         0.62864E-20         0.00000E+00
    0.33761E-09         0.27940E-20         0.00000E+00
    0.33761E-09         0.13504E-19         0.00000E+00
    0.33761E-09         0.41910E-20         0.00000E+00
    0.33761E-09         0.79162E-20         0.00000E+00
    0.33761E-09         0.15832E-19         0.00000E+00
    0.33761E-09         0.46566E-20         0.00000E+00
    0.33761E-09         0.14435E-19         0.00000E+00
    0.33761E-09         0.51223E-20         0.00000E+00
    0.33761E-09        -0.23283E-20         0.00000E+00
    0.33761E-09        -0.13504E-19         0.00000E+00
    0.33761E-09        -0.13504E-19         0.00000E+00
    0.33761E-09        -0.14901E-19         0.00000E+00
    0.33761E-09        -0.20489E-19         0.00000E+00
    0.33761E-09        -0.22817E-19         0.00000E+00
    0.33761E-09        -0.23283E-19         0.00000E+00
    0.33761E-09        -0.13970E-19         0.00000E+00
    0.33761E-09        -0.51223E-20         0.00000E+00
    0.33761E-09        -0.79162E-20         0.00000E+00
    0.33761E-09        -0.14435E-19         0.00000E+00
    0.33761E-09        -0.21653E-19         0.00000E+00
    0.33761E-09        -0.13737E-19         0.00000E+00
    0.33761E-09        -0.44238E-20         0.00000E+00
    0.33761E-09        -0.81491E-20         0.00000E+00
    0.33761E-09        -0.69849E-20         0.00000E+00
    0.33761E-09        -0.18626E-19         0.00000E+00
    0.33761E-09        -0.14901E-19         0.00000E+00
    0.33761E-09        -0.17462E-19         0.00000E+00
    0.33761E-09        -0.18626E-19         0.00000E+00
    0.33761E-09        -0.20489E-19         0.00000E+00
    0.33761E-09        -0.13970E-19         0.00000E+00
    0.33761E-09        -0.46566E-20         0.00000E+00
    0.33761E-09        -0.13504E-19         0.00000E+00
    0.33761E-09        -0.27940E-20         0.00000E+00
    0.33761E-09        -0.93132E-20         0.00000E+00
    0.33761E-09         0.83819E-20         0.00000E+00
    0.33761E-09         0.48894E-20         0.00000E+00
    0.33761E-09         0.37253E-20         0.00000E+00
    0.33761E-09        -0.74506E-20         0.00000E+00
    0.33761E-09        -0.55879E-20         0.00000E+00
    0.33761E-09         0.69849E-21         0.00000E+00
    0.33761E-09        -0.44238E-20         0.00000E+00
    0.33761E-09        -0.46566E-21         0.00000E+00
    0.33761E-09         0.93132E-21         0.00000E+00
    0.33761E-09         0.74506E-20         0.00000E+00
    0.33761E-09         0.97789E-20         0.00000E+00
    0.33761E-09        -0.93132E-21         0.00000E+00
    0.29039E-09        -0.74506E-20         0.00000E+00
    0.29039E-09         0.46566E-21         0.00000E+00
    0.29039E-09         0.13970E-20         0.00000E+00
    0.29039E-09         0.27940E-20         0.00000E+00
    0.29039E-09         0.65193E-20         0.00000E+00
    0.29039E-09         0.81491E-20         0.00000E+00
    0.29039E-09         0.19325E-19         0.00000E+00
    0.29039E-09         0.20955E-19         0.00000E+00
    0.29039E-09         0.95461E-20         0.00000E+00
    0.29039E-09         0.60536E-20         0.00000E+00
    0.29039E-09        -0.69849E-20         0.00000E+00
    0.29039E-09         0.93132E-21         0.00000E+00
    0.29039E-09         0.00000E+00         0.00000E+00
    0.29039E-09        -0.18626E-19         0.00000E+00
    0.29039E-09        -0.11642E-19         0.00000E+00
    0.29039E-09        -0.65193E-20         0.00000E+00
    0.29039E-09        -0.74506E-20         0.00000E+00
    0.29039E-09        -0.17695E-19         0.00000E+00
    0.29039E-09        -0.76834E-20         0.00000E+00
    0.29039E-09        -0.10012E-19         0.00000E+00
    0.29039E-09        -0.11874E-19         0.00000E+00
    0.29039E-09        -0.22817E-19         0.00000E+00
    0.29039E-09        -0.23283E-19         0.00000E+00
    0.29039E-09        -0.26776E-19         0.00000E+00
    0.29039E-09        -0.35856E-19         0.00000E+00
    0.29039E-09        -0.20955E-19         0.00000E+00
    0.29039E-09        -0.22817E-19         0.00000E+00
    0.29039E-09        -0.74506E-20         0.00000E+00
    0.29039E-09        -0.74506E-20         0.00000E+00
    0.29039E-09        -0.13970E-19         0.00000E+00
    0.29039E-09        -0.13737E-19         0.00000E+00
    0.29039E-09        -0.11176E-19         0.00000E+00
    0.29039E-09         0.23283E-20         0.00000E+00
    0.29039E-09        -0.55879E-20         0.00000E+00
    0.29039E-09        -0.23283E-20         0.00000E+00
    0.29039E-09        -0.12107E-19         0.00000E+00
    0.29039E-09        -0.12107E-19         0.00000E+00
    0.29039E-09        -0.93132E-20         0.00000E+00
    0.29039E-09        -0.25611E-20         0.00000E+00
    0.29039E-09        -0.10245E-19         0.00000E+00
    0.29039E-09        -0.30268E-20         0.00000E+00
    0.29039E-09         0.58208E-20         0.00000E+00
    0.29039E-09        -0.23283E-20         0.00000E+00
    0.29039E-09        -0.11642E-20         0.00000E+00
    0.29039E-09        -0.32596E-20         0.00000E+00
    0.29039E-09        -0.16298E-20         0.00000E+00
    0.29039E-09         0.00000E+00         0.00000E+00
    0.29039E-09        -0.23283E-20         0.00000E+00
    0.29039E-09        -0.11176E-19         0.00000E+00
    0.29039E-09        -0.11642E-20         0.00000E+00
    0.25184E-09        -0.46566E-20         0.00000E+00
    0.25184E-09        -0.13970E-20         0.00000E+00
    0.25184E-09        -0.39581E-20         0.00000E+00
    0.25184E-09         0.23283E-20         0.00000E+00
    0.25184E-09         0.17695E-19         0.00000E+00
    0.25184E-09         0.12340E-19         0.00000E+00
    0.25184E-09         0.18626E-19         0.00000E+00
    0.25184E-09         0.26543E-19         0.00000E+00
    0.25184E-09         0.83819E-20         0.00000E+00
    0.25184E-09        -0.46566E-21         0.00000E+00
    0.25184E-09        -0.14901E-19         0.00000E+00
    0.25184E-09        -0.10943E-19         0.00000E+00
    0.25184E-09         0.44238E-20         0.00000E+00
    0.25184E-09        -0.93132E-21         0.00000E+00
    0.25184E-09         0.46566E-21         0.00000E+00
    0.25184E-09        -0.60536E-20         0.00000E+00
    0.25184E-09         0.46566E-20         0.00000E+00
    0.25184E-09        -0.55879E-20         0.00000E+00
    0.25184E-09        -0.13271E-19         0.00000E+00
    0.25184E-09        -0.10477E-19         0.00000E+00
    0.25184E-09        -0.10477E-19         0.00000E+00
    0.25184E-09        -0.25146E-19         0.00000E+00
    0.25184E-09        -0.43074E-19         0.00000E+00
    0.25184E-09        -0.25844E-19         0.00000E+00
    0.25184E-09        -0.28173E-19         0.00000E+00
    0.25184E-09        -0.31898E-19         0.00000E+00
    0.25184E-09        -0.17462E-19         0.00000E+00
    0.25184E-09        -0.13970E-19         0.00000E+00
    0.25184E-09        -0.16764E-19         0.00000E+00
    0.25184E-09        -0.20955E-19         0.00000E+00
    0.25184E-09        -0.51223E-20         0.00000E+00
    0.25184E-09        -0.13737E-19         0.00000E+00
    0.25184E-09         0.76834E-20         0.00000E+00
    0.25184E-09         0.76834E-20         0.00000E+00
    0.25184E-09         0.46566E-21         0.00000E+00
    0.25184E-09        -0.97789E-20         0.00000E+00
    0.25184E-09        -0.60536E-20         0.00000E+00
    0.25184E-09        -0.69849E-20         0.00000E+00
    0.25184E-09        -0.88476E-20         0.00000E+00
    0.25184E-09        -0.79162E-20         0.00000E+00
    0.25184E-09        -0.74506E-20         0.00000E+00
    0.25184E-09         0.23283E-21         0.00000E+00
    0.25184E-09         0.23283E-20         0.00000E+00
    0.25184E-09        -0.12107E-19         0.00000E+00
    0.25184E-09        -0.10710E-19         0.00000E+00
    0.25184E-09         0.23283E-20         0.00000E+00
    0.25184E-09         0.79162E-20         0.00000E+00
    0.25184E-09        -0.11642E-19         0.00000E+00
    0.25184E-09        -0.18859E-19         0.00000E+00
    0.25184E-09        -0.32596E-20         0.00000E+00
    0.22079E-09         0.10245E-19         0.00000E+00
    0.22079E-09         0.16298E-19         0.00000E+00
    0.22079E-09         0.55879E-20         0.00000E+00
    0.22079E-09         0.23283E-21         0.00000E+00
    0.22079E-09         0.14668E-19         0.00000E+00
    0.22079E-09         0.22352E-19         0.00000E+00
    0.22079E-09         0.13504E-19         0.00000E+00
    0.22079E-09         0.10943E-19         0.00000E+00
    0.22079E-09         0.65193E-20         0.00000E+00
    0.22079E-09         0.51223E-20         0.00000E+00
    0.22079E-09         0.00000E+00         0.00000E+00
    0.22079E-09        -0.46566E-21         0.00000E+00
    0.22079E-09         0.51223E-20         0.00000E+00
    0.22079E-09         0.11642E-19         0.00000E+00
    0.22079E-09         0.10245E-19         0.00000E+00
    0.22079E-09        -0.46566E-20         0.00000E+00
    0.22079E-09        -0.69849E-20         0.00000E+00
    0.22079E-09        -0.93132E-21         0.00000E+00
    0.22079E-09        -0.10477E-19         0.00000E+00
    0.22079E-09        -0.41910E-20         0.00000E+00
    0.22079E-09        -0.17695E-19         0.00000E+00
    0.22079E-09        -0.28871E-19         0.00000E+00
    0.22079E-09        -0.30268E-19         0.00000E+00
    0.22079E-09        -0.32131E-19         0.00000E+00
    0.22079E-09        -0.21188E-19         0.00000E+00
    0.22079E-09        -0.27707E-19         0.00000E+00
    0.22079E-09        -0.17695E-19         0.00000E+00
    0.22079E-09        -0.28871E-19         0.00000E+00
    0.22079E-09        -0.15600E-19         0.00000E+00
    0.22079E-09        -0.16997E-19         0.00000E+00
    0.22079E-09        -0.46566E-20         0.00000E+00
    0.22079E-09        -0.10710E-19         0.00000E+00
    0.22079E-09        -0.83819E-20         0.00000E+00
    0.22079E-09        -0.13970E-20         0.00000E+00
    0.22079E-09        -0.25611E-20         0.00000E+00
    0.22079E-09        -0.13039E-19         0.00000E+00
    0.22079E-09        -0.18626E-20         0.00000E+00
    0.22079E-09        -0.23283E-20         0.00000E+00
    0.22079E-09         0.37253E-20         0.00000E+00
    0.22079E-09         0.10245E-19         0.00000E+00
    0.22079E-09         0.32596E-20         0.00000E+00
    0.22079E-09        -0.41910E-20         0.00000E+00
    0.22079E-09        -0.95461E-20         0.00000E+00
    0.22079E-09        -0.83819E-20         0.00000E+00
    0.22079E-09        -0.25611E-20         0.00000E+00
    0.22079E-09         0.27940E-20         0.00000E+00
    0.22079E-09        -0.14435E-19         0.00000E+00
    0.22079E-09        -0.79162E-20         0.00000E+00
    0.22079E-09         0.46566E-20         0.00000E+00
    0.22079E-09         0.79162E-20         0.00000E+00
    0.19633E-09        -0.32596E-20         0.00000E+00
    0.19633E-09        -0.13970E-20         0.00000E+00
    0.19633E-09         0.86147E-20         0.00000E+00
    0.19633E-09         0.32596E-20         0.00000E+00
    0.19633E-09         0.15134E-19         0.00000E+00
    0.19633E-09         0.19791E-19         0.00000E+00
    0.19633E-09         0.11642E-19         0.00000E+00
    0.19633E-09         0.27940E-20         0.00000E+00
    0.19633E-09        -0.46566E-21         0.00000E+00
    0.19633E-09         0.13737E-19         0.00000E+00
    0.19633E-09         0.14203E-19         0.00000E+00
    0.19633E-09         0.15367E-19         0.00000E+00
    0.19633E-09         0.37253E-20         0.00000E+00
    0.19633E-09         0.51223E-20         0.00000E+00
    0.19633E-09        -0.51223E-20         0.00000E+00
    0.19633E-09        -0.27940E-20         0.00000E+00
    0.19633E-09        -0.93132E-20         0.00000E+00
    0.19633E-09        -0.46566E-21         0.00000E+00
    0.19633E-09        -0.55879E-20         0.00000E+00
    0.19633E-09         0.25611E-20         0.00000E+00
    0.19633E-09        -0.13970E-20         0.00000E+00
    0.19633E-09        -0.19558E-19         0.00000E+00
    0.19633E-09        -0.15367E-19         0.00000E+00
    0.19633E-09        -0.22817E-19         0.00000E+00
    0.19633E-09        -0.19791E-19         0.00000E+00
    0.19633E-09        -0.15367E-19         0.00000E+00
    0.19633E-09        -0.10477E-19         0.00000E+00
    0.19633E-09        -0.12107E-19         0.00000E+00
    0.19633E-09        -0.76834E-20         0.00000E+00
    0.19633E-09        -0.79162E-20         0.00000E+00
    0.19633E-09        -0.93132E-20         0.00000E+00
    0.19633E-09        -0.93132E-21         0.00000E+00
    0.19633E-09        -0.46566E-21         0.00000E+00
    0.19633E-09        -0.90804E-20         0.00000E+00
    0.19633E-09        -0.79162E-20         0.00000E+00
    0.19633E-09        -0.10245E-19         0.00000E+00
    0.19633E-09        -0.11642E-19         0.00000E+00
    0.19633E-09        -0.37253E-20         0.00000E+00
    0.19633E-09        -0.74506E-20         0.00000E+00
    0.19633E-09        -0.69849E-20         0.00000E+00
    0.19633E-09        -0.95461E-20         0.00000E+00
    0.19633E-09        -0.23283E-20         0.00000E+00
    0.19633E-09        -0.48894E-20         0.00000E+00
    0.19633E-09         0.83819E-20         0.00000E+00
    0.19633E-09         0.51223E-20         0.00000E+00
    0.19633E-09        -0.23283E-21         0.00000E+00
    0.19633E-09        -0.88476E-20         0.00000E+00
    0.19633E-09        -0.51223E-20         0.00000E+00
    0.19633E-09        -0.23283E-21         0.00000E+00
    0.19633E-09         0.23283E-20         0.00000E+00
    0.17773E-09        -0.11642E-20         0.00000E+00
    0.17773E-09         0.67521E-20         0.00000E+00
    0.17773E-09         0.51223E-20         0.00000E+00
    0.17773E-09         0.46566E-20         0.00000E+00
    0.17773E-09         0.46566E-21         0.00000E+00
    0.17773E-09         0.74506E-20         0.00000E+00
    0.17773E-09         0.48894E-20         0.00000E+00
    0.17773E-09        -0.41910E-20         0.00000E+00
    0.17773E-09         0.13970E-20         0.00000E+00
    0.17773E-09        -0.18626E-20         0.00000E+00
    0.17773E-09        -0.93132E-21         0.00000E+00
    0.17773E-09         0.74506E-20         0.00000E+00
    0.17773E-09         0.46566E-20         0.00000E+00
    0.17773E-09        -0.55879E-20         0.00000E+00
    0.17773E-09         0.46566E-20         0.00000E+00
    0.17773E-09        -0.93132E-21         0.00000E+00
    0.17773E-09        -0.12107E-19         0.00000E+00
    0.17773E-09        -0.27940E-20         0.00000E+00
    0.17773E-09        -0.55879E-20         0.00000E+00
    0.17773E-09         0.10245E-19         0.00000E+00
    0.17773E-09         0.13970E-19         0.00000E+00
    0.17773E-09        -0.13970E-20         0.00000E+00
    0.17773E-09        -0.55879E-20         0.00000E+00
    0.17773E-09        -0.18626E-20         0.00000E+00
    0.17773E-09        -0.69849E-20         0.00000E+00
    0.17773E-09        -0.13970E-20         0.00000E+00
    0.17773E-09        -0.93132E-21         0.00000E+00
    0.17773E-09        -0.18626E-20         0.00000E+00
    0.17773E-09         0.55879E-20         0.00000E+00
    0.17773E-09        -0.16298E-20         0.00000E+00
    0.17773E-09        -0.39581E-20         0.00000E+00
    0.17773E-09        -0.18626E-20         0.00000E+00
    0.17773E-09        -0.23283E-21         0.00000E+00
    0.17773E-09         0.27940E-20         0.00000E+00
    0.17773E-09        -0.41910E-20         0.00000E+00
    0.17773E-09        -0.81491E-20         0.00000E+00
    0.17773E-09        -0.11409E-19         0.00000E+00
    0.17773E-09        -0.12340E-19         0.00000E+00
    0.17773E-09        -0.60536E-20         0.00000E+00
    0.17773E-09         0.83819E-20         0.00000E+00
    0.17773E-09        -0.69849E-21         0.00000E+00
    0.17773E-09        -0.18626E-20         0.00000E+00
    0.17773E-09        -0.69849E-21         0.00000E+00
    0.17773E-09        -0.41910E-20         0.00000E+00
    0.17773E-09         0.27940E-20         0.00000E+00
    0.17773E-09        -0.25611E-20         0.00000E+00
    0.17773E-09         0.69849E-20         0.00000E+00
    0.17773E-09        -0.74506E-20         0.00000E+00
    0.17773E-09         0.69849E-20         0.00000E+00
    0.17773E-09         0.00000E+00         0.00000E+00
    0.16442E-09         0.37253E-20         0.00000E+00
    0.16442E-09         0.11642E-20         0.00000E+00
    0.16442E-09        -0.18626E-20         0.00000E+00
    0.16442E-09        -0.46566E-20         0.00000E+00
    0.16442E-09        -0.97789E-20         0.00000E+00
    0.16442E-09        -0.27940E-20         0.00000E+00
    0.16442E-09        -0.25611E-20         0.00000E+00
    0.16442E-09        -0.13039E-19         0.00000E+00
    0.16442E-09        -0.95461E-20         0.00000E+00
    0.16442E-09        -0.14668E-19         0.00000E+00
    0.16442E-09        -0.41910E-20         0.00000E+00
    0.16442E-09        -0.18626E-20         0.00000E+00
    0.16442E-09         0.90804E-20         0.00000E+00
    0.16442E-09         0.69849E-20         0.00000E+00
    0.16442E-09         0.10245E-19         0.00000E+00
    0.16442E-09         0.46566E-20         0.00000E+00
    0.16442E-09        -0.16298E-20         0.00000E+00
    0.16442E-09        -0.55879E-20         0.00000E+00
    0.16442E-09         0.46566E-21         0.00000E+00
    0.16442E-09         0.79162E-20         0.00000E+00
    0.16442E-09         0.17462E-19         0.00000E+00
    0.16442E-09         0.00000E+00         0.00000E+00
    0.16442E-09         0.67521E-20         0.00000E+00
    0.16442E-09         0.46566E-21         0.00000E+00
    0.16442E-09         0.65193E-20         0.00000E+00
    0.16442E-09         0.93132E-21         0.00000E+00
    0.16442E-09         0.23283E-20         0.00000E+00
    0.16442E-09         0.13970E-20         0.00000E+00
    0.16442E-09         0.37253E-20         0.00000E+00
    0.16442E-09         0.13039E-19         0.00000E+00
    0.16442E-09         0.15600E-19         0.00000E+00
    0.16442E-09        -0.18626E-20         0.00000E+00
    0.16442E-09         0.58208E-20         0.00000E+00
    0.16442E-09         0.20955E-20         0.00000E+00
    0.16442E-09        -0.10245E-19         0.00000E+00
    0.16442E-09         0.23283E-20         0.00000E+00
    0.16442E-09         0.11642E-19         0.00000E+00
    0.16442E-09        -0.69849E-21         0.00000E+00
    0.16442E-09        -0.46566E-21         0.00000E+00
    0.16442E-09         0.46566E-20         0.00000E+00
    0.16442E-09         0.16764E-19         0.00000E+00
    0.16442E-09         0.41910E-20         0.00000E+00
    0.16442E-09         0.25611E-20         0.00000E+00
    0.16442E-09        -0.41910E-20         0.00000E+00
    0.16442E-09         0.18626E-20         0.00000E+00
    0.16442E-09        -0.67521E-20         0.00000E+00
    0.16442E-09         0.18626E-20         0.00000E+00
    0.16442E-09         0.23283E-20         0.00000E+00
    0.16442E-09         0.14435E-19         0.00000E+00
    0.16442E-09         0.39581E-20         0.00000E+00
    0.15602E-09        -0.39581E-20         0.00000E+00
    0.15602E-09        -0.86147E-20         0.00000E+00
    0.15602E-09         0.10477E-19         0.00000E+00
    0.15602E-09         0.46566E-21         0.00000E+00
    0.15602E-09        -0.67521E-20         0.00000E+00
    0.15602E-09        -0.11874E-19         0.00000E+00
    0.15602E-09        -0.20489E-19         0.00000E+00
    0.15602E-09        -0.26543E-19         0.00000E+00
    0.15602E-09        -0.23050E-19         0.00000E+00
    0.15602E-09        -0.23749E-19         0.00000E+00
    0.15602E-09         0.23283E-20         0.00000E+00
    0.15602E-09         0.20955E-20         0.00000E+00
    0.15602E-09         0.23283E-20         0.00000E+00
    0.15602E-09         0.48894E-20         0.00000E+00
    0.15602E-09         0.60536E-20         0.00000E+00
    0.15602E-09         0.23283E-21         0.00000E+00
    0.15602E-09        -0.46566E-21         0.00000E+00
    0.15602E-09        -0.11642E-20         0.00000E+00
    0.15602E-09        -0.93132E-21         0.00000E+00
    0.15602E-09         0.23283E-20         0.00000E+00
    0.15602E-09         0.21653E-19         0.00000E+00
    0.15602E-09         0.69849E-20         0.00000E+00
    0.15602E-09        -0.18626E-20         0.00000E+00
    0.15602E-09        -0.53551E-20         0.00000E+00
    0.15602E-09         0.20955E-20         0.00000E+00
    0.15602E-09         0.32596E-20         0.00000E+00
    0.15602E-09        -0.51223E-20         0.00000E+00
    0.15602E-09         0.30268E-20         0.00000E+00
    0.15602E-09         0.12573E-19         0.00000E+00
    0.15602E-09         0.17229E-19         0.00000E+00
    0.15602E-09         0.12573E-19         0.00000E+00
    0.15602E-09         0.69849E-21         0.00000E+00
    0.15602E-09         0.81491E-20         0.00000E+00
    0.15602E-09        -0.11176E-19         0.00000E+00
    0.15602E-09        -0.41910E-20         0.00000E+00
    0.15602E-09         0.13970E-19         0.00000E+00
    0.15602E-09         0.14435E-19         0.00000E+00
    0.15602E-09         0.18626E-19         0.00000E+00
    0.15602E-09         0.15832E-19         0.00000E+00
    0.15602E-09         0.65193E-20         0.00000E+00
    0.15602E-09         0.23283E-20         0.00000E+00
    0.15602E-09         0.39581E-20         0.00000E+00
    0.15602E-09         0.10943E-19         0.00000E+00
    0.15602E-09         0.14203E-19         0.00000E+00
    0.15602E-09         0.62864E-20         0.00000E+00
    0.15602E-09         0.65193E-20         0.00000E+00
    0.15602E-09         0.12573E-19         0.00000E+00
    0.15602E-09         0.44238E-20         0.00000E+00
    0.15602E-09         0.51223E-20         0.00000E+00
    0.15602E-09         0.83819E-20         0.00000E+00
    0.15227E-09         0.46566E-20         0.00000E+00
    0.15227E-09         0.65193E-20         0.00000E+00
    0.15227E-09        -0.25611E-20         0.00000E+00
    0.15227E-09         0.81491E-20         0.00000E+00
    0.15227E-09        -0.10012E-19         0.00000E+00
    0.15227E-09        -0.18161E-19         0.00000E+00
    0.15227E-09        -0.13504E-19         0.00000E+00
    0.15227E-09        -0.23982E-19         0.00000E+00
    0.15227E-09        -0.36322E-19         0.00000E+00
    0.15227E-09        -0.31199E-19         0.00000E+00
    0.15227E-09        -0.23283E-19         0.00000E+00
    0.15227E-09        -0.69849E-20         0.00000E+00
    0.15227E-09         0.23283E-20         0.00000E+00
    0.15227E-09         0.93132E-21         0.00000E+00
    0.15227E-09         0.11176E-19         0.00000E+00
    0.15227E-09         0.10245E-19         0.00000E+00
    0.15227E-09        -0.23283E-20         0.00000E+00
    0.15227E-09        -0.74506E-20         0.00000E+00
    0.15227E-09         0.18626E-20         0.00000E+00
    0.15227E-09        -0.97789E-20         0.00000E+00
    0.15227E-09        -0.23283E-21         0.00000E+00
    0.15227E-09         0.74506E-20         0.00000E+00
    0.15227E-09        -0.25611E-20         0.00000E+00
    0.15227E-09        -0.58208E-20         0.00000E+00
    0.15227E-09        -0.67521E-20         0.00000E+00
    0.15227E-09        -0.10710E-19         0.00000E+00
    0.15227E-09        -0.12107E-19         0.00000E+00
    0.15227E-09         0.46566E-20         0.00000E+00
    0.15227E-09         0.10710E-19         0.00000E+00
    0.15227E-09         0.11176E-19         0.00000E+00
    0.15227E-09         0.15367E-19         0.00000E+00
    0.15227E-09         0.17229E-19         0.00000E+00
    0.15227E-09         0.12107E-19         0.00000E+00
    0.15227E-09         0.58208E-20         0.00000E+00
    0.15227E-09         0.16065E-19         0.00000E+00
    0.15227E-09         0.88476E-20         0.00000E+00
    0.15227E-09         0.14435E-19         0.00000E+00
    0.15227E-09         0.13737E-19         0.00000E+00
    0.15227E-09         0.18394E-19         0.00000E+00
    0.15227E-09         0.16298E-19         0.00000E+00
    0.15227E-09         0.41910E-20         0.00000E+00
    0.15227E-09         0.86147E-20         0.00000E+00
    0.15227E-09         0.69849E-20         0.00000E+00
    0.15227E-09         0.20489E-19         0.00000E+00
    0.15227E-09         0.17229E-19         0.00000E+00
    0.15227E-09         0.10012E-19         0.00000E+00
    0.15227E-09         0.22585E-19         0.00000E+00
    0.15227E-09         0.55879E-20         0.00000E+00
    0.15227E-09         0.16298E-20         0.00000E+00
    0.15227E-09         0.30268E-20         0.00000E+00
    0.15307E-09         0.39581E-20         0.00000E+00
    0.15307E-09        -0.53551E-20         0.00000E+00
    0.15307E-09        -0.32596E-20         0.00000E+00
    0.15307E-09         0.32596E-20         0.00000E+00
    0.15307E-09        -0.88476E-20         0.00000E+00
    0.15307E-09        -0.10012E-19         0.00000E+00
    0.15307E-09        -0.20489E-19         0.00000E+00
    0.15307E-09        -0.30734E-19         0.00000E+00
    0.15307E-09        -0.26077E-19         0.00000E+00
    0.15307E-09        -0.19092E-19         0.00000E+00
    0.15307E-09        -0.79162E-20         0.00000E+00
    0.15307E-09        -0.83819E-20         0.00000E+00
    0.15307E-09        -0.23283E-20         0.00000E+00
    0.15307E-09         0.27940E-20         0.00000E+00
    0.15307E-09         0.46566E-21         0.00000E+00
    0.15307E-09        -0.46566E-21         0.00000E+00
    0.15307E-09        -0.41910E-20         0.00000E+00
    0.15307E-09        -0.14435E-19         0.00000E+00
    0.15307E-09        -0.67521E-20         0.00000E+00
    0.15307E-09        -0.19092E-19         0.00000E+00
    0.15307E-09        -0.12107E-19         0.00000E+00
    0.15307E-09        -0.46566E-20         0.00000E+00
    0.15307E-09        -0.41910E-20         0.00000E+00
    0.15307E-09        -0.46566E-21         0.00000E+00
    0.15307E-09         0.00000E+00         0.00000E+00
    0.15307E-09        -0.13970E-20         0.00000E+00
    0.15307E-09         0.23283E-20         0.00000E+00
    0.15307E-09         0.83819E-20         0.00000E+00
    0.15307E-09         0.93132E-20         0.00000E+00
    0.15307E-09         0.26543E-19         0.00000E+00
    0.15307E-09         0.20489E-19         0.00000E+00
    0.15307E-09         0.25611E-19         0.00000E+00
    0.15307E-09         0.17229E-19         0.00000E+00
    0.15307E-09         0.21188E-19         0.00000E+00
    0.15307E-09         0.22817E-19         0.00000E+00
    0.15307E-09         0.17229E-19         0.00000E+00
    0.15307E-09         0.19092E-19         0.00000E+00
    0.15307E-09         0.58208E-20         0.00000E+00
    0.15307E-09         0.46566E-20         0.00000E+00
    0.15307E-09         0.13970E-19         0.00000E+00
    0.15307E-09         0.72177E-20         0.00000E+00
    0.15307E-09         0.13271E-19         0.00000E+00
    0.15307E-09         0.93132E-20         0.00000E+00
    0.15307E-09         0.15832E-19         0.00000E+00
    0.15307E-09         0.65193E-20         0.00000E+00
    0.15307E-09        -0.25611E-20         0.00000E+00
    0.15307E-09         0.34925E-20         0.00000E+00
    0.15307E-09        -0.69849E-20         0.00000E+00
    0.15307E-09        -0.39581E-20         0.00000E+00
    0.15307E-09        -0.88476E-20         0.00000E+00
    0.15843E-09         0.00000E+00         0.00000E+00
    0.15843E-09         0.60536E-20         0.00000E+00
    0.15843E-09         0.65193E-20         0.00000E+00
    0.15843E-09        -0.72177E-20         0.00000E+00
    0.15843E-09        -0.83819E-20         0.00000E+00
    0.15843E-09        -0.44238E-20         0.00000E+00
    0.15843E-09        -0.13504E-19         0.00000E+00
    0.15843E-09        -0.32596E-20         0.00000E+00
    0.15843E-09        -0.39581E-20         0.00000E+00
    0.15843E-09        -0.93132E-21         0.00000E+00
    0.15843E-09         0.00000E+00         0.00000E+00
    0.15843E-09         0.37616E-36         0.00000E+00
    0.15843E-09        -0.37253E-20         0.00000E+00
    0.15843E-09        -0.46566E-20         0.00000E+00
    0.15843E-09        -0.12107E-19         0.00000E+00
    0.15843E-09        -0.12340E-19         0.00000E+00
    0.15843E-09        -0.21188E-19         0.00000E+00
    0.15843E-09        -0.16997E-19         0.00000E+00
    0.15843E-09        -0.13970E-19         0.00000E+00
    0.15843E-09        -0.10710E-19         0.00000E+00
    0.15843E-09        -0.83819E-20         0.00000E+00
    0.15843E-09        -0.27940E-20         0.00000E+00
    0.15843E-09         0.23283E-20         0.00000E+00
    0.15843E-09         0.46566E-20         0.00000E+00
    0.15843E-09         0.34925E-20         0.00000E+00
    0.15843E-09         0.13504E-19         0.00000E+00
    0.15843E-09         0.26077E-19         0.00000E+00
    0.15843E-09         0.17229E-19         0.00000E+00
    0.15843E-09         0.18626E-19         0.00000E+00
    0.15843E-09         0.12573E-19         0.00000E+00
    0.15843E-09         0.18161E-19         0.00000E+00
    0.15843E-09         0.14901E-19         0.00000E+00
    0.15843E-09         0.13039E-19         0.00000E+00
    0.15843E-09        -0.16298E-20         0.00000E+00
    0.15843E-09         0.12107E-19         0.00000E+00
    0.15843E-09         0.12107E-19         0.00000E+00
    0.15843E-09         0.20489E-19         0.00000E+00
    0.15843E-09         0.13039E-19         0.00000E+00
    0.15843E-09         0.18859E-19         0.00000E+00
    0.15843E-09         0.19791E-19         0.00000E+00
    0.15843E-09         0.79162E-20         0.00000E+00
    0.15843E-09         0.79162E-20         0.00000E+00
    0.15843E-09         0.11642E-19         0.00000E+00
    0.15843E-09         0.46566E-20         0.00000E+00
    0.15843E-09         0.25611E-20         0.00000E+00
    0.15843E-09         0.20955E-20         0.00000E+00
    0.15843E-09        -0.16298E-19         0.00000E+00
    0.15843E-09        -0.18161E-19         0.00000E+00
    0.15843E-09        -0.97789E-20         0.00000E+00
    0.15843E-09        -0.37253E-20         0.00000E+00
    0.16851E-09        -0.69849E-20         0.00000E+00
    0.16851E-09         0.32596E-20         0.00000E+00
    0.16851E-09        -0.16298E-20         0.00000E+00
    0.16851E-09        -0.16065E-19         0.00000E+00
    0.16851E-09        -0.16298E-20         0.00000E+00
    0.16851E-09         0.86147E-20         0.00000E+00
    0.16851E-09         0.83819E-20         0.00000E+00
    0.16851E-09         0.11176E-19         0.00000E+00
    0.16851E-09        -0.39581E-20         0.00000E+00
    0.16851E-09        -0.48894E-20         0.00000E+00
    0.16851E-09        -0.27940E-20         0.00000E+00
    0.16851E-09        -0.41910E-20         0.00000E+00
    0.16851E-09        -0.13504E-19         0.00000E+00
    0.16851E-09        -0.10710E-19         0.00000E+00
    0.16851E-09        -0.13039E-19         0.00000E+00
    0.16851E-09        -0.93132E-20         0.00000E+00
    0.16851E-09        -0.12107E-19         0.00000E+00
    0.16851E-09         0.23283E-21         0.00000E+00
    0.16851E-09        -0.69849E-20         0.00000E+00
    0.16851E-09        -0.65193E-20         0.00000E+00
    0.16851E-09         0.93132E-21         0.00000E+00
    0.16851E-09         0.10245E-19         0.00000E+00
    0.16851E-09         0.10245E-19         0.00000E+00
    0.16851E-09         0.37253E-20         0.00000E+00
    0.16851E-09         0.95461E-20         0.00000E+00
    0.16851E-09         0.22817E-19         0.00000E+00
    0.16851E-09         0.17229E-19         0.00000E+00
    0.16851E-09         0.11176E-19         0.00000E+00
    0.16851E-09         0.18626E-19         0.00000E+00
    0.16851E-09         0.93132E-20         0.00000E+00
    0.16851E-09         0.14435E-19         0.00000E+00
    0.16851E-09         0.86147E-20         0.00000E+00
    0.16851E-09         0.93132E-21         0.00000E+00
    0.16851E-09        -0.34925E-20         0.00000E+00
    0.16851E-09         0.46566E-20         0.00000E+00
    0.16851E-09         0.20489E-19         0.00000E+00
    0.16851E-09         0.17462E-19         0.00000E+00
    0.16851E-09         0.19092E-19         0.00000E+00
    0.16851E-09         0.17695E-19         0.00000E+00
    0.16851E-09         0.13271E-19         0.00000E+00
    0.16851E-09         0.16298E-19         0.00000E+00
    0.16851E-09         0.18626E-19         0.00000E+00
    0.16851E-09         0.90804E-20         0.00000E+00
    0.16851E-09         0.12573E-19         0.00000E+00
    0.16851E-09         0.23283E-20         0.00000E+00
    0.16851E-09         0.69849E-21         0.00000E+00
    0.16851E-09         0.55879E-20         0.00000E+00
    0.16851E-09         0.60536E-20         0.00000E+00
    0.16851E-09         0.13039E-19         0.00000E+00
    0.16851E-09         0.23283E-21         0.00000E+00
    0.18362E-09        -0.51223E-20         0.00000E+00
    0.18362E-09        -0.23283E-19         0.00000E+00
    0.18362E-09         0.00000E+00         0.00000E+00
    0.18362E-09        -0.37253E-20         0.00000E+00
    0.18362E-09         0.74506E-20         0.00000E+00
    0.18362E-09         0.18161E-19         0.00000E+00
    0.18362E-09         0.13039E-19         0.00000E+00
    0.18362E-09         0.93132E-20         0.00000E+00
    0.18362E-09        -0.51223E-20         0.00000E+00
    0.18362E-09        -0.13504E-19         0.00000E+00
    0.18362E-09        -0.11176E-19         0.00000E+00
    0.18362E-09        -0.12573E-19         0.00000E+00
    0.18362E-09        -0.25146E-19         0.00000E+00
    0.18362E-09        -0.17928E-19         0.00000E+00
    0.18362E-09        -0.14901E-19         0.00000E+00
    0.18362E-09         0.00000E+00         0.00000E+00
    0.18362E-09        -0.32596E-20         0.00000E+00
    0.18362E-09         0.65193E-20         0.00000E+00
    0.18362E-09         0.27940E-20         0.00000E+00
    0.18362E-09         0.51223E-20         0.00000E+00
    0.18362E-09         0.17695E-19         0.00000E+00
    0.18362E-09         0.23749E-19         0.00000E+00
    0.18362E-09         0.10710E-19         0.00000E+00
    0.18362E-09         0.74506E-20         0.00000E+00
    0.18362E-09         0.51223E-20         0.00000E+00
    0.18362E-09         0.14435E-19         0.00000E+00
    0.18362E-09         0.13504E-19         0.00000E+00
    0.18362E-09         0.14435E-19         0.00000E+00
    0.18362E-09         0.21420E-19         0.00000E+00
    0.18362E-09         0.34925E-20         0.00000E+00
    0.18362E-09        -0.18626E-20         0.00000E+00
    0.18362E-09         0.41910E-20         0.00000E+00
    0.18362E-09        -0.58208E-20         0.00000E+00
    0.18362E-09         0.51223E-20         0.00000E+00
    0.18362E-09         0.10245E-19         0.00000E+00
    0.18362E-09         0.23516E-19         0.00000E+00
    0.18362E-09         0.93132E-20         0.00000E+00
    0.18362E-09         0.88476E-20         0.00000E+00
    0.18362E-09         0.20489E-19         0.00000E+00
    0.18362E-09         0.19092E-19         0.00000E+00
    0.18362E-09         0.21420E-19         0.00000E+00
    0.18362E-09         0.20489E-19         0.00000E+00
    0.18362E-09         0.22817E-19         0.00000E+00
    0.18362E-09         0.23982E-19         0.00000E+00
    0.18362E-09         0.13504E-19         0.00000E+00
    0.18362E-09         0.95461E-20         0.00000E+00
    0.18362E-09         0.20955E-19         0.00000E+00
    0.18362E-09         0.25146E-19         0.00000E+00
    0.18362E-09         0.97789E-20         0.00000E+00
    0.18362E-09         0.00000E+00         0.00000E+00
    0.20421E-09         0.41910E-20         0.00000E+00
    0.20421E-09         0.65193E-20         0.00000E+00
    0.20421E-09         0.11642E-19         0.00000E+00
    0.20421E-09         0.12107E-19         0.00000E+00
    0.20421E-09         0.32596E-20         0.00000E+00
    0.20421E-09         0.13504E-19         0.00000E+00
    0.20421E-09         0.93132E-20         0.00000E+00
    0.20421E-09         0.00000E+00         0.00000E+00
    0.20421E-09        -0.51223E-20         0.00000E+00
    0.20421E-09        -0.12107E-19         0.00000E+00
    0.20421E-09        -0.17928E-19         0.00000E+00
    0.20421E-09        -0.16764E-19         0.00000E+00
    0.20421E-09        -0.90804E-20         0.00000E+00
    0.20421E-09        -0.74506E-20         0.00000E+00
    0.20421E-09        -0.46566E-21         0.00000E+00
    0.20421E-09         0.27940E-20         0.00000E+00
    0.20421E-09         0.00000E+00         0.00000E+00
    0.20421E-09         0.46566E-21         0.00000E+00
    0.20421E-09         0.16298E-19         0.00000E+00
    0.20421E-09         0.17695E-19         0.00000E+00
    0.20421E-09         0.16298E-19         0.00000E+00
    0.20421E-09         0.19558E-19         0.00000E+00
    0.20421E-09         0.16298E-19         0.00000E+00
    0.20421E-09         0.74506E-20         0.00000E+00
    0.20421E-09         0.79162E-20         0.00000E+00
    0.20421E-09         0.12573E-19         0.00000E+00
    0.20421E-09         0.93132E-20         0.00000E+00
    0.20421E-09         0.55879E-20         0.00000E+00
    0.20421E-09         0.93132E-21         0.00000E+00
    0.20421E-09        -0.34925E-20         0.00000E+00
    0.20421E-09         0.93132E-20         0.00000E+00
    0.20421E-09         0.10943E-19         0.00000E+00
    0.20421E-09         0.69849E-20         0.00000E+00
    0.20421E-09        -0.32596E-20         0.00000E+00
    0.20421E-09         0.69849E-20         0.00000E+00
    0.20421E-09         0.81491E-20         0.00000E+00
    0.20421E-09         0.79162E-20         0.00000E+00
    0.20421E-09         0.55879E-20         0.00000E+00
    0.20421E-09         0.34925E-19         0.00000E+00
    0.20421E-09         0.31199E-19         0.00000E+00
    0.20421E-09         0.35856E-19         0.00000E+00
    0.20421E-09         0.20955E-19         0.00000E+00
    0.20421E-09         0.32363E-19         0.00000E+00
    0.20421E-09         0.16764E-19         0.00000E+00
    0.20421E-09         0.19092E-19         0.00000E+00
    0.20421E-09         0.19558E-19         0.00000E+00
    0.20421E-09         0.79162E-20         0.00000E+00
    0.20421E-09         0.74506E-20         0.00000E+00
    0.20421E-09        -0.55879E-20         0.00000E+00
    0.20421E-09         0.46566E-21         0.00000E+00
    0.23089E-09         0.55879E-20         0.00000E+00
    0.23089E-09         0.11642E-19         0.00000E+00
    0.23089E-09         0.13504E-19         0.00000E+00
    0.23089E-09         0.18161E-19         0.00000E+00
    0.23089E-09         0.13970E-19         0.00000E+00
    0.23089E-09         0.48894E-20         0.00000E+00
    0.23089E-09        -0.27940E-20         0.00000E+00
    0.23089E-09        -0.69849E-20         0.00000E+00
    0.23089E-09        -0.79162E-20         0.00000E+00
    0.23089E-09        -0.32596E-20         0.00000E+00
    0.23089E-09        -0.18626E-20         0.00000E+00
    0.23089E-09         0.11642E-19         0.00000E+00
    0.23089E-09         0.17695E-19         0.00000E+00
    0.23089E-09         0.14435E-19         0.00000E+00
    0.23089E-09         0.27940E-20         0.00000E+00
    0.23089E-09         0.13970E-20         0.00000E+00
    0.23089E-09         0.51223E-20         0.00000E+00
    0.23089E-09         0.18859E-19         0.00000E+00
    0.23089E-09         0.11176E-19         0.00000E+00
    0.23089E-09         0.21420E-19         0.00000E+00
    0.23089E-09         0.19558E-19         0.00000E+00
    0.23089E-09         0.10710E-19         0.00000E+00
    0.23089E-09        -0.88476E-20         0.00000E+00
    0.23089E-09         0.12107E-19         0.00000E+00
    0.23089E-09         0.14435E-19         0.00000E+00
    0.23089E-09         0.55879E-20         0.00000E+00
    0.23089E-09         0.69849E-20         0.00000E+00
    0.23089E-09        -0.11642E-19         0.00000E+00
    0.23089E-09        -0.10245E-19         0.00000E+00
    0.23089E-09         0.14435E-19         0.00000E+00
    0.23089E-09         0.16298E-19         0.00000E+00
    0.23089E-09        -0.18626E-20         0.00000E+00
    0.23089E-09         0.00000E+00         0.00000E+00
    0.23089E-09         0.13970E-20         0.00000E+00
    0.23089E-09         0.14435E-19         0.00000E+00
    0.23089E-09         0.97789E-20         0.00000E+00
    0.23089E-09         0.27940E-20         0.00000E+00
    0.23089E-09         0.74506E-20         0.00000E+00
    0.23089E-09         0.12806E-19         0.00000E+00
    0.23089E-09         0.23283E-19         0.00000E+00
    0.23089E-09         0.31898E-19         0.00000E+00
    0.23089E-09         0.32363E-19         0.00000E+00
    0.23089E-09         0.23283E-19         0.00000E+00
    0.23089E-09         0.13039E-19         0.00000E+00
    0.23089E-09         0.58208E-20         0.00000E+00
    0.23089E-09         0.79162E-20         0.00000E+00
    0.23089E-09        -0.20955E-20         0.00000E+00
    0.23089E-09         0.65193E-20         0.00000E+00
    0.23089E-09         0.55879E-20         0.00000E+00
    0.23089E-09        -0.69849E-21         0.00000E+00
    0.26445E-09        -0.37253E-20         0.00000E+00
    0.26445E-09        -0.12340E-19         0.00000E+00
    0.26445E-09        -0.51223E-20         0.00000E+00
    0.26445E-09         0.12573E-19         0.00000E+00
    0.26445E-09         0.13039E-19         0.00000E+00
    0.26445E-09        -0.60536E-20         0.00000E+00
    0.26445E-09         0.69849E-21         0.00000E+00
    0.26445E-09        -0.11642E-20         0.00000E+00
    0.26445E-09        -0.88476E-20         0.00000E+00
    0.26445E-09        -0.10710E-19         0.00000E+00
    0.26445E-09         0.23283E-20         0.00000E+00
    0.26445E-09         0.10245E-19         0.00000E+00
    0.26445E-09         0.10245E-19         0.00000E+00
    0.26445E-09         0.24680E-19         0.00000E+00
    0.26445E-09         0.11642E-19         0.00000E+00
    0.26445E-09         0.19092E-19         0.00000E+00
    0.26445E-09         0.10245E-19         0.00000E+00
    0.26445E-09         0.20023E-19         0.00000E+00
    0.26445E-09         0.15367E-19         0.00000E+00
    0.26445E-09         0.19558E-19         0.00000E+00
    0.26445E-09         0.22817E-19         0.00000E+00
    0.26445E-09         0.12573E-19         0.00000E+00
    0.26445E-09        -0.32596E-20         0.00000E+00
    0.26445E-09         0.60536E-20         0.00000E+00
    0.26445E-09         0.15367E-19         0.00000E+00
    0.26445E-09         0.13970E-19         0.00000E+00
    0.26445E-09         0.17229E-19         0.00000E+00
    0.26445E-09        -0.41910E-20         0.00000E+00
    0.26445E-09        -0.93132E-21         0.00000E+00
    0.26445E-09         0.00000E+00         0.00000E+00
    0.26445E-09        -0.23283E-20         0.00000E+00
    0.26445E-09         0.74506E-20         0.00000E+00
    0.26445E-09         0.46566E-20         0.00000E+00
    0.26445E-09         0.10245E-19         0.00000E+00
    0.26445E-09         0.93132E-20         0.00000E+00
    0.26445E-09         0.93132E-20         0.00000E+00
    0.26445E-09        -0.12107E-19         0.00000E+00
    0.26445E-09        -0.13970E-19         0.00000E+00
    0.26445E-09         0.46566E-20         0.00000E+00
    0.26445E-09         0.65193E-20         0.00000E+00
    0.26445E-09         0.13504E-19         0.00000E+00
    0.26445E-09         0.14435E-19         0.00000E+00
    0.26445E-09         0.88476E-20         0.00000E+00
    0.26445E-09         0.14435E-19         0.00000E+00
    0.26445E-09         0.20955E-20         0.00000E+00
    0.26445E-09        -0.93132E-21         0.00000E+00
    0.26445E-09        -0.30268E-20         0.00000E+00
    0.26445E-09        -0.44238E-20         0.00000E+00
    0.26445E-09         0.93132E-21         0.00000E+00
    0.26445E-09        -0.69849E-21         0.00000E+00
    0.30590E-09        -0.44238E-20         0.00000E+00
    0.30590E-09         0.18626E-20         0.00000E+00
    0.30590E-09        -0.46566E-20         0.00000E+00
    0.30590E-09        -0.16298E-20         0.00000E+00
    0.30590E-09        -0.27940E-20         0.00000E+00
    0.30590E-09        -0.17695E-19         0.00000E+00
    0.30590E-09        -0.18626E-20         0.00000E+00
    0.30590E-09        -0.16298E-20         0.00000E+00
    0.30590E-09         0.11642E-20         0.00000E+00
    0.30590E-09        -0.16298E-20         0.00000E+00
    0.30590E-09         0.51223E-20         0.00000E+00
    0.30590E-09         0.72177E-20         0.00000E+00
    0.30590E-09         0.44238E-20         0.00000E+00
    0.30590E-09         0.69849E-20         0.00000E+00
    0.30590E-09         0.11642E-19         0.00000E+00
    0.30590E-09         0.10710E-19         0.00000E+00
    0.30590E-09         0.11874E-19         0.00000E+00
    0.30590E-09         0.18394E-19         0.00000E+00
    0.30590E-09         0.21886E-19         0.00000E+00
    0.30590E-09         0.21188E-19         0.00000E+00
    0.30590E-09         0.15832E-19         0.00000E+00
    0.30590E-09         0.19092E-19         0.00000E+00
    0.30590E-09         0.13970E-19         0.00000E+00
    0.30590E-09         0.15832E-19         0.00000E+00
    0.30590E-09         0.16764E-19         0.00000E+00
    0.30590E-09         0.37253E-20         0.00000E+00
    0.30590E-09         0.93132E-20         0.00000E+00
    0.30590E-09         0.46566E-21         0.00000E+00
    0.30590E-09        -0.16298E-20         0.00000E+00
    0.30590E-09         0.69849E-21         0.00000E+00
    0.30590E-09        -0.27940E-20         0.00000E+00
    0.30590E-09         0.15832E-19         0.00000E+00
    0.30590E-09         0.69849E-20         0.00000E+00
    0.30590E-09        -0.93132E-21         0.00000E+00
    0.30590E-09        -0.16764E-19         0.00000E+00
    0.30590E-09        -0.15367E-19         0.00000E+00
    0.30590E-09        -0.11642E-19         0.00000E+00
    0.30590E-09        -0.11176E-19         0.00000E+00
    0.30590E-09        -0.13970E-20         0.00000E+00
    0.30590E-09        -0.79162E-20         0.00000E+00
    0.30590E-09         0.37253E-20         0.00000E+00
    0.30590E-09         0.74506E-20         0.00000E+00
    0.30590E-09         0.72177E-20         0.00000E+00
    0.30590E-09         0.11409E-19         0.00000E+00
    0.30590E-09        -0.27940E-20         0.00000E+00
    0.30590E-09        -0.23283E-21         0.00000E+00
    0.30590E-09        -0.10012E-19         0.00000E+00
    0.30590E-09        -0.11176E-19         0.00000E+00
    0.30590E-09        -0.83819E-20         0.00000E+00
    0.30590E-09        -0.48894E-20         0.00000E+00
    0.35648E-09        -0.11642E-20         0.00000E+00
    0.35648E-09        -0.12107E-19         0.00000E+00
    0.35648E-09        -0.12107E-19         0.00000E+00
    0.35648E-09        -0.13970E-19         0.00000E+00
    0.35648E-09        -0.10012E-19         0.00000E+00
    0.35648E-09        -0.34925E-20         0.00000E+00
    0.35648E-09        -0.23283E-21         0.00000E+00
    0.35648E-09        -0.41910E-20         0.00000E+00
    0.35648E-09         0.12573E-19         0.00000E+00
    0.35648E-09         0.16298E-19         0.00000E+00
    0.35648E-09         0.11642E-19         0.00000E+00
    0.35648E-09         0.14901E-19         0.00000E+00
    0.35648E-09        -0.23283E-20         0.00000E+00
    0.35648E-09        -0.10710E-19         0.00000E+00
    0.35648E-09         0.41910E-20         0.00000E+00
    0.35648E-09         0.11642E-20         0.00000E+00
    0.35648E-09         0.17695E-19         0.00000E+00
    0.35648E-09         0.12107E-19         0.00000E+00
    0.35648E-09         0.69849E-20         0.00000E+00
    0.35648E-09         0.55879E-20         0.00000E+00
    0.35648E-09         0.23283E-20         0.00000E+00
    0.35648E-09         0.69849E-20         0.00000E+00
    0.35648E-09         0.14901E-19         0.00000E+00
    0.35648E-09         0.19092E-19         0.00000E+00
    0.35648E-09         0.16764E-19         0.00000E+00
    0.35648E-09         0.65193E-20         0.00000E+00
    0.35648E-09         0.00000E+00         0.00000E+00
    0.35648E-09         0.18626E-20         0.00000E+00
    0.35648E-09         0.30268E-20         0.00000E+00
    0.35648E-09         0.18626E-20         0.00000E+00
    0.35648E-09        -0.60536E-20         0.00000E+00
    0.35648E-09         0.00000E+00         0.00000E+00
    0.35648E-09        -0.12806E-19         0.00000E+00
    0.35648E-09        -0.41910E-20         0.00000E+00
    0.35648E-09         0.34925E-20         0.00000E+00
    0.35648E-09        -0.12806E-19         0.00000E+00
    0.35648E-09        -0.10710E-19         0.00000E+00
    0.35648E-09        -0.23283E-20         0.00000E+00
    0.35648E-09        -0.17229E-19         0.00000E+00
    0.35648E-09        -0.13039E-19         0.00000E+00
    0.35648E-09         0.13970E-20         0.00000E+00
    0.35648E-09         0.11642E-19         0.00000E+00
    0.35648E-09         0.41910E-20         0.00000E+00
    0.35648E-09        -0.11176E-19         0.00000E+00
    0.35648E-09         0.00000E+00         0.00000E+00
    0.35648E-09         0.41910E-20         0.00000E+00
    0.35648E-09        -0.14901E-19         0.00000E+00
    0.35648E-09        -0.69849E-20         0.00000E+00
    0.35648E-09        -0.13970E-20         0.00000E+00
    0.35648E-09        -0.18626E-20         0.00000E+00
    0.41768E-09        -0.51223E-20         0.00000E+00
    0.41768E-09         0.13970E-20         0.00000E+00
    0.41768E-09        -0.14901E-19         0.00000E+00
    0.41768E-09        -0.10710E-19         0.00000E+00
    0.41768E-09        -0.60536E-20         0.00000E+00
    0.41768E-09        -0.11642E-19         0.00000E+00
    0.41768E-09         0.13970E-20         0.00000E+00
    0.41768E-09        -0.13970E-20         0.00000E+00
    0.41768E-09        -0.13504E-19         0.00000E+00
    0.41768E-09        -0.88476E-20         0.00000E+00
    0.41768E-09         0.32596E-20         0.00000E+00
    0.41768E-09        -0.46566E-21         0.00000E+00
    0.41768E-09         0.18626E-20         0.00000E+00
    0.41768E-09         0.81491E-20         0.00000E+00
    0.41768E-09         0.27940E-20         0.00000E+00
    0.41768E-09         0.11409E-19         0.00000E+00
    0.41768E-09         0.55879E-20         0.00000E+00
    0.41768E-09        -0.46566E-21         0.00000E+00
    0.41768E-09         0.10245E-19         0.00000E+00
    0.41768E-09         0.60536E-20         0.00000E+00
    0.41768E-09        -0.37253E-20         0.00000E+00
    0.41768E-09         0.27940E-20         0.00000E+00
    0.41768E-09         0.18626E-20         0.00000E+00
    0.41768E-09         0.65193E-20         0.00000E+00
    0.41768E-09         0.15600E-19         0.00000E+00
    0.41768E-09         0.17229E-19         0.00000E+00
    0.41768E-09         0.46566E-20         0.00000E+00
    0.41768E-09        -0.65193E-20         0.00000E+00
    0.41768E-09         0.27940E-20         0.00000E+00
    0.41768E-09        -0.60536E-20         0.00000E+00
    0.41768E-09        -0.97789E-20         0.00000E+00
    0.41768E-09        -0.65193E-20         0.00000E+00
    0.41768E-09        -0.14901E-19         0.00000E+00
    0.41768E-09        -0.95461E-20         0.00000E+00
    0.41768E-09         0.27940E-20         0.00000E+00
    0.41768E-09         0.46566E-20         0.00000E+00
    0.41768E-09         0.67521E-20         0.00000E+00
    0.41768E-09         0.37253E-20         0.00000E+00
    0.41768E-09        -0.23283E-21         0.00000E+00
    0.41768E-09        -0.34925E-20         0.00000E+00
    0.41768E-09         0.13970E-20         0.00000E+00
    0.41768E-09        -0.27940E-20         0.00000E+00
    0.41768E-09        -0.51223E-20         0.00000E+00
    0.41768E-09        -0.21188E-19         0.00000E+00
    0.41768E-09        -0.88476E-20         0.00000E+00
    0.41768E-09        -0.51223E-20         0.00000E+00
    0.41768E-09        -0.14203E-19         0.00000E+00
    0.41768E-09        -0.86147E-20         0.00000E+00
    0.41768E-09         0.00000E+00         0.00000E+00
    0.41768E-09        -0.39581E-20         0.00000E+00
    0.49135E-09        -0.46566E-21         0.00000E+00
    0.49135E-09         0.83819E-20         0.00000E+00
    0.49135E-09        -0.30268E-20         0.00000E+00
    0.49135E-09         0.23283E-20         0.00000E+00
    0.49135E-09        -0.97789E-20         0.00000E+00
    0.49135E-09        -0.21420E-19         0.00000E+00
    0.49135E-09        -0.13970E-19         0.00000E+00
    0.49135E-09        -0.13504E-19         0.00000E+00
    0.49135E-09        -0.62864E-20         0.00000E+00
    0.49135E-09        -0.10943E-19         0.00000E+00
    0.49135E-09        -0.11176E-19         0.00000E+00
    0.49135E-09        -0.74506E-20         0.00000E+00
    0.49135E-09         0.23283E-20         0.00000E+00
    0.49135E-09         0.00000E+00         0.00000E+00
    0.49135E-09        -0.37253E-20         0.00000E+00
    0.49135E-09         0.51223E-20         0.00000E+00
    0.49135E-09        -0.69849E-21         0.00000E+00
    0.49135E-09        -0.15367E-19         0.00000E+00
    0.49135E-09         0.41910E-20         0.00000E+00
    0.49135E-09         0.11176E-19         0.00000E+00
    0.49135E-09         0.14901E-19         0.00000E+00
    0.49135E-09         0.41910E-20         0.00000E+00
    0.49135E-09        -0.46566E-20         0.00000E+00
    0.49135E-09         0.83819E-20         0.00000E+00
    0.49135E-09         0.44238E-20         0.00000E+00
    0.49135E-09         0.21653E-19         0.00000E+00
    0.49135E-09         0.37253E-20         0.00000E+00
    0.49135E-09         0.10477E-19         0.00000E+00
    0.49135E-09         0.83819E-20         0.00000E+00
    0.49135E-09         0.88476E-20         0.00000E+00
    0.49135E-09         0.37253E-20         0.00000E+00
    0.49135E-09        -0.10245E-19         0.00000E+00
    0.49135E-09        -0.79162E-20         0.00000E+00
    0.49135E-09        -0.46566E-21         0.00000E+00
    0.49135E-09         0.46566E-21         0.00000E+00
    0.49135E-09         0.37253E-20         0.00000E+00
    0.49135E-09        -0.16298E-20         0.00000E+00
    0.49135E-09        -0.58208E-20         0.00000E+00
    0.49135E-09         0.46566E-20         0.00000E+00
    0.49135E-09        -0.11642E-20         0.00000E+00
    0.49135E-09        -0.20955E-20         0.00000E+00
    0.49135E-09        -0.13970E-19         0.00000E+00
    0.49135E-09        -0.83819E-20         0.00000E+00
    0.49135E-09        -0.25611E-19         0.00000E+00
    0.49135E-09        -0.24680E-19         0.00000E+00
    0.49135E-09        -0.17229E-19         0.00000E+00
    0.49135E-09        -0.10710E-19         0.00000E+00
    0.49135E-09        -0.48894E-20         0.00000E+00
    0.49135E-09        -0.46566E-21         0.00000E+00
    0.49135E-09        -0.27940E-20         0.00000E+00
    0.57966E-09        -0.65193E-20         0.00000E+00
    0.57966E-09        -0.13039E-19         0.00000E+00
    0.57966E-09        -0.20955E-20         0.00000E+00
    0.57966E-09        -0.37253E-20         0.00000E+00
    0.57966E-09        -0.79162E-20         0.00000E+00
    0.57966E-09        -0.93132E-21         0.00000E+00
    0.57966E-09        -0.10710E-19         0.00000E+00
    0.57966E-09        -0.13504E-19         0.00000E+00
    0.57966E-09         0.23283E-20         0.00000E+00
    0.57966E-09         0.93132E-20         0.00000E+00
    0.57966E-09        -0.60536E-20         0.00000E+00
    0.57966E-09         0.20955E-20         0.00000E+00
    0.57966E-09        -0.55879E-20         0.00000E+00
    0.57966E-09        -0.11409E-19         0.00000E+00
    0.57966E-09         0.46566E-21         0.00000E+00
    0.57966E-09        -0.15600E-19         0.00000E+00
    0.57966E-09        -0.97789E-20         0.00000E+00
    0.57966E-09        -0.16764E-19         0.00000E+00
    0.57966E-09        -0.79162E-20         0.00000E+00
    0.57966E-09        -0.51223E-20         0.00000E+00
    0.57966E-09         0.16764E-19         0.00000E+00
    0.57966E-09         0.25611E-20         0.00000E+00
    0.57966E-09         0.51223E-20         0.00000E+00
    0.57966E-09         0.74506E-20         0.00000E+00
    0.57966E-09         0.14203E-19         0.00000E+00
    0.57966E-09         0.10477E-19         0.00000E+00
    0.57966E-09         0.74506E-20         0.00000E+00
    0.57966E-09         0.12573E-19         0.00000E+00
    0.57966E-09         0.14901E-19         0.00000E+00
    0.57966E-09         0.16298E-19         0.00000E+00
    0.57966E-09         0.83819E-20         0.00000E+00
    0.57966E-09         0.65193E-20         0.00000E+00
    0.57966E-09        -0.95461E-20         0.00000E+00
    0.57966E-09        -0.39581E-20         0.00000E+00
    0.57966E-09         0.41910E-20         0.00000E+00
    0.57966E-09         0.18626E-20         0.00000E+00
    0.57966E-09        -0.10710E-19         0.00000E+00
    0.57966E-09        -0.18626E-19         0.00000E+00
    0.57966E-09        -0.79162E-20         0.00000E+00
    0.57966E-09        -0.60536E-20         0.00000E+00
    0.57966E-09        -0.23283E-20         0.00000E+00
    0.57966E-09        -0.13737E-19         0.00000E+00
    0.57966E-09        -0.21188E-19         0.00000E+00
    0.57966E-09        -0.22352E-19         0.00000E+00
    0.57966E-09        -0.14435E-19         0.00000E+00
    0.57966E-09        -0.20489E-19         0.00000E+00
    0.57966E-09        -0.13970E-19         0.00000E+00
    0.57966E-09        -0.41910E-20         0.00000E+00
    0.57966E-09        -0.41910E-20         0.00000E+00
    0.57966E-09         0.93132E-21         0.00000E+00
    0.68527E-09        -0.37253E-20         0.00000E+00
    0.68527E-09         0.18626E-20         0.00000E+00
    0.68527E-09         0.18626E-20         0.00000E+00
    0.68527E-09        -0.79162E-20         0.00000E+00
    0.68527E-09        -0.83819E-20         0.00000E+00
    0.68527E-09         0.20955E-20         0.00000E+00
    0.68527E-09         0.10012E-19         0.00000E+00
    0.68527E-09         0.46566E-20         0.00000E+00
    0.68527E-09         0.41910E-20         0.00000E+00
    0.68527E-09         0.69849E-20         0.00000E+00
    0.68527E-09        -0.23283E-20         0.00000E+00
    0.68527E-09         0.97789E-20         0.00000E+00
    0.68527E-09         0.65193E-20         0.00000E+00
    0.68527E-09         0.69849E-20         0.00000E+00
    0.68527E-09        -0.46566E-20         0.00000E+00
    0.68527E-09        -0.13970E-19         0.00000E+00
    0.68527E-09        -0.83819E-20         0.00000E+00
    0.68527E-09        -0.37253E-20         0.00000E+00
    0.68527E-09         0.58208E-20         0.00000E+00
    0.68527E-09        -0.27940E-20         0.00000E+00
    0.68527E-09         0.46566E-21         0.00000E+00
    0.68527E-09        -0.27940E-20         0.00000E+00
    0.68527E-09         0.46566E-21         0.00000E+00
    0.68527E-09         0.46566E-20         0.00000E+00
    0.68527E-09         0.51223E-20         0.00000E+00
    0.68527E-09        -0.46566E-20         0.00000E+00
    0.68527E-09        -0.46566E-20         0.00000E+00
    0.68527E-09        -0.11642E-19         0.00000E+00
    0.68527E-09        -0.46566E-20         0.00000E+00
    0.68527E-09         0.27940E-20         0.00000E+00
    0.68527E-09         0.10710E-19         0.00000E+00
    0.68527E-09         0.15832E-19         0.00000E+00
    0.68527E-09         0.13970E-19         0.00000E+00
    0.68527E-09        -0.12573E-19         0.00000E+00
    0.68527E-09        -0.74506E-20         0.00000E+00
    0.68527E-09        -0.76834E-20         0.00000E+00
    0.68527E-09        -0.23283E-21         0.00000E+00
    0.68527E-09        -0.74506E-20         0.00000E+00
    0.68527E-09        -0.16298E-19         0.00000E+00
    0.68527E-09        -0.14901E-19         0.00000E+00
    0.68527E-09        -0.51223E-20         0.00000E+00
    0.68527E-09        -0.69849E-20         0.00000E+00
    0.68527E-09        -0.12573E-19         0.00000E+00
    0.68527E-09        -0.21886E-19         0.00000E+00
    0.68527E-09        -0.88476E-20         0.00000E+00
    0.68527E-09        -0.11642E-19         0.00000E+00
    0.68527E-09        -0.11176E-19         0.00000E+00
    0.68527E-09        -0.16997E-19         0.00000E+00
    0.68527E-09        -0.11176E-19         0.00000E+00
    0.68527E-09         0.46566E-21         0.00000E+00
    0.81131E-09         0.51223E-20         0.00000E+00
    0.81131E-09         0.12107E-19         0.00000E+00
    0.81131E-09         0.23283E-20         0.00000E+00
    0.81131E-09        -0.58208E-20         0.00000E+00
    0.81131E-09        -0.46566E-20         0.00000E+00
    0.81131E-09         0.65193E-20         0.00000E+00
    0.81131E-09         0.11176E-19         0.00000E+00
    0.81131E-09         0.16298E-19         0.00000E+00
    0.81131E-09         0.11176E-19         0.00000E+00
    0.81131E-09         0.20955E-19         0.00000E+00
    0.81131E-09        -0.41910E-20         0.00000E+00
    0.81131E-09        -0.12107E-19         0.00000E+00
    0.81131E-09         0.55879E-20         0.00000E+00
    0.81131E-09         0.25611E-20         0.00000E+00
    0.81131E-09         0.46566E-20         0.00000E+00
    0.81131E-09        -0.13970E-20         0.00000E+00
    0.81131E-09         0.46566E-21         0.00000E+00
    0.81131E-09        -0.23283E-20         0.00000E+00
    0.81131E-09         0.65193E-20         0.00000E+00
    0.81131E-09        -0.46566E-21         0.00000E+00
    0.81131E-09         0.65193E-20         0.00000E+00
    0.81131E-09        -0.39581E-20         0.00000E+00
    0.81131E-09         0.69849E-21         0.00000E+00
    0.81131E-09         0.00000E+00         0.00000E+00
    0.81131E-09        -0.12107E-19         0.00000E+00
    0.81131E-09        -0.81491E-20         0.00000E+00
    0.81131E-09        -0.20023E-19         0.00000E+00
    0.81131E-09        -0.20489E-19         0.00000E+00
    0.81131E-09        -0.17695E-19         0.00000E+00
    0.81131E-09        -0.37253E-20         0.00000E+00
    0.81131E-09         0.74506E-20         0.00000E+00
    0.81131E-09         0.11176E-19         0.00000E+00
    0.81131E-09         0.23283E-19         0.00000E+00
    0.81131E-09         0.53551E-20         0.00000E+00
    0.81131E-09         0.67521E-20         0.00000E+00
    0.81131E-09        -0.74506E-20         0.00000E+00
    0.81131E-09         0.00000E+00         0.00000E+00
    0.81131E-09        -0.23283E-20         0.00000E+00
    0.81131E-09        -0.11642E-19         0.00000E+00
    0.81131E-09        -0.19092E-19         0.00000E+00
    0.81131E-09        -0.18161E-19         0.00000E+00
    0.81131E-09        -0.69849E-20         0.00000E+00
    0.81131E-09        -0.12573E-19         0.00000E+00
    0.81131E-09        -0.11642E-19         0.00000E+00
    0.81131E-09        -0.23283E-20         0.00000E+00
    0.81131E-09        -0.27940E-20         0.00000E+00
    0.81131E-09        -0.11642E-20         0.00000E+00
    0.81131E-09        -0.48894E-20         0.00000E+00
    0.81131E-09        -0.46566E-21         0.00000E+00
    0.81131E-09         0.46566E-21         0.00000E+00
    0.96155E-09         0.93132E-21         0.00000E+00
    0.96155E-09         0.55879E-20         0.00000E+00
    0.96155E-09         0.93132E-20         0.00000E+00
    0.96155E-09        -0.37253E-20         0.00000E+00
    0.96155E-09        -0.46566E-21         0.00000E+00
    0.96155E-09         0.65193E-20         0.00000E+00
    0.96155E-09        -0.23283E-20         0.00000E+00
    0.96155E-09        -0.51223E-20         0.00000E+00
    0.96155E-09         0.34925E-20         0.00000E+00
    0.96155E-09         0.62864E-20         0.00000E+00
    0.96155E-09        -0.23283E-20         0.00000E+00
    0.96155E-09        -0.23283E-21         0.00000E+00
    0.96155E-09         0.51223E-20         0.00000E+00
    0.96155E-09         0.46566E-21         0.00000E+00
    0.96155E-09         0.41910E-20         0.00000E+00
    0.96155E-09        -0.23283E-21         0.00000E+00
    0.96155E-09        -0.46566E-21         0.00000E+00
    0.96155E-09        -0.46566E-21         0.00000E+00
    0.96155E-09         0.18626E-20         0.00000E+00
    0.96155E-09         0.46566E-21         0.00000E+00
    0.96155E-09         0.46566E-21         0.00000E+00
    0.96155E-09         0.83819E-20         0.00000E+00
    0.96155E-09         0.51223E-20         0.00000E+00
    0.96155E-09         0.46566E-21         0.00000E+00
    0.96155E-09        -0.55879E-20         0.00000E+00
    0.96155E-09        -0.10012E-19         0.00000E+00
    0.96155E-09        -0.14435E-19         0.00000E+00
    0.96155E-09        -0.83819E-20         0.00000E+00
    0.96155E-09        -0.32596E-20         0.00000E+00
    0.96155E-09         0.23283E-20         0.00000E+00
    0.96155E-09         0.69849E-20         0.00000E+00
    0.96155E-09         0.58208E-20         0.00000E+00
    0.96155E-09         0.10012E-19         0.00000E+00
    0.96155E-09         0.67521E-20         0.00000E+00
    0.96155E-09         0.46566E-20         0.00000E+00
    0.96155E-09        -0.23283E-20         0.00000E+00
    0.96155E-09         0.18626E-20         0.00000E+00
    0.96155E-09        -0.88476E-20         0.00000E+00
    0.96155E-09         0.46566E-21         0.00000E+00
    0.96155E-09        -0.11642E-19         0.00000E+00
    0.96155E-09        -0.14901E-19         0.00000E+00
    0.96155E-09        -0.93132E-21         0.00000E+00
    0.96155E-09        -0.53551E-20         0.00000E+00
    0.96155E-09        -0.55879E-20         0.00000E+00
    0.96155E-09        -0.13970E-20         0.00000E+00
    0.96155E-09         0.72177E-20         0.00000E+00
    0.96155E-09         0.00000E+00         0.00000E+00
    0.96155E-09        -0.60536E-20         0.00000E+00
    0.96155E-09         0.51223E-20         0.00000E+00
    0.96155E-09        -0.93132E-21         0.00000E+00
    0.11405E-08         0.13970E-20         0.00000E+00
    0.11405E-08        -0.23283E-20         0.00000E+00
    0.11405E-08         0.13970E-19         0.00000E+00
    0.11405E-08         0.88476E-20         0.00000E+00
    0.11405E-08         0.55879E-20         0.00000E+00
    0.11405E-08        -0.32596E-20         0.00000E+00
    0.11405E-08        -0.30268E-20         0.00000E+00
    0.11405E-08        -0.13271E-19         0.00000E+00
    0.11405E-08        -0.65193E-20         0.00000E+00
    0.11405E-08        -0.20955E-20         0.00000E+00
    0.11405E-08        -0.25611E-20         0.00000E+00
    0.11405E-08         0.27940E-20         0.00000E+00
    0.11405E-08         0.79162E-20         0.00000E+00
    0.11405E-08         0.13039E-19         0.00000E+00
    0.11405E-08        -0.13970E-20         0.00000E+00
    0.11405E-08        -0.23283E-20         0.00000E+00
    0.11405E-08         0.48894E-20         0.00000E+00
    0.11405E-08         0.11409E-19         0.00000E+00
    0.11405E-08         0.13970E-20         0.00000E+00
    0.11405E-08         0.18626E-20         0.00000E+00
    0.11405E-08         0.37253E-20         0.00000E+00
    0.11405E-08         0.60536E-20         0.00000E+00
    0.11405E-08         0.60536E-20         0.00000E+00
    0.11405E-08        -0.23283E-21         0.00000E+00
    0.11405E-08        -0.48894E-20         0.00000E+00
    0.11405E-08        -0.14901E-19         0.00000E+00
    0.11405E-08         0.00000E+00         0.00000E+00
    0.11405E-08         0.41910E-20         0.00000E+00
    0.11405E-08         0.18626E-20         0.00000E+00
    0.11405E-08        -0.27940E-20         0.00000E+00
    0.11405E-08         0.74506E-20         0.00000E+00
    0.11405E-08         0.74506E-20         0.00000E+00
    0.11405E-08         0.60536E-20         0.00000E+00
    0.11405E-08         0.39581E-20         0.00000E+00
    0.11405E-08        -0.32596E-20         0.00000E+00
    0.11405E-08         0.00000E+00         0.00000E+00
    0.11405E-08         0.00000E+00         0.00000E+00
    0.11405E-08        -0.46566E-20         0.00000E+00
    0.11405E-08        -0.46566E-21         0.00000E+00
    0.11405E-08         0.46566E-21         0.00000E+00
    0.11405E-08         0.93132E-20         0.00000E+00
    0.11405E-08         0.55879E-20         0.00000E+00
    0.11405E-08         0.46566E-21         0.00000E+00
    0.11405E-08        -0.20955E-20         0.00000E+00
    0.11405E-08        -0.93132E-21         0.00000E+00
    0.11405E-08         0.90804E-20         0.00000E+00
    0.11405E-08         0.58208E-20         0.00000E+00
    0.11405E-08         0.69849E-20         0.00000E+00
    0.11405E-08         0.97789E-20         0.00000E+00
    0.11405E-08         0.18626E-20         0.00000E+00
    0.13534E-08         0.37253E-20         0.00000E+00
    0.13534E-08         0.55879E-20         0.00000E+00
    0.13534E-08         0.17229E-19         0.00000E+00
    0.13534E-08         0.93132E-20         0.00000E+00
    0.13534E-08         0.00000E+00         0.00000E+00
    0.13534E-08         0.23283E-20         0.00000E+00
    0.13534E-08         0.27940E-20         0.00000E+00
    0.13534E-08         0.16298E-20         0.00000E+00
    0.13534E-08         0.41910E-20         0.00000E+00
    0.13534E-08         0.62864E-20         0.00000E+00
    0.13534E-08        -0.23283E-20         0.00000E+00
    0.13534E-08        -0.32596E-20         0.00000E+00
    0.13534E-08         0.41910E-20         0.00000E+00
    0.13534E-08         0.46566E-20         0.00000E+00
    0.13534E-08         0.97789E-20         0.00000E+00
    0.13534E-08         0.13970E-19         0.00000E+00
    0.13534E-08         0.27940E-20         0.00000E+00
    0.13534E-08         0.16298E-19         0.00000E+00
    0.13534E-08        -0.46566E-21         0.00000E+00
    0.13534E-08         0.60536E-20         0.00000E+00
    0.13534E-08         0.46566E-20         0.00000E+00
    0.13534E-08        -0.55879E-20         0.00000E+00
    0.13534E-08        -0.16764E-19         0.00000E+00
    0.13534E-08         0.37253E-20         0.00000E+00
    0.13534E-08        -0.48894E-20         0.00000E+00
    0.13534E-08         0.69849E-21         0.00000E+00
    0.13534E-08         0.11642E-19         0.00000E+00
    0.13534E-08         0.10710E-19         0.00000E+00
    0.13534E-08         0.00000E+00         0.00000E+00
    0.13534E-08         0.60536E-20         0.00000E+00
    0.13534E-08         0.51223E-20         0.00000E+00
    0.13534E-08         0.19092E-19         0.00000E+00
    0.13534E-08         0.37253E-20         0.00000E+00
    0.13534E-08         0.37253E-20         0.00000E+00
    0.13534E-08         0.93132E-20         0.00000E+00
    0.13534E-08         0.11176E-19         0.00000E+00
    0.13534E-08         0.10245E-19         0.00000E+00
    0.13534E-08         0.15367E-19         0.00000E+00
    0.13534E-08         0.97789E-20         0.00000E+00
    0.13534E-08        -0.46566E-21         0.00000E+00
    0.13534E-08         0.60536E-20         0.00000E+00
    0.13534E-08         0.53551E-20         0.00000E+00
    0.13534E-08         0.55879E-20         0.00000E+00
    0.13534E-08         0.18626E-20         0.00000E+00
    0.13534E-08         0.93132E-20         0.00000E+00
    0.13534E-08         0.93132E-20         0.00000E+00
    0.13534E-08         0.55879E-20         0.00000E+00
    0.13534E-08         0.24214E-19         0.00000E+00
    0.13534E-08         0.19558E-19         0.00000E+00
    0.13534E-08         0.23283E-20         0.00000E+00
    0.16067E-08         0.00000E+00         0.00000E+00
    0.16067E-08         0.11642E-19         0.00000E+00
    0.16067E-08         0.97789E-20         0.00000E+00
    0.16067E-08        -0.41910E-20         0.00000E+00
    0.16067E-08         0.00000E+00         0.00000E+00
    0.16067E-08         0.23283E-21         0.00000E+00
    0.16067E-08         0.25611E-20         0.00000E+00
    0.16067E-08        -0.34925E-20         0.00000E+00
    0.16067E-08         0.13970E-20         0.00000E+00
    0.16067E-08         0.13970E-20         0.00000E+00
    0.16067E-08         0.41910E-20         0.00000E+00
    0.16067E-08         0.46566E-21         0.00000E+00
    0.16067E-08         0.18626E-20         0.00000E+00
    0.16067E-08        -0.37253E-20         0.00000E+00
    0.16067E-08         0.18626E-20         0.00000E+00
    0.16067E-08         0.10710E-19         0.00000E+00
    0.16067E-08        -0.13039E-19         0.00000E+00
    0.16067E-08        -0.13970E-20         0.00000E+00
    0.16067E-08        -0.65193E-20         0.00000E+00
    0.16067E-08         0.37616E-36         0.00000E+00
    0.16067E-08        -0.12107E-19         0.00000E+00
    0.16067E-08        -0.12107E-19         0.00000E+00
    0.16067E-08        -0.16764E-19         0.00000E+00
    0.16067E-08         0.46566E-20         0.00000E+00
    0.16067E-08         0.13039E-19         0.00000E+00
    0.16067E-08         0.21653E-19         0.00000E+00
    0.16067E-08         0.12107E-19         0.00000E+00
    0.16067E-08         0.18626E-20         0.00000E+00
    0.16067E-08         0.74506E-20         0.00000E+00
    0.16067E-08         0.10710E-19         0.00000E+00
    0.16067E-08         0.15367E-19         0.00000E+00
    0.16067E-08         0.18626E-19         0.00000E+00
    0.16067E-08         0.19092E-19         0.00000E+00
    0.16067E-08         0.16298E-19         0.00000E+00
    0.16067E-08         0.23283E-19         0.00000E+00
    0.16067E-08         0.21420E-19         0.00000E+00
    0.16067E-08         0.20489E-19         0.00000E+00
    0.16067E-08         0.27940E-19         0.00000E+00
    0.16067E-08         0.20023E-19         0.00000E+00
    0.16067E-08         0.88476E-20         0.00000E+00
    0.16067E-08         0.55879E-20         0.00000E+00
    0.16067E-08         0.10710E-19         0.00000E+00
    0.16067E-08         0.11176E-19         0.00000E+00
    0.16067E-08         0.39581E-20         0.00000E+00
    0.16067E-08         0.16764E-19         0.00000E+00
    0.16067E-08         0.15832E-19         0.00000E+00
    0.16067E-08         0.93132E-20         0.00000E+00
    0.16067E-08         0.83819E-20         0.00000E+00
    0.16067E-08         0.69849E-20         0.00000E+00
    0.16067E-08        -0.18626E-20         0.00000E+00
    0.19079E-08        -0.18626E-20         0.00000E+00
    0.19079E-08        -0.32596E-20         0.00000E+00
    0.19079E-08        -0.18626E-20         0.00000E+00
    0.19079E-08        -0.83819E-20         0.00000E+00
    0.19079E-08         0.65193E-20         0.00000E+00
    0.19079E-08         0.51223E-20         0.00000E+00
    0.19079E-08         0.25611E-20         0.00000E+00
    0.19079E-08        -0.20955E-20         0.00000E+00
    0.19079E-08        -0.41910E-20         0.00000E+00
    0.19079E-08        -0.55879E-20         0.00000E+00
    0.19079E-08        -0.23283E-20         0.00000E+00
    0.19079E-08         0.13970E-20         0.00000E+00
    0.19079E-08        -0.37253E-20         0.00000E+00
    0.19079E-08         0.18626E-20         0.00000E+00
    0.19079E-08        -0.23283E-20         0.00000E+00
    0.19079E-08        -0.74506E-20         0.00000E+00
    0.19079E-08        -0.46566E-20         0.00000E+00
    0.19079E-08        -0.12806E-19         0.00000E+00
    0.19079E-08        -0.13970E-20         0.00000E+00
    0.19079E-08         0.93132E-20         0.00000E+00
    0.19079E-08        -0.18626E-20         0.00000E+00
    0.19079E-08        -0.62864E-20         0.00000E+00
    0.19079E-08        -0.79162E-20         0.00000E+00
    0.19079E-08        -0.46566E-21         0.00000E+00
    0.19079E-08         0.20023E-19         0.00000E+00
    0.19079E-08         0.13039E-19         0.00000E+00
    0.19079E-08         0.97789E-20         0.00000E+00
    0.19079E-08         0.93132E-21         0.00000E+00
    0.19079E-08         0.12573E-19         0.00000E+00
    0.19079E-08         0.32596E-20         0.00000E+00
    0.19079E-08         0.15832E-19         0.00000E+00
    0.19079E-08         0.18161E-19         0.00000E+00
    0.19079E-08         0.23283E-19         0.00000E+00
    0.19079E-08         0.28871E-19         0.00000E+00
    0.19079E-08         0.29802E-19         0.00000E+00
    0.19079E-08         0.20955E-19         0.00000E+00
    0.19079E-08         0.20489E-19         0.00000E+00
    0.19079E-08         0.32596E-19         0.00000E+00
    0.19079E-08         0.28405E-19         0.00000E+00
    0.19079E-08         0.21420E-19         0.00000E+00
    0.19079E-08         0.13271E-19         0.00000E+00
    0.19079E-08         0.83819E-20         0.00000E+00
    0.19079E-08         0.13504E-19         0.00000E+00
    0.19079E-08        -0.25611E-20         0.00000E+00
    0.19079E-08         0.97789E-20         0.00000E+00
    0.19079E-08         0.11642E-19         0.00000E+00
    0.19079E-08         0.93132E-21         0.00000E+00
    0.19079E-08         0.76834E-20         0.00000E+00
    0.19079E-08         0.65193E-20         0.00000E+00
    0.19079E-08        -0.18626E-20         0.00000E+00
    0.22660E-08        -0.25611E-20         0.00000E+00
    0.22660E-08         0.11642E-20         0.00000E+00
    0.22660E-08        -0.20955E-20         0.00000E+00
    0.22660E-08         0.30268E-20         0.00000E+00
    0.22660E-08         0.18626E-19         0.00000E+00
    0.22660E-08         0.10245E-19         0.00000E+00
    0.22660E-08         0.00000E+00         0.00000E+00
    0.22660E-08         0.12107E-19         0.00000E+00
    0.22660E-08         0.93132E-21         0.00000E+00
    0.22660E-08        -0.60536E-20         0.00000E+00
    0.22660E-08        -0.72177E-20         0.00000E+00
    0.22660E-08        -0.97789E-20         0.00000E+00
    0.22660E-08        -0.74506E-20         0.00000E+00
    0.22660E-08        -0.46566E-21         0.00000E+00
    0.22660E-08         0.23283E-20         0.00000E+00
    0.22660E-08         0.76834E-20         0.00000E+00
    0.22660E-08         0.46566E-20         0.00000E+00
    0.22660E-08        -0.55879E-20         0.00000E+00
    0.22660E-08         0.37253E-20         0.00000E+00
    0.22660E-08         0.17462E-19         0.00000E+00
    0.22660E-08         0.30268E-20         0.00000E+00
    0.22660E-08        -0.34925E-20         0.00000E+00
    0.22660E-08        -0.69849E-20         0.00000E+00
    0.22660E-08        -0.27940E-20         0.00000E+00
    0.22660E-08         0.48894E-20         0.00000E+00
    0.22660E-08         0.41910E-20         0.00000E+00
    0.22660E-08         0.51223E-20         0.00000E+00
    0.22660E-08        -0.27940E-20         0.00000E+00
    0.22660E-08        -0.37253E-20         0.00000E+00
    0.22660E-08        -0.23283E-20         0.00000E+00
    0.22660E-08         0.12340E-19         0.00000E+00
    0.22660E-08         0.12107E-19         0.00000E+00
    0.22660E-08         0.21886E-19         0.00000E+00
    0.22660E-08         0.29802E-19         0.00000E+00
    0.22660E-08         0.28173E-19         0.00000E+00
    0.22660E-08         0.42375E-19         0.00000E+00
    0.22660E-08         0.33993E-19         0.00000E+00
    0.22660E-08         0.23749E-19         0.00000E+00
    0.22660E-08         0.27474E-19         0.00000E+00
    0.22660E-08         0.16531E-19         0.00000E+00
    0.22660E-08         0.93132E-20         0.00000E+00
    0.22660E-08         0.46566E-20         0.00000E+00
    0.22660E-08         0.88476E-20         0.00000E+00
    0.22660E-08         0.17695E-19         0.00000E+00
    0.22660E-08         0.93132E-20         0.00000E+00
    0.22660E-08         0.51223E-20         0.00000E+00
    0.22660E-08        -0.32596E-20         0.00000E+00
    0.22660E-08         0.55879E-20         0.00000E+00
    0.22660E-08        -0.37253E-20         0.00000E+00
    0.22660E-08        -0.30268E-20         0.00000E+00
    0.26917E-08         0.72177E-20         0.00000E+00
    0.26917E-08         0.00000E+00         0.00000E+00
    0.26917E-08         0.74506E-20         0.00000E+00
    0.26917E-08         0.93132E-20         0.00000E+00
    0.26917E-08         0.13970E-19         0.00000E+00
    0.26917E-08         0.79162E-20         0.00000E+00
    0.26917E-08         0.46566E-21         0.00000E+00
    0.26917E-08         0.74506E-20         0.00000E+00
    0.26917E-08        -0.79162E-20         0.00000E+00
    0.26917E-08        -0.18808E-36         0.00000E+00
    0.26917E-08         0.12107E-19         0.00000E+00
    0.26917E-08        -0.11642E-20         0.00000E+00
    0.26917E-08         0.37253E-20         0.00000E+00
    0.26917E-08        -0.74506E-20         0.00000E+00
    0.26917E-08        -0.51223E-20         0.00000E+00
    0.26917E-08         0.83819E-20         0.00000E+00
    0.26917E-08         0.83819E-20         0.00000E+00
    0.26917E-08         0.51223E-20         0.00000E+00
    0.26917E-08         0.74506E-20         0.00000E+00
    0.26917E-08        -0.51223E-20         0.00000E+00
    0.26917E-08         0.51223E-20         0.00000E+00
    0.26917E-08        -0.69849E-20         0.00000E+00
    0.26917E-08        -0.10710E-19         0.00000E+00
    0.26917E-08        -0.19325E-19         0.00000E+00
    0.26917E-08        -0.41910E-20         0.00000E+00
    0.26917E-08         0.58208E-20         0.00000E+00
    0.26917E-08         0.93132E-21         0.00000E+00
    0.26917E-08        -0.74506E-20         0.00000E+00
    0.26917E-08        -0.11642E-19         0.00000E+00
    0.26917E-08        -0.55879E-20         0.00000E+00
    0.26917E-08         0.20722E-19         0.00000E+00
    0.26917E-08         0.13970E-19         0.00000E+00
    0.26917E-08         0.42841E-19         0.00000E+00
    0.26917E-08         0.44238E-19         0.00000E+00
    0.26917E-08         0.27474E-19         0.00000E+00
    0.26917E-08         0.32596E-19         0.00000E+00
    0.26917E-08         0.25146E-19         0.00000E+00
    0.26917E-08         0.69849E-20         0.00000E+00
    0.26917E-08         0.88476E-20         0.00000E+00
    0.26917E-08         0.12573E-19         0.00000E+00
    0.26917E-08         0.12107E-19         0.00000E+00
    0.26917E-08         0.86147E-20         0.00000E+00
    0.26917E-08         0.79162E-20         0.00000E+00
    0.26917E-08         0.10710E-19         0.00000E+00
    0.26917E-08         0.23283E-20         0.00000E+00
    0.26917E-08         0.32596E-20         0.00000E+00
    0.26917E-08        -0.48894E-20         0.00000E+00
    0.26917E-08         0.46566E-21         0.00000E+00
    0.26917E-08        -0.39581E-20         0.00000E+00
    0.26917E-08        -0.46566E-20         0.00000E+00
    0.31977E-08         0.41910E-20         0.00000E+00
    0.31977E-08        -0.46566E-21         0.00000E+00
    0.31977E-08         0.88476E-20         0.00000E+00
    0.31977E-08         0.00000E+00         0.00000E+00
    0.31977E-08        -0.93132E-21         0.00000E+00
    0.31977E-08        -0.51223E-20         0.00000E+00
    0.31977E-08        -0.93132E-20         0.00000E+00
    0.31977E-08        -0.55879E-20         0.00000E+00
    0.31977E-08        -0.65193E-20         0.00000E+00
    0.31977E-08         0.55879E-20         0.00000E+00
    0.31977E-08         0.60536E-20         0.00000E+00
    0.31977E-08         0.11874E-19         0.00000E+00
    0.31977E-08         0.69849E-20         0.00000E+00
    0.31977E-08        -0.27940E-20         0.00000E+00
    0.31977E-08        -0.65193E-20         0.00000E+00
    0.31977E-08        -0.65193E-20         0.00000E+00
    0.31977E-08         0.10245E-19         0.00000E+00
    0.31977E-08         0.90804E-20         0.00000E+00
    0.31977E-08         0.46566E-21         0.00000E+00
    0.31977E-08        -0.97789E-20         0.00000E+00
    0.31977E-08         0.46566E-21         0.00000E+00
    0.31977E-08        -0.19092E-19         0.00000E+00
    0.31977E-08        -0.14901E-19         0.00000E+00
    0.31977E-08        -0.12806E-19         0.00000E+00
    0.31977E-08        -0.13271E-19         0.00000E+00
    0.31977E-08        -0.93132E-20         0.00000E+00
    0.31977E-08        -0.13039E-19         0.00000E+00
    0.31977E-08        -0.60536E-20         0.00000E+00
    0.31977E-08        -0.88476E-20         0.00000E+00
    0.31977E-08         0.46566E-21         0.00000E+00
    0.31977E-08         0.83819E-20         0.00000E+00
    0.31977E-08         0.20722E-19         0.00000E+00
    0.31977E-08         0.33760E-19         0.00000E+00
    0.31977E-08         0.32363E-19         0.00000E+00
    0.31977E-08         0.23749E-19         0.00000E+00
    0.31977E-08         0.15832E-19         0.00000E+00
    0.31977E-08         0.11409E-19         0.00000E+00
    0.31977E-08         0.27940E-20         0.00000E+00
    0.31977E-08         0.12107E-19         0.00000E+00
    0.31977E-08         0.10245E-19         0.00000E+00
    0.31977E-08         0.16065E-19         0.00000E+00
    0.31977E-08         0.19092E-19         0.00000E+00
    0.31977E-08         0.23283E-20         0.00000E+00
    0.31977E-08        -0.11176E-19         0.00000E+00
    0.31977E-08        -0.58208E-20         0.00000E+00
    0.31977E-08        -0.65193E-20         0.00000E+00
    0.31977E-08        -0.20023E-19         0.00000E+00
    0.31977E-08        -0.10710E-19         0.00000E+00
    0.31977E-08        -0.93132E-21         0.00000E+00
    0.31977E-08        -0.93132E-21         0.00000E+00
    0.37991E-08        -0.41910E-20         0.00000E+00
    0.37991E-08         0.55879E-20         0.00000E+00
    0.37991E-08         0.97789E-20         0.00000E+00
    0.37991E-08        -0.13970E-20         0.00000E+00
    0.37991E-08        -0.12573E-19         0.00000E+00
    0.37991E-08        -0.76834E-20         0.00000E+00
    0.37991E-08        -0.16065E-19         0.00000E+00
    0.37991E-08        -0.14203E-19         0.00000E+00
    0.37991E-08        -0.12573E-19         0.00000E+00
    0.37991E-08         0.69849E-20         0.00000E+00
    0.37991E-08        -0.23283E-20         0.00000E+00
    0.37991E-08         0.74506E-20         0.00000E+00
    0.37991E-08         0.60536E-20         0.00000E+00
    0.37991E-08         0.53551E-20         0.00000E+00
    0.37991E-08         0.23283E-21         0.00000E+00
    0.37991E-08        -0.41910E-20         0.00000E+00
    0.37991E-08        -0.93132E-21         0.00000E+00
    0.37991E-08        -0.90804E-20         0.00000E+00
    0.37991E-08        -0.19092E-19         0.00000E+00
    0.37991E-08        -0.13504E-19         0.00000E+00
    0.37991E-08        -0.17229E-19         0.00000E+00
    0.37991E-08        -0.15832E-19         0.00000E+00
    0.37991E-08        -0.20955E-19         0.00000E+00
    0.37991E-08        -0.16764E-19         0.00000E+00
    0.37991E-08        -0.28871E-19         0.00000E+00
    0.37991E-08        -0.18161E-19         0.00000E+00
    0.37991E-08        -0.19325E-19         0.00000E+00
    0.37991E-08        -0.19558E-19         0.00000E+00
    0.37991E-08        -0.12573E-19         0.00000E+00
    0.37991E-08        -0.46566E-21         0.00000E+00
    0.37991E-08         0.74506E-20         0.00000E+00
    0.37991E-08         0.83819E-20         0.00000E+00
    0.37991E-08         0.21886E-19         0.00000E+00
    0.37991E-08         0.20955E-19         0.00000E+00
    0.37991E-08         0.12573E-19         0.00000E+00
    0.37991E-08         0.18161E-19         0.00000E+00
    0.37991E-08         0.20955E-19         0.00000E+00
    0.37991E-08         0.12340E-19         0.00000E+00
    0.37991E-08         0.51223E-20         0.00000E+00
    0.37991E-08         0.11642E-19         0.00000E+00
    0.37991E-08         0.69849E-21         0.00000E+00
    0.37991E-08         0.32596E-20         0.00000E+00
    0.37991E-08        -0.83819E-20         0.00000E+00
    0.37991E-08        -0.93132E-20         0.00000E+00
    0.37991E-08        -0.15832E-19         0.00000E+00
    0.37991E-08        -0.81491E-20         0.00000E+00
    0.37991E-08        -0.29569E-19         0.00000E+00
    0.37991E-08        -0.14901E-19         0.00000E+00
    0.37991E-08        -0.60536E-20         0.00000E+00
    0.37991E-08         0.23283E-20         0.00000E+00
    0.45137E-08        -0.18626E-20         0.00000E+00
    0.45137E-08        -0.23283E-20         0.00000E+00
    0.45137E-08         0.51223E-20         0.00000E+00
    0.45137E-08        -0.18626E-20         0.00000E+00
    0.45137E-08        -0.55879E-20         0.00000E+00
    0.45137E-08        -0.65193E-20         0.00000E+00
    0.45137E-08        -0.74506E-20         0.00000E+00
    0.45137E-08        -0.14435E-19         0.00000E+00
    0.45137E-08        -0.79162E-20         0.00000E+00
    0.45137E-08         0.27940E-20         0.00000E+00
    0.45137E-08         0.10245E-19         0.00000E+00
    0.45137E-08         0.00000E+00         0.00000E+00
    0.45137E-08         0.65193E-20         0.00000E+00
    0.45137E-08         0.79162E-20         0.00000E+00
    0.45137E-08        -0.11176E-19         0.00000E+00
    0.45137E-08         0.46566E-21         0.00000E+00
    0.45137E-08        -0.23283E-20         0.00000E+00
    0.45137E-08        -0.19558E-19         0.00000E+00
    0.45137E-08        -0.20489E-19         0.00000E+00
    0.45137E-08        -0.21420E-19         0.00000E+00
    0.45137E-08        -0.20489E-19         0.00000E+00
    0.45137E-08        -0.37253E-20         0.00000E+00
    0.45137E-08        -0.13970E-19         0.00000E+00
    0.45137E-08        -0.16997E-19         0.00000E+00
    0.45137E-08        -0.38184E-19         0.00000E+00
    0.45137E-08        -0.24680E-19         0.00000E+00
    0.45137E-08        -0.25844E-19         0.00000E+00
    0.45137E-08        -0.21886E-19         0.00000E+00
    0.45137E-08        -0.21886E-19         0.00000E+00
    0.45137E-08        -0.11176E-19         0.00000E+00
    0.45137E-08        -0.18626E-20         0.00000E+00
    0.45137E-08         0.46566E-20         0.00000E+00
    0.45137E-08         0.10012E-19         0.00000E+00
    0.45137E-08         0.17695E-19         0.00000E+00
    0.45137E-08         0.13737E-19         0.00000E+00
    0.45137E-08         0.12107E-19         0.00000E+00
    0.45137E-08         0.11642E-19         0.00000E+00
    0.45137E-08         0.69849E-20         0.00000E+00
    0.45137E-08         0.41910E-20         0.00000E+00
    0.45137E-08         0.13970E-20         0.00000E+00
    0.45137E-08        -0.44238E-20         0.00000E+00
    0.45137E-08        -0.55879E-20         0.00000E+00
    0.45137E-08        -0.12573E-19         0.00000E+00
    0.45137E-08        -0.12107E-19         0.00000E+00
    0.45137E-08        -0.26776E-19         0.00000E+00
    0.45137E-08        -0.18394E-19         0.00000E+00
    0.45137E-08        -0.20023E-19         0.00000E+00
    0.45137E-08        -0.37253E-20         0.00000E+00
    0.45137E-08        -0.18626E-20         0.00000E+00
    0.45137E-08         0.18626E-20         0.00000E+00
    0.53630E-08        -0.23283E-21         0.00000E+00
    0.53630E-08         0.46566E-21         0.00000E+00
    0.53630E-08        -0.90804E-20         0.00000E+00
    0.53630E-08        -0.95461E-20         0.00000E+00
    0.53630E-08         0.25611E-20         0.00000E+00
    0.53630E-08        -0.51223E-20         0.00000E+00
    0.53630E-08         0.55879E-20         0.00000E+00
    0.53630E-08        -0.23283E-20         0.00000E+00
    0.53630E-08        -0.79162E-20         0.00000E+00
    0.53630E-08        -0.32596E-20         0.00000E+00
    0.53630E-08         0.93132E-21         0.00000E+00
    0.53630E-08         0.93132E-21         0.00000E+00
    0.53630E-08         0.97789E-20         0.00000E+00
    0.53630E-08         0.60536E-20         0.00000E+00
    0.53630E-08        -0.93132E-21         0.00000E+00
    0.53630E-08        -0.27940E-20         0.00000E+00
    0.53630E-08        -0.32596E-20         0.00000E+00
    0.53630E-08        -0.14435E-19         0.00000E+00
    0.53630E-08        -0.14435E-19         0.00000E+00
    0.53630E-08        -0.24680E-19         0.00000E+00
    0.53630E-08        -0.17229E-19         0.00000E+00
    0.53630E-08        -0.13970E-19         0.00000E+00
    0.53630E-08        -0.17229E-19         0.00000E+00
    0.53630E-08        -0.10710E-19         0.00000E+00
    0.53630E-08        -0.26543E-19         0.00000E+00
    0.53630E-08        -0.36554E-19         0.00000E+00
    0.53630E-08        -0.35157E-19         0.00000E+00
    0.53630E-08        -0.14901E-19         0.00000E+00
    0.53630E-08        -0.19558E-19         0.00000E+00
    0.53630E-08        -0.20955E-19         0.00000E+00
    0.53630E-08        -0.97789E-20         0.00000E+00
    0.53630E-08        -0.46566E-20         0.00000E+00
    0.53630E-08        -0.16298E-20         0.00000E+00
    0.53630E-08         0.97789E-20         0.00000E+00
    0.53630E-08         0.00000E+00         0.00000E+00
    0.53630E-08         0.10245E-19         0.00000E+00
    0.53630E-08         0.10943E-19         0.00000E+00
    0.53630E-08         0.51223E-20         0.00000E+00
    0.53630E-08         0.88476E-20         0.00000E+00
    0.53630E-08         0.51223E-20         0.00000E+00
    0.53630E-08        -0.20955E-20         0.00000E+00
    0.53630E-08        -0.46566E-21         0.00000E+00
    0.53630E-08        -0.55879E-20         0.00000E+00
    0.53630E-08        -0.17695E-19         0.00000E+00
    0.53630E-08        -0.22119E-19         0.00000E+00
    0.53630E-08        -0.16065E-19         0.00000E+00
    0.53630E-08        -0.18161E-19         0.00000E+00
    0.53630E-08        -0.14668E-19         0.00000E+00
    0.53630E-08        -0.69849E-20         0.00000E+00
    0.53630E-08         0.65193E-20         0.00000E+00
    0.63722E-08         0.23283E-20         0.00000E+00
    0.63722E-08         0.69849E-20         0.00000E+00
    0.63722E-08        -0.58208E-20         0.00000E+00
    0.63722E-08        -0.41910E-20         0.00000E+00
    0.63722E-08        -0.74506E-20         0.00000E+00
    0.63722E-08         0.00000E+00         0.00000E+00
    0.63722E-08         0.20955E-19         0.00000E+00
    0.63722E-08         0.93132E-20         0.00000E+00
    0.63722E-08         0.32596E-20         0.00000E+00
    0.63722E-08         0.23283E-20         0.00000E+00
    0.63722E-08        -0.97789E-20         0.00000E+00
    0.63722E-08         0.00000E+00         0.00000E+00
    0.63722E-08         0.95461E-20         0.00000E+00
    0.63722E-08        -0.32596E-20         0.00000E+00
    0.63722E-08         0.83819E-20         0.00000E+00
    0.63722E-08         0.13970E-20         0.00000E+00
    0.63722E-08        -0.14435E-19         0.00000E+00
    0.63722E-08        -0.19092E-19         0.00000E+00
    0.63722E-08        -0.14901E-19         0.00000E+00
    0.63722E-08        -0.25146E-19         0.00000E+00
    0.63722E-08        -0.36787E-19         0.00000E+00
    0.63722E-08        -0.29337E-19         0.00000E+00
    0.63722E-08        -0.13504E-19         0.00000E+00
    0.63722E-08        -0.20955E-19         0.00000E+00
    0.63722E-08        -0.26543E-19         0.00000E+00
    0.63722E-08        -0.36787E-19         0.00000E+00
    0.63722E-08        -0.30268E-19         0.00000E+00
    0.63722E-08        -0.19092E-19         0.00000E+00
    0.63722E-08        -0.10710E-19         0.00000E+00
    0.63722E-08        -0.11176E-19         0.00000E+00
    0.63722E-08         0.00000E+00         0.00000E+00
    0.63722E-08        -0.97789E-20         0.00000E+00
    0.63722E-08        -0.37253E-20         0.00000E+00
    0.63722E-08         0.18626E-20         0.00000E+00
    0.63722E-08        -0.93132E-20         0.00000E+00
    0.63722E-08         0.69849E-21         0.00000E+00
    0.63722E-08         0.93132E-20         0.00000E+00
    0.63722E-08         0.27940E-20         0.00000E+00
    0.63722E-08         0.97789E-20         0.00000E+00
    0.63722E-08         0.14435E-19         0.00000E+00
    0.63722E-08        -0.18626E-20         0.00000E+00
    0.63722E-08         0.55879E-20         0.00000E+00
    0.63722E-08         0.69849E-20         0.00000E+00
    0.63722E-08         0.13970E-20         0.00000E+00
    0.63722E-08        -0.11642E-19         0.00000E+00
    0.63722E-08        -0.69849E-20         0.00000E+00
    0.63722E-08        -0.16065E-19         0.00000E+00
    0.63722E-08        -0.16531E-19         0.00000E+00
    0.63722E-08        -0.14435E-19         0.00000E+00
    0.63722E-08         0.34925E-20         0.00000E+00
    0.75715E-08         0.18626E-20         0.00000E+00
    0.75715E-08         0.13970E-20         0.00000E+00
    0.75715E-08        -0.13970E-20         0.00000E+00
    0.75715E-08         0.72177E-20         0.00000E+00
    0.75715E-08        -0.93132E-20         0.00000E+00
    0.75715E-08         0.69849E-20         0.00000E+00
    0.75715E-08         0.20489E-19         0.00000E+00
    0.75715E-08         0.41910E-20         0.00000E+00
    0.75715E-08        -0.41910E-20         0.00000E+00
    0.75715E-08        -0.60536E-20         0.00000E+00
    0.75715E-08        -0.51223E-20         0.00000E+00
    0.75715E-08        -0.23283E-20         0.00000E+00
    0.75715E-08         0.11409E-19         0.00000E+00
    0.75715E-08         0.27940E-20         0.00000E+00
    0.75715E-08         0.11176E-19         0.00000E+00
    0.75715E-08         0.14435E-19         0.00000E+00
    0.75715E-08        -0.14901E-19         0.00000E+00
    0.75715E-08        -0.19092E-19         0.00000E+00
    0.75715E-08        -0.30268E-19         0.00000E+00
    0.75715E-08        -0.29802E-19         0.00000E+00
    0.75715E-08        -0.30734E-19         0.00000E+00
    0.75715E-08        -0.25146E-19         0.00000E+00
    0.75715E-08        -0.14435E-19         0.00000E+00
    0.75715E-08        -0.20955E-19         0.00000E+00
    0.75715E-08        -0.36787E-19         0.00000E+00
    0.75715E-08        -0.19092E-19         0.00000E+00
    0.75715E-08        -0.20489E-19         0.00000E+00
    0.75715E-08        -0.25146E-19         0.00000E+00
    0.75715E-08        -0.74506E-20         0.00000E+00
    0.75715E-08        -0.23283E-20         0.00000E+00
    0.75715E-08         0.27940E-20         0.00000E+00
    0.75715E-08        -0.41910E-20         0.00000E+00
    0.75715E-08        -0.93132E-20         0.00000E+00
    0.75715E-08         0.13970E-20         0.00000E+00
    0.75715E-08        -0.55879E-20         0.00000E+00
    0.75715E-08        -0.79162E-20         0.00000E+00
    0.75715E-08        -0.27940E-20         0.00000E+00
    0.75715E-08         0.93132E-21         0.00000E+00
    0.75715E-08         0.60536E-20         0.00000E+00
    0.75715E-08         0.93132E-21         0.00000E+00
    0.75715E-08        -0.44238E-20         0.00000E+00
    0.75715E-08         0.51223E-20         0.00000E+00
    0.75715E-08         0.55879E-20         0.00000E+00
    0.75715E-08         0.81491E-20         0.00000E+00
    0.75715E-08        -0.23283E-20         0.00000E+00
    0.75715E-08         0.32596E-20         0.00000E+00
    0.75715E-08        -0.13271E-19         0.00000E+00
    0.75715E-08        -0.19791E-19         0.00000E+00
    0.75715E-08        -0.12107E-19         0.00000E+00
    0.75715E-08        -0.23283E-20         0.00000E+00
    0.89966E-08        -0.23283E-20         0.00000E+00
    0.89966E-08        -0.88476E-20         0.00000E+00
    0.89966E-08        -0.76834E-20         0.00000E+00
    0.89966E-08         0.69849E-21         0.00000E+00
    0.89966E-08         0.41910E-20         0.00000E+00
    0.89966E-08         0.74506E-20         0.00000E+00
    0.89966E-08         0.13737E-19         0.00000E+00
    0.89966E-08         0.23283E-20         0.00000E+00
    0.89966E-08        -0.16298E-19         0.00000E+00
    0.89966E-08        -0.12573E-19         0.00000E+00
    0.89966E-08        -0.37253E-20         0.00000E+00
    0.89966E-08         0.00000E+00         0.00000E+00
    0.89966E-08         0.55879E-20         0.00000E+00
    0.89966E-08         0.93132E-21         0.00000E+00
    0.89966E-08         0.39581E-20         0.00000E+00
    0.89966E-08         0.97789E-20         0.00000E+00
    0.89966E-08        -0.11642E-19         0.00000E+00
    0.89966E-08        -0.23283E-20         0.00000E+00
    0.89966E-08        -0.24680E-19         0.00000E+00
    0.89966E-08        -0.26077E-19         0.00000E+00
    0.89966E-08        -0.30734E-19         0.00000E+00
    0.89966E-08        -0.22352E-19         0.00000E+00
    0.89966E-08        -0.17695E-19         0.00000E+00
    0.89966E-08        -0.23283E-19         0.00000E+00
    0.89966E-08        -0.31199E-19         0.00000E+00
    0.89966E-08        -0.20023E-19         0.00000E+00
    0.89966E-08        -0.16298E-19         0.00000E+00
    0.89966E-08        -0.20023E-19         0.00000E+00
    0.89966E-08        -0.65193E-20         0.00000E+00
    0.89966E-08        -0.41910E-20         0.00000E+00
    0.89966E-08         0.83819E-20         0.00000E+00
    0.89966E-08         0.27940E-20         0.00000E+00
    0.89966E-08        -0.11642E-19         0.00000E+00
    0.89966E-08         0.27940E-20         0.00000E+00
    0.89966E-08        -0.97789E-20         0.00000E+00
    0.89966E-08        -0.41910E-20         0.00000E+00
    0.89966E-08        -0.60536E-20         0.00000E+00
    0.89966E-08        -0.18626E-20         0.00000E+00
    0.89966E-08         0.18626E-20         0.00000E+00
    0.89966E-08         0.27940E-20         0.00000E+00
    0.89966E-08        -0.76834E-20         0.00000E+00
    0.89966E-08        -0.18626E-20         0.00000E+00
    0.89966E-08        -0.58208E-20         0.00000E+00
    0.89966E-08         0.27940E-20         0.00000E+00
    0.89966E-08        -0.39581E-20         0.00000E+00
    0.89966E-08         0.13039E-19         0.00000E+00
    0.89966E-08        -0.62864E-20         0.00000E+00
    0.89966E-08        -0.13970E-19         0.00000E+00
    0.89966E-08         0.32596E-20         0.00000E+00
    0.89966E-08         0.55879E-20         0.00000E+00
    0.10690E-07         0.46566E-21         0.00000E+00
    0.10690E-07        -0.97789E-20         0.00000E+00
    0.10690E-07        -0.13504E-19         0.00000E+00
    0.10690E-07        -0.65193E-20         0.00000E+00
    0.10690E-07         0.20955E-20         0.00000E+00
    0.10690E-07         0.69849E-21         0.00000E+00
    0.10690E-07        -0.32596E-20         0.00000E+00
    0.10690E-07        -0.11874E-19         0.00000E+00
    0.10690E-07        -0.83819E-20         0.00000E+00
    0.10690E-07        -0.23283E-20         0.00000E+00
    0.10690E-07         0.00000E+00         0.00000E+00
    0.10690E-07         0.23283E-20         0.00000E+00
    0.10690E-07         0.46566E-21         0.00000E+00
    0.10690E-07        -0.37253E-20         0.00000E+00
    0.10690E-07        -0.55879E-20         0.00000E+00
    0.10690E-07        -0.46566E-21         0.00000E+00
    0.10690E-07        -0.23283E-20         0.00000E+00
    0.10690E-07         0.46566E-21         0.00000E+00
    0.10690E-07        -0.11176E-19         0.00000E+00
    0.10690E-07        -0.12107E-19         0.00000E+00
    0.10690E-07        -0.43306E-19         0.00000E+00
    0.10690E-07        -0.33528E-19         0.00000E+00
    0.10690E-07        -0.11176E-19         0.00000E+00
    0.10690E-07        -0.26077E-19         0.00000E+00
    0.10690E-07        -0.35390E-19         0.00000E+00
    0.10690E-07        -0.21886E-19         0.00000E+00
    0.10690E-07        -0.12107E-19         0.00000E+00
    0.10690E-07        -0.97789E-20         0.00000E+00
    0.10690E-07        -0.93132E-21         0.00000E+00
    0.10690E-07        -0.18626E-20         0.00000E+00
    0.10690E-07         0.97789E-20         0.00000E+00
    0.10690E-07         0.37253E-20         0.00000E+00
    0.10690E-07        -0.41910E-20         0.00000E+00
    0.10690E-07         0.00000E+00         0.00000E+00
    0.10690E-07        -0.37253E-20         0.00000E+00
    0.10690E-07        -0.27940E-20         0.00000E+00
    0.10690E-07        -0.11642E-20         0.00000E+00
    0.10690E-07        -0.93132E-20         0.00000E+00
    0.10690E-07        -0.69849E-21         0.00000E+00
    0.10690E-07         0.44238E-20         0.00000E+00
    0.10690E-07        -0.60536E-20         0.00000E+00
    0.10690E-07        -0.79162E-20         0.00000E+00
    0.10690E-07        -0.76834E-20         0.00000E+00
    0.10690E-07         0.93132E-21         0.00000E+00
    0.10690E-07        -0.51223E-20         0.00000E+00
    0.10690E-07        -0.46566E-20         0.00000E+00
    0.10690E-07        -0.37253E-20         0.00000E+00
    0.10690E-07        -0.74506E-20         0.00000E+00
    0.10690E-07         0.55879E-20         0.00000E+00
    0.10690E-07         0.76834E-20         0.00000E+00
    0.12702E-07        -0.11642E-20         0.00000E+00
    0.12702E-07        -0.32596E-20         0.00000E+00
    0.12702E-07        -0.93132E-20         0.00000E+00
    0.12702E-07        -0.65193E-20         0.00000E+00
    0.12702E-07        -0.34925E-20         0.00000E+00
    0.12702E-07        -0.46566E-21         0.00000E+00
    0.12702E-07        -0.32596E-20         0.00000E+00
    0.12702E-07        -0.55879E-20         0.00000E+00
    0.12702E-07        -0.69849E-20         0.00000E+00
    0.12702E-07         0.65193E-20         0.00000E+00
    0.12702E-07         0.00000E+00         0.00000E+00
    0.12702E-07         0.88476E-20         0.00000E+00
    0.12702E-07         0.00000E+00         0.00000E+00
    0.12702E-07         0.41910E-20         0.00000E+00
    0.12702E-07        -0.20955E-20         0.00000E+00
    0.12702E-07        -0.81491E-20         0.00000E+00
    0.12702E-07        -0.15832E-19         0.00000E+00
    0.12702E-07        -0.20023E-19         0.00000E+00
    0.12702E-07        -0.16298E-19         0.00000E+00
    0.12702E-07        -0.11176E-19         0.00000E+00
    0.12702E-07        -0.27940E-19         0.00000E+00
    0.12702E-07        -0.24214E-19         0.00000E+00
    0.12702E-07        -0.16298E-19         0.00000E+00
    0.12702E-07        -0.19092E-19         0.00000E+00
    0.12702E-07        -0.25611E-19         0.00000E+00
    0.12702E-07        -0.10245E-19         0.00000E+00
    0.12702E-07        -0.97789E-20         0.00000E+00
    0.12702E-07        -0.74506E-20         0.00000E+00
    0.12702E-07        -0.46566E-21         0.00000E+00
    0.12702E-07        -0.51223E-20         0.00000E+00
    0.12702E-07        -0.46566E-21         0.00000E+00
    0.12702E-07        -0.46566E-20         0.00000E+00
    0.12702E-07        -0.18626E-20         0.00000E+00
    0.12702E-07        -0.27940E-20         0.00000E+00
    0.12702E-07         0.23283E-20         0.00000E+00
    0.12702E-07         0.10245E-19         0.00000E+00
    0.12702E-07         0.10710E-19         0.00000E+00
    0.12702E-07         0.69849E-20         0.00000E+00
    0.12702E-07         0.34925E-20         0.00000E+00
    0.12702E-07         0.20955E-20         0.00000E+00
    0.12702E-07        -0.13970E-20         0.00000E+00
    0.12702E-07        -0.12107E-19         0.00000E+00
    0.12702E-07        -0.21420E-19         0.00000E+00
    0.12702E-07         0.18626E-20         0.00000E+00
    0.12702E-07         0.00000E+00         0.00000E+00
    0.12702E-07        -0.41910E-20         0.00000E+00
    0.12702E-07        -0.95461E-20         0.00000E+00
    0.12702E-07        -0.19092E-19         0.00000E+00
    0.12702E-07        -0.11642E-20         0.00000E+00
    0.12702E-07         0.46566E-20         0.00000E+00
    0.15093E-07        -0.44238E-20         0.00000E+00
    0.15093E-07        -0.25611E-20         0.00000E+00
    0.15093E-07        -0.18626E-20         0.00000E+00
    0.15093E-07        -0.65193E-20         0.00000E+00
    0.15093E-07        -0.51223E-20         0.00000E+00
    0.15093E-07         0.00000E+00         0.00000E+00
    0.15093E-07        -0.37253E-20         0.00000E+00
    0.15093E-07        -0.69849E-20         0.00000E+00
    0.15093E-07        -0.83819E-20         0.00000E+00
    0.15093E-07         0.79162E-20         0.00000E+00
    0.15093E-07        -0.41910E-20         0.00000E+00
    0.15093E-07         0.55879E-20         0.00000E+00
    0.15093E-07         0.93132E-21         0.00000E+00
    0.15093E-07         0.46566E-20         0.00000E+00
    0.15093E-07        -0.79162E-20         0.00000E+00
    0.15093E-07        -0.41910E-20         0.00000E+00
    0.15093E-07        -0.17229E-19         0.00000E+00
    0.15093E-07        -0.24214E-19         0.00000E+00
    0.15093E-07        -0.13970E-19         0.00000E+00
    0.15093E-07        -0.20955E-19         0.00000E+00
    0.15093E-07        -0.28405E-19         0.00000E+00
    0.15093E-07        -0.21420E-19         0.00000E+00
    0.15093E-07        -0.12107E-19         0.00000E+00
    0.15093E-07        -0.18626E-19         0.00000E+00
    0.15093E-07        -0.21420E-19         0.00000E+00
    0.15093E-07        -0.97789E-20         0.00000E+00
    0.15093E-07        -0.27940E-20         0.00000E+00
    0.15093E-07        -0.74506E-20         0.00000E+00
    0.15093E-07        -0.41910E-20         0.00000E+00
    0.15093E-07        -0.14901E-19         0.00000E+00
    0.15093E-07        -0.18626E-20         0.00000E+00
    0.15093E-07        -0.83819E-20         0.00000E+00
    0.15093E-07         0.46566E-21         0.00000E+00
    0.15093E-07         0.46566E-21         0.00000E+00
    0.15093E-07         0.12573E-19         0.00000E+00
    0.15093E-07         0.19325E-19         0.00000E+00
    0.15093E-07         0.13504E-19         0.00000E+00
    0.15093E-07         0.97789E-20         0.00000E+00
    0.15093E-07         0.69849E-20         0.00000E+00
    0.15093E-07         0.25611E-20         0.00000E+00
    0.15093E-07        -0.93132E-20         0.00000E+00
    0.15093E-07        -0.12107E-19         0.00000E+00
    0.15093E-07        -0.93132E-20         0.00000E+00
    0.15093E-07        -0.83819E-20         0.00000E+00
    0.15093E-07         0.18626E-20         0.00000E+00
    0.15093E-07        -0.81491E-20         0.00000E+00
    0.15093E-07        -0.13504E-19         0.00000E+00
    0.15093E-07        -0.18626E-19         0.00000E+00
    0.15093E-07        -0.93132E-21         0.00000E+00
    0.15093E-07         0.62864E-20         0.00000E+00
    0.17935E-07        -0.37616E-36         0.00000E+00
    0.17935E-07        -0.27940E-20         0.00000E+00
    0.17935E-07        -0.39581E-20         0.00000E+00
    0.17935E-07        -0.23283E-20         0.00000E+00
    0.17935E-07        -0.18626E-19         0.00000E+00
    0.17935E-07        -0.95461E-20         0.00000E+00
    0.17935E-07        -0.20489E-19         0.00000E+00
    0.17935E-07        -0.19558E-19         0.00000E+00
    0.17935E-07        -0.13039E-19         0.00000E+00
    0.17935E-07         0.55879E-20         0.00000E+00
    0.17935E-07        -0.13970E-20         0.00000E+00
    0.17935E-07         0.23283E-20         0.00000E+00
    0.17935E-07         0.30268E-20         0.00000E+00
    0.17935E-07        -0.46566E-20         0.00000E+00
    0.17935E-07        -0.14901E-19         0.00000E+00
    0.17935E-07        -0.13504E-19         0.00000E+00
    0.17935E-07        -0.18161E-19         0.00000E+00
    0.17935E-07        -0.14435E-19         0.00000E+00
    0.17935E-07        -0.86147E-20         0.00000E+00
    0.17935E-07        -0.15600E-19         0.00000E+00
    0.17935E-07        -0.33528E-19         0.00000E+00
    0.17935E-07        -0.30734E-19         0.00000E+00
    0.17935E-07        -0.83819E-20         0.00000E+00
    0.17935E-07        -0.11642E-19         0.00000E+00
    0.17935E-07        -0.18161E-19         0.00000E+00
    0.17935E-07        -0.18626E-20         0.00000E+00
    0.17935E-07         0.41910E-20         0.00000E+00
    0.17935E-07         0.74506E-20         0.00000E+00
    0.17935E-07         0.46566E-20         0.00000E+00
    0.17935E-07        -0.23283E-20         0.00000E+00
    0.17935E-07         0.51223E-20         0.00000E+00
    0.17935E-07        -0.46566E-20         0.00000E+00
    0.17935E-07         0.69849E-20         0.00000E+00
    0.17935E-07         0.74506E-20         0.00000E+00
    0.17935E-07         0.18161E-19         0.00000E+00
    0.17935E-07         0.97789E-20         0.00000E+00
    0.17935E-07         0.10710E-19         0.00000E+00
    0.17935E-07         0.44238E-20         0.00000E+00
    0.17935E-07         0.74506E-20         0.00000E+00
    0.17935E-07        -0.46566E-21         0.00000E+00
    0.17935E-07        -0.19558E-19         0.00000E+00
    0.17935E-07        -0.20023E-19         0.00000E+00
    0.17935E-07        -0.72177E-20         0.00000E+00
    0.17935E-07         0.93132E-21         0.00000E+00
    0.17935E-07        -0.10012E-19         0.00000E+00
    0.17935E-07        -0.10477E-19         0.00000E+00
    0.17935E-07        -0.13504E-19         0.00000E+00
    0.17935E-07        -0.13039E-19         0.00000E+00
    0.17935E-07        -0.46566E-20         0.00000E+00
    0.17935E-07         0.27940E-20         0.00000E+00
    0.21311E-07        -0.46566E-21         0.00000E+00
    0.21311E-07         0.37253E-20         0.00000E+00
    0.21311E-07         0.93132E-21         0.00000E+00
    0.21311E-07        -0.10710E-19         0.00000E+00
    0.21311E-07        -0.21420E-19         0.00000E+00
    0.21311E-07        -0.18161E-19         0.00000E+00
    0.21311E-07        -0.11176E-19         0.00000E+00
    0.21311E-07        -0.21420E-19         0.00000E+00
    0.21311E-07        -0.16764E-19         0.00000E+00
    0.21311E-07        -0.32596E-20         0.00000E+00
    0.21311E-07        -0.11642E-20         0.00000E+00
    0.21311E-07         0.32596E-20         0.00000E+00
    0.21311E-07        -0.83819E-20         0.00000E+00
    0.21311E-07         0.27940E-20         0.00000E+00
    0.21311E-07        -0.97789E-20         0.00000E+00
    0.21311E-07        -0.16764E-19         0.00000E+00
    0.21311E-07        -0.15832E-19         0.00000E+00
    0.21311E-07        -0.15600E-19         0.00000E+00
    0.21311E-07        -0.72177E-20         0.00000E+00
    0.21311E-07        -0.18161E-19         0.00000E+00
    0.21311E-07        -0.33062E-19         0.00000E+00
    0.21311E-07        -0.18161E-19         0.00000E+00
    0.21311E-07        -0.65193E-20         0.00000E+00
    0.21311E-07        -0.41910E-20         0.00000E+00
    0.21311E-07        -0.16764E-19         0.00000E+00
    0.21311E-07        -0.46566E-20         0.00000E+00
    0.21311E-07         0.65193E-20         0.00000E+00
    0.21311E-07         0.12107E-19         0.00000E+00
    0.21311E-07         0.12107E-19         0.00000E+00
    0.21311E-07         0.27940E-20         0.00000E+00
    0.21311E-07         0.46566E-20         0.00000E+00
    0.21311E-07        -0.93132E-21         0.00000E+00
    0.21311E-07         0.15832E-19         0.00000E+00
    0.21311E-07         0.15367E-19         0.00000E+00
    0.21311E-07         0.10943E-19         0.00000E+00
    0.21311E-07         0.13271E-19         0.00000E+00
    0.21311E-07         0.16997E-19         0.00000E+00
    0.21311E-07         0.53551E-20         0.00000E+00
    0.21311E-07         0.55879E-20         0.00000E+00
    0.21311E-07         0.27940E-20         0.00000E+00
    0.21311E-07        -0.97789E-20         0.00000E+00
    0.21311E-07        -0.23982E-19         0.00000E+00
    0.21311E-07        -0.14203E-19         0.00000E+00
    0.21311E-07         0.18626E-20         0.00000E+00
    0.21311E-07        -0.10245E-19         0.00000E+00
    0.21311E-07        -0.86147E-20         0.00000E+00
    0.21311E-07        -0.11409E-19         0.00000E+00
    0.21311E-07        -0.13970E-19         0.00000E+00
    0.21311E-07        -0.37253E-20         0.00000E+00
    0.21311E-07         0.69849E-21         0.00000E+00
    0.25322E-07        -0.93132E-21         0.00000E+00
    0.25322E-07         0.81491E-20         0.00000E+00
    0.25322E-07         0.37253E-20         0.00000E+00
    0.25322E-07        -0.20256E-19         0.00000E+00
    0.25322E-07        -0.21886E-19         0.00000E+00
    0.25322E-07        -0.11176E-19         0.00000E+00
    0.25322E-07        -0.14668E-19         0.00000E+00
    0.25322E-07        -0.19092E-19         0.00000E+00
    0.25322E-07        -0.11176E-19         0.00000E+00
    0.25322E-07         0.93132E-21         0.00000E+00
    0.25322E-07        -0.10245E-19         0.00000E+00
    0.25322E-07         0.39581E-20         0.00000E+00
    0.25322E-07        -0.62864E-20         0.00000E+00
    0.25322E-07        -0.18626E-20         0.00000E+00
    0.25322E-07        -0.93132E-20         0.00000E+00
    0.25322E-07        -0.11176E-19         0.00000E+00
    0.25322E-07        -0.95461E-20         0.00000E+00
    0.25322E-07        -0.16764E-19         0.00000E+00
    0.25322E-07        -0.11409E-19         0.00000E+00
    0.25322E-07        -0.18626E-19         0.00000E+00
    0.25322E-07        -0.28871E-19         0.00000E+00
    0.25322E-07        -0.19092E-19         0.00000E+00
    0.25322E-07        -0.10245E-19         0.00000E+00
    0.25322E-07        -0.37253E-20         0.00000E+00
    0.25322E-07        -0.12573E-19         0.00000E+00
    0.25322E-07        -0.90804E-20         0.00000E+00
    0.25322E-07         0.55879E-20         0.00000E+00
    0.25322E-07        -0.37253E-20         0.00000E+00
    0.25322E-07         0.12107E-19         0.00000E+00
    0.25322E-07        -0.55879E-20         0.00000E+00
    0.25322E-07         0.69849E-20         0.00000E+00
    0.25322E-07         0.69849E-20         0.00000E+00
    0.25322E-07         0.17695E-19         0.00000E+00
    0.25322E-07         0.13504E-19         0.00000E+00
    0.25322E-07         0.22585E-19         0.00000E+00
    0.25322E-07         0.15367E-19         0.00000E+00
    0.25322E-07         0.17928E-19         0.00000E+00
    0.25322E-07         0.11176E-19         0.00000E+00
    0.25322E-07         0.60536E-20         0.00000E+00
    0.25322E-07         0.69849E-20         0.00000E+00
    0.25322E-07        -0.23283E-20         0.00000E+00
    0.25322E-07        -0.16298E-19         0.00000E+00
    0.25322E-07        -0.19092E-19         0.00000E+00
    0.25322E-07        -0.41910E-20         0.00000E+00
    0.25322E-07        -0.11176E-19         0.00000E+00
    0.25322E-07        -0.10245E-19         0.00000E+00
    0.25322E-07        -0.20489E-19         0.00000E+00
    0.25322E-07        -0.21420E-19         0.00000E+00
    0.25322E-07        -0.11642E-19         0.00000E+00
    0.25322E-07         0.37253E-20         0.00000E+00
    0.30089E-07        -0.23283E-20         0.00000E+00
    0.30089E-07         0.23283E-20         0.00000E+00
    0.30089E-07         0.00000E+00         0.00000E+00
    0.30089E-07        -0.22817E-19         0.00000E+00
    0.30089E-07        -0.26077E-19         0.00000E+00
    0.30089E-07        -0.69849E-20         0.00000E+00
    0.30089E-07        -0.10710E-19         0.00000E+00
    0.30089E-07        -0.21886E-19         0.00000E+00
    0.30089E-07        -0.10245E-19         0.00000E+00
    0.30089E-07        -0.37253E-20         0.00000E+00
    0.30089E-07        -0.13970E-19         0.00000E+00
    0.30089E-07         0.46566E-20         0.00000E+00
    0.30089E-07         0.00000E+00         0.00000E+00
    0.30089E-07        -0.67521E-20         0.00000E+00
    0.30089E-07        -0.15832E-19         0.00000E+00
    0.30089E-07        -0.13271E-19         0.00000E+00
    0.30089E-07        -0.15832E-19         0.00000E+00
    0.30089E-07        -0.12107E-19         0.00000E+00
    0.30089E-07        -0.14668E-19         0.00000E+00
    0.30089E-07        -0.19791E-19         0.00000E+00
    0.30089E-07        -0.36787E-19         0.00000E+00
    0.30089E-07        -0.20955E-19         0.00000E+00
    0.30089E-07        -0.14901E-19         0.00000E+00
    0.30089E-07        -0.67521E-20         0.00000E+00
    0.30089E-07        -0.16997E-19         0.00000E+00
    0.30089E-07         0.67521E-20         0.00000E+00
    0.30089E-07         0.46566E-21         0.00000E+00
    0.30089E-07        -0.93132E-20         0.00000E+00
    0.30089E-07         0.41910E-20         0.00000E+00
    0.30089E-07         0.46566E-20         0.00000E+00
    0.30089E-07         0.97789E-20         0.00000E+00
    0.30089E-07         0.97789E-20         0.00000E+00
    0.30089E-07         0.16298E-19         0.00000E+00
    0.30089E-07         0.12573E-19         0.00000E+00
    0.30089E-07         0.14435E-19         0.00000E+00
    0.30089E-07         0.11176E-19         0.00000E+00
    0.30089E-07         0.20955E-19         0.00000E+00
    0.30089E-07         0.10477E-19         0.00000E+00
    0.30089E-07         0.69849E-20         0.00000E+00
    0.30089E-07         0.27940E-20         0.00000E+00
    0.30089E-07        -0.81491E-20         0.00000E+00
    0.30089E-07        -0.13737E-19         0.00000E+00
    0.30089E-07        -0.12573E-19         0.00000E+00
    0.30089E-07        -0.18626E-20         0.00000E+00
    0.30089E-07        -0.11409E-19         0.00000E+00
    0.30089E-07        -0.55879E-20         0.00000E+00
    0.30089E-07        -0.10710E-19         0.00000E+00
    0.30089E-07        -0.18859E-19         0.00000E+00
    0.30089E-07        -0.65193E-20         0.00000E+00
    0.30089E-07         0.23283E-20         0.00000E+00
    0.35754E-07        -0.41910E-20         0.00000E+00
    0.35754E-07         0.48894E-20         0.00000E+00
    0.35754E-07         0.00000E+00         0.00000E+00
    0.35754E-07        -0.13504E-19         0.00000E+00
    0.35754E-07        -0.10710E-19         0.00000E+00
    0.35754E-07        -0.13039E-19         0.00000E+00
    0.35754E-07        -0.97789E-20         0.00000E+00
    0.35754E-07        -0.14901E-19         0.00000E+00
    0.35754E-07        -0.25146E-19         0.00000E+00
    0.35754E-07        -0.16298E-19         0.00000E+00
    0.35754E-07        -0.16764E-19         0.00000E+00
    0.35754E-07        -0.16298E-19         0.00000E+00
    0.35754E-07        -0.69849E-20         0.00000E+00
    0.35754E-07        -0.74506E-20         0.00000E+00
    0.35754E-07        -0.16298E-19         0.00000E+00
    0.35754E-07        -0.14901E-19         0.00000E+00
    0.35754E-07        -0.18626E-20         0.00000E+00
    0.35754E-07        -0.97789E-20         0.00000E+00
    0.35754E-07        -0.10245E-19         0.00000E+00
    0.35754E-07        -0.24447E-19         0.00000E+00
    0.35754E-07        -0.35390E-19         0.00000E+00
    0.35754E-07        -0.27008E-19         0.00000E+00
    0.35754E-07        -0.17695E-19         0.00000E+00
    0.35754E-07        -0.19558E-19         0.00000E+00
    0.35754E-07        -0.21188E-19         0.00000E+00
    0.35754E-07         0.13504E-19         0.00000E+00
    0.35754E-07         0.18626E-20         0.00000E+00
    0.35754E-07        -0.46566E-21         0.00000E+00
    0.35754E-07         0.60536E-20         0.00000E+00
    0.35754E-07        -0.27940E-20         0.00000E+00
    0.35754E-07         0.00000E+00         0.00000E+00
    0.35754E-07        -0.23283E-20         0.00000E+00
    0.35754E-07         0.23283E-20         0.00000E+00
    0.35754E-07         0.27940E-20         0.00000E+00
    0.35754E-07         0.79162E-20         0.00000E+00
    0.35754E-07         0.41910E-20         0.00000E+00
    0.35754E-07         0.12107E-19         0.00000E+00
    0.35754E-07         0.11176E-19         0.00000E+00
    0.35754E-07         0.12107E-19         0.00000E+00
    0.35754E-07        -0.13970E-20         0.00000E+00
    0.35754E-07        -0.11642E-19         0.00000E+00
    0.35754E-07        -0.51223E-20         0.00000E+00
    0.35754E-07        -0.97789E-20         0.00000E+00
    0.35754E-07         0.00000E+00         0.00000E+00
    0.35754E-07         0.69849E-21         0.00000E+00
    0.35754E-07         0.27940E-20         0.00000E+00
    0.35754E-07         0.46566E-21         0.00000E+00
    0.35754E-07        -0.62864E-20         0.00000E+00
    0.35754E-07         0.55879E-20         0.00000E+00
    0.35754E-07         0.41910E-20         0.00000E+00
    0.42485E-07        -0.23283E-20         0.00000E+00
    0.42485E-07         0.11409E-19         0.00000E+00
    0.42485E-07         0.41910E-20         0.00000E+00
    0.42485E-07        -0.72177E-20         0.00000E+00
    0.42485E-07        -0.13970E-19         0.00000E+00
    0.42485E-07        -0.83819E-20         0.00000E+00
    0.42485E-07        -0.18626E-19         0.00000E+00
    0.42485E-07        -0.13737E-19         0.00000E+00
    0.42485E-07        -0.16298E-19         0.00000E+00
    0.42485E-07        -0.11176E-19         0.00000E+00
    0.42485E-07        -0.15367E-19         0.00000E+00
    0.42485E-07        -0.13970E-19         0.00000E+00
    0.42485E-07        -0.14901E-19         0.00000E+00
    0.42485E-07        -0.13039E-19         0.00000E+00
    0.42485E-07        -0.16531E-19         0.00000E+00
    0.42485E-07        -0.12573E-19         0.00000E+00
    0.42485E-07        -0.13737E-19         0.00000E+00
    0.42485E-07        -0.17462E-19         0.00000E+00
    0.42485E-07        -0.11176E-19         0.00000E+00
    0.42485E-07        -0.17695E-19         0.00000E+00
    0.42485E-07        -0.26077E-19         0.00000E+00
    0.42485E-07        -0.22352E-19         0.00000E+00
    0.42485E-07        -0.14203E-19         0.00000E+00
    0.42485E-07        -0.18626E-19         0.00000E+00
    0.42485E-07        -0.14435E-19         0.00000E+00
    0.42485E-07         0.34925E-20         0.00000E+00
    0.42485E-07         0.46566E-21         0.00000E+00
    0.42485E-07        -0.18626E-20         0.00000E+00
    0.42485E-07         0.39581E-20         0.00000E+00
    0.42485E-07        -0.74506E-20         0.00000E+00
    0.42485E-07        -0.12573E-19         0.00000E+00
    0.42485E-07        -0.93132E-20         0.00000E+00
    0.42485E-07        -0.79162E-20         0.00000E+00
    0.42485E-07        -0.13970E-20         0.00000E+00
    0.42485E-07         0.79162E-20         0.00000E+00
    0.42485E-07         0.18626E-20         0.00000E+00
    0.42485E-07         0.51223E-20         0.00000E+00
    0.42485E-07        -0.41910E-20         0.00000E+00
    0.42485E-07         0.30268E-20         0.00000E+00
    0.42485E-07         0.32596E-20         0.00000E+00
    0.42485E-07        -0.55879E-20         0.00000E+00
    0.42485E-07        -0.23283E-20         0.00000E+00
    0.42485E-07        -0.37253E-20         0.00000E+00
    0.42485E-07        -0.46566E-20         0.00000E+00
    0.42485E-07        -0.16298E-20         0.00000E+00
    0.42485E-07         0.46566E-21         0.00000E+00
    0.42485E-07        -0.27940E-20         0.00000E+00
    0.42485E-07        -0.60536E-20         0.00000E+00
    0.42485E-07         0.58208E-20         0.00000E+00
    0.42485E-07         0.76834E-20         0.00000E+00
    0.50482E-07        -0.27940E-20         0.00000E+00
    0.50482E-07         0.74506E-20         0.00000E+00
    0.50482E-07         0.00000E+00         0.00000E+00
    0.50482E-07        -0.11176E-19         0.00000E+00
    0.50482E-07        -0.83819E-20         0.00000E+00
    0.50482E-07        -0.23283E-20         0.00000E+00
    0.50482E-07        -0.15832E-19         0.00000E+00
    0.50482E-07        -0.12806E-19         0.00000E+00
    0.50482E-07        -0.13039E-19         0.00000E+00
    0.50482E-07        -0.18626E-20         0.00000E+00
    0.50482E-07        -0.34925E-20         0.00000E+00
    0.50482E-07        -0.32596E-20         0.00000E+00
    0.50482E-07        -0.12340E-19         0.00000E+00
    0.50482E-07        -0.10245E-19         0.00000E+00
    0.50482E-07        -0.23749E-19         0.00000E+00
    0.50482E-07        -0.16764E-19         0.00000E+00
    0.50482E-07        -0.23516E-19         0.00000E+00
    0.50482E-07        -0.21886E-19         0.00000E+00
    0.50482E-07        -0.16764E-19         0.00000E+00
    0.50482E-07        -0.16997E-19         0.00000E+00
    0.50482E-07        -0.27008E-19         0.00000E+00
    0.50482E-07        -0.16298E-19         0.00000E+00
    0.50482E-07        -0.95461E-20         0.00000E+00
    0.50482E-07        -0.12806E-19         0.00000E+00
    0.50482E-07        -0.13504E-19         0.00000E+00
    0.50482E-07        -0.16298E-20         0.00000E+00
    0.50482E-07        -0.44238E-20         0.00000E+00
    0.50482E-07        -0.37253E-20         0.00000E+00
    0.50482E-07         0.00000E+00         0.00000E+00
    0.50482E-07        -0.13970E-20         0.00000E+00
    0.50482E-07        -0.55879E-20         0.00000E+00
    0.50482E-07        -0.83819E-20         0.00000E+00
    0.50482E-07        -0.18626E-20         0.00000E+00
    0.50482E-07         0.67521E-20         0.00000E+00
    0.50482E-07        -0.37253E-20         0.00000E+00
    0.50482E-07        -0.65193E-20         0.00000E+00
    0.50482E-07        -0.93132E-21         0.00000E+00
    0.50482E-07        -0.10477E-19         0.00000E+00
    0.50482E-07        -0.27940E-20         0.00000E+00
    0.50482E-07        -0.23283E-20         0.00000E+00
    0.50482E-07        -0.65193E-20         0.00000E+00
    0.50482E-07        -0.17229E-19         0.00000E+00
    0.50482E-07        -0.11642E-19         0.00000E+00
    0.50482E-07        -0.62864E-20         0.00000E+00
    0.50482E-07        -0.27940E-20         0.00000E+00
    0.50482E-07        -0.27940E-20         0.00000E+00
    0.50482E-07        -0.55879E-20         0.00000E+00
    0.50482E-07        -0.93132E-20         0.00000E+00
    0.50482E-07         0.69849E-20         0.00000E+00
    0.50482E-07         0.11409E-19         0.00000E+00
    0.59986E-07        -0.18626E-20         0.00000E+00
    0.59986E-07         0.74506E-20         0.00000E+00
    0.59986E-07         0.46566E-20         0.00000E+00
    0.59986E-07        -0.93132E-20         0.00000E+00
    0.59986E-07        -0.16298E-20         0.00000E+00
    0.59986E-07        -0.60536E-20         0.00000E+00
    0.59986E-07        -0.17229E-19         0.00000E+00
    0.59986E-07        -0.10710E-19         0.00000E+00
    0.59986E-07        -0.10477E-19         0.00000E+00
    0.59986E-07        -0.23283E-20         0.00000E+00
    0.59986E-07         0.46566E-21         0.00000E+00
    0.59986E-07        -0.74506E-20         0.00000E+00
    0.59986E-07        -0.79162E-20         0.00000E+00
    0.59986E-07        -0.12806E-19         0.00000E+00
    0.59986E-07        -0.21886E-19         0.00000E+00
    0.59986E-07        -0.19558E-19         0.00000E+00
    0.59986E-07        -0.20256E-19         0.00000E+00
    0.59986E-07        -0.19325E-19         0.00000E+00
    0.59986E-07        -0.25379E-19         0.00000E+00
    0.59986E-07        -0.17229E-19         0.00000E+00
    0.59986E-07        -0.29802E-19         0.00000E+00
    0.59986E-07        -0.16531E-19         0.00000E+00
    0.59986E-07        -0.97789E-20         0.00000E+00
    0.59986E-07        -0.10710E-19         0.00000E+00
    0.59986E-07        -0.16298E-19         0.00000E+00
    0.59986E-07        -0.53551E-20         0.00000E+00
    0.59986E-07        -0.69849E-20         0.00000E+00
    0.59986E-07        -0.14668E-19         0.00000E+00
    0.59986E-07        -0.23283E-20         0.00000E+00
    0.59986E-07        -0.39581E-20         0.00000E+00
    0.59986E-07         0.69849E-21         0.00000E+00
    0.59986E-07        -0.16298E-20         0.00000E+00
    0.59986E-07         0.60536E-20         0.00000E+00
    0.59986E-07         0.12806E-19         0.00000E+00
    0.59986E-07        -0.30268E-20         0.00000E+00
    0.59986E-07        -0.86147E-20         0.00000E+00
    0.59986E-07        -0.51223E-20         0.00000E+00
    0.59986E-07        -0.18626E-20         0.00000E+00
    0.59986E-07        -0.16298E-20         0.00000E+00
    0.59986E-07        -0.13970E-20         0.00000E+00
    0.59986E-07        -0.10710E-19         0.00000E+00
    0.59986E-07        -0.11176E-19         0.00000E+00
    0.59986E-07        -0.17695E-19         0.00000E+00
    0.59986E-07        -0.46566E-21         0.00000E+00
    0.59986E-07         0.00000E+00         0.00000E+00
    0.59986E-07         0.48894E-20         0.00000E+00
    0.59986E-07        -0.46566E-21         0.00000E+00
    0.59986E-07        -0.93132E-20         0.00000E+00
    0.59986E-07         0.34925E-20         0.00000E+00
    0.59986E-07         0.62864E-20         0.00000E+00
    0.71278E-07        -0.46566E-20         0.00000E+00
    0.71278E-07         0.12107E-19         0.00000E+00
    0.71278E-07         0.10710E-19         0.00000E+00
    0.71278E-07        -0.65193E-20         0.00000E+00
    0.71278E-07        -0.74506E-20         0.00000E+00
    0.71278E-07        -0.37253E-20         0.00000E+00
    0.71278E-07        -0.93132E-20         0.00000E+00
    0.71278E-07        -0.12573E-19         0.00000E+00
    0.71278E-07        -0.18161E-19         0.00000E+00
    0.71278E-07        -0.41910E-20         0.00000E+00
    0.71278E-07        -0.74506E-20         0.00000E+00
    0.71278E-07        -0.11874E-19         0.00000E+00
    0.71278E-07        -0.13039E-19         0.00000E+00
    0.71278E-07        -0.11176E-19         0.00000E+00
    0.71278E-07        -0.26543E-19         0.00000E+00
    0.71278E-07        -0.17928E-19         0.00000E+00
    0.71278E-07        -0.22352E-19         0.00000E+00
    0.71278E-07        -0.24447E-19         0.00000E+00
    0.71278E-07        -0.25611E-19         0.00000E+00
    0.71278E-07        -0.19558E-19         0.00000E+00
    0.71278E-07        -0.27940E-19         0.00000E+00
    0.71278E-07        -0.28871E-19         0.00000E+00
    0.71278E-07        -0.12107E-19         0.00000E+00
    0.71278E-07        -0.13504E-19         0.00000E+00
    0.71278E-07        -0.13737E-19         0.00000E+00
    0.71278E-07        -0.41910E-20         0.00000E+00
    0.71278E-07         0.46566E-21         0.00000E+00
    0.71278E-07        -0.93132E-20         0.00000E+00
    0.71278E-07        -0.41910E-20         0.00000E+00
    0.71278E-07        -0.10710E-19         0.00000E+00
    0.71278E-07        -0.23283E-20         0.00000E+00
    0.71278E-07         0.18626E-20         0.00000E+00
    0.71278E-07         0.83819E-20         0.00000E+00
    0.71278E-07         0.16298E-20         0.00000E+00
    0.71278E-07         0.51223E-20         0.00000E+00
    0.71278E-07        -0.90804E-20         0.00000E+00
    0.71278E-07        -0.27940E-20         0.00000E+00
    0.71278E-07        -0.83819E-20         0.00000E+00
    0.71278E-07         0.55879E-20         0.00000E+00
    0.71278E-07         0.10012E-19         0.00000E+00
    0.71278E-07        -0.11409E-19         0.00000E+00
    0.71278E-07        -0.11642E-19         0.00000E+00
    0.71278E-07        -0.55879E-20         0.00000E+00
    0.71278E-07         0.65193E-20         0.00000E+00
    0.71278E-07         0.23283E-20         0.00000E+00
    0.71278E-07         0.10245E-19         0.00000E+00
    0.71278E-07         0.46566E-21         0.00000E+00
    0.71278E-07        -0.46566E-20         0.00000E+00
    0.71278E-07         0.41910E-20         0.00000E+00
    0.71278E-07         0.41910E-20         0.00000E+00
    0.84696E-07        -0.60536E-20         0.00000E+00
    0.84696E-07         0.60536E-20         0.00000E+00
    0.84696E-07         0.11176E-19         0.00000E+00
    0.84696E-07        -0.74506E-20         0.00000E+00
    0.84696E-07        -0.62864E-20         0.00000E+00
    0.84696E-07        -0.20955E-20         0.00000E+00
    0.84696E-07        -0.18626E-20         0.00000E+00
    0.84696E-07        -0.13504E-19         0.00000E+00
    0.84696E-07        -0.16764E-19         0.00000E+00
    0.84696E-07        -0.81491E-20         0.00000E+00
    0.84696E-07        -0.16764E-19         0.00000E+00
    0.84696E-07        -0.15367E-19         0.00000E+00
    0.84696E-07        -0.14435E-19         0.00000E+00
    0.84696E-07        -0.10245E-19         0.00000E+00
    0.84696E-07        -0.26077E-19         0.00000E+00
    0.84696E-07        -0.20023E-19         0.00000E+00
    0.84696E-07        -0.25146E-19         0.00000E+00
    0.84696E-07        -0.17229E-19         0.00000E+00
    0.84696E-07        -0.23749E-19         0.00000E+00
    0.84696E-07        -0.21653E-19         0.00000E+00
    0.84696E-07        -0.34925E-19         0.00000E+00
    0.84696E-07        -0.31665E-19         0.00000E+00
    0.84696E-07        -0.11874E-19         0.00000E+00
    0.84696E-07        -0.13504E-19         0.00000E+00
    0.84696E-07        -0.93132E-20         0.00000E+00
    0.84696E-07         0.55879E-20         0.00000E+00
    0.84696E-07         0.46566E-21         0.00000E+00
    0.84696E-07        -0.11642E-20         0.00000E+00
    0.84696E-07        -0.55879E-20         0.00000E+00
    0.84696E-07        -0.10245E-19         0.00000E+00
    0.84696E-07        -0.93132E-20         0.00000E+00
    0.84696E-07         0.18626E-20         0.00000E+00
    0.84696E-07         0.65193E-20         0.00000E+00
    0.84696E-07        -0.27940E-20         0.00000E+00
    0.84696E-07         0.20955E-20         0.00000E+00
    0.84696E-07        -0.95461E-20         0.00000E+00
    0.84696E-07         0.93132E-21         0.00000E+00
    0.84696E-07         0.18626E-20         0.00000E+00
    0.84696E-07         0.11642E-19         0.00000E+00
    0.84696E-07         0.11874E-19         0.00000E+00
    0.84696E-07        -0.93132E-20         0.00000E+00
    0.84696E-07        -0.13039E-19         0.00000E+00
    0.84696E-07        -0.13970E-20         0.00000E+00
    0.84696E-07         0.60536E-20         0.00000E+00
    0.84696E-07         0.32596E-20         0.00000E+00
    0.84696E-07         0.25611E-20         0.00000E+00
    0.84696E-07         0.00000E+00         0.00000E+00
    0.84696E-07        -0.46566E-21         0.00000E+00
    0.84696E-07         0.60536E-20         0.00000E+00
    0.84696E-07         0.55879E-20         0.00000E+00
    0.10064E-06        -0.58208E-20         0.00000E+00
    0.10064E-06         0.39581E-20         0.00000E+00
    0.10064E-06         0.12806E-19         0.00000E+00
    0.10064E-06        -0.10012E-19         0.00000E+00
    0.10064E-06        -0.97789E-20         0.00000E+00
    0.10064E-06        -0.69849E-20         0.00000E+00
    0.10064E-06        -0.20955E-20         0.00000E+00
    0.10064E-06        -0.97789E-20         0.00000E+00
    0.10064E-06        -0.44238E-20         0.00000E+00
    0.10064E-06        -0.95461E-20         0.00000E+00
    0.10064E-06        -0.14668E-19         0.00000E+00
    0.10064E-06        -0.15367E-19         0.00000E+00
    0.10064E-06        -0.83819E-20         0.00000E+00
    0.10064E-06        -0.51223E-20         0.00000E+00
    0.10064E-06        -0.14435E-19         0.00000E+00
    0.10064E-06        -0.23283E-19         0.00000E+00
    0.10064E-06        -0.28871E-19         0.00000E+00
    0.10064E-06        -0.22352E-19         0.00000E+00
    0.10064E-06        -0.18161E-19         0.00000E+00
    0.10064E-06        -0.25146E-19         0.00000E+00
    0.10064E-06        -0.44238E-19         0.00000E+00
    0.10064E-06        -0.28871E-19         0.00000E+00
    0.10064E-06        -0.88476E-20         0.00000E+00
    0.10064E-06        -0.15600E-19         0.00000E+00
    0.10064E-06        -0.15367E-19         0.00000E+00
    0.10064E-06         0.93132E-21         0.00000E+00
    0.10064E-06        -0.46566E-21         0.00000E+00
    0.10064E-06        -0.18626E-20         0.00000E+00
    0.10064E-06         0.27940E-20         0.00000E+00
    0.10064E-06        -0.10943E-19         0.00000E+00
    0.10064E-06        -0.10710E-19         0.00000E+00
    0.10064E-06        -0.46566E-20         0.00000E+00
    0.10064E-06         0.32596E-20         0.00000E+00
    0.10064E-06         0.12806E-19         0.00000E+00
    0.10064E-06         0.46566E-21         0.00000E+00
    0.10064E-06         0.16298E-20         0.00000E+00
    0.10064E-06         0.48894E-20         0.00000E+00
    0.10064E-06         0.58208E-20         0.00000E+00
    0.10064E-06         0.51223E-20         0.00000E+00
    0.10064E-06         0.00000E+00         0.00000E+00
    0.10064E-06        -0.46566E-21         0.00000E+00
    0.10064E-06        -0.88476E-20         0.00000E+00
    0.10064E-06        -0.93132E-21         0.00000E+00
    0.10064E-06         0.41910E-20         0.00000E+00
    0.10064E-06         0.11642E-20         0.00000E+00
    0.10064E-06         0.18626E-20         0.00000E+00
    0.10064E-06         0.37253E-20         0.00000E+00
    0.10064E-06        -0.41910E-20         0.00000E+00
    0.10064E-06         0.10710E-19         0.00000E+00
    0.10064E-06         0.76834E-20         0.00000E+00
    0.11959E-06        -0.20955E-20         0.00000E+00
    0.11959E-06         0.97789E-20         0.00000E+00
    0.11959E-06         0.13504E-19         0.00000E+00
    0.11959E-06        -0.10245E-19         0.00000E+00
    0.11959E-06        -0.53551E-20         0.00000E+00
    0.11959E-06        -0.11176E-19         0.00000E+00
    0.11959E-06        -0.62864E-20         0.00000E+00
    0.11959E-06        -0.16764E-19         0.00000E+00
    0.11959E-06        -0.12806E-19         0.00000E+00
    0.11959E-06        -0.51223E-20         0.00000E+00
    0.11959E-06        -0.41910E-20         0.00000E+00
    0.11959E-06        -0.65193E-20         0.00000E+00
    0.11959E-06        -0.60536E-20         0.00000E+00
    0.11959E-06         0.69849E-21         0.00000E+00
    0.11959E-06        -0.17229E-19         0.00000E+00
    0.11959E-06        -0.10943E-19         0.00000E+00
    0.11959E-06        -0.25611E-19         0.00000E+00
    0.11959E-06        -0.23283E-19         0.00000E+00
    0.11959E-06        -0.18626E-19         0.00000E+00
    0.11959E-06        -0.27008E-19         0.00000E+00
    0.11959E-06        -0.41910E-19         0.00000E+00
    0.11959E-06        -0.30734E-19         0.00000E+00
    0.11959E-06        -0.13504E-19         0.00000E+00
    0.11959E-06        -0.17695E-19         0.00000E+00
    0.11959E-06        -0.17928E-19         0.00000E+00
    0.11959E-06        -0.23283E-21         0.00000E+00
    0.11959E-06         0.37253E-20         0.00000E+00
    0.11959E-06        -0.13970E-20         0.00000E+00
    0.11959E-06         0.32596E-20         0.00000E+00
    0.11959E-06        -0.93132E-20         0.00000E+00
    0.11959E-06        -0.27940E-20         0.00000E+00
    0.11959E-06         0.46566E-21         0.00000E+00
    0.11959E-06         0.69849E-20         0.00000E+00
    0.11959E-06         0.12107E-19         0.00000E+00
    0.11959E-06         0.74506E-20         0.00000E+00
    0.11959E-06         0.25611E-20         0.00000E+00
    0.11959E-06         0.90804E-20         0.00000E+00
    0.11959E-06         0.23283E-20         0.00000E+00
    0.11959E-06         0.13970E-20         0.00000E+00
    0.11959E-06         0.93132E-21         0.00000E+00
    0.11959E-06         0.69849E-21         0.00000E+00
    0.11959E-06        -0.12107E-19         0.00000E+00
    0.11959E-06        -0.69849E-20         0.00000E+00
    0.11959E-06        -0.32596E-20         0.00000E+00
    0.11959E-06        -0.55879E-20         0.00000E+00
    0.11959E-06         0.41910E-20         0.00000E+00
    0.11959E-06         0.51223E-20         0.00000E+00
    0.11959E-06        -0.27940E-20         0.00000E+00
    0.11959E-06         0.97789E-20         0.00000E+00
    0.11959E-06         0.16298E-20         0.00000E+00
    0.14210E-06        -0.13970E-20         0.00000E+00
    0.14210E-06         0.79162E-20         0.00000E+00
    0.14210E-06         0.12107E-19         0.00000E+00
    0.14210E-06        -0.65193E-20         0.00000E+00
    0.14210E-06        -0.46566E-20         0.00000E+00
    0.14210E-06        -0.72177E-20         0.00000E+00
    0.14210E-06        -0.13970E-19         0.00000E+00
    0.14210E-06        -0.19558E-19         0.00000E+00
    0.14210E-06        -0.97789E-20         0.00000E+00
    0.14210E-06        -0.90804E-20         0.00000E+00
    0.14210E-06        -0.10477E-19         0.00000E+00
    0.14210E-06        -0.46566E-20         0.00000E+00
    0.14210E-06        -0.48894E-20         0.00000E+00
    0.14210E-06        -0.37253E-20         0.00000E+00
    0.14210E-06        -0.20489E-19         0.00000E+00
    0.14210E-06        -0.15367E-19         0.00000E+00
    0.14210E-06        -0.22817E-19         0.00000E+00
    0.14210E-06        -0.14901E-19         0.00000E+00
    0.14210E-06        -0.21886E-19         0.00000E+00
    0.14210E-06        -0.23749E-19         0.00000E+00
    0.14210E-06        -0.35856E-19         0.00000E+00
    0.14210E-06        -0.28405E-19         0.00000E+00
    0.14210E-06        -0.15367E-19         0.00000E+00
    0.14210E-06        -0.11642E-19         0.00000E+00
    0.14210E-06        -0.15600E-19         0.00000E+00
    0.14210E-06         0.93132E-21         0.00000E+00
    0.14210E-06         0.93132E-20         0.00000E+00
    0.14210E-06        -0.46566E-21         0.00000E+00
    0.14210E-06         0.97789E-20         0.00000E+00
    0.14210E-06        -0.27940E-20         0.00000E+00
    0.14210E-06         0.18626E-20         0.00000E+00
    0.14210E-06         0.60536E-20         0.00000E+00
    0.14210E-06         0.74506E-20         0.00000E+00
    0.14210E-06         0.11176E-19         0.00000E+00
    0.14210E-06         0.18626E-20         0.00000E+00
    0.14210E-06        -0.65193E-20         0.00000E+00
    0.14210E-06        -0.23283E-20         0.00000E+00
    0.14210E-06         0.55879E-20         0.00000E+00
    0.14210E-06         0.18626E-20         0.00000E+00
    0.14210E-06         0.32596E-20         0.00000E+00
    0.14210E-06        -0.32596E-20         0.00000E+00
    0.14210E-06        -0.46566E-20         0.00000E+00
    0.14210E-06        -0.79162E-20         0.00000E+00
    0.14210E-06        -0.10245E-19         0.00000E+00
    0.14210E-06        -0.10012E-19         0.00000E+00
    0.14210E-06         0.27940E-20         0.00000E+00
    0.14210E-06        -0.13970E-20         0.00000E+00
    0.14210E-06        -0.46566E-20         0.00000E+00
    0.14210E-06         0.10245E-19         0.00000E+00
    0.14210E-06         0.13970E-20         0.00000E+00
    0.16885E-06        -0.50059E-20         0.00000E+00
    0.16885E-06         0.34925E-20         0.00000E+00
    0.16885E-06         0.25611E-20         0.00000E+00
    0.16885E-06        -0.10943E-19         0.00000E+00
    0.16885E-06        -0.95461E-20         0.00000E+00
    0.16885E-06        -0.86147E-20         0.00000E+00
    0.16885E-06        -0.16647E-19         0.00000E+00
    0.16885E-06        -0.12922E-19         0.00000E+00
    0.16885E-06        -0.15716E-19         0.00000E+00
    0.16885E-06        -0.23283E-20         0.00000E+00
    0.16885E-06        -0.30268E-20         0.00000E+00
    0.16885E-06        -0.48894E-20         0.00000E+00
    0.16885E-06        -0.73342E-20         0.00000E+00
    0.16885E-06        -0.90804E-20         0.00000E+00
    0.16885E-06        -0.20373E-19         0.00000E+00
    0.16885E-06        -0.17113E-19         0.00000E+00
    0.16885E-06        -0.21188E-19         0.00000E+00
    0.16885E-06        -0.17229E-19         0.00000E+00
    0.16885E-06        -0.23982E-19         0.00000E+00
    0.16885E-06        -0.21886E-19         0.00000E+00
    0.16885E-06        -0.33760E-19         0.00000E+00
    0.16885E-06        -0.20023E-19         0.00000E+00
    0.16885E-06        -0.10012E-19         0.00000E+00
    0.16885E-06        -0.89640E-20         0.00000E+00
    0.16885E-06        -0.11874E-19         0.00000E+00
    0.16885E-06        -0.27940E-20         0.00000E+00
    0.16885E-06         0.55879E-20         0.00000E+00
    0.16885E-06         0.33760E-20         0.00000E+00
    0.16885E-06         0.11409E-19         0.00000E+00
    0.16885E-06        -0.23283E-21         0.00000E+00
    0.16885E-06         0.11642E-20         0.00000E+00
    0.16885E-06         0.18626E-20         0.00000E+00
    0.16885E-06         0.10012E-19         0.00000E+00
    0.16885E-06         0.12689E-19         0.00000E+00
    0.16885E-06         0.39581E-20         0.00000E+00
    0.16885E-06        -0.76834E-20         0.00000E+00
    0.16885E-06        -0.23283E-20         0.00000E+00
    0.16885E-06        -0.51223E-20         0.00000E+00
    0.16885E-06        -0.22119E-20         0.00000E+00
    0.16885E-06        -0.23283E-21         0.00000E+00
    0.16885E-06        -0.10710E-19         0.00000E+00
    0.16885E-06        -0.10477E-19         0.00000E+00
    0.16885E-06        -0.86147E-20         0.00000E+00
    0.16885E-06        -0.58208E-20         0.00000E+00
    0.16885E-06        -0.83819E-20         0.00000E+00
    0.16885E-06        -0.67521E-20         0.00000E+00
    0.16885E-06        -0.18626E-20         0.00000E+00
    0.16885E-06        -0.59372E-20         0.00000E+00
    0.16885E-06         0.60536E-20         0.00000E+00
    0.16885E-06         0.76834E-20         0.00000E+00
    0.20064E-06        -0.41910E-20         0.00000E+00
    0.20064E-06        -0.46566E-20         0.00000E+00
    0.20064E-06        -0.32596E-20         0.00000E+00
    0.20064E-06        -0.13271E-19         0.00000E+00
    0.20064E-06        -0.67521E-20         0.00000E+00
    0.20064E-06        -0.12107E-19         0.00000E+00
    0.20064E-06        -0.11176E-19         0.00000E+00
    0.20064E-06        -0.17695E-19         0.00000E+00
    0.20064E-06        -0.15716E-19         0.00000E+00
    0.20064E-06        -0.10943E-19         0.00000E+00
    0.20064E-06        -0.15134E-20         0.00000E+00
    0.20064E-06        -0.41910E-20         0.00000E+00
    0.20064E-06        -0.96625E-20         0.00000E+00
    0.20064E-06        -0.11059E-19         0.00000E+00
    0.20064E-06        -0.17695E-19         0.00000E+00
    0.20064E-06        -0.19674E-19         0.00000E+00
    0.20064E-06        -0.19325E-19         0.00000E+00
    0.20064E-06        -0.16880E-19         0.00000E+00
    0.20064E-06        -0.18859E-19         0.00000E+00
    0.20064E-06        -0.23982E-19         0.00000E+00
    0.20064E-06        -0.27474E-19         0.00000E+00
    0.20064E-06        -0.20256E-19         0.00000E+00
    0.20064E-06        -0.12224E-19         0.00000E+00
    0.20064E-06        -0.95461E-20         0.00000E+00
    0.20064E-06        -0.12573E-19         0.00000E+00
    0.20064E-06         0.51223E-20         0.00000E+00
    0.20064E-06         0.34925E-20         0.00000E+00
    0.20064E-06         0.18626E-20         0.00000E+00
    0.20064E-06         0.12806E-20         0.00000E+00
    0.20064E-06        -0.43074E-20         0.00000E+00
    0.20064E-06         0.31432E-20         0.00000E+00
    0.20064E-06         0.69849E-20         0.00000E+00
    0.20064E-06         0.94296E-20         0.00000E+00
    0.20064E-06         0.30268E-20         0.00000E+00
    0.20064E-06         0.90804E-20         0.00000E+00
    0.20064E-06        -0.81491E-21         0.00000E+00
    0.20064E-06         0.30268E-20         0.00000E+00
    0.20064E-06        -0.82655E-20         0.00000E+00
    0.20064E-06        -0.40745E-20         0.00000E+00
    0.20064E-06        -0.34925E-20         0.00000E+00
    0.20064E-06        -0.13039E-19         0.00000E+00
    0.20064E-06        -0.16298E-19         0.00000E+00
    0.20064E-06        -0.91968E-20         0.00000E+00
    0.20064E-06        -0.79162E-20         0.00000E+00
    0.20064E-06        -0.88476E-20         0.00000E+00
    0.20064E-06        -0.34925E-21         0.00000E+00
    0.20064E-06        -0.37253E-20         0.00000E+00
    0.20064E-06         0.34925E-21         0.00000E+00
    0.20064E-06         0.86147E-20         0.00000E+00
    0.20064E-06         0.39581E-20         0.00000E+00
    0.23841E-06        -0.32596E-20         0.00000E+00
    0.23841E-06         0.59372E-20         0.00000E+00
    0.23841E-06         0.17462E-20         0.00000E+00
    0.23841E-06        -0.90804E-20         0.00000E+00
    0.23841E-06        -0.12689E-19         0.00000E+00
    0.23841E-06        -0.12573E-19         0.00000E+00
    0.23841E-06        -0.17928E-19         0.00000E+00
    0.23841E-06        -0.16531E-19         0.00000E+00
    0.23841E-06        -0.13155E-19         0.00000E+00
    0.23841E-06        -0.11059E-19         0.00000E+00
    0.23841E-06        -0.15600E-19         0.00000E+00
    0.23841E-06        -0.67521E-20         0.00000E+00
    0.23841E-06        -0.76834E-20         0.00000E+00
    0.23841E-06        -0.14785E-19         0.00000E+00
    0.23841E-06        -0.19791E-19         0.00000E+00
    0.23841E-06        -0.19674E-19         0.00000E+00
    0.23841E-06        -0.14435E-19         0.00000E+00
    0.23841E-06        -0.16531E-19         0.00000E+00
    0.23841E-06        -0.10477E-19         0.00000E+00
    0.23841E-06        -0.16531E-19         0.00000E+00
    0.23841E-06        -0.20606E-19         0.00000E+00
    0.23841E-06        -0.18510E-19         0.00000E+00
    0.23841E-06        -0.16997E-19         0.00000E+00
    0.23841E-06        -0.90804E-20         0.00000E+00
    0.23841E-06        -0.13621E-19         0.00000E+00
    0.23841E-06         0.34925E-20         0.00000E+00
    0.23841E-06         0.11642E-20         0.00000E+00
    0.23841E-06        -0.62864E-20         0.00000E+00
    0.23841E-06        -0.11642E-20         0.00000E+00
    0.23841E-06        -0.69849E-21         0.00000E+00
    0.23841E-06         0.53551E-20         0.00000E+00
    0.23841E-06         0.84983E-20         0.00000E+00
    0.23841E-06         0.57044E-20         0.00000E+00
    0.23841E-06         0.27940E-20         0.00000E+00
    0.23841E-06         0.37253E-20         0.00000E+00
    0.23841E-06         0.23283E-21         0.00000E+00
    0.23841E-06         0.83819E-20         0.00000E+00
    0.23841E-06        -0.69849E-21         0.00000E+00
    0.23841E-06         0.23283E-20         0.00000E+00
    0.23841E-06        -0.37253E-20         0.00000E+00
    0.23841E-06        -0.15367E-19         0.00000E+00
    0.23841E-06        -0.14552E-19         0.00000E+00
    0.23841E-06        -0.54715E-20         0.00000E+00
    0.23841E-06        -0.12806E-20         0.00000E+00
    0.23841E-06        -0.11642E-21         0.00000E+00
    0.23841E-06         0.34925E-20         0.00000E+00
    0.23841E-06        -0.22119E-20         0.00000E+00
    0.23841E-06         0.23283E-20         0.00000E+00
    0.23841E-06         0.60536E-20         0.00000E+00
    0.23841E-06         0.71013E-20         0.00000E+00
    0.28329E-06         0.00000E+00         0.00000E+00
    0.28329E-06         0.55879E-20         0.00000E+00
    0.28329E-06         0.27940E-20         0.00000E+00
    0.28329E-06        -0.14086E-19         0.00000E+00
    0.28329E-06        -0.16531E-19         0.00000E+00
    0.28329E-06        -0.17579E-19         0.00000E+00
    0.28329E-06        -0.16531E-19         0.00000E+00
    0.28329E-06        -0.16647E-19         0.00000E+00
    0.28329E-06        -0.16997E-19         0.00000E+00
    0.28329E-06        -0.98953E-20         0.00000E+00
    0.28329E-06        -0.13737E-19         0.00000E+00
    0.28329E-06        -0.14319E-19         0.00000E+00
    0.28329E-06        -0.88476E-20         0.00000E+00
    0.28329E-06        -0.98953E-20         0.00000E+00
    0.28329E-06        -0.16298E-19         0.00000E+00
    0.28329E-06        -0.11292E-19         0.00000E+00
    0.28329E-06        -0.15716E-19         0.00000E+00
    0.28329E-06        -0.16415E-19         0.00000E+00
    0.28329E-06        -0.12573E-19         0.00000E+00
    0.28329E-06        -0.97789E-20         0.00000E+00
    0.28329E-06        -0.21886E-19         0.00000E+00
    0.28329E-06        -0.13271E-19         0.00000E+00
    0.28329E-06        -0.34925E-20         0.00000E+00
    0.28329E-06        -0.45402E-20         0.00000E+00
    0.28329E-06        -0.51223E-20         0.00000E+00
    0.28329E-06         0.00000E+00         0.00000E+00
    0.28329E-06        -0.39581E-20         0.00000E+00
    0.28329E-06        -0.10710E-19         0.00000E+00
    0.28329E-06        -0.46566E-21         0.00000E+00
    0.28329E-06        -0.32596E-20         0.00000E+00
    0.28329E-06         0.15134E-20         0.00000E+00
    0.28329E-06         0.46566E-21         0.00000E+00
    0.28329E-06         0.76834E-20         0.00000E+00
    0.28329E-06         0.55879E-20         0.00000E+00
    0.28329E-06         0.86147E-20         0.00000E+00
    0.28329E-06         0.46566E-20         0.00000E+00
    0.28329E-06         0.69849E-20         0.00000E+00
    0.28329E-06         0.37253E-20         0.00000E+00
    0.28329E-06         0.53551E-20         0.00000E+00
    0.28329E-06         0.45402E-20         0.00000E+00
    0.28329E-06        -0.51223E-20         0.00000E+00
    0.28329E-06        -0.75670E-20         0.00000E+00
    0.28329E-06        -0.51223E-20         0.00000E+00
    0.28329E-06        -0.69849E-21         0.00000E+00
    0.28329E-06         0.93132E-21         0.00000E+00
    0.28329E-06        -0.18626E-20         0.00000E+00
    0.28329E-06         0.23283E-20         0.00000E+00
    0.28329E-06        -0.66357E-20         0.00000E+00
    0.28329E-06         0.34925E-21         0.00000E+00
    0.28329E-06         0.10245E-19         0.00000E+00
    0.33662E-06        -0.93132E-21         0.00000E+00
    0.33662E-06        -0.25611E-20         0.00000E+00
    0.33662E-06        -0.76834E-20         0.00000E+00
    0.33662E-06        -0.14435E-19         0.00000E+00
    0.33662E-06        -0.91968E-20         0.00000E+00
    0.33662E-06        -0.11758E-19         0.00000E+00
    0.33662E-06        -0.13271E-19         0.00000E+00
    0.33662E-06        -0.14901E-19         0.00000E+00
    0.33662E-06        -0.13737E-19         0.00000E+00
    0.33662E-06        -0.11642E-19         0.00000E+00
    0.33662E-06        -0.95461E-20         0.00000E+00
    0.33662E-06        -0.90804E-20         0.00000E+00
    0.33662E-06        -0.10943E-19         0.00000E+00
    0.33662E-06        -0.46566E-20         0.00000E+00
    0.33662E-06        -0.21653E-19         0.00000E+00
    0.33662E-06        -0.19558E-19         0.00000E+00
    0.33662E-06        -0.19325E-19         0.00000E+00
    0.33662E-06        -0.11059E-19         0.00000E+00
    0.33662E-06        -0.15832E-19         0.00000E+00
    0.33662E-06        -0.13737E-19         0.00000E+00
    0.33662E-06        -0.19558E-19         0.00000E+00
    0.33662E-06        -0.90804E-20         0.00000E+00
    0.33662E-06         0.37253E-20         0.00000E+00
    0.33662E-06         0.23283E-20         0.00000E+00
    0.33662E-06         0.93132E-21         0.00000E+00
    0.33662E-06         0.61700E-20         0.00000E+00
    0.33662E-06         0.58208E-20         0.00000E+00
    0.33662E-06         0.93132E-21         0.00000E+00
    0.33662E-06         0.13970E-20         0.00000E+00
    0.33662E-06        -0.30268E-20         0.00000E+00
    0.33662E-06        -0.46566E-21         0.00000E+00
    0.33662E-06        -0.11642E-20         0.00000E+00
    0.33662E-06         0.68685E-20         0.00000E+00
    0.33662E-06         0.10594E-19         0.00000E+00
    0.33662E-06         0.76834E-20         0.00000E+00
    0.33662E-06         0.23283E-20         0.00000E+00
    0.33662E-06         0.51223E-20         0.00000E+00
    0.33662E-06         0.30268E-20         0.00000E+00
    0.33662E-06         0.33760E-20         0.00000E+00
    0.33662E-06         0.51223E-20         0.00000E+00
    0.33662E-06         0.48894E-20         0.00000E+00
    0.33662E-06        -0.30268E-20         0.00000E+00
    0.33662E-06        -0.18626E-20         0.00000E+00
    0.33662E-06        -0.25611E-20         0.00000E+00
    0.33662E-06        -0.86147E-20         0.00000E+00
    0.33662E-06        -0.58208E-21         0.00000E+00
    0.33662E-06        -0.20955E-20         0.00000E+00
    0.33662E-06        -0.46566E-20         0.00000E+00
    0.33662E-06         0.59372E-20         0.00000E+00
    0.33662E-06         0.34925E-20         0.00000E+00
    0.39999E-06        -0.41910E-20         0.00000E+00
    0.39999E-06        -0.17462E-20         0.00000E+00
    0.39999E-06        -0.12806E-20         0.00000E+00
    0.39999E-06        -0.12224E-19         0.00000E+00
    0.39999E-06        -0.12340E-19         0.00000E+00
    0.39999E-06        -0.82655E-20         0.00000E+00
    0.39999E-06        -0.88476E-20         0.00000E+00
    0.39999E-06        -0.44238E-20         0.00000E+00
    0.39999E-06        -0.69849E-20         0.00000E+00
    0.39999E-06         0.93132E-21         0.00000E+00
    0.39999E-06        -0.76834E-20         0.00000E+00
    0.39999E-06        -0.62864E-20         0.00000E+00
    0.39999E-06        -0.65193E-20         0.00000E+00
    0.39999E-06        -0.65193E-20         0.00000E+00
    0.39999E-06        -0.14668E-19         0.00000E+00
    0.39999E-06        -0.69849E-20         0.00000E+00
    0.39999E-06        -0.13970E-19         0.00000E+00
    0.39999E-06        -0.13271E-19         0.00000E+00
    0.39999E-06        -0.83819E-20         0.00000E+00
    0.39999E-06        -0.15367E-19         0.00000E+00
    0.39999E-06        -0.17462E-19         0.00000E+00
    0.39999E-06        -0.74506E-20         0.00000E+00
    0.39999E-06         0.20955E-20         0.00000E+00
    0.39999E-06         0.53551E-20         0.00000E+00
    0.39999E-06         0.23283E-21         0.00000E+00
    0.39999E-06         0.10710E-19         0.00000E+00
    0.39999E-06         0.10477E-19         0.00000E+00
    0.39999E-06         0.58208E-20         0.00000E+00
    0.39999E-06         0.27940E-20         0.00000E+00
    0.39999E-06        -0.18626E-20         0.00000E+00
    0.39999E-06         0.48894E-20         0.00000E+00
    0.39999E-06         0.41910E-20         0.00000E+00
    0.39999E-06         0.39581E-20         0.00000E+00
    0.39999E-06         0.65193E-20         0.00000E+00
    0.39999E-06         0.19791E-20         0.00000E+00
    0.39999E-06        -0.46566E-21         0.00000E+00
    0.39999E-06         0.37253E-20         0.00000E+00
    0.39999E-06        -0.16298E-20         0.00000E+00
    0.39999E-06         0.51223E-20         0.00000E+00
    0.39999E-06         0.11642E-19         0.00000E+00
    0.39999E-06        -0.29104E-20         0.00000E+00
    0.39999E-06        -0.53551E-20         0.00000E+00
    0.39999E-06         0.23283E-20         0.00000E+00
    0.39999E-06        -0.23283E-21         0.00000E+00
    0.39999E-06        -0.45402E-20         0.00000E+00
    0.39999E-06        -0.13970E-20         0.00000E+00
    0.39999E-06        -0.15134E-20         0.00000E+00
    0.39999E-06        -0.25611E-20         0.00000E+00
    0.39999E-06         0.93132E-20         0.00000E+00
    0.39999E-06        -0.10477E-20         0.00000E+00
    0.47529E-06        -0.27940E-20         0.00000E+00
    0.47529E-06         0.93132E-21         0.00000E+00
    0.47529E-06         0.32596E-20         0.00000E+00
    0.47529E-06        -0.79162E-20         0.00000E+00
    0.47529E-06        -0.74506E-20         0.00000E+00
    0.47529E-06        -0.37253E-20         0.00000E+00
    0.47529E-06         0.10827E-19         0.00000E+00
    0.47529E-06        -0.46566E-21         0.00000E+00
    0.47529E-06        -0.37253E-20         0.00000E+00
    0.47529E-06        -0.13039E-19         0.00000E+00
    0.47529E-06         0.98953E-20         0.00000E+00
    0.47529E-06        -0.37253E-20         0.00000E+00
    0.47529E-06         0.00000E+00         0.00000E+00
    0.47529E-06         0.00000E+00         0.00000E+00
    0.47529E-06        -0.37253E-20         0.00000E+00
    0.47529E-06        -0.13970E-20         0.00000E+00
    0.47529E-06        -0.46566E-20         0.00000E+00
    0.47529E-06         0.55879E-20         0.00000E+00
    0.47529E-06        -0.15600E-19         0.00000E+00
    0.47529E-06        -0.69849E-20         0.00000E+00
    0.47529E-06        -0.83819E-20         0.00000E+00
    0.47529E-06        -0.46566E-20         0.00000E+00
    0.47529E-06         0.93132E-21         0.00000E+00
    0.47529E-06         0.37253E-20         0.00000E+00
    0.47529E-06         0.00000E+00         0.00000E+00
    0.47529E-06         0.55879E-20         0.00000E+00
    0.47529E-06         0.55879E-20         0.00000E+00
    0.47529E-06         0.13970E-20         0.00000E+00
    0.47529E-06         0.93132E-21         0.00000E+00
    0.47529E-06        -0.93132E-21         0.00000E+00
    0.47529E-06         0.00000E+00         0.00000E+00
    0.47529E-06        -0.73342E-20         0.00000E+00
    0.47529E-06         0.12922E-19         0.00000E+00
    0.47529E-06         0.23283E-20         0.00000E+00
    0.47529E-06         0.23283E-20         0.00000E+00
    0.47529E-06         0.23283E-20         0.00000E+00
    0.47529E-06         0.13970E-20         0.00000E+00
    0.47529E-06        -0.37253E-20         0.00000E+00
    0.47529E-06         0.93132E-21         0.00000E+00
    0.47529E-06        -0.13155E-19         0.00000E+00
    0.47529E-06        -0.23283E-20         0.00000E+00
    0.47529E-06         0.13504E-19         0.00000E+00
    0.47529E-06         0.23283E-20         0.00000E+00
    0.47529E-06         0.13970E-20         0.00000E+00
    0.47529E-06        -0.13970E-20         0.00000E+00
    0.47529E-06         0.00000E+00         0.00000E+00
    0.47529E-06         0.23283E-20         0.00000E+00
    0.47529E-06         0.13271E-19         0.00000E+00
    0.47529E-06        -0.11642E-19         0.00000E+00
    0.47529E-06         0.16065E-19         0.00000E+00
POINT_DATA       5151
VECTORS vDarcyNodal double 
    0.31686E-06         0.00000E+00         0.00000E+00
    0.31686E-06         0.00000E+00         0.00000E+00
    0.31686E-06         0.00000E+00         0.00000E+00
    0.31686E-06         0.00000E+00         0.00000E+00
    0.31686E-06         0.00000E+00         0.00000E+00
    0.31686E-06         0.00000E+00         0.00000E+00
    0.31686E-06         0.00000E+00         0.00000E+00
    0.31686E-06         0.00000E+00         0.00000E+00
    0.31686E-06         0.00000E+00         0.00000E+00
    0.31686E-06         0.00000E+00         0.00000E+00
    0.31686E-06         0.00000E+00         0.00000E+00
    0.31686E-06         0.00000E+00         0.00000E+00
    0.31686E-06         0.00000E+00         0.00000E+00
    0.31686E-06         0.00000E+00         0.00000E+00
    0.31686E-06         0.00000E+00         0.00000E+00
    0.31686E-06         0.00000E+00         0.00000E+00
    0.31686E-06         0.00000E+00         0.00000E+00
    0.31686E-06         0.00000E+00         0.00000E+00
    0.31686E-06         0.00000E+00         0.00000E+00
    0.31686E-06         0.00000E+00         0.00000E+00
    0.31686E-06         0.00000E+00         0.00000E+00
    0.31686E-06         0.00000E+00         0.00000E+00
    0.31686E-06         0.00000E+00         0.00000E+00
    0.31686E-06         0.00000E+00         0.00000E+00
    0.31686E-06         0.00000E+00         0.00000E+00
    0.31686E-06         0.00000E+00         0.00000E+00
    0.31686E-06         0.00000E+00         0.00000E+00
    0.31686E-06         0.00000E+00         0.00000E+00
    0.31686E-06         0.00000E+00         0.00000E+00
    0.31686E-06         0.00000E+00         0.00000E+00
    0.31686E-06         0.00000E+00         0.00000E+00
    0.31686E-06         0.00000E+00         0.00000E+00
    0.31686E-06         0.00000E+00         0.00000E+00
    0.31686E-06         0.00000E+00         0.00000E+00
    0.31686E-06         0.00000E+00         0.00000E+00
    0.31686E-06         0.00000E+00         0.00000E+00
    0.31686E-06         0.00000E+00         0.00000E+00
    0.31686E-06         0.00000E+00         0.00000E+00
    0.31686E-06         0.00000E+00         0.00000E+00
    0.31686E-06         0.00000E+00         0.00000E+00
    0.31686E-06         0.00000E+00         0.00000E+00
    0.31686E-06         0.00000E+00         0.00000E+00
    0.31686E-06         0.00000E+00         0.00000E+00
    0.31686E-06         0.00000E+00         0.00000E+00
    0.31686E-06         0.00000E+00         0.00000E+00
    0.31686E-06         0.00000E+00         0.00000E+00
    0.31686E-06         0.00000E+00         0.00000E+00
    0.31686E-06         0.00000E+00         0.00000E+00
    0.31686E-06         0.00000E+00         0.00000E+00
    0.31686E-06         0.00000E+00         0.00000E+00
    0.31686E-06         0.00000E+00         0.00000E+00
    0.29176E-06         0.00000E+00         0.00000E+00
    0.29176E-06        -0.55879E-20         0.00000E+00
    0.29176E-06        -0.93132E-20         0.00000E+00
    0.29176E-06        -0.78885E-20         0.00000E+00
    0.29176E-06        -0.14901E-19         0.00000E+00
    0.29176E-06        -0.14025E-19         0.00000E+00
    0.29176E-06        -0.74506E-20         0.00000E+00
    0.29176E-06        -0.13476E-19         0.00000E+00
    0.29176E-06        -0.14901E-19         0.00000E+00
    0.29176E-06        -0.37253E-20         0.00000E+00
    0.29176E-06         0.00000E+00         0.00000E+00
    0.29176E-06        -0.23005E-20         0.00000E+00
    0.29176E-06        -0.18626E-20         0.00000E+00
    0.29176E-06        -0.37253E-20         0.00000E+00
    0.29176E-06        -0.18626E-20         0.00000E+00
    0.29176E-06         0.43790E-21         0.00000E+00
    0.29176E-06        -0.18626E-20         0.00000E+00
    0.29176E-06        -0.11176E-19         0.00000E+00
    0.29176E-06        -0.16764E-19         0.00000E+00
    0.29176E-06        -0.11176E-19         0.00000E+00
    0.29176E-06        -0.37253E-20         0.00000E+00
    0.29176E-06        -0.37253E-20         0.00000E+00
    0.29176E-06         0.00000E+00         0.00000E+00
    0.29176E-06        -0.43790E-21         0.00000E+00
    0.29176E-06        -0.88753E-20         0.00000E+00
    0.29176E-06        -0.65193E-20         0.00000E+00
    0.29176E-06        -0.69572E-20         0.00000E+00
    0.29176E-06        -0.70127E-20         0.00000E+00
    0.29176E-06        -0.74506E-20         0.00000E+00
    0.29176E-06        -0.18626E-20         0.00000E+00
    0.29176E-06        -0.74506E-20         0.00000E+00
    0.29176E-06        -0.14901E-19         0.00000E+00
    0.29176E-06        -0.37253E-20         0.00000E+00
    0.29176E-06        -0.18626E-20         0.00000E+00
    0.29176E-06        -0.11176E-19         0.00000E+00
    0.29176E-06        -0.55879E-20         0.00000E+00
    0.29176E-06        -0.37253E-20         0.00000E+00
    0.29176E-06        -0.93132E-20         0.00000E+00
    0.29176E-06        -0.74506E-20         0.00000E+00
    0.29176E-06        -0.93132E-20         0.00000E+00
    0.29176E-06        -0.10738E-19         0.00000E+00
    0.29176E-06        -0.13039E-19         0.00000E+00
    0.29176E-06        -0.78885E-20         0.00000E+00
    0.29176E-06         0.43790E-21         0.00000E+00
    0.29176E-06        -0.13692E-20         0.00000E+00
    0.29176E-06         0.37808E-20         0.00000E+00
    0.29176E-06         0.60258E-20         0.00000E+00
    0.29176E-06         0.43790E-21         0.00000E+00
    0.29176E-06        -0.37253E-20         0.00000E+00
    0.29176E-06        -0.10738E-19         0.00000E+00
    0.29176E-06        -0.14025E-19         0.00000E+00
    0.24553E-06         0.37253E-20         0.00000E+00
    0.24553E-06        -0.55879E-20         0.00000E+00
    0.24553E-06        -0.20489E-19         0.00000E+00
    0.24553E-06        -0.24259E-19         0.00000E+00
    0.24553E-06        -0.14901E-19         0.00000E+00
    0.24553E-06        -0.45683E-20         0.00000E+00
    0.24553E-06        -0.18626E-20         0.00000E+00
    0.24553E-06         0.88719E-21         0.00000E+00
    0.24553E-06        -0.37253E-20         0.00000E+00
    0.24553E-06        -0.29802E-19         0.00000E+00
    0.24553E-06        -0.31665E-19         0.00000E+00
    0.24553E-06        -0.84260E-20         0.00000E+00
    0.24553E-06        -0.37253E-20         0.00000E+00
    0.24553E-06         0.18626E-20         0.00000E+00
    0.24553E-06        -0.65193E-20         0.00000E+00
    0.24553E-06        -0.27896E-19         0.00000E+00
    0.24553E-06        -0.26077E-19         0.00000E+00
    0.24553E-06        -0.37253E-20         0.00000E+00
    0.24553E-06        -0.37253E-20         0.00000E+00
    0.24553E-06        -0.29802E-19         0.00000E+00
    0.24553E-06        -0.26077E-19         0.00000E+00
    0.24553E-06        -0.11176E-19         0.00000E+00
    0.24553E-06        -0.11176E-19         0.00000E+00
    0.24553E-06        -0.97546E-21         0.00000E+00
    0.24553E-06         0.93574E-20         0.00000E+00
    0.24553E-06        -0.46566E-20         0.00000E+00
    0.24553E-06        -0.14014E-19         0.00000E+00
    0.24553E-06        -0.15788E-19         0.00000E+00
    0.24553E-06        -0.20489E-19         0.00000E+00
    0.24553E-06        -0.26077E-19         0.00000E+00
    0.24553E-06        -0.93132E-20         0.00000E+00
    0.24553E-06         0.18626E-20         0.00000E+00
    0.24553E-06        -0.13039E-19         0.00000E+00
    0.24553E-06        -0.18626E-19         0.00000E+00
    0.24553E-06        -0.74506E-20         0.00000E+00
    0.24553E-06         0.00000E+00         0.00000E+00
    0.24553E-06         0.37253E-20         0.00000E+00
    0.24553E-06        -0.18626E-20         0.00000E+00
    0.24553E-06        -0.26077E-19         0.00000E+00
    0.24553E-06        -0.27940E-19         0.00000E+00
    0.24553E-06        -0.15788E-19         0.00000E+00
    0.24553E-06        -0.15832E-19         0.00000E+00
    0.24553E-06        -0.14945E-19         0.00000E+00
    0.24553E-06        -0.55438E-20         0.00000E+00
    0.24553E-06        -0.47007E-20         0.00000E+00
    0.24553E-06        -0.10333E-19         0.00000E+00
    0.24553E-06        -0.83378E-20         0.00000E+00
    0.24553E-06        -0.83378E-20         0.00000E+00
    0.24553E-06         0.55879E-20         0.00000E+00
    0.24553E-06         0.16808E-19         0.00000E+00
    0.24553E-06         0.11264E-19         0.00000E+00
    0.20664E-06         0.00000E+00         0.00000E+00
    0.20664E-06        -0.85099E-20         0.00000E+00
    0.20664E-06        -0.16764E-19         0.00000E+00
    0.20664E-06        -0.13842E-19         0.00000E+00
    0.20664E-06        -0.16764E-19         0.00000E+00
    0.20664E-06        -0.30862E-19         0.00000E+00
    0.20664E-06        -0.31665E-19         0.00000E+00
    0.20664E-06        -0.26077E-19         0.00000E+00
    0.20664E-06        -0.93132E-20         0.00000E+00
    0.20664E-06         0.74506E-20         0.00000E+00
    0.20664E-06        -0.17823E-19         0.00000E+00
    0.20664E-06        -0.35262E-19         0.00000E+00
    0.20664E-06        -0.42969E-19         0.00000E+00
    0.20664E-06        -0.60664E-19         0.00000E+00
    0.20664E-06        -0.35134E-19         0.00000E+00
    0.20664E-06        -0.11979E-19         0.00000E+00
    0.20664E-06        -0.74506E-20         0.00000E+00
    0.20664E-06        -0.10117E-19         0.00000E+00
    0.20664E-06        -0.21420E-19         0.00000E+00
    0.20664E-06        -0.57159E-20         0.00000E+00
    0.20664E-06        -0.66473E-20         0.00000E+00
    0.20664E-06        -0.23411E-19         0.00000E+00
    0.20664E-06        -0.17567E-19         0.00000E+00
    0.20664E-06        -0.27940E-19         0.00000E+00
    0.20664E-06        -0.33528E-19         0.00000E+00
    0.20664E-06        -0.22352E-19         0.00000E+00
    0.20664E-06        -0.93132E-20         0.00000E+00
    0.20664E-06        -0.13039E-19         0.00000E+00
    0.20664E-06        -0.66473E-20         0.00000E+00
    0.20664E-06         0.47846E-20         0.00000E+00
    0.20664E-06        -0.11979E-19         0.00000E+00
    0.20664E-06        -0.12235E-19         0.00000E+00
    0.20664E-06         0.27940E-20         0.00000E+00
    0.20664E-06         0.19906E-20         0.00000E+00
    0.20664E-06         0.00000E+00         0.00000E+00
    0.20664E-06        -0.74506E-20         0.00000E+00
    0.20664E-06        -0.10373E-19         0.00000E+00
    0.20664E-06        -0.13970E-19         0.00000E+00
    0.20664E-06         0.65193E-20         0.00000E+00
    0.20664E-06         0.17567E-19         0.00000E+00
    0.20664E-06         0.38533E-20         0.00000E+00
    0.20664E-06        -0.12911E-19         0.00000E+00
    0.20664E-06        -0.24214E-19         0.00000E+00
    0.20664E-06        -0.24214E-19         0.00000E+00
    0.20664E-06        -0.27940E-19         0.00000E+00
    0.20664E-06        -0.17823E-19         0.00000E+00
    0.20664E-06        -0.93132E-20         0.00000E+00
    0.20664E-06         0.46566E-20         0.00000E+00
    0.20664E-06         0.12107E-19         0.00000E+00
    0.20664E-06        -0.80332E-21         0.00000E+00
    0.20664E-06        -0.74506E-20         0.00000E+00
    0.17390E-06        -0.11176E-19         0.00000E+00
    0.17390E-06        -0.14901E-19         0.00000E+00
    0.17390E-06        -0.14901E-19         0.00000E+00
    0.17390E-06         0.53415E-21         0.00000E+00
    0.17390E-06         0.13970E-19         0.00000E+00
    0.17390E-06         0.63823E-20         0.00000E+00
    0.17390E-06        -0.46566E-20         0.00000E+00
    0.17390E-06        -0.16230E-19         0.00000E+00
    0.17390E-06        -0.20489E-19         0.00000E+00
    0.17390E-06        -0.24214E-19         0.00000E+00
    0.17390E-06        -0.24214E-19         0.00000E+00
    0.17390E-06        -0.30199E-19         0.00000E+00
    0.17390E-06        -0.32596E-19         0.00000E+00
    0.17390E-06        -0.38184E-19         0.00000E+00
    0.17390E-06        -0.49360E-19         0.00000E+00
    0.17390E-06        -0.32199E-19         0.00000E+00
    0.17390E-06        -0.18626E-19         0.00000E+00
    0.17390E-06        -0.31665E-19         0.00000E+00
    0.17390E-06        -0.37253E-19         0.00000E+00
    0.17390E-06        -0.42841E-19         0.00000E+00
    0.17390E-06        -0.37253E-19         0.00000E+00
    0.17390E-06        -0.14901E-19         0.00000E+00
    0.17390E-06        -0.14901E-19         0.00000E+00
    0.17390E-06        -0.26474E-19         0.00000E+00
    0.17390E-06        -0.30336E-19         0.00000E+00
    0.17390E-06        -0.18626E-19         0.00000E+00
    0.17390E-06        -0.69164E-20         0.00000E+00
    0.17390E-06        -0.20092E-19         0.00000E+00
    0.17390E-06        -0.31665E-19         0.00000E+00
    0.17390E-06        -0.16764E-19         0.00000E+00
    0.17390E-06        -0.18626E-20         0.00000E+00
    0.17390E-06        -0.37253E-20         0.00000E+00
    0.17390E-06        -0.14901E-19         0.00000E+00
    0.17390E-06        -0.33528E-19         0.00000E+00
    0.17390E-06        -0.33528E-19         0.00000E+00
    0.17390E-06        -0.22352E-19         0.00000E+00
    0.17390E-06        -0.24214E-19         0.00000E+00
    0.17390E-06        -0.14901E-19         0.00000E+00
    0.17390E-06        -0.93132E-20         0.00000E+00
    0.17390E-06         0.00000E+00         0.00000E+00
    0.17390E-06         0.16230E-19         0.00000E+00
    0.17390E-06         0.18626E-19         0.00000E+00
    0.17390E-06         0.61221E-20         0.00000E+00
    0.17390E-06        -0.70534E-20         0.00000E+00
    0.17390E-06         0.53415E-21         0.00000E+00
    0.17390E-06         0.57249E-20         0.00000E+00
    0.17390E-06         0.59851E-20         0.00000E+00
    0.17390E-06        -0.33281E-20         0.00000E+00
    0.17390E-06        -0.13039E-19         0.00000E+00
    0.17390E-06        -0.79847E-20         0.00000E+00
    0.17390E-06        -0.47936E-20         0.00000E+00
    0.14635E-06         0.00000E+00         0.00000E+00
    0.14635E-06        -0.18626E-20         0.00000E+00
    0.14635E-06        -0.69346E-20         0.00000E+00
    0.14635E-06        -0.13039E-19         0.00000E+00
    0.14635E-06        -0.19142E-19         0.00000E+00
    0.14635E-06        -0.16764E-19         0.00000E+00
    0.14635E-06         0.00000E+00         0.00000E+00
    0.14635E-06         0.37253E-20         0.00000E+00
    0.14635E-06        -0.11176E-19         0.00000E+00
    0.14635E-06        -0.22352E-19         0.00000E+00
    0.14635E-06        -0.27424E-19         0.00000E+00
    0.14635E-06        -0.33528E-19         0.00000E+00
    0.14635E-06        -0.28456E-19         0.00000E+00
    0.14635E-06        -0.16764E-19         0.00000E+00
    0.14635E-06        -0.22352E-19         0.00000E+00
    0.14635E-06        -0.37253E-19         0.00000E+00
    0.14635E-06        -0.39116E-19         0.00000E+00
    0.14635E-06        -0.29802E-19         0.00000E+00
    0.14635E-06        -0.35390E-19         0.00000E+00
    0.14635E-06        -0.40978E-19         0.00000E+00
    0.14635E-06        -0.33528E-19         0.00000E+00
    0.14635E-06        -0.37253E-19         0.00000E+00
    0.14635E-06        -0.39116E-19         0.00000E+00
    0.14635E-06        -0.27940E-19         0.00000E+00
    0.14635E-06        -0.18626E-19         0.00000E+00
    0.14635E-06        -0.16764E-19         0.00000E+00
    0.14635E-06        -0.14901E-19         0.00000E+00
    0.14635E-06        -0.14901E-19         0.00000E+00
    0.14635E-06        -0.24214E-19         0.00000E+00
    0.14635E-06        -0.29802E-19         0.00000E+00
    0.14635E-06        -0.22352E-19         0.00000E+00
    0.14635E-06        -0.18626E-19         0.00000E+00
    0.14635E-06        -0.18626E-19         0.00000E+00
    0.14635E-06        -0.14901E-19         0.00000E+00
    0.14635E-06        -0.31665E-19         0.00000E+00
    0.14635E-06        -0.35390E-19         0.00000E+00
    0.14635E-06        -0.23698E-19         0.00000E+00
    0.14635E-06        -0.18110E-19         0.00000E+00
    0.14635E-06        -0.15417E-19         0.00000E+00
    0.14635E-06        -0.15417E-19         0.00000E+00
    0.14635E-06        -0.74506E-20         0.00000E+00
    0.14635E-06        -0.55879E-20         0.00000E+00
    0.14635E-06        -0.37253E-20         0.00000E+00
    0.14635E-06         0.00000E+00         0.00000E+00
    0.14635E-06        -0.69346E-20         0.00000E+00
    0.14635E-06        -0.69346E-20         0.00000E+00
    0.14635E-06         0.12523E-19         0.00000E+00
    0.14635E-06         0.14385E-19         0.00000E+00
    0.14635E-06         0.18626E-20         0.00000E+00
    0.14635E-06        -0.13467E-20         0.00000E+00
    0.14635E-06        -0.26933E-20         0.00000E+00
    0.12316E-06        -0.14901E-19         0.00000E+00
    0.12316E-06        -0.16448E-19         0.00000E+00
    0.12316E-06        -0.16764E-19         0.00000E+00
    0.12316E-06        -0.77659E-20         0.00000E+00
    0.12316E-06        -0.37253E-20         0.00000E+00
    0.12316E-06        -0.19242E-19         0.00000E+00
    0.12316E-06        -0.29802E-19         0.00000E+00
    0.12316E-06        -0.24214E-19         0.00000E+00
    0.12316E-06        -0.20489E-19         0.00000E+00
    0.12316E-06        -0.23283E-19         0.00000E+00
    0.12316E-06        -0.22036E-19         0.00000E+00
    0.12316E-06        -0.10560E-19         0.00000E+00
    0.12316E-06        -0.15517E-19         0.00000E+00
    0.12316E-06        -0.27624E-19         0.00000E+00
    0.12316E-06        -0.33227E-19         0.00000E+00
    0.12316E-06        -0.25461E-19         0.00000E+00
    0.12316E-06        -0.24214E-19         0.00000E+00
    0.12316E-06        -0.32912E-19         0.00000E+00
    0.12316E-06        -0.27940E-19         0.00000E+00
    0.12316E-06        -0.22968E-19         0.00000E+00
    0.12316E-06        -0.36006E-19         0.00000E+00
    0.12316E-06        -0.37869E-19         0.00000E+00
    0.12316E-06        -0.28255E-19         0.00000E+00
    0.12316E-06        -0.36322E-19         0.00000E+00
    0.12316E-06        -0.42841E-19         0.00000E+00
    0.12316E-06        -0.39116E-19         0.00000E+00
    0.12316E-06        -0.22352E-19         0.00000E+00
    0.12316E-06        -0.93132E-20         0.00000E+00
    0.12316E-06        -0.11792E-19         0.00000E+00
    0.12316E-06        -0.14285E-19         0.00000E+00
    0.12316E-06        -0.16148E-19         0.00000E+00
    0.12316E-06        -0.19242E-19         0.00000E+00
    0.12316E-06        -0.18626E-19         0.00000E+00
    0.12316E-06        -0.14285E-19         0.00000E+00
    0.12316E-06        -0.55879E-20         0.00000E+00
    0.12316E-06        -0.93132E-20         0.00000E+00
    0.12316E-06        -0.32281E-19         0.00000E+00
    0.12316E-06        -0.35390E-19         0.00000E+00
    0.12316E-06        -0.14901E-19         0.00000E+00
    0.12316E-06        -0.62039E-20         0.00000E+00
    0.12316E-06        -0.86973E-20         0.00000E+00
    0.12316E-06        -0.31093E-20         0.00000E+00
    0.12316E-06        -0.74506E-20         0.00000E+00
    0.12316E-06        -0.20489E-19         0.00000E+00
    0.12316E-06        -0.24214E-19         0.00000E+00
    0.12316E-06        -0.19242E-19         0.00000E+00
    0.12316E-06        -0.16764E-19         0.00000E+00
    0.12316E-06        -0.12107E-19         0.00000E+00
    0.12316E-06        -0.93132E-21         0.00000E+00
    0.12316E-06         0.43412E-20         0.00000E+00
    0.12316E-06         0.74506E-20         0.00000E+00
    0.10365E-06         0.28004E-20         0.00000E+00
    0.10365E-06         0.74506E-20         0.00000E+00
    0.10365E-06        -0.14002E-20         0.00000E+00
    0.10365E-06        -0.26077E-19         0.00000E+00
    0.10365E-06        -0.39578E-19         0.00000E+00
    0.10365E-06        -0.26539E-19         0.00000E+00
    0.10365E-06        -0.79194E-20         0.00000E+00
    0.10365E-06        -0.79194E-20         0.00000E+00
    0.10365E-06        -0.20489E-19         0.00000E+00
    0.10365E-06        -0.27940E-19         0.00000E+00
    0.10365E-06        -0.24214E-19         0.00000E+00
    0.10365E-06        -0.29802E-19         0.00000E+00
    0.10365E-06        -0.31665E-19         0.00000E+00
    0.10365E-06        -0.93132E-20         0.00000E+00
    0.10365E-06        -0.37253E-20         0.00000E+00
    0.10365E-06        -0.35390E-19         0.00000E+00
    0.10365E-06        -0.54017E-19         0.00000E+00
    0.10365E-06        -0.50291E-19         0.00000E+00
    0.10365E-06        -0.37253E-19         0.00000E+00
    0.10365E-06        -0.29802E-19         0.00000E+00
    0.10365E-06        -0.31665E-19         0.00000E+00
    0.10365E-06        -0.27940E-19         0.00000E+00
    0.10365E-06        -0.24214E-19         0.00000E+00
    0.10365E-06        -0.31665E-19         0.00000E+00
    0.10365E-06        -0.33528E-19         0.00000E+00
    0.10365E-06        -0.24214E-19         0.00000E+00
    0.10365E-06        -0.33528E-19         0.00000E+00
    0.10365E-06        -0.40978E-19         0.00000E+00
    0.10365E-06        -0.37253E-19         0.00000E+00
    0.10365E-06        -0.31665E-19         0.00000E+00
    0.10365E-06        -0.13039E-19         0.00000E+00
    0.10365E-06        -0.14901E-19         0.00000E+00
    0.10365E-06        -0.24214E-19         0.00000E+00
    0.10365E-06        -0.22352E-19         0.00000E+00
    0.10365E-06        -0.16764E-19         0.00000E+00
    0.10365E-06        -0.55879E-20         0.00000E+00
    0.10365E-06         0.93132E-20         0.00000E+00
    0.10365E-06         0.13039E-19         0.00000E+00
    0.10365E-06         0.37253E-20         0.00000E+00
    0.10365E-06        -0.13501E-19         0.00000E+00
    0.10365E-06        -0.23283E-19         0.00000E+00
    0.10365E-06        -0.22821E-19         0.00000E+00
    0.10365E-06        -0.18626E-19         0.00000E+00
    0.10365E-06        -0.11176E-19         0.00000E+00
    0.10365E-06        -0.11176E-19         0.00000E+00
    0.10365E-06        -0.18626E-20         0.00000E+00
    0.10365E-06         0.60568E-20         0.00000E+00
    0.10365E-06         0.93132E-21         0.00000E+00
    0.10365E-06        -0.51255E-20         0.00000E+00
    0.10365E-06        -0.18626E-20         0.00000E+00
    0.10365E-06        -0.37253E-20         0.00000E+00
    0.87229E-07        -0.74506E-20         0.00000E+00
    0.87229E-07        -0.20489E-19         0.00000E+00
    0.87229E-07        -0.35390E-19         0.00000E+00
    0.87229E-07        -0.25756E-19         0.00000E+00
    0.87229E-07        -0.11176E-19         0.00000E+00
    0.87229E-07        -0.21131E-19         0.00000E+00
    0.87229E-07        -0.20489E-19         0.00000E+00
    0.87229E-07        -0.18306E-19         0.00000E+00
    0.87229E-07        -0.18626E-19         0.00000E+00
    0.87229E-07        -0.13039E-19         0.00000E+00
    0.87229E-07        -0.13039E-19         0.00000E+00
    0.87229E-07        -0.18306E-19         0.00000E+00
    0.87229E-07        -0.20489E-19         0.00000E+00
    0.87229E-07        -0.20489E-19         0.00000E+00
    0.87229E-07        -0.26077E-19         0.00000E+00
    0.87229E-07        -0.35711E-19         0.00000E+00
    0.87229E-07        -0.20489E-19         0.00000E+00
    0.87229E-07        -0.18626E-20         0.00000E+00
    0.87229E-07        -0.22352E-19         0.00000E+00
    0.87229E-07        -0.39116E-19         0.00000E+00
    0.87229E-07        -0.39116E-19         0.00000E+00
    0.87229E-07        -0.48429E-19         0.00000E+00
    0.87229E-07        -0.37253E-19         0.00000E+00
    0.87229E-07        -0.25756E-19         0.00000E+00
    0.87229E-07        -0.27329E-19         0.00000E+00
    0.87229E-07        -0.20489E-19         0.00000E+00
    0.87229E-07        -0.16443E-19         0.00000E+00
    0.87229E-07        -0.23604E-19         0.00000E+00
    0.87229E-07        -0.24214E-19         0.00000E+00
    0.87229E-07        -0.26077E-19         0.00000E+00
    0.87229E-07        -0.24214E-19         0.00000E+00
    0.87229E-07        -0.74506E-20         0.00000E+00
    0.87229E-07        -0.13039E-19         0.00000E+00
    0.87229E-07        -0.22352E-19         0.00000E+00
    0.87229E-07        -0.13039E-19         0.00000E+00
    0.87229E-07        -0.74506E-20         0.00000E+00
    0.87229E-07        -0.16764E-19         0.00000E+00
    0.87229E-07        -0.22352E-19         0.00000E+00
    0.87229E-07        -0.18626E-19         0.00000E+00
    0.87229E-07        -0.16764E-19         0.00000E+00
    0.87229E-07        -0.22673E-19         0.00000E+00
    0.87229E-07        -0.26077E-19         0.00000E+00
    0.87229E-07        -0.14580E-19         0.00000E+00
    0.87229E-07        -0.10565E-19         0.00000E+00
    0.87229E-07        -0.15418E-20         0.00000E+00
    0.87229E-07         0.34356E-20         0.00000E+00
    0.87229E-07         0.80611E-20         0.00000E+00
    0.87229E-07         0.17374E-19         0.00000E+00
    0.87229E-07         0.16764E-19         0.00000E+00
    0.87229E-07         0.43358E-20         0.00000E+00
    0.87229E-07        -0.25043E-20         0.00000E+00
    0.73409E-07         0.22660E-20         0.00000E+00
    0.73409E-07        -0.37253E-20         0.00000E+00
    0.73409E-07        -0.37253E-20         0.00000E+00
    0.73409E-07         0.18626E-20         0.00000E+00
    0.73409E-07        -0.55879E-20         0.00000E+00
    0.73409E-07        -0.14901E-19         0.00000E+00
    0.73409E-07        -0.18626E-19         0.00000E+00
    0.73409E-07        -0.17493E-19         0.00000E+00
    0.73409E-07        -0.18626E-19         0.00000E+00
    0.73409E-07        -0.11330E-20         0.00000E+00
    0.73409E-07         0.44550E-20         0.00000E+00
    0.73409E-07        -0.55879E-20         0.00000E+00
    0.73409E-07        -0.13039E-19         0.00000E+00
    0.73409E-07        -0.16764E-19         0.00000E+00
    0.73409E-07        -0.26077E-19         0.00000E+00
    0.73409E-07        -0.24214E-19         0.00000E+00
    0.73409E-07        -0.22352E-19         0.00000E+00
    0.73409E-07        -0.26077E-19         0.00000E+00
    0.73409E-07        -0.13039E-19         0.00000E+00
    0.73409E-07        -0.24214E-19         0.00000E+00
    0.73409E-07        -0.33528E-19         0.00000E+00
    0.73409E-07        -0.22352E-19         0.00000E+00
    0.73409E-07        -0.18626E-19         0.00000E+00
    0.73409E-07        -0.18626E-19         0.00000E+00
    0.73409E-07        -0.11176E-19         0.00000E+00
    0.73409E-07        -0.11906E-19         0.00000E+00
    0.73409E-07        -0.31665E-19         0.00000E+00
    0.73409E-07        -0.36523E-19         0.00000E+00
    0.73409E-07        -0.29802E-19         0.00000E+00
    0.73409E-07        -0.18626E-19         0.00000E+00
    0.73409E-07        -0.20489E-19         0.00000E+00
    0.73409E-07        -0.41708E-19         0.00000E+00
    0.73409E-07        -0.40047E-19         0.00000E+00
    0.73409E-07        -0.20691E-19         0.00000E+00
    0.73409E-07        -0.26077E-19         0.00000E+00
    0.73409E-07        -0.37253E-19         0.00000E+00
    0.73409E-07        -0.24214E-19         0.00000E+00
    0.73409E-07        -0.55879E-20         0.00000E+00
    0.73409E-07         0.55879E-20         0.00000E+00
    0.73409E-07         0.29956E-20         0.00000E+00
    0.73409E-07        -0.14901E-19         0.00000E+00
    0.73409E-07        -0.18626E-19         0.00000E+00
    0.73409E-07        -0.17695E-19         0.00000E+00
    0.73409E-07        -0.20489E-19         0.00000E+00
    0.73409E-07        -0.15832E-19         0.00000E+00
    0.73409E-07         0.10043E-19         0.00000E+00
    0.73409E-07         0.27940E-19         0.00000E+00
    0.73409E-07         0.16764E-19         0.00000E+00
    0.73409E-07         0.93132E-20         0.00000E+00
    0.73409E-07         0.53863E-20         0.00000E+00
    0.73409E-07        -0.41286E-20         0.00000E+00
    0.61779E-07         0.74506E-20         0.00000E+00
    0.61779E-07         0.16764E-19         0.00000E+00
    0.61779E-07         0.22250E-19         0.00000E+00
    0.61779E-07         0.14901E-19         0.00000E+00
    0.61779E-07        -0.17613E-20         0.00000E+00
    0.61779E-07        -0.11176E-19         0.00000E+00
    0.61779E-07        -0.18626E-20         0.00000E+00
    0.61779E-07         0.93132E-20         0.00000E+00
    0.61779E-07         0.18626E-19         0.00000E+00
    0.61779E-07        -0.11176E-19         0.00000E+00
    0.61779E-07        -0.32698E-19         0.00000E+00
    0.61779E-07        -0.12107E-19         0.00000E+00
    0.61779E-07        -0.11075E-19         0.00000E+00
    0.61779E-07        -0.74506E-20         0.00000E+00
    0.61779E-07        -0.93132E-20         0.00000E+00
    0.61779E-07        -0.26077E-19         0.00000E+00
    0.61779E-07        -0.31665E-19         0.00000E+00
    0.61779E-07        -0.35390E-19         0.00000E+00
    0.61779E-07        -0.46566E-19         0.00000E+00
    0.61779E-07        -0.39116E-19         0.00000E+00
    0.61779E-07        -0.29802E-19         0.00000E+00
    0.61779E-07        -0.27940E-19         0.00000E+00
    0.61779E-07        -0.93132E-20         0.00000E+00
    0.61779E-07         0.00000E+00         0.00000E+00
    0.61779E-07        -0.16764E-19         0.00000E+00
    0.61779E-07        -0.20489E-19         0.00000E+00
    0.61779E-07        -0.55879E-20         0.00000E+00
    0.61779E-07        -0.74506E-20         0.00000E+00
    0.61779E-07        -0.93132E-20         0.00000E+00
    0.61779E-07        -0.13039E-19         0.00000E+00
    0.61779E-07        -0.26077E-19         0.00000E+00
    0.61779E-07        -0.26077E-19         0.00000E+00
    0.61779E-07        -0.29802E-19         0.00000E+00
    0.61779E-07        -0.37253E-19         0.00000E+00
    0.61779E-07        -0.44703E-19         0.00000E+00
    0.61779E-07        -0.50291E-19         0.00000E+00
    0.61779E-07        -0.38286E-19         0.00000E+00
    0.61779E-07        -0.36423E-19         0.00000E+00
    0.61779E-07        -0.38083E-19         0.00000E+00
    0.61779E-07        -0.28770E-19         0.00000E+00
    0.61779E-07        -0.93132E-20         0.00000E+00
    0.61779E-07        -0.37253E-20         0.00000E+00
    0.61779E-07        -0.37253E-20         0.00000E+00
    0.61779E-07         0.00000E+00         0.00000E+00
    0.61779E-07         0.82997E-21         0.00000E+00
    0.61779E-07         0.12006E-19         0.00000E+00
    0.61779E-07         0.94146E-20         0.00000E+00
    0.61779E-07        -0.73492E-20         0.00000E+00
    0.61779E-07        -0.13039E-19         0.00000E+00
    0.61779E-07        -0.75519E-20         0.00000E+00
    0.61779E-07        -0.11379E-19         0.00000E+00
    0.51992E-07         0.14901E-19         0.00000E+00
    0.51992E-07         0.18626E-19         0.00000E+00
    0.51992E-07         0.74506E-20         0.00000E+00
    0.51992E-07        -0.11176E-19         0.00000E+00
    0.51992E-07        -0.83650E-20         0.00000E+00
    0.51992E-07         0.46397E-20         0.00000E+00
    0.51992E-07         0.14867E-19         0.00000E+00
    0.51992E-07         0.28109E-20         0.00000E+00
    0.51992E-07        -0.65023E-20         0.00000E+00
    0.51992E-07         0.10228E-19         0.00000E+00
    0.51992E-07         0.55879E-20         0.00000E+00
    0.51992E-07        -0.12090E-19         0.00000E+00
    0.51992E-07        -0.14901E-19         0.00000E+00
    0.51992E-07        -0.93132E-20         0.00000E+00
    0.51992E-07        -0.55879E-20         0.00000E+00
    0.51992E-07        -0.83988E-20         0.00000E+00
    0.51992E-07        -0.23266E-19         0.00000E+00
    0.51992E-07        -0.34442E-19         0.00000E+00
    0.51992E-07        -0.29836E-19         0.00000E+00
    0.51992E-07        -0.39099E-19         0.00000E+00
    0.51992E-07        -0.31648E-19         0.00000E+00
    0.51992E-07        -0.30751E-19         0.00000E+00
    0.51992E-07        -0.34442E-19         0.00000E+00
    0.51992E-07        -0.28854E-19         0.00000E+00
    0.51992E-07        -0.10278E-19         0.00000E+00
    0.51992E-07         0.27940E-20         0.00000E+00
    0.51992E-07        -0.46397E-20         0.00000E+00
    0.51992E-07        -0.28109E-20         0.00000E+00
    0.51992E-07        -0.18626E-20         0.00000E+00
    0.51992E-07        -0.21437E-19         0.00000E+00
    0.51992E-07        -0.24197E-19         0.00000E+00
    0.51992E-07        -0.32562E-19         0.00000E+00
    0.51992E-07        -0.51240E-19         0.00000E+00
    0.51992E-07        -0.49377E-19         0.00000E+00
    0.51992E-07        -0.40030E-19         0.00000E+00
    0.51992E-07        -0.40978E-19         0.00000E+00
    0.51992E-07        -0.39116E-19         0.00000E+00
    0.51992E-07        -0.26077E-19         0.00000E+00
    0.51992E-07        -0.55879E-20         0.00000E+00
    0.51992E-07        -0.83650E-20         0.00000E+00
    0.51992E-07        -0.25163E-19         0.00000E+00
    0.51992E-07        -0.21437E-19         0.00000E+00
    0.51992E-07        -0.13022E-19         0.00000E+00
    0.51992E-07        -0.11176E-19         0.00000E+00
    0.51992E-07        -0.93302E-20         0.00000E+00
    0.51992E-07        -0.18626E-19         0.00000E+00
    0.51992E-07        -0.14901E-19         0.00000E+00
    0.51992E-07        -0.37253E-20         0.00000E+00
    0.51992E-07        -0.18457E-20         0.00000E+00
    0.51992E-07        -0.94827E-21         0.00000E+00
    0.51992E-07        -0.19304E-20         0.00000E+00
    0.43755E-07        -0.37253E-20         0.00000E+00
    0.43755E-07        -0.56420E-20         0.00000E+00
    0.43755E-07        -0.93132E-21         0.00000E+00
    0.43755E-07         0.47107E-20         0.00000E+00
    0.43755E-07        -0.37253E-20         0.00000E+00
    0.43755E-07        -0.14955E-19         0.00000E+00
    0.43755E-07        -0.13970E-19         0.00000E+00
    0.43755E-07        -0.11176E-19         0.00000E+00
    0.43755E-07        -0.74506E-20         0.00000E+00
    0.43755E-07        -0.16764E-19         0.00000E+00
    0.43755E-07        -0.12161E-19         0.00000E+00
    0.43755E-07        -0.87723E-21         0.00000E+00
    0.43755E-07        -0.12161E-19         0.00000E+00
    0.43755E-07        -0.23337E-19         0.00000E+00
    0.43755E-07        -0.32488E-19         0.00000E+00
    0.43755E-07        -0.92591E-20         0.00000E+00
    0.43755E-07         0.00000E+00         0.00000E+00
    0.43755E-07        -0.64652E-20         0.00000E+00
    0.43755E-07        -0.83819E-20         0.00000E+00
    0.43755E-07        -0.11230E-19         0.00000E+00
    0.43755E-07        -0.23337E-19         0.00000E+00
    0.43755E-07        -0.34513E-19         0.00000E+00
    0.43755E-07        -0.17641E-19         0.00000E+00
    0.43755E-07        -0.21420E-19         0.00000E+00
    0.43755E-07        -0.42841E-19         0.00000E+00
    0.43755E-07        -0.41910E-19         0.00000E+00
    0.43755E-07        -0.24214E-19         0.00000E+00
    0.43755E-07        -0.14901E-19         0.00000E+00
    0.43755E-07        -0.21475E-19         0.00000E+00
    0.43755E-07        -0.25092E-19         0.00000E+00
    0.43755E-07        -0.39993E-19         0.00000E+00
    0.43755E-07        -0.39170E-19         0.00000E+00
    0.43755E-07        -0.23283E-19         0.00000E+00
    0.43755E-07        -0.28817E-19         0.00000E+00
    0.43755E-07        -0.24214E-19         0.00000E+00
    0.43755E-07        -0.74506E-20         0.00000E+00
    0.43755E-07         0.10190E-19         0.00000E+00
    0.43755E-07         0.37253E-20         0.00000E+00
    0.43755E-07        -0.93132E-20         0.00000E+00
    0.43755E-07        -0.10299E-19         0.00000E+00
    0.43755E-07        -0.27399E-20         0.00000E+00
    0.43755E-07        -0.83278E-20         0.00000E+00
    0.43755E-07        -0.13039E-19         0.00000E+00
    0.43755E-07         0.37253E-20         0.00000E+00
    0.43755E-07         0.55879E-20         0.00000E+00
    0.43755E-07        -0.56420E-20         0.00000E+00
    0.43755E-07        -0.17695E-19         0.00000E+00
    0.43755E-07        -0.23283E-19         0.00000E+00
    0.43755E-07        -0.93132E-20         0.00000E+00
    0.43755E-07        -0.18086E-20         0.00000E+00
    0.43755E-07         0.00000E+00         0.00000E+00
    0.36823E-07        -0.74506E-20         0.00000E+00
    0.36823E-07        -0.11176E-19         0.00000E+00
    0.36823E-07        -0.14901E-19         0.00000E+00
    0.36823E-07        -0.24214E-19         0.00000E+00
    0.36823E-07        -0.20489E-19         0.00000E+00
    0.36823E-07        -0.93132E-20         0.00000E+00
    0.36823E-07        -0.55879E-20         0.00000E+00
    0.36823E-07        -0.14901E-19         0.00000E+00
    0.36823E-07        -0.31665E-19         0.00000E+00
    0.36823E-07        -0.29802E-19         0.00000E+00
    0.36823E-07        -0.35390E-19         0.00000E+00
    0.36823E-07        -0.39116E-19         0.00000E+00
    0.36823E-07        -0.26077E-19         0.00000E+00
    0.36823E-07        -0.93132E-20         0.00000E+00
    0.36823E-07        -0.11176E-19         0.00000E+00
    0.36823E-07        -0.26077E-19         0.00000E+00
    0.36823E-07        -0.16764E-19         0.00000E+00
    0.36823E-07        -0.74506E-20         0.00000E+00
    0.36823E-07        -0.18399E-19         0.00000E+00
    0.36823E-07        -0.29802E-19         0.00000E+00
    0.36823E-07        -0.22579E-19         0.00000E+00
    0.36823E-07        -0.14901E-19         0.00000E+00
    0.36823E-07        -0.24214E-19         0.00000E+00
    0.36823E-07        -0.27940E-19         0.00000E+00
    0.36823E-07        -0.20489E-19         0.00000E+00
    0.36823E-07        -0.16764E-19         0.00000E+00
    0.36823E-07        -0.16764E-19         0.00000E+00
    0.36823E-07        -0.26077E-19         0.00000E+00
    0.36823E-07        -0.22352E-19         0.00000E+00
    0.36823E-07        -0.18626E-19         0.00000E+00
    0.36823E-07        -0.20489E-19         0.00000E+00
    0.36823E-07        -0.31665E-19         0.00000E+00
    0.36823E-07        -0.37253E-19         0.00000E+00
    0.36823E-07        -0.26077E-19         0.00000E+00
    0.36823E-07        -0.20489E-19         0.00000E+00
    0.36823E-07        -0.93132E-20         0.00000E+00
    0.36823E-07        -0.37253E-20         0.00000E+00
    0.36823E-07         0.55879E-20         0.00000E+00
    0.36823E-07         0.74506E-20         0.00000E+00
    0.36823E-07        -0.37253E-20         0.00000E+00
    0.36823E-07        -0.37253E-20         0.00000E+00
    0.36823E-07         0.37253E-20         0.00000E+00
    0.36823E-07        -0.18626E-20         0.00000E+00
    0.36823E-07        -0.11176E-19         0.00000E+00
    0.36823E-07        -0.14901E-19         0.00000E+00
    0.36823E-07        -0.55879E-20         0.00000E+00
    0.36823E-07         0.93132E-20         0.00000E+00
    0.36823E-07         0.93132E-20         0.00000E+00
    0.36823E-07         0.93132E-20         0.00000E+00
    0.36823E-07         0.74506E-20         0.00000E+00
    0.36823E-07         0.00000E+00         0.00000E+00
    0.30989E-07        -0.14244E-19         0.00000E+00
    0.30989E-07        -0.14901E-19         0.00000E+00
    0.30989E-07        -0.18955E-19         0.00000E+00
    0.30989E-07        -0.11176E-19         0.00000E+00
    0.30989E-07        -0.33969E-20         0.00000E+00
    0.30989E-07        -0.12710E-19         0.00000E+00
    0.30989E-07        -0.11504E-19         0.00000E+00
    0.30989E-07        -0.15230E-19         0.00000E+00
    0.30989E-07        -0.16764E-19         0.00000E+00
    0.30989E-07        -0.93132E-20         0.00000E+00
    0.30989E-07        -0.55879E-20         0.00000E+00
    0.30989E-07        -0.74506E-20         0.00000E+00
    0.30989E-07        -0.14901E-19         0.00000E+00
    0.30989E-07        -0.16764E-19         0.00000E+00
    0.30989E-07        -0.22352E-19         0.00000E+00
    0.30989E-07        -0.24214E-19         0.00000E+00
    0.30989E-07        -0.37253E-19         0.00000E+00
    0.30989E-07        -0.44703E-19         0.00000E+00
    0.30989E-07        -0.29802E-19         0.00000E+00
    0.30989E-07        -0.16764E-19         0.00000E+00
    0.30989E-07        -0.18626E-19         0.00000E+00
    0.30989E-07        -0.13039E-19         0.00000E+00
    0.30989E-07        -0.93132E-20         0.00000E+00
    0.30989E-07        -0.13039E-19         0.00000E+00
    0.30989E-07        -0.16764E-19         0.00000E+00
    0.30989E-07        -0.20489E-19         0.00000E+00
    0.30989E-07        -0.24214E-19         0.00000E+00
    0.30989E-07        -0.24214E-19         0.00000E+00
    0.30989E-07        -0.20489E-19         0.00000E+00
    0.30989E-07        -0.22352E-19         0.00000E+00
    0.30989E-07        -0.14901E-19         0.00000E+00
    0.30989E-07        -0.55879E-20         0.00000E+00
    0.30989E-07        -0.37253E-20         0.00000E+00
    0.30989E-07        -0.93132E-20         0.00000E+00
    0.30989E-07        -0.93132E-20         0.00000E+00
    0.30989E-07        -0.74506E-20         0.00000E+00
    0.30989E-07        -0.11176E-19         0.00000E+00
    0.30989E-07        -0.16764E-19         0.00000E+00
    0.30989E-07         0.00000E+00         0.00000E+00
    0.30989E-07         0.11504E-19         0.00000E+00
    0.30989E-07         0.18626E-20         0.00000E+00
    0.30989E-07        -0.40537E-20         0.00000E+00
    0.30989E-07        -0.93132E-20         0.00000E+00
    0.30989E-07        -0.74506E-20         0.00000E+00
    0.30989E-07        -0.55879E-20         0.00000E+00
    0.30989E-07        -0.11176E-19         0.00000E+00
    0.30989E-07        -0.10847E-19         0.00000E+00
    0.30989E-07        -0.18626E-20         0.00000E+00
    0.30989E-07         0.33969E-20         0.00000E+00
    0.30989E-07         0.74506E-20         0.00000E+00
    0.30989E-07         0.11176E-19         0.00000E+00
    0.26080E-07         0.37253E-20         0.00000E+00
    0.26080E-07        -0.41306E-21         0.00000E+00
    0.26080E-07         0.37253E-20         0.00000E+00
    0.26080E-07        -0.33122E-20         0.00000E+00
    0.26080E-07        -0.26077E-19         0.00000E+00
    0.26080E-07        -0.30215E-19         0.00000E+00
    0.26080E-07        -0.28353E-19         0.00000E+00
    0.26080E-07        -0.13039E-19         0.00000E+00
    0.26080E-07        -0.70375E-20         0.00000E+00
    0.26080E-07        -0.12625E-19         0.00000E+00
    0.26080E-07        -0.11589E-19         0.00000E+00
    0.26080E-07        -0.20489E-19         0.00000E+00
    0.26080E-07        -0.21939E-19         0.00000E+00
    0.26080E-07        -0.11589E-19         0.00000E+00
    0.26080E-07         0.18626E-20         0.00000E+00
    0.26080E-07        -0.55879E-20         0.00000E+00
    0.26080E-07        -0.11589E-19         0.00000E+00
    0.26080E-07        -0.14488E-19         0.00000E+00
    0.26080E-07        -0.21939E-19         0.00000E+00
    0.26080E-07        -0.16764E-19         0.00000E+00
    0.26080E-07        -0.20902E-19         0.00000E+00
    0.26080E-07        -0.28353E-19         0.00000E+00
    0.26080E-07        -0.18626E-19         0.00000E+00
    0.26080E-07        -0.26077E-19         0.00000E+00
    0.26080E-07        -0.33115E-19         0.00000E+00
    0.26080E-07        -0.16764E-19         0.00000E+00
    0.26080E-07        -0.41384E-20         0.00000E+00
    0.26080E-07        -0.55879E-20         0.00000E+00
    0.26080E-07        -0.20489E-19         0.00000E+00
    0.26080E-07        -0.25664E-19         0.00000E+00
    0.26080E-07        -0.13039E-19         0.00000E+00
    0.26080E-07        -0.97263E-20         0.00000E+00
    0.26080E-07        -0.21939E-19         0.00000E+00
    0.26080E-07        -0.31252E-19         0.00000E+00
    0.26080E-07        -0.26077E-19         0.00000E+00
    0.26080E-07        -0.14901E-19         0.00000E+00
    0.26080E-07        -0.13039E-19         0.00000E+00
    0.26080E-07        -0.78636E-20         0.00000E+00
    0.26080E-07        -0.78636E-20         0.00000E+00
    0.26080E-07        -0.18213E-19         0.00000E+00
    0.26080E-07        -0.16351E-19         0.00000E+00
    0.26080E-07        -0.55879E-20         0.00000E+00
    0.26080E-07        -0.78636E-20         0.00000E+00
    0.26080E-07        -0.97263E-20         0.00000E+00
    0.26080E-07        -0.55879E-20         0.00000E+00
    0.26080E-07         0.00000E+00         0.00000E+00
    0.26080E-07        -0.51826E-21         0.00000E+00
    0.26080E-07        -0.79688E-20         0.00000E+00
    0.26080E-07        -0.55879E-20         0.00000E+00
    0.26080E-07         0.00000E+00         0.00000E+00
    0.26080E-07         0.37253E-20         0.00000E+00
    0.21948E-07         0.74506E-20         0.00000E+00
    0.21948E-07         0.00000E+00         0.00000E+00
    0.21948E-07        -0.37253E-20         0.00000E+00
    0.21948E-07         0.32410E-20         0.00000E+00
    0.21948E-07        -0.74506E-20         0.00000E+00
    0.21948E-07        -0.21383E-19         0.00000E+00
    0.21948E-07        -0.18626E-19         0.00000E+00
    0.21948E-07        -0.19111E-19         0.00000E+00
    0.21948E-07        -0.14901E-19         0.00000E+00
    0.21948E-07        -0.11176E-19         0.00000E+00
    0.21948E-07        -0.13039E-19         0.00000E+00
    0.21948E-07        -0.79349E-20         0.00000E+00
    0.21948E-07        -0.16764E-19         0.00000E+00
    0.21948E-07        -0.33528E-19         0.00000E+00
    0.21948E-07        -0.33528E-19         0.00000E+00
    0.21948E-07        -0.23730E-19         0.00000E+00
    0.21948E-07        -0.20489E-19         0.00000E+00
    0.21948E-07        -0.14901E-19         0.00000E+00
    0.21948E-07        -0.37253E-20         0.00000E+00
    0.21948E-07        -0.55879E-20         0.00000E+00
    0.21948E-07        -0.18626E-20         0.00000E+00
    0.21948E-07         0.93132E-20         0.00000E+00
    0.21948E-07        -0.55879E-20         0.00000E+00
    0.21948E-07        -0.19111E-19         0.00000E+00
    0.21948E-07        -0.17211E-19         0.00000E+00
    0.21948E-07        -0.13970E-19         0.00000E+00
    0.21948E-07        -0.60723E-20         0.00000E+00
    0.21948E-07        -0.14417E-19         0.00000E+00
    0.21948E-07        -0.22352E-19         0.00000E+00
    0.21948E-07        -0.29802E-19         0.00000E+00
    0.21948E-07        -0.37253E-19         0.00000E+00
    0.21948E-07        -0.26077E-19         0.00000E+00
    0.21948E-07        -0.18626E-19         0.00000E+00
    0.21948E-07        -0.16764E-19         0.00000E+00
    0.21948E-07        -0.18626E-19         0.00000E+00
    0.21948E-07        -0.16764E-19         0.00000E+00
    0.21948E-07        -0.11176E-19         0.00000E+00
    0.21948E-07        -0.14901E-19         0.00000E+00
    0.21948E-07        -0.24214E-19         0.00000E+00
    0.21948E-07        -0.29802E-19         0.00000E+00
    0.21948E-07        -0.27455E-19         0.00000E+00
    0.21948E-07        -0.20489E-19         0.00000E+00
    0.21948E-07        -0.13523E-19         0.00000E+00
    0.21948E-07        -0.51036E-20         0.00000E+00
    0.21948E-07         0.13783E-20         0.00000E+00
    0.21948E-07        -0.65566E-20         0.00000E+00
    0.21948E-07        -0.10692E-19         0.00000E+00
    0.21948E-07        -0.69663E-20         0.00000E+00
    0.21948E-07        -0.18626E-20         0.00000E+00
    0.21948E-07         0.60723E-20         0.00000E+00
    0.21948E-07         0.84192E-20         0.00000E+00
    0.18471E-07         0.37253E-20         0.00000E+00
    0.18471E-07        -0.38702E-21         0.00000E+00
    0.18471E-07        -0.10245E-19         0.00000E+00
    0.18471E-07        -0.24069E-20         0.00000E+00
    0.18471E-07         0.74506E-20         0.00000E+00
    0.18471E-07         0.93132E-20         0.00000E+00
    0.18471E-07        -0.18626E-20         0.00000E+00
    0.18471E-07        -0.11176E-19         0.00000E+00
    0.18471E-07        -0.13183E-20         0.00000E+00
    0.18471E-07         0.18626E-20         0.00000E+00
    0.18471E-07        -0.79949E-20         0.00000E+00
    0.18471E-07        -0.14901E-19         0.00000E+00
    0.18471E-07        -0.11563E-19         0.00000E+00
    0.18471E-07        -0.74506E-20         0.00000E+00
    0.18471E-07        -0.70636E-20         0.00000E+00
    0.18471E-07        -0.14357E-19         0.00000E+00
    0.18471E-07        -0.17695E-19         0.00000E+00
    0.18471E-07        -0.24214E-19         0.00000E+00
    0.18471E-07        -0.32052E-19         0.00000E+00
    0.18471E-07        -0.23827E-19         0.00000E+00
    0.18471E-07        -0.17695E-19         0.00000E+00
    0.18471E-07        -0.18626E-19         0.00000E+00
    0.18471E-07        -0.93132E-20         0.00000E+00
    0.18471E-07         0.54430E-21         0.00000E+00
    0.18471E-07        -0.74506E-20         0.00000E+00
    0.18471E-07        -0.24214E-19         0.00000E+00
    0.18471E-07        -0.35003E-19         0.00000E+00
    0.18471E-07        -0.21420E-19         0.00000E+00
    0.18471E-07        -0.14357E-19         0.00000E+00
    0.18471E-07        -0.70636E-20         0.00000E+00
    0.18471E-07        -0.11176E-19         0.00000E+00
    0.18471E-07        -0.28871E-19         0.00000E+00
    0.18471E-07        -0.22896E-19         0.00000E+00
    0.18471E-07        -0.19945E-19         0.00000E+00
    0.18471E-07        -0.74506E-20         0.00000E+00
    0.18471E-07         0.74506E-20         0.00000E+00
    0.18471E-07        -0.50436E-20         0.00000E+00
    0.18471E-07        -0.26077E-19         0.00000E+00
    0.18471E-07        -0.21033E-19         0.00000E+00
    0.18471E-07        -0.19171E-19         0.00000E+00
    0.18471E-07        -0.40434E-19         0.00000E+00
    0.18471E-07        -0.40978E-19         0.00000E+00
    0.18471E-07        -0.28484E-19         0.00000E+00
    0.18471E-07        -0.20489E-19         0.00000E+00
    0.18471E-07         0.18626E-20         0.00000E+00
    0.18471E-07         0.14901E-19         0.00000E+00
    0.18471E-07         0.11176E-19         0.00000E+00
    0.18471E-07         0.10789E-19         0.00000E+00
    0.18471E-07         0.74506E-20         0.00000E+00
    0.18471E-07        -0.93132E-21         0.00000E+00
    0.18471E-07        -0.63620E-20         0.00000E+00
    0.15545E-07        -0.67775E-20         0.00000E+00
    0.15545E-07         0.18626E-20         0.00000E+00
    0.15545E-07         0.13039E-19         0.00000E+00
    0.15545E-07         0.18626E-19         0.00000E+00
    0.15545E-07         0.16764E-19         0.00000E+00
    0.15545E-07         0.55879E-20         0.00000E+00
    0.15545E-07        -0.25814E-33         0.00000E+00
    0.15545E-07         0.40618E-20         0.00000E+00
    0.15545E-07         0.93132E-20         0.00000E+00
    0.15545E-07         0.61827E-20         0.00000E+00
    0.15545E-07        -0.31305E-20         0.00000E+00
    0.15545E-07        -0.24214E-19         0.00000E+00
    0.15545E-07        -0.31665E-19         0.00000E+00
    0.15545E-07        -0.18626E-19         0.00000E+00
    0.15545E-07        -0.14901E-19         0.00000E+00
    0.15545E-07        -0.14901E-19         0.00000E+00
    0.15545E-07        -0.37253E-20         0.00000E+00
    0.15545E-07         0.13039E-19         0.00000E+00
    0.15545E-07         0.74506E-20         0.00000E+00
    0.15545E-07        -0.18626E-19         0.00000E+00
    0.15545E-07        -0.26077E-19         0.00000E+00
    0.15545E-07        -0.16764E-19         0.00000E+00
    0.15545E-07        -0.24214E-19         0.00000E+00
    0.15545E-07        -0.37253E-19         0.00000E+00
    0.15545E-07        -0.35390E-19         0.00000E+00
    0.15545E-07        -0.20153E-19         0.00000E+00
    0.15545E-07        -0.14901E-19         0.00000E+00
    0.15545E-07        -0.30139E-19         0.00000E+00
    0.15545E-07        -0.24214E-19         0.00000E+00
    0.15545E-07        -0.20489E-19         0.00000E+00
    0.15545E-07        -0.27940E-19         0.00000E+00
    0.15545E-07        -0.23878E-19         0.00000E+00
    0.15545E-07        -0.30734E-19         0.00000E+00
    0.15545E-07        -0.32933E-19         0.00000E+00
    0.15545E-07        -0.37253E-19         0.00000E+00
    0.15545E-07        -0.29802E-19         0.00000E+00
    0.15545E-07        -0.93132E-20         0.00000E+00
    0.15545E-07         0.00000E+00         0.00000E+00
    0.15545E-07        -0.11176E-19         0.00000E+00
    0.15545E-07        -0.16427E-19         0.00000E+00
    0.15545E-07        -0.55879E-20         0.00000E+00
    0.15545E-07        -0.18626E-20         0.00000E+00
    0.15545E-07        -0.11176E-19         0.00000E+00
    0.15545E-07        -0.55879E-20         0.00000E+00
    0.15545E-07        -0.37253E-20         0.00000E+00
    0.15545E-07        -0.13375E-19         0.00000E+00
    0.15545E-07        -0.37253E-20         0.00000E+00
    0.15545E-07        -0.37253E-20         0.00000E+00
    0.15545E-07        -0.74506E-20         0.00000E+00
    0.15545E-07        -0.21992E-20         0.00000E+00
    0.15545E-07         0.30522E-20         0.00000E+00
    0.13082E-07         0.00000E+00         0.00000E+00
    0.13082E-07         0.37253E-20         0.00000E+00
    0.13082E-07         0.74506E-20         0.00000E+00
    0.13082E-07         0.74506E-20         0.00000E+00
    0.13082E-07         0.86760E-20         0.00000E+00
    0.13082E-07        -0.93132E-21         0.00000E+00
    0.13082E-07         0.15686E-20         0.00000E+00
    0.13082E-07         0.93132E-20         0.00000E+00
    0.13082E-07         0.18626E-20         0.00000E+00
    0.13082E-07         0.18626E-20         0.00000E+00
    0.13082E-07         0.18921E-19         0.00000E+00
    0.13082E-07         0.25146E-19         0.00000E+00
    0.13082E-07         0.21126E-19         0.00000E+00
    0.13082E-07         0.77446E-20         0.00000E+00
    0.13082E-07        -0.65193E-20         0.00000E+00
    0.13082E-07        -0.43134E-20         0.00000E+00
    0.13082E-07        -0.93132E-21         0.00000E+00
    0.13082E-07        -0.90192E-20         0.00000E+00
    0.13082E-07        -0.29802E-19         0.00000E+00
    0.13082E-07        -0.26077E-19         0.00000E+00
    0.13082E-07        -0.22352E-19         0.00000E+00
    0.13082E-07        -0.27940E-19         0.00000E+00
    0.13082E-07        -0.18626E-19         0.00000E+00
    0.13082E-07        -0.13039E-19         0.00000E+00
    0.13082E-07        -0.13039E-19         0.00000E+00
    0.13082E-07        -0.26077E-19         0.00000E+00
    0.13082E-07        -0.27940E-19         0.00000E+00
    0.13082E-07        -0.22352E-19         0.00000E+00
    0.13082E-07        -0.39116E-19         0.00000E+00
    0.13082E-07        -0.48429E-19         0.00000E+00
    0.13082E-07        -0.44703E-19         0.00000E+00
    0.13082E-07        -0.40978E-19         0.00000E+00
    0.13082E-07        -0.31665E-19         0.00000E+00
    0.13082E-07        -0.22352E-19         0.00000E+00
    0.13082E-07        -0.16764E-19         0.00000E+00
    0.13082E-07        -0.11470E-19         0.00000E+00
    0.13082E-07        -0.13970E-19         0.00000E+00
    0.13082E-07        -0.22989E-19         0.00000E+00
    0.13082E-07        -0.33528E-19         0.00000E+00
    0.13082E-07        -0.31665E-19         0.00000E+00
    0.13082E-07        -0.22058E-19         0.00000E+00
    0.13082E-07        -0.13039E-19         0.00000E+00
    0.13082E-07        -0.11470E-19         0.00000E+00
    0.13082E-07        -0.20489E-19         0.00000E+00
    0.13082E-07        -0.14901E-19         0.00000E+00
    0.13082E-07         0.37253E-20         0.00000E+00
    0.13082E-07         0.77446E-20         0.00000E+00
    0.13082E-07        -0.27940E-20         0.00000E+00
    0.13082E-07        -0.49507E-20         0.00000E+00
    0.13082E-07        -0.21567E-20         0.00000E+00
    0.13082E-07        -0.43134E-20         0.00000E+00
    0.11010E-07        -0.37253E-20         0.00000E+00
    0.11010E-07        -0.37253E-20         0.00000E+00
    0.11010E-07        -0.39836E-20         0.00000E+00
    0.11010E-07         0.11176E-19         0.00000E+00
    0.11010E-07         0.13297E-19         0.00000E+00
    0.11010E-07         0.18626E-20         0.00000E+00
    0.11010E-07        -0.37253E-20         0.00000E+00
    0.11010E-07        -0.37253E-20         0.00000E+00
    0.11010E-07         0.55879E-20         0.00000E+00
    0.11010E-07         0.93132E-20         0.00000E+00
    0.11010E-07         0.99862E-20         0.00000E+00
    0.11010E-07         0.10245E-19         0.00000E+00
    0.11010E-07         0.11434E-19         0.00000E+00
    0.11010E-07         0.14901E-19         0.00000E+00
    0.11010E-07         0.14901E-19         0.00000E+00
    0.11010E-07         0.00000E+00         0.00000E+00
    0.11010E-07        -0.11176E-19         0.00000E+00
    0.11010E-07        -0.11176E-19         0.00000E+00
    0.11010E-07        -0.74506E-20         0.00000E+00
    0.11010E-07        -0.13039E-19         0.00000E+00
    0.11010E-07        -0.16764E-19         0.00000E+00
    0.11010E-07        -0.14901E-19         0.00000E+00
    0.11010E-07        -0.11176E-19         0.00000E+00
    0.11010E-07        -0.16764E-19         0.00000E+00
    0.11010E-07        -0.33528E-19         0.00000E+00
    0.11010E-07        -0.39116E-19         0.00000E+00
    0.11010E-07        -0.42841E-19         0.00000E+00
    0.11010E-07        -0.39116E-19         0.00000E+00
    0.11010E-07        -0.20489E-19         0.00000E+00
    0.11010E-07        -0.24214E-19         0.00000E+00
    0.11010E-07        -0.35390E-19         0.00000E+00
    0.11010E-07        -0.22352E-19         0.00000E+00
    0.11010E-07        -0.14901E-19         0.00000E+00
    0.11010E-07        -0.24214E-19         0.00000E+00
    0.11010E-07        -0.27940E-19         0.00000E+00
    0.11010E-07        -0.26077E-19         0.00000E+00
    0.11010E-07        -0.28198E-19         0.00000E+00
    0.11010E-07        -0.22610E-19         0.00000E+00
    0.11010E-07        -0.14643E-19         0.00000E+00
    0.11010E-07        -0.14643E-19         0.00000E+00
    0.11010E-07        -0.14901E-19         0.00000E+00
    0.11010E-07        -0.55879E-20         0.00000E+00
    0.11010E-07         0.93132E-20         0.00000E+00
    0.11010E-07         0.93132E-20         0.00000E+00
    0.11010E-07        -0.21210E-20         0.00000E+00
    0.11010E-07        -0.11434E-19         0.00000E+00
    0.11010E-07        -0.10918E-19         0.00000E+00
    0.11010E-07        -0.71923E-20         0.00000E+00
    0.11010E-07        -0.18626E-20         0.00000E+00
    0.11010E-07         0.34670E-20         0.00000E+00
    0.11010E-07         0.32087E-20         0.00000E+00
    0.92656E-08         0.74506E-20         0.00000E+00
    0.92656E-08         0.10473E-19         0.00000E+00
    0.92656E-08         0.48848E-20         0.00000E+00
    0.92656E-08        -0.58162E-20         0.00000E+00
    0.92656E-08        -0.37253E-20         0.00000E+00
    0.92656E-08        -0.90850E-20         0.00000E+00
    0.92656E-08        -0.37253E-20         0.00000E+00
    0.92656E-08         0.11879E-19         0.00000E+00
    0.92656E-08         0.10016E-19         0.00000E+00
    0.92656E-08         0.11596E-20         0.00000E+00
    0.92656E-08        -0.55879E-20         0.00000E+00
    0.92656E-08        -0.11596E-20         0.00000E+00
    0.92656E-08         0.55879E-20         0.00000E+00
    0.92656E-08         0.16992E-19         0.00000E+00
    0.92656E-08         0.93132E-20         0.00000E+00
    0.92656E-08         0.17695E-19         0.00000E+00
    0.92656E-08         0.23511E-19         0.00000E+00
    0.92656E-08        -0.37253E-20         0.00000E+00
    0.92656E-08        -0.10701E-19         0.00000E+00
    0.92656E-08        -0.65193E-20         0.00000E+00
    0.92656E-08        -0.88568E-20         0.00000E+00
    0.92656E-08        -0.22352E-19         0.00000E+00
    0.92656E-08        -0.35618E-19         0.00000E+00
    0.92656E-08        -0.41910E-19         0.00000E+00
    0.92656E-08        -0.41681E-19         0.00000E+00
    0.92656E-08        -0.26077E-19         0.00000E+00
    0.92656E-08        -0.18626E-19         0.00000E+00
    0.92656E-08        -0.18626E-19         0.00000E+00
    0.92656E-08        -0.24214E-19         0.00000E+00
    0.92656E-08        -0.29099E-19         0.00000E+00
    0.92656E-08        -0.28871E-19         0.00000E+00
    0.92656E-08        -0.29574E-19         0.00000E+00
    0.92656E-08        -0.31665E-19         0.00000E+00
    0.92656E-08        -0.29802E-19         0.00000E+00
    0.92656E-08        -0.31665E-19         0.00000E+00
    0.92656E-08        -0.33528E-19         0.00000E+00
    0.92656E-08        -0.22352E-19         0.00000E+00
    0.92656E-08        -0.55879E-20         0.00000E+00
    0.92656E-08        -0.58162E-20         0.00000E+00
    0.92656E-08        -0.18626E-19         0.00000E+00
    0.92656E-08        -0.14673E-19         0.00000E+00
    0.92656E-08        -0.16992E-19         0.00000E+00
    0.92656E-08        -0.18626E-19         0.00000E+00
    0.92656E-08        -0.16344E-20         0.00000E+00
    0.92656E-08         0.10948E-19         0.00000E+00
    0.92656E-08         0.10948E-19         0.00000E+00
    0.92656E-08         0.74506E-20         0.00000E+00
    0.92656E-08         0.18626E-20         0.00000E+00
    0.92656E-08        -0.11176E-19         0.00000E+00
    0.92656E-08        -0.14901E-19         0.00000E+00
    0.92656E-08        -0.11176E-19         0.00000E+00
    0.77979E-08         0.00000E+00         0.00000E+00
    0.77979E-08         0.18626E-20         0.00000E+00
    0.77979E-08         0.13039E-19         0.00000E+00
    0.77979E-08         0.14901E-19         0.00000E+00
    0.77979E-08         0.48595E-20         0.00000E+00
    0.77979E-08         0.63163E-20         0.00000E+00
    0.77979E-08         0.16358E-19         0.00000E+00
    0.77979E-08         0.15104E-19         0.00000E+00
    0.77979E-08         0.95161E-20         0.00000E+00
    0.77979E-08         0.13767E-19         0.00000E+00
    0.77979E-08         0.14901E-19         0.00000E+00
    0.77979E-08         0.10447E-19         0.00000E+00
    0.77979E-08         0.00000E+00         0.00000E+00
    0.77979E-08        -0.37253E-20         0.00000E+00
    0.77979E-08        -0.37253E-20         0.00000E+00
    0.77979E-08        -0.13241E-19         0.00000E+00
    0.77979E-08        -0.11904E-19         0.00000E+00
    0.77979E-08        -0.53850E-20         0.00000E+00
    0.77979E-08        -0.87877E-20         0.00000E+00
    0.77979E-08        -0.18424E-19         0.00000E+00
    0.77979E-08        -0.19355E-19         0.00000E+00
    0.77979E-08        -0.23486E-19         0.00000E+00
    0.77979E-08        -0.23080E-19         0.00000E+00
    0.77979E-08        -0.32393E-19         0.00000E+00
    0.77979E-08        -0.43247E-19         0.00000E+00
    0.77979E-08        -0.35390E-19         0.00000E+00
    0.77979E-08        -0.24011E-19         0.00000E+00
    0.77979E-08        -0.28143E-19         0.00000E+00
    0.77979E-08        -0.35390E-19         0.00000E+00
    0.77979E-08        -0.49563E-19         0.00000E+00
    0.77979E-08        -0.54745E-19         0.00000E+00
    0.77979E-08        -0.31259E-19         0.00000E+00
    0.77979E-08        -0.16035E-19         0.00000E+00
    0.77979E-08        -0.17898E-19         0.00000E+00
    0.77979E-08        -0.22149E-19         0.00000E+00
    0.77979E-08        -0.13039E-19         0.00000E+00
    0.77979E-08        -0.11176E-19         0.00000E+00
    0.77979E-08        -0.13039E-19         0.00000E+00
    0.77979E-08        -0.93132E-20         0.00000E+00
    0.77979E-08        -0.35224E-20         0.00000E+00
    0.77979E-08         0.16597E-20         0.00000E+00
    0.77979E-08        -0.39282E-20         0.00000E+00
    0.77979E-08        -0.91103E-20         0.00000E+00
    0.77979E-08        -0.93132E-20         0.00000E+00
    0.77979E-08        -0.13241E-19         0.00000E+00
    0.77979E-08        -0.16764E-19         0.00000E+00
    0.77979E-08        -0.93132E-20         0.00000E+00
    0.77979E-08         0.74506E-20         0.00000E+00
    0.77979E-08         0.20692E-19         0.00000E+00
    0.77979E-08         0.10973E-19         0.00000E+00
    0.77979E-08        -0.81164E-21         0.00000E+00
    0.65627E-08         0.36320E-21         0.00000E+00
    0.65627E-08        -0.74506E-20         0.00000E+00
    0.65627E-08        -0.13039E-19         0.00000E+00
    0.65627E-08        -0.37253E-20         0.00000E+00
    0.65627E-08        -0.27940E-20         0.00000E+00
    0.65627E-08        -0.14151E-19         0.00000E+00
    0.65627E-08         0.44750E-20         0.00000E+00
    0.65627E-08         0.18626E-19         0.00000E+00
    0.65627E-08         0.10063E-19         0.00000E+00
    0.65627E-08         0.18626E-20         0.00000E+00
    0.65627E-08         0.18160E-21         0.00000E+00
    0.65627E-08         0.57695E-20         0.00000E+00
    0.65627E-08        -0.93132E-20         0.00000E+00
    0.65627E-08        -0.31483E-19         0.00000E+00
    0.65627E-08        -0.20671E-19         0.00000E+00
    0.65627E-08        -0.11357E-19         0.00000E+00
    0.65627E-08        -0.18626E-19         0.00000E+00
    0.65627E-08        -0.16945E-19         0.00000E+00
    0.65627E-08        -0.24964E-19         0.00000E+00
    0.65627E-08        -0.26827E-19         0.00000E+00
    0.65627E-08        -0.26124E-20         0.00000E+00
    0.65627E-08        -0.44750E-20         0.00000E+00
    0.65627E-08        -0.10426E-19         0.00000E+00
    0.65627E-08        -0.14901E-19         0.00000E+00
    0.65627E-08        -0.24396E-19         0.00000E+00
    0.65627E-08        -0.24214E-19         0.00000E+00
    0.65627E-08        -0.30552E-19         0.00000E+00
    0.65627E-08        -0.25509E-19         0.00000E+00
    0.65627E-08        -0.20489E-19         0.00000E+00
    0.65627E-08        -0.27940E-19         0.00000E+00
    0.65627E-08        -0.27008E-19         0.00000E+00
    0.65627E-08        -0.21989E-19         0.00000E+00
    0.65627E-08        -0.29621E-19         0.00000E+00
    0.65627E-08        -0.33709E-19         0.00000E+00
    0.65627E-08        -0.20489E-19         0.00000E+00
    0.65627E-08        -0.12289E-19         0.00000E+00
    0.65627E-08        -0.12945E-20         0.00000E+00
    0.65627E-08        -0.54063E-20         0.00000E+00
    0.65627E-08        -0.74506E-20         0.00000E+00
    0.65627E-08        -0.46566E-20         0.00000E+00
    0.65627E-08        -0.15832E-19         0.00000E+00
    0.65627E-08        -0.18626E-20         0.00000E+00
    0.65627E-08         0.93132E-20         0.00000E+00
    0.65627E-08         0.67009E-20         0.00000E+00
    0.65627E-08         0.29756E-20         0.00000E+00
    0.65627E-08        -0.57695E-20         0.00000E+00
    0.65627E-08        -0.74506E-20         0.00000E+00
    0.65627E-08        -0.11176E-19         0.00000E+00
    0.65627E-08        -0.11176E-19         0.00000E+00
    0.65627E-08        -0.20442E-20         0.00000E+00
    0.65627E-08         0.33621E-20         0.00000E+00
    0.55233E-08         0.74506E-20         0.00000E+00
    0.55233E-08         0.76142E-20         0.00000E+00
    0.55233E-08         0.55879E-20         0.00000E+00
    0.55233E-08        -0.94769E-20         0.00000E+00
    0.55233E-08        -0.20489E-19         0.00000E+00
    0.55233E-08        -0.15669E-19         0.00000E+00
    0.55233E-08        -0.12107E-19         0.00000E+00
    0.55233E-08        -0.93132E-20         0.00000E+00
    0.55233E-08        -0.27940E-20         0.00000E+00
    0.55233E-08        -0.37253E-20         0.00000E+00
    0.55233E-08        -0.13806E-19         0.00000E+00
    0.55233E-08        -0.25309E-19         0.00000E+00
    0.55233E-08        -0.15669E-19         0.00000E+00
    0.55233E-08        -0.54243E-20         0.00000E+00
    0.55233E-08        -0.96406E-20         0.00000E+00
    0.55233E-08        -0.15065E-19         0.00000E+00
    0.55233E-08        -0.14901E-19         0.00000E+00
    0.55233E-08        -0.23447E-19         0.00000E+00
    0.55233E-08        -0.22352E-19         0.00000E+00
    0.55233E-08        -0.26303E-20         0.00000E+00
    0.55233E-08        -0.16600E-19         0.00000E+00
    0.55233E-08        -0.24051E-19         0.00000E+00
    0.55233E-08        -0.16927E-19         0.00000E+00
    0.55233E-08        -0.65193E-20         0.00000E+00
    0.55233E-08         0.13039E-19         0.00000E+00
    0.55233E-08        -0.12564E-33         0.00000E+00
    0.55233E-08        -0.18626E-20         0.00000E+00
    0.55233E-08         0.65193E-20         0.00000E+00
    0.55233E-08         0.76142E-20         0.00000E+00
    0.55233E-08         0.26303E-20         0.00000E+00
    0.55233E-08        -0.12271E-19         0.00000E+00
    0.55233E-08        -0.26845E-19         0.00000E+00
    0.55233E-08        -0.25146E-19         0.00000E+00
    0.55233E-08        -0.20653E-19         0.00000E+00
    0.55233E-08        -0.27940E-19         0.00000E+00
    0.55233E-08        -0.26077E-19         0.00000E+00
    0.55233E-08        -0.18463E-19         0.00000E+00
    0.55233E-08        -0.37253E-20         0.00000E+00
    0.55233E-08        -0.29716E-34         0.00000E+00
    0.55233E-08        -0.11012E-19         0.00000E+00
    0.55233E-08        -0.20263E-20         0.00000E+00
    0.55233E-08         0.35616E-20         0.00000E+00
    0.55233E-08        -0.18626E-20         0.00000E+00
    0.55233E-08         0.37253E-20         0.00000E+00
    0.55233E-08         0.93132E-20         0.00000E+00
    0.55233E-08         0.12271E-19         0.00000E+00
    0.55233E-08         0.11176E-19         0.00000E+00
    0.55233E-08         0.12107E-19         0.00000E+00
    0.55233E-08         0.65193E-20         0.00000E+00
    0.55233E-08         0.16990E-20         0.00000E+00
    0.55233E-08        -0.37253E-20         0.00000E+00
    0.46486E-08        -0.14901E-19         0.00000E+00
    0.46486E-08        -0.11324E-19         0.00000E+00
    0.46486E-08        -0.11176E-19         0.00000E+00
    0.46486E-08        -0.63418E-21         0.00000E+00
    0.46486E-08         0.21420E-19         0.00000E+00
    0.46486E-08         0.22203E-19         0.00000E+00
    0.46486E-08         0.37253E-20         0.00000E+00
    0.46486E-08        -0.11176E-19         0.00000E+00
    0.46486E-08        -0.13039E-19         0.00000E+00
    0.46486E-08        -0.12890E-19         0.00000E+00
    0.46486E-08        -0.74506E-20         0.00000E+00
    0.46486E-08        -0.13187E-19         0.00000E+00
    0.46486E-08        -0.22352E-19         0.00000E+00
    0.46486E-08        -0.16764E-19         0.00000E+00
    0.46486E-08        -0.74506E-20         0.00000E+00
    0.46486E-08        -0.82333E-20         0.00000E+00
    0.46486E-08        -0.82333E-20         0.00000E+00
    0.46486E-08        -0.14857E-21         0.00000E+00
    0.46486E-08        -0.13187E-19         0.00000E+00
    0.46486E-08        -0.31665E-19         0.00000E+00
    0.46486E-08        -0.20489E-19         0.00000E+00
    0.46486E-08         0.20112E-20         0.00000E+00
    0.46486E-08         0.20112E-20         0.00000E+00
    0.46486E-08        -0.93132E-20         0.00000E+00
    0.46486E-08        -0.10393E-19         0.00000E+00
    0.46486E-08        -0.21569E-19         0.00000E+00
    0.46486E-08        -0.18478E-19         0.00000E+00
    0.46486E-08        -0.91647E-20         0.00000E+00
    0.46486E-08        -0.20112E-20         0.00000E+00
    0.46486E-08         0.35767E-20         0.00000E+00
    0.46486E-08         0.11176E-19         0.00000E+00
    0.46486E-08         0.74506E-20         0.00000E+00
    0.46486E-08        -0.73020E-20         0.00000E+00
    0.46486E-08        -0.12890E-19         0.00000E+00
    0.46486E-08        -0.16912E-19         0.00000E+00
    0.46486E-08        -0.13187E-19         0.00000E+00
    0.46486E-08        -0.37253E-20         0.00000E+00
    0.46486E-08        -0.74506E-20         0.00000E+00
    0.46486E-08        -0.11176E-19         0.00000E+00
    0.46486E-08         0.20112E-20         0.00000E+00
    0.46486E-08         0.37253E-20         0.00000E+00
    0.46486E-08        -0.14857E-21         0.00000E+00
    0.46486E-08         0.93132E-20         0.00000E+00
    0.46486E-08         0.11176E-19         0.00000E+00
    0.46486E-08         0.14901E-19         0.00000E+00
    0.46486E-08         0.75991E-20         0.00000E+00
    0.46486E-08        -0.93132E-21         0.00000E+00
    0.46486E-08        -0.38739E-20         0.00000E+00
    0.46486E-08        -0.74506E-20         0.00000E+00
    0.46486E-08        -0.75991E-20         0.00000E+00
    0.46486E-08        -0.77477E-20         0.00000E+00
    0.39126E-08         0.37253E-20         0.00000E+00
    0.39126E-08         0.00000E+00         0.00000E+00
    0.39126E-08         0.55879E-20         0.00000E+00
    0.39126E-08         0.74506E-20         0.00000E+00
    0.39126E-08        -0.55879E-20         0.00000E+00
    0.39126E-08        -0.13039E-19         0.00000E+00
    0.39126E-08        -0.13039E-19         0.00000E+00
    0.39126E-08        -0.18626E-19         0.00000E+00
    0.39126E-08        -0.22352E-19         0.00000E+00
    0.39126E-08        -0.20489E-19         0.00000E+00
    0.39126E-08        -0.13039E-19         0.00000E+00
    0.39126E-08        -0.37253E-20         0.00000E+00
    0.39126E-08        -0.11176E-19         0.00000E+00
    0.39126E-08        -0.14901E-19         0.00000E+00
    0.39126E-08        -0.93132E-20         0.00000E+00
    0.39126E-08        -0.13039E-19         0.00000E+00
    0.39126E-08        -0.14901E-19         0.00000E+00
    0.39126E-08        -0.74506E-20         0.00000E+00
    0.39126E-08         0.81102E-20         0.00000E+00
    0.39126E-08         0.20489E-19         0.00000E+00
    0.39126E-08         0.17967E-19         0.00000E+00
    0.39126E-08         0.74506E-20         0.00000E+00
    0.39126E-08         0.18626E-20         0.00000E+00
    0.39126E-08        -0.18626E-20         0.00000E+00
    0.39126E-08        -0.55879E-20         0.00000E+00
    0.39126E-08        -0.55879E-20         0.00000E+00
    0.39126E-08        -0.18626E-19         0.00000E+00
    0.39126E-08        -0.26077E-19         0.00000E+00
    0.39126E-08        -0.26077E-19         0.00000E+00
    0.39126E-08        -0.13039E-19         0.00000E+00
    0.39126E-08        -0.55879E-20         0.00000E+00
    0.39126E-08        -0.16764E-19         0.00000E+00
    0.39126E-08        -0.18626E-19         0.00000E+00
    0.39126E-08        -0.37253E-20         0.00000E+00
    0.39126E-08         0.16764E-19         0.00000E+00
    0.39126E-08         0.93132E-20         0.00000E+00
    0.39126E-08        -0.11176E-19         0.00000E+00
    0.39126E-08        -0.18626E-19         0.00000E+00
    0.39126E-08        -0.22352E-19         0.00000E+00
    0.39126E-08        -0.27940E-19         0.00000E+00
    0.39126E-08        -0.11176E-19         0.00000E+00
    0.39126E-08         0.11176E-19         0.00000E+00
    0.39126E-08         0.14901E-19         0.00000E+00
    0.39126E-08         0.14901E-19         0.00000E+00
    0.39126E-08         0.14901E-19         0.00000E+00
    0.39126E-08         0.18626E-19         0.00000E+00
    0.39126E-08         0.16764E-19         0.00000E+00
    0.39126E-08         0.20489E-19         0.00000E+00
    0.39126E-08         0.11176E-19         0.00000E+00
    0.39126E-08        -0.55879E-20         0.00000E+00
    0.39126E-08        -0.37253E-20         0.00000E+00
    0.32932E-08        -0.42260E-20         0.00000E+00
    0.32932E-08        -0.27940E-20         0.00000E+00
    0.32932E-08        -0.62689E-20         0.00000E+00
    0.32932E-08        -0.14901E-19         0.00000E+00
    0.32932E-08        -0.13039E-19         0.00000E+00
    0.32932E-08        -0.11176E-19         0.00000E+00
    0.32932E-08        -0.55879E-20         0.00000E+00
    0.32932E-08        -0.21130E-20         0.00000E+00
    0.32932E-08        -0.27940E-20         0.00000E+00
    0.32932E-08         0.10495E-19         0.00000E+00
    0.32932E-08         0.55879E-20         0.00000E+00
    0.32932E-08        -0.74506E-20         0.00000E+00
    0.32932E-08        -0.37253E-20         0.00000E+00
    0.32932E-08         0.00000E+00         0.00000E+00
    0.32932E-08         0.13039E-19         0.00000E+00
    0.32932E-08         0.12788E-19         0.00000E+00
    0.32932E-08        -0.65193E-20         0.00000E+00
    0.32932E-08         0.11817E-20         0.00000E+00
    0.32932E-08         0.37253E-20         0.00000E+00
    0.32932E-08        -0.55879E-20         0.00000E+00
    0.32932E-08        -0.37253E-20         0.00000E+00
    0.32932E-08         0.00000E+00         0.00000E+00
    0.32932E-08         0.00000E+00         0.00000E+00
    0.32932E-08         0.37253E-20         0.00000E+00
    0.32932E-08         0.74506E-20         0.00000E+00
    0.32932E-08         0.13039E-19         0.00000E+00
    0.32932E-08         0.11176E-19         0.00000E+00
    0.32932E-08         0.18626E-20         0.00000E+00
    0.32932E-08        -0.37253E-20         0.00000E+00
    0.32932E-08        -0.16764E-19         0.00000E+00
    0.32932E-08        -0.16764E-19         0.00000E+00
    0.32932E-08        -0.13039E-19         0.00000E+00
    0.32932E-08        -0.20489E-19         0.00000E+00
    0.32932E-08        -0.26077E-19         0.00000E+00
    0.32932E-08        -0.33528E-19         0.00000E+00
    0.32932E-08        -0.29802E-19         0.00000E+00
    0.32932E-08        -0.11176E-19         0.00000E+00
    0.32932E-08         0.00000E+00         0.00000E+00
    0.32932E-08        -0.18626E-20         0.00000E+00
    0.32932E-08        -0.67696E-20         0.00000E+00
    0.32932E-08        -0.93132E-20         0.00000E+00
    0.32932E-08        -0.62689E-20         0.00000E+00
    0.32932E-08         0.37253E-20         0.00000E+00
    0.32932E-08         0.13039E-19         0.00000E+00
    0.32932E-08         0.37253E-20         0.00000E+00
    0.32932E-08        -0.55879E-20         0.00000E+00
    0.32932E-08         0.00000E+00         0.00000E+00
    0.32932E-08         0.25436E-20         0.00000E+00
    0.32932E-08         0.74506E-20         0.00000E+00
    0.32932E-08         0.86322E-20         0.00000E+00
    0.32932E-08        -0.37253E-20         0.00000E+00
    0.27721E-08        -0.23273E-20         0.00000E+00
    0.27721E-08        -0.13039E-19         0.00000E+00
    0.27721E-08        -0.23051E-19         0.00000E+00
    0.27721E-08        -0.22352E-19         0.00000E+00
    0.27721E-08        -0.19790E-19         0.00000E+00
    0.27721E-08        -0.14202E-19         0.00000E+00
    0.27721E-08        -0.15600E-19         0.00000E+00
    0.27721E-08        -0.62869E-20         0.00000E+00
    0.27721E-08         0.37253E-20         0.00000E+00
    0.27721E-08         0.13039E-19         0.00000E+00
    0.27721E-08         0.24214E-19         0.00000E+00
    0.27721E-08         0.20489E-19         0.00000E+00
    0.27721E-08         0.11176E-19         0.00000E+00
    0.27721E-08         0.14901E-19         0.00000E+00
    0.27721E-08         0.74506E-20         0.00000E+00
    0.27721E-08         0.37253E-20         0.00000E+00
    0.27721E-08         0.27940E-19         0.00000E+00
    0.27721E-08         0.26077E-19         0.00000E+00
    0.27721E-08         0.93132E-20         0.00000E+00
    0.27721E-08         0.18626E-19         0.00000E+00
    0.27721E-08         0.20489E-19         0.00000E+00
    0.27721E-08         0.11176E-19         0.00000E+00
    0.27721E-08        -0.11176E-19         0.00000E+00
    0.27721E-08        -0.26077E-19         0.00000E+00
    0.27721E-08        -0.18626E-19         0.00000E+00
    0.27721E-08        -0.14901E-19         0.00000E+00
    0.27721E-08        -0.55879E-20         0.00000E+00
    0.27721E-08         0.00000E+00         0.00000E+00
    0.27721E-08         0.00000E+00         0.00000E+00
    0.27721E-08         0.74506E-20         0.00000E+00
    0.27721E-08         0.37253E-20         0.00000E+00
    0.27721E-08        -0.18626E-20         0.00000E+00
    0.27721E-08        -0.93132E-20         0.00000E+00
    0.27721E-08        -0.11176E-19         0.00000E+00
    0.27721E-08        -0.74506E-20         0.00000E+00
    0.27721E-08        -0.13039E-19         0.00000E+00
    0.27721E-08        -0.20489E-19         0.00000E+00
    0.27721E-08        -0.26077E-19         0.00000E+00
    0.27721E-08        -0.29802E-19         0.00000E+00
    0.27721E-08        -0.32829E-19         0.00000E+00
    0.27721E-08        -0.20489E-19         0.00000E+00
    0.27721E-08        -0.44243E-20         0.00000E+00
    0.27721E-08        -0.37253E-20         0.00000E+00
    0.27721E-08        -0.74506E-20         0.00000E+00
    0.27721E-08         0.74506E-20         0.00000E+00
    0.27721E-08         0.18626E-19         0.00000E+00
    0.27721E-08         0.10944E-19         0.00000E+00
    0.27721E-08         0.74506E-20         0.00000E+00
    0.27721E-08         0.20950E-20         0.00000E+00
    0.27721E-08        -0.37253E-20         0.00000E+00
    0.27721E-08        -0.37253E-20         0.00000E+00
    0.23337E-08        -0.14283E-20         0.00000E+00
    0.23337E-08         0.74506E-20         0.00000E+00
    0.23337E-08         0.19341E-19         0.00000E+00
    0.23337E-08         0.16981E-19         0.00000E+00
    0.23337E-08         0.14901E-19         0.00000E+00
    0.23337E-08         0.22135E-19         0.00000E+00
    0.23337E-08         0.21638E-19         0.00000E+00
    0.23337E-08         0.19775E-19         0.00000E+00
    0.23337E-08         0.63021E-20         0.00000E+00
    0.23337E-08        -0.27940E-20         0.00000E+00
    0.23337E-08         0.27940E-20         0.00000E+00
    0.23337E-08         0.11176E-19         0.00000E+00
    0.23337E-08         0.16764E-19         0.00000E+00
    0.23337E-08         0.22352E-19         0.00000E+00
    0.23337E-08         0.12324E-19         0.00000E+00
    0.23337E-08         0.63021E-20         0.00000E+00
    0.23337E-08         0.17478E-19         0.00000E+00
    0.23337E-08         0.22352E-19         0.00000E+00
    0.23337E-08         0.20489E-19         0.00000E+00
    0.23337E-08         0.67364E-20         0.00000E+00
    0.23337E-08         0.14187E-19         0.00000E+00
    0.23337E-08         0.24214E-19         0.00000E+00
    0.23337E-08         0.20489E-19         0.00000E+00
    0.23337E-08         0.18626E-20         0.00000E+00
    0.23337E-08        -0.14901E-19         0.00000E+00
    0.23337E-08        -0.13039E-19         0.00000E+00
    0.23337E-08        -0.14901E-19         0.00000E+00
    0.23337E-08        -0.18626E-19         0.00000E+00
    0.23337E-08        -0.10462E-19         0.00000E+00
    0.23337E-08        -0.74506E-20         0.00000E+00
    0.23337E-08        -0.17478E-19         0.00000E+00
    0.23337E-08        -0.24214E-19         0.00000E+00
    0.23337E-08        -0.16764E-19         0.00000E+00
    0.23337E-08         0.37253E-20         0.00000E+00
    0.23337E-08        -0.18626E-20         0.00000E+00
    0.23337E-08        -0.19775E-19         0.00000E+00
    0.23337E-08        -0.13039E-19         0.00000E+00
    0.23337E-08         0.11485E-20         0.00000E+00
    0.23337E-08         0.11890E-19         0.00000E+00
    0.23337E-08         0.81647E-20         0.00000E+00
    0.23337E-08         0.55879E-20         0.00000E+00
    0.23337E-08         0.10462E-19         0.00000E+00
    0.23337E-08         0.66204E-34         0.00000E+00
    0.23337E-08        -0.85991E-20         0.00000E+00
    0.23337E-08        -0.19341E-19         0.00000E+00
    0.23337E-08        -0.10027E-19         0.00000E+00
    0.23337E-08         0.25768E-20         0.00000E+00
    0.23337E-08         0.27940E-20         0.00000E+00
    0.23337E-08        -0.53708E-20         0.00000E+00
    0.23337E-08        -0.37253E-20         0.00000E+00
    0.23337E-08         0.37253E-20         0.00000E+00
    0.19648E-08         0.14901E-19         0.00000E+00
    0.19648E-08         0.67237E-20         0.00000E+00
    0.19648E-08         0.18626E-20         0.00000E+00
    0.19648E-08         0.10040E-19         0.00000E+00
    0.19648E-08         0.00000E+00         0.00000E+00
    0.19648E-08        -0.63148E-20         0.00000E+00
    0.19648E-08         0.12312E-19         0.00000E+00
    0.19648E-08         0.14901E-19         0.00000E+00
    0.19648E-08         0.15628E-19         0.00000E+00
    0.19648E-08         0.17491E-19         0.00000E+00
    0.19648E-08         0.95176E-20         0.00000E+00
    0.19648E-08         0.13970E-19         0.00000E+00
    0.19648E-08         0.11903E-19         0.00000E+00
    0.19648E-08        -0.63148E-20         0.00000E+00
    0.19648E-08         0.74506E-20         0.00000E+00
    0.19648E-08         0.16764E-19         0.00000E+00
    0.19648E-08         0.17900E-19         0.00000E+00
    0.19648E-08         0.22147E-19         0.00000E+00
    0.19648E-08         0.18422E-19         0.00000E+00
    0.19648E-08         0.18626E-19         0.00000E+00
    0.19648E-08         0.85863E-20         0.00000E+00
    0.19648E-08        -0.72691E-21         0.00000E+00
    0.19648E-08         0.00000E+00         0.00000E+00
    0.19648E-08         0.00000E+00         0.00000E+00
    0.19648E-08        -0.85863E-20         0.00000E+00
    0.19648E-08        -0.55879E-20         0.00000E+00
    0.19648E-08         0.29984E-20         0.00000E+00
    0.19648E-08         0.55879E-20         0.00000E+00
    0.19648E-08        -0.55879E-20         0.00000E+00
    0.19648E-08        -0.16037E-19         0.00000E+00
    0.19648E-08        -0.18626E-20         0.00000E+00
    0.19648E-08         0.10449E-19         0.00000E+00
    0.19648E-08        -0.67237E-20         0.00000E+00
    0.19648E-08        -0.23487E-19         0.00000E+00
    0.19648E-08        -0.11176E-19         0.00000E+00
    0.19648E-08         0.16764E-19         0.00000E+00
    0.19648E-08         0.16764E-19         0.00000E+00
    0.19648E-08         0.10449E-19         0.00000E+00
    0.19648E-08         0.12312E-19         0.00000E+00
    0.19648E-08         0.13765E-19         0.00000E+00
    0.19648E-08         0.17491E-19         0.00000E+00
    0.19648E-08         0.11176E-19         0.00000E+00
    0.19648E-08         0.29984E-20         0.00000E+00
    0.19648E-08         0.11357E-20         0.00000E+00
    0.19648E-08         0.00000E+00         0.00000E+00
    0.19648E-08        -0.14901E-19         0.00000E+00
    0.19648E-08        -0.34663E-19         0.00000E+00
    0.19648E-08        -0.32801E-19         0.00000E+00
    0.19648E-08        -0.11176E-19         0.00000E+00
    0.19648E-08        -0.55879E-20         0.00000E+00
    0.19648E-08        -0.11176E-19         0.00000E+00
    0.16546E-08        -0.74506E-20         0.00000E+00
    0.16546E-08         0.00000E+00         0.00000E+00
    0.16546E-08         0.18626E-20         0.00000E+00
    0.16546E-08         0.00000E+00         0.00000E+00
    0.16546E-08         0.14901E-19         0.00000E+00
    0.16546E-08         0.12301E-19         0.00000E+00
    0.16546E-08         0.44630E-20         0.00000E+00
    0.16546E-08         0.44630E-20         0.00000E+00
    0.16546E-08        -0.18626E-20         0.00000E+00
    0.16546E-08        -0.65193E-20         0.00000E+00
    0.16546E-08        -0.35316E-20         0.00000E+00
    0.16546E-08        -0.13039E-19         0.00000E+00
    0.16546E-08         0.00000E+00         0.00000E+00
    0.16546E-08         0.37253E-19         0.00000E+00
    0.16546E-08         0.33528E-19         0.00000E+00
    0.16546E-08         0.28133E-19         0.00000E+00
    0.16546E-08         0.29996E-19         0.00000E+00
    0.16546E-08         0.24952E-19         0.00000E+00
    0.16546E-08         0.16376E-19         0.00000E+00
    0.16546E-08        -0.37253E-20         0.00000E+00
    0.16546E-08        -0.81882E-20         0.00000E+00
    0.16546E-08        -0.21227E-19         0.00000E+00
    0.16546E-08        -0.23089E-19         0.00000E+00
    0.16546E-08        -0.67129E-20         0.00000E+00
    0.16546E-08         0.13776E-19         0.00000E+00
    0.16546E-08         0.21614E-19         0.00000E+00
    0.16546E-08         0.17889E-19         0.00000E+00
    0.16546E-08         0.26003E-20         0.00000E+00
    0.16546E-08        -0.12301E-19         0.00000E+00
    0.16546E-08        -0.24214E-19         0.00000E+00
    0.16546E-08        -0.74506E-20         0.00000E+00
    0.16546E-08         0.12301E-19         0.00000E+00
    0.16546E-08         0.74506E-20         0.00000E+00
    0.16546E-08         0.44630E-20         0.00000E+00
    0.16546E-08        -0.37253E-20         0.00000E+00
    0.16546E-08        -0.16764E-19         0.00000E+00
    0.16546E-08        -0.14901E-19         0.00000E+00
    0.16546E-08        -0.55879E-20         0.00000E+00
    0.16546E-08         0.74506E-20         0.00000E+00
    0.16546E-08         0.55879E-20         0.00000E+00
    0.16546E-08         0.37253E-20         0.00000E+00
    0.16546E-08         0.74506E-20         0.00000E+00
    0.16546E-08         0.93132E-20         0.00000E+00
    0.16546E-08         0.19751E-19         0.00000E+00
    0.16546E-08         0.17889E-19         0.00000E+00
    0.16546E-08         0.22158E-19         0.00000E+00
    0.16546E-08         0.27008E-19         0.00000E+00
    0.16546E-08         0.13039E-19         0.00000E+00
    0.16546E-08        -0.67129E-20         0.00000E+00
    0.16546E-08        -0.93132E-20         0.00000E+00
    0.16546E-08        -0.37253E-20         0.00000E+00
    0.13936E-08        -0.37253E-20         0.00000E+00
    0.13936E-08         0.37253E-20         0.00000E+00
    0.13936E-08         0.16764E-19         0.00000E+00
    0.13936E-08         0.11360E-19         0.00000E+00
    0.13936E-08         0.37253E-20         0.00000E+00
    0.13936E-08         0.12669E-19         0.00000E+00
    0.13936E-08         0.13039E-19         0.00000E+00
    0.13936E-08         0.57725E-20         0.00000E+00
    0.13936E-08         0.93132E-20         0.00000E+00
    0.13936E-08         0.20489E-19         0.00000E+00
    0.13936E-08         0.11176E-19         0.00000E+00
    0.13936E-08         0.67039E-20         0.00000E+00
    0.13936E-08         0.14901E-19         0.00000E+00
    0.13936E-08         0.93132E-20         0.00000E+00
    0.13936E-08         0.46566E-20         0.00000E+00
    0.13936E-08         0.16780E-20         0.00000E+00
    0.13936E-08        -0.37253E-20         0.00000E+00
    0.13936E-08        -0.20489E-19         0.00000E+00
    0.13936E-08        -0.18626E-19         0.00000E+00
    0.13936E-08         0.00000E+00         0.00000E+00
    0.13936E-08         0.18626E-20         0.00000E+00
    0.13936E-08         0.93132E-20         0.00000E+00
    0.13936E-08         0.22352E-19         0.00000E+00
    0.13936E-08         0.10429E-19         0.00000E+00
    0.13936E-08         0.74672E-21         0.00000E+00
    0.13936E-08         0.18626E-20         0.00000E+00
    0.13936E-08        -0.26094E-20         0.00000E+00
    0.13936E-08        -0.29786E-20         0.00000E+00
    0.13936E-08         0.74506E-20         0.00000E+00
    0.13936E-08         0.18626E-19         0.00000E+00
    0.13936E-08         0.22352E-19         0.00000E+00
    0.13936E-08         0.14901E-19         0.00000E+00
    0.13936E-08         0.55879E-20         0.00000E+00
    0.13936E-08         0.00000E+00         0.00000E+00
    0.13936E-08        -0.55879E-20         0.00000E+00
    0.13936E-08        -0.11176E-19         0.00000E+00
    0.13936E-08        -0.13039E-19         0.00000E+00
    0.13936E-08        -0.74506E-20         0.00000E+00
    0.13936E-08        -0.55879E-20         0.00000E+00
    0.13936E-08         0.74506E-20         0.00000E+00
    0.13936E-08         0.13785E-19         0.00000E+00
    0.13936E-08         0.18626E-20         0.00000E+00
    0.13936E-08         0.12292E-19         0.00000E+00
    0.13936E-08         0.13785E-19         0.00000E+00
    0.13936E-08         0.12292E-19         0.00000E+00
    0.13936E-08         0.96824E-20         0.00000E+00
    0.13936E-08        -0.20473E-20         0.00000E+00
    0.13936E-08        -0.39099E-20         0.00000E+00
    0.13936E-08        -0.18626E-20         0.00000E+00
    0.13936E-08        -0.48412E-20         0.00000E+00
    0.13936E-08        -0.59571E-20         0.00000E+00
    0.11743E-08        -0.59419E-20         0.00000E+00
    0.11743E-08         0.83819E-20         0.00000E+00
    0.11743E-08         0.20396E-20         0.00000E+00
    0.11743E-08        -0.11176E-19         0.00000E+00
    0.11743E-08        -0.55879E-20         0.00000E+00
    0.11743E-08        -0.55879E-20         0.00000E+00
    0.11743E-08         0.82049E-20         0.00000E+00
    0.11743E-08         0.21243E-19         0.00000E+00
    0.11743E-08         0.66962E-20         0.00000E+00
    0.11743E-08         0.66962E-20         0.00000E+00
    0.11743E-08         0.15656E-19         0.00000E+00
    0.11743E-08         0.19558E-19         0.00000E+00
    0.11743E-08         0.16941E-19         0.00000E+00
    0.11743E-08         0.17872E-19         0.00000E+00
    0.11743E-08         0.12107E-19         0.00000E+00
    0.11743E-08        -0.57649E-20         0.00000E+00
    0.11743E-08        -0.74506E-20         0.00000E+00
    0.11743E-08         0.26170E-20         0.00000E+00
    0.11743E-08         0.44796E-20         0.00000E+00
    0.11743E-08         0.29709E-20         0.00000E+00
    0.11743E-08         0.66962E-20         0.00000E+00
    0.11743E-08         0.74506E-20         0.00000E+00
    0.11743E-08         0.55879E-20         0.00000E+00
    0.11743E-08         0.76276E-20         0.00000E+00
    0.11743E-08         0.20312E-19         0.00000E+00
    0.11743E-08         0.20489E-19         0.00000E+00
    0.11743E-08         0.21597E-19         0.00000E+00
    0.11743E-08         0.23106E-19         0.00000E+00
    0.11743E-08         0.74506E-20         0.00000E+00
    0.11743E-08        -0.93132E-20         0.00000E+00
    0.11743E-08        -0.13039E-19         0.00000E+00
    0.11743E-08        -0.13793E-19         0.00000E+00
    0.11743E-08        -0.14901E-19         0.00000E+00
    0.11743E-08        -0.14147E-19         0.00000E+00
    0.11743E-08        -0.11176E-19         0.00000E+00
    0.11743E-08        -0.12284E-19         0.00000E+00
    0.11743E-08        -0.74506E-20         0.00000E+00
    0.11743E-08        -0.11930E-19         0.00000E+00
    0.11743E-08        -0.19735E-19         0.00000E+00
    0.11743E-08         0.18626E-20         0.00000E+00
    0.11743E-08         0.10422E-19         0.00000E+00
    0.11743E-08         0.82049E-20         0.00000E+00
    0.11743E-08         0.26170E-20         0.00000E+00
    0.11743E-08         0.85589E-20         0.00000E+00
    0.11743E-08         0.27185E-19         0.00000E+00
    0.11743E-08         0.27940E-19         0.00000E+00
    0.11743E-08         0.20312E-19         0.00000E+00
    0.11743E-08         0.46566E-20         0.00000E+00
    0.11743E-08        -0.74506E-20         0.00000E+00
    0.11743E-08         0.75435E-21         0.00000E+00
    0.11743E-08         0.74506E-20         0.00000E+00
    0.98999E-09         0.00000E+00         0.00000E+00
    0.98999E-09        -0.48272E-20         0.00000E+00
    0.98999E-09        -0.74506E-20         0.00000E+00
    0.98999E-09        -0.63487E-20         0.00000E+00
    0.98999E-09        -0.18626E-19         0.00000E+00
    0.98999E-09        -0.26077E-19         0.00000E+00
    0.98999E-09        -0.20489E-19         0.00000E+00
    0.98999E-09        -0.55879E-20         0.00000E+00
    0.98999E-09         0.10074E-19         0.00000E+00
    0.98999E-09         0.13039E-19         0.00000E+00
    0.98999E-09        -0.44861E-20         0.00000E+00
    0.98999E-09        -0.74506E-20         0.00000E+00
    0.98999E-09        -0.85524E-20         0.00000E+00
    0.98999E-09        -0.18626E-20         0.00000E+00
    0.98999E-09         0.17866E-19         0.00000E+00
    0.98999E-09         0.23113E-19         0.00000E+00
    0.98999E-09         0.34459E-19         0.00000E+00
    0.98999E-09         0.31665E-19         0.00000E+00
    0.98999E-09         0.20319E-19         0.00000E+00
    0.98999E-09         0.48272E-20         0.00000E+00
    0.98999E-09         0.37253E-20         0.00000E+00
    0.98999E-09         0.37253E-20         0.00000E+00
    0.98999E-09         0.00000E+00         0.00000E+00
    0.98999E-09         0.44861E-20         0.00000E+00
    0.98999E-09         0.11176E-19         0.00000E+00
    0.98999E-09         0.14901E-19         0.00000E+00
    0.98999E-09         0.66898E-20         0.00000E+00
    0.98999E-09        -0.37253E-20         0.00000E+00
    0.98999E-09        -0.66898E-20         0.00000E+00
    0.98999E-09         0.11019E-20         0.00000E+00
    0.98999E-09         0.55879E-20         0.00000E+00
    0.98999E-09        -0.55879E-20         0.00000E+00
    0.98999E-09        -0.82114E-20         0.00000E+00
    0.98999E-09         0.26234E-20         0.00000E+00
    0.98999E-09         0.37253E-20         0.00000E+00
    0.98999E-09        -0.11176E-19         0.00000E+00
    0.98999E-09        -0.14140E-19         0.00000E+00
    0.98999E-09        -0.37253E-20         0.00000E+00
    0.98999E-09        -0.44861E-20         0.00000E+00
    0.98999E-09        -0.82114E-20         0.00000E+00
    0.98999E-09         0.26234E-20         0.00000E+00
    0.98999E-09         0.93132E-20         0.00000E+00
    0.98999E-09         0.85524E-20         0.00000E+00
    0.98999E-09        -0.37253E-20         0.00000E+00
    0.98999E-09        -0.55879E-20         0.00000E+00
    0.98999E-09         0.00000E+00         0.00000E+00
    0.98999E-09         0.18626E-20         0.00000E+00
    0.98999E-09         0.10074E-19         0.00000E+00
    0.98999E-09         0.11176E-19         0.00000E+00
    0.98999E-09         0.93132E-20         0.00000E+00
    0.98999E-09         0.52469E-20         0.00000E+00
    0.83520E-09         0.00000E+00         0.00000E+00
    0.83520E-09        -0.93132E-20         0.00000E+00
    0.83520E-09        -0.14135E-19         0.00000E+00
    0.83520E-09        -0.85470E-20         0.00000E+00
    0.83520E-09        -0.35602E-20         0.00000E+00
    0.83520E-09         0.76157E-20         0.00000E+00
    0.83520E-09         0.63542E-20         0.00000E+00
    0.83520E-09        -0.10964E-20         0.00000E+00
    0.83520E-09        -0.93132E-20         0.00000E+00
    0.83520E-09        -0.10079E-19         0.00000E+00
    0.83520E-09         0.00000E+00         0.00000E+00
    0.83520E-09         0.76622E-21         0.00000E+00
    0.83520E-09        -0.18626E-20         0.00000E+00
    0.83520E-09         0.29591E-20         0.00000E+00
    0.83520E-09        -0.27940E-20         0.00000E+00
    0.83520E-09        -0.65193E-20         0.00000E+00
    0.83520E-09         0.83819E-20         0.00000E+00
    0.83520E-09         0.22187E-19         0.00000E+00
    0.83520E-09         0.22352E-19         0.00000E+00
    0.83520E-09         0.22352E-19         0.00000E+00
    0.83520E-09         0.22352E-19         0.00000E+00
    0.83520E-09         0.18626E-20         0.00000E+00
    0.83520E-09        -0.55879E-20         0.00000E+00
    0.83520E-09        -0.35602E-20         0.00000E+00
    0.83520E-09        -0.37253E-20         0.00000E+00
    0.83520E-09         0.16975E-20         0.00000E+00
    0.83520E-09         0.55879E-20         0.00000E+00
    0.83520E-09         0.37253E-20         0.00000E+00
    0.83520E-09        -0.11176E-19         0.00000E+00
    0.83520E-09        -0.18461E-19         0.00000E+00
    0.83520E-09        -0.13970E-19         0.00000E+00
    0.83520E-09        -0.10410E-19         0.00000E+00
    0.83520E-09        -0.74506E-20         0.00000E+00
    0.83520E-09        -0.82168E-20         0.00000E+00
    0.83520E-09        -0.18626E-20         0.00000E+00
    0.83520E-09         0.26289E-20         0.00000E+00
    0.83520E-09        -0.18626E-20         0.00000E+00
    0.83520E-09         0.55879E-20         0.00000E+00
    0.83520E-09        -0.18626E-20         0.00000E+00
    0.83520E-09        -0.82168E-20         0.00000E+00
    0.83520E-09        -0.76622E-21         0.00000E+00
    0.83520E-09        -0.10964E-20         0.00000E+00
    0.83520E-09         0.00000E+00         0.00000E+00
    0.83520E-09        -0.76622E-21         0.00000E+00
    0.83520E-09        -0.10964E-20         0.00000E+00
    0.83520E-09        -0.48217E-20         0.00000E+00
    0.83520E-09        -0.74506E-20         0.00000E+00
    0.83520E-09        -0.63542E-20         0.00000E+00
    0.83520E-09        -0.26289E-20         0.00000E+00
    0.83520E-09        -0.10964E-20         0.00000E+00
    0.83520E-09         0.15324E-20         0.00000E+00
    0.70531E-09         0.59090E-20         0.00000E+00
    0.70531E-09         0.13039E-19         0.00000E+00
    0.70531E-09         0.93132E-20         0.00000E+00
    0.70531E-09        -0.74506E-20         0.00000E+00
    0.70531E-09        -0.12107E-19         0.00000E+00
    0.70531E-09        -0.15832E-19         0.00000E+00
    0.70531E-09        -0.12107E-19         0.00000E+00
    0.70531E-09         0.38858E-20         0.00000E+00
    0.70531E-09         0.37253E-20         0.00000E+00
    0.70531E-09        -0.29545E-20         0.00000E+00
    0.70531E-09         0.77081E-21         0.00000E+00
    0.70531E-09         0.74506E-20         0.00000E+00
    0.70531E-09         0.18626E-20         0.00000E+00
    0.70531E-09         0.37253E-20         0.00000E+00
    0.70531E-09         0.37253E-20         0.00000E+00
    0.70531E-09         0.00000E+00         0.00000E+00
    0.70531E-09        -0.18626E-20         0.00000E+00
    0.70531E-09         0.37253E-20         0.00000E+00
    0.70531E-09         0.55879E-20         0.00000E+00
    0.70531E-09         0.00000E+00         0.00000E+00
    0.70531E-09        -0.74506E-20         0.00000E+00
    0.70531E-09        -0.11176E-19         0.00000E+00
    0.70531E-09        -0.18626E-20         0.00000E+00
    0.70531E-09         0.11176E-19         0.00000E+00
    0.70531E-09         0.11176E-19         0.00000E+00
    0.70531E-09         0.10918E-20         0.00000E+00
    0.70531E-09        -0.55879E-20         0.00000E+00
    0.70531E-09        -0.10405E-19         0.00000E+00
    0.70531E-09        -0.37253E-20         0.00000E+00
    0.70531E-09        -0.13039E-19         0.00000E+00
    0.70531E-09        -0.24214E-19         0.00000E+00
    0.70531E-09        -0.82214E-20         0.00000E+00
    0.70531E-09         0.18626E-20         0.00000E+00
    0.70531E-09         0.26335E-20         0.00000E+00
    0.70531E-09         0.18626E-20         0.00000E+00
    0.70531E-09         0.55879E-20         0.00000E+00
    0.70531E-09         0.74506E-20         0.00000E+00
    0.70531E-09         0.00000E+00         0.00000E+00
    0.70531E-09        -0.18626E-20         0.00000E+00
    0.70531E-09        -0.77081E-21         0.00000E+00
    0.70531E-09        -0.55879E-20         0.00000E+00
    0.70531E-09         0.37253E-20         0.00000E+00
    0.70531E-09         0.16764E-19         0.00000E+00
    0.70531E-09         0.14901E-19         0.00000E+00
    0.70531E-09         0.74506E-20         0.00000E+00
    0.70531E-09         0.13809E-19         0.00000E+00
    0.70531E-09         0.22352E-19         0.00000E+00
    0.70531E-09         0.93132E-20         0.00000E+00
    0.70531E-09         0.18626E-20         0.00000E+00
    0.70531E-09        -0.10918E-20         0.00000E+00
    0.70531E-09        -0.21837E-20         0.00000E+00
    0.59647E-09         0.00000E+00         0.00000E+00
    0.59647E-09        -0.63626E-20         0.00000E+00
    0.59647E-09        -0.74506E-20         0.00000E+00
    0.59647E-09         0.63626E-20         0.00000E+00
    0.59647E-09         0.11333E-19         0.00000E+00
    0.59647E-09         0.83819E-20         0.00000E+00
    0.59647E-09         0.63626E-20         0.00000E+00
    0.59647E-09        -0.37253E-20         0.00000E+00
    0.59647E-09        -0.93132E-20         0.00000E+00
    0.59647E-09        -0.55879E-20         0.00000E+00
    0.59647E-09        -0.93132E-20         0.00000E+00
    0.59647E-09        -0.37253E-20         0.00000E+00
    0.59647E-09         0.37253E-20         0.00000E+00
    0.59647E-09         0.00000E+00         0.00000E+00
    0.59647E-09        -0.37253E-20         0.00000E+00
    0.59647E-09         0.00000E+00         0.00000E+00
    0.59647E-09        -0.74506E-20         0.00000E+00
    0.59647E-09        -0.22352E-19         0.00000E+00
    0.59647E-09        -0.11176E-19         0.00000E+00
    0.59647E-09         0.55879E-20         0.00000E+00
    0.59647E-09         0.74506E-20         0.00000E+00
    0.59647E-09         0.11176E-19         0.00000E+00
    0.59647E-09         0.11176E-19         0.00000E+00
    0.59647E-09        -0.77469E-21         0.00000E+00
    0.59647E-09        -0.55879E-20         0.00000E+00
    0.59647E-09        -0.93132E-20         0.00000E+00
    0.59647E-09        -0.18626E-20         0.00000E+00
    0.59647E-09         0.10088E-19         0.00000E+00
    0.59647E-09        -0.55879E-20         0.00000E+00
    0.59647E-09        -0.93132E-20         0.00000E+00
    0.59647E-09        -0.37253E-20         0.00000E+00
    0.59647E-09        -0.93132E-20         0.00000E+00
    0.59647E-09        -0.55879E-20         0.00000E+00
    0.59647E-09        -0.37253E-20         0.00000E+00
    0.59647E-09        -0.55879E-20         0.00000E+00
    0.59647E-09         0.18626E-20         0.00000E+00
    0.59647E-09        -0.77469E-21         0.00000E+00
    0.59647E-09        -0.26373E-20         0.00000E+00
    0.59647E-09         0.63626E-20         0.00000E+00
    0.59647E-09         0.21264E-19         0.00000E+00
    0.59647E-09         0.24214E-19         0.00000E+00
    0.59647E-09         0.74506E-20         0.00000E+00
    0.59647E-09        -0.93132E-20         0.00000E+00
    0.59647E-09        -0.37253E-20         0.00000E+00
    0.59647E-09         0.55879E-20         0.00000E+00
    0.59647E-09         0.00000E+00         0.00000E+00
    0.59647E-09         0.37253E-20         0.00000E+00
    0.59647E-09         0.10401E-19         0.00000E+00
    0.59647E-09         0.29506E-20         0.00000E+00
    0.59647E-09         0.15494E-20         0.00000E+00
    0.59647E-09         0.68241E-20         0.00000E+00
    0.50541E-09        -0.37253E-20         0.00000E+00
    0.50541E-09        -0.55879E-20         0.00000E+00
    0.50541E-09        -0.74506E-20         0.00000E+00
    0.50541E-09        -0.14901E-19         0.00000E+00
    0.50541E-09        -0.12885E-19         0.00000E+00
    0.50541E-09         0.93132E-21         0.00000E+00
    0.50541E-09         0.26406E-20         0.00000E+00
    0.50541E-09         0.93132E-20         0.00000E+00
    0.50541E-09         0.93132E-20         0.00000E+00
    0.50541E-09         0.93132E-20         0.00000E+00
    0.50541E-09         0.85352E-20         0.00000E+00
    0.50541E-09        -0.93132E-20         0.00000E+00
    0.50541E-09        -0.21574E-19         0.00000E+00
    0.50541E-09        -0.11954E-19         0.00000E+00
    0.50541E-09        -0.18626E-20         0.00000E+00
    0.50541E-09        -0.10551E-19         0.00000E+00
    0.50541E-09        -0.13970E-19         0.00000E+00
    0.50541E-09        -0.45033E-20         0.00000E+00
    0.50541E-09        -0.14901E-19         0.00000E+00
    0.50541E-09        -0.35390E-19         0.00000E+00
    0.50541E-09        -0.22352E-19         0.00000E+00
    0.50541E-09        -0.14901E-19         0.00000E+00
    0.50541E-09        -0.93132E-20         0.00000E+00
    0.50541E-09         0.37253E-20         0.00000E+00
    0.50541E-09         0.11176E-19         0.00000E+00
    0.50541E-09         0.13039E-19         0.00000E+00
    0.50541E-09         0.55879E-20         0.00000E+00
    0.50541E-09         0.00000E+00         0.00000E+00
    0.50541E-09        -0.11176E-19         0.00000E+00
    0.50541E-09        -0.74506E-20         0.00000E+00
    0.50541E-09         0.00000E+00         0.00000E+00
    0.50541E-09        -0.93132E-20         0.00000E+00
    0.50541E-09        -0.11176E-19         0.00000E+00
    0.50541E-09        -0.18626E-20         0.00000E+00
    0.50541E-09         0.37253E-20         0.00000E+00
    0.50541E-09        -0.10847E-20         0.00000E+00
    0.50541E-09         0.37253E-20         0.00000E+00
    0.50541E-09         0.10398E-19         0.00000E+00
    0.50541E-09         0.14901E-19         0.00000E+00
    0.50541E-09         0.16764E-19         0.00000E+00
    0.50541E-09         0.85352E-20         0.00000E+00
    0.50541E-09        -0.18626E-20         0.00000E+00
    0.50541E-09        -0.10847E-20         0.00000E+00
    0.50541E-09         0.18626E-20         0.00000E+00
    0.50541E-09         0.18626E-20         0.00000E+00
    0.50541E-09         0.55879E-20         0.00000E+00
    0.50541E-09        -0.77799E-21         0.00000E+00
    0.50541E-09        -0.65193E-20         0.00000E+00
    0.50541E-09        -0.57413E-20         0.00000E+00
    0.50541E-09         0.26406E-20         0.00000E+00
    0.50541E-09         0.90066E-20         0.00000E+00
    0.42943E-09        -0.11176E-19         0.00000E+00
    0.42943E-09        -0.93132E-20         0.00000E+00
    0.42943E-09        -0.74506E-20         0.00000E+00
    0.42943E-09        -0.18626E-20         0.00000E+00
    0.42943E-09         0.37253E-20         0.00000E+00
    0.42943E-09         0.00000E+00         0.00000E+00
    0.42943E-09        -0.18626E-20         0.00000E+00
    0.42943E-09        -0.18626E-20         0.00000E+00
    0.42943E-09         0.66698E-20         0.00000E+00
    0.42943E-09         0.93132E-20         0.00000E+00
    0.42943E-09         0.78080E-21         0.00000E+00
    0.42943E-09        -0.37253E-20         0.00000E+00
    0.42943E-09        -0.10818E-20         0.00000E+00
    0.42943E-09         0.74506E-20         0.00000E+00
    0.42943E-09         0.12258E-19         0.00000E+00
    0.42943E-09         0.74506E-20         0.00000E+00
    0.42943E-09        -0.74506E-20         0.00000E+00
    0.42943E-09        -0.15983E-19         0.00000E+00
    0.42943E-09        -0.14901E-19         0.00000E+00
    0.42943E-09        -0.82314E-20         0.00000E+00
    0.42943E-09        -0.11176E-19         0.00000E+00
    0.42943E-09        -0.16764E-19         0.00000E+00
    0.42943E-09        -0.18626E-20         0.00000E+00
    0.42943E-09         0.11176E-19         0.00000E+00
    0.42943E-09         0.18626E-20         0.00000E+00
    0.42943E-09        -0.93132E-20         0.00000E+00
    0.42943E-09        -0.14901E-19         0.00000E+00
    0.42943E-09        -0.22352E-19         0.00000E+00
    0.42943E-09        -0.55879E-20         0.00000E+00
    0.42943E-09         0.18626E-20         0.00000E+00
    0.42943E-09        -0.11176E-19         0.00000E+00
    0.42943E-09        -0.74506E-20         0.00000E+00
    0.42943E-09        -0.37253E-20         0.00000E+00
    0.42943E-09         0.78080E-21         0.00000E+00
    0.42943E-09        -0.37253E-20         0.00000E+00
    0.42943E-09        -0.37253E-20         0.00000E+00
    0.42943E-09        -0.74506E-20         0.00000E+00
    0.42943E-09        -0.19407E-19         0.00000E+00
    0.42943E-09        -0.13039E-19         0.00000E+00
    0.42943E-09        -0.13039E-19         0.00000E+00
    0.42943E-09        -0.13039E-19         0.00000E+00
    0.42943E-09        -0.18626E-20         0.00000E+00
    0.42943E-09         0.18626E-20         0.00000E+00
    0.42943E-09        -0.11176E-19         0.00000E+00
    0.42943E-09        -0.13039E-19         0.00000E+00
    0.42943E-09         0.00000E+00         0.00000E+00
    0.42943E-09        -0.18626E-20         0.00000E+00
    0.42943E-09        -0.13039E-19         0.00000E+00
    0.42943E-09        -0.85324E-20         0.00000E+00
    0.42943E-09         0.26434E-20         0.00000E+00
    0.42943E-09         0.00000E+00         0.00000E+00
    0.36625E-09         0.37253E-20         0.00000E+00
    0.36625E-09        -0.93132E-20         0.00000E+00
    0.36625E-09        -0.23431E-19         0.00000E+00
    0.36625E-09        -0.85300E-20         0.00000E+00
    0.36625E-09         0.57361E-20         0.00000E+00
    0.36625E-09         0.15049E-19         0.00000E+00
    0.36625E-09         0.13039E-19         0.00000E+00
    0.36625E-09         0.13039E-19         0.00000E+00
    0.36625E-09         0.18626E-19         0.00000E+00
    0.36625E-09         0.93132E-20         0.00000E+00
    0.36625E-09         0.82338E-20         0.00000E+00
    0.36625E-09         0.82338E-20         0.00000E+00
    0.36625E-09         0.00000E+00         0.00000E+00
    0.36625E-09        -0.26458E-20         0.00000E+00
    0.36625E-09        -0.90170E-20         0.00000E+00
    0.36625E-09        -0.20489E-19         0.00000E+00
    0.36625E-09        -0.23431E-19         0.00000E+00
    0.36625E-09        -0.21569E-19         0.00000E+00
    0.36625E-09        -0.21569E-19         0.00000E+00
    0.36625E-09        -0.18626E-19         0.00000E+00
    0.36625E-09        -0.10096E-19         0.00000E+00
    0.36625E-09         0.48047E-20         0.00000E+00
    0.36625E-09        -0.48047E-20         0.00000E+00
    0.36625E-09        -0.93132E-20         0.00000E+00
    0.36625E-09        -0.18626E-20         0.00000E+00
    0.36625E-09        -0.82338E-20         0.00000E+00
    0.36625E-09        -0.18626E-20         0.00000E+00
    0.36625E-09         0.15664E-20         0.00000E+00
    0.36625E-09        -0.21272E-19         0.00000E+00
    0.36625E-09        -0.32448E-19         0.00000E+00
    0.36625E-09        -0.19706E-19         0.00000E+00
    0.36625E-09        -0.13039E-19         0.00000E+00
    0.36625E-09        -0.22055E-19         0.00000E+00
    0.36625E-09        -0.23135E-19         0.00000E+00
    0.36625E-09        -0.17060E-19         0.00000E+00
    0.36625E-09        -0.11472E-19         0.00000E+00
    0.36625E-09        -0.55879E-20         0.00000E+00
    0.36625E-09         0.00000E+00         0.00000E+00
    0.36625E-09        -0.26458E-20         0.00000E+00
    0.36625E-09        -0.78319E-21         0.00000E+00
    0.36625E-09        -0.18626E-20         0.00000E+00
    0.36625E-09        -0.10393E-19         0.00000E+00
    0.36625E-09        -0.11176E-19         0.00000E+00
    0.36625E-09         0.10795E-20         0.00000E+00
    0.36625E-09         0.78319E-21         0.00000E+00
    0.36625E-09         0.78319E-21         0.00000E+00
    0.36625E-09        -0.26458E-20         0.00000E+00
    0.36625E-09         0.48047E-20         0.00000E+00
    0.36625E-09         0.11176E-19         0.00000E+00
    0.36625E-09        -0.29421E-20         0.00000E+00
    0.36625E-09        -0.96095E-20         0.00000E+00
    0.31400E-09         0.37253E-20         0.00000E+00
    0.31400E-09         0.15686E-19         0.00000E+00
    0.31400E-09         0.18626E-19         0.00000E+00
    0.31400E-09         0.12107E-19         0.00000E+00
    0.31400E-09         0.37253E-20         0.00000E+00
    0.31400E-09         0.93132E-21         0.00000E+00
    0.31400E-09         0.46566E-20         0.00000E+00
    0.31400E-09         0.00000E+00         0.00000E+00
    0.31400E-09         0.65193E-20         0.00000E+00
    0.31400E-09         0.14116E-19         0.00000E+00
    0.31400E-09         0.11176E-19         0.00000E+00
    0.31400E-09         0.13039E-19         0.00000E+00
    0.31400E-09         0.37253E-20         0.00000E+00
    0.31400E-09        -0.13039E-19         0.00000E+00
    0.31400E-09        -0.17841E-19         0.00000E+00
    0.31400E-09        -0.66653E-20         0.00000E+00
    0.31400E-09        -0.93132E-20         0.00000E+00
    0.31400E-09        -0.20489E-19         0.00000E+00
    0.31400E-09        -0.26077E-19         0.00000E+00
    0.31400E-09        -0.18626E-19         0.00000E+00
    0.31400E-09        -0.11176E-19         0.00000E+00
    0.31400E-09        -0.16764E-19         0.00000E+00
    0.31400E-09        -0.18626E-19         0.00000E+00
    0.31400E-09        -0.25931E-19         0.00000E+00
    0.31400E-09        -0.30734E-19         0.00000E+00
    0.31400E-09        -0.14116E-19         0.00000E+00
    0.31400E-09        -0.11176E-19         0.00000E+00
    0.31400E-09        -0.16764E-19         0.00000E+00
    0.31400E-09        -0.55879E-20         0.00000E+00
    0.31400E-09         0.00000E+00         0.00000E+00
    0.31400E-09        -0.13824E-19         0.00000E+00
    0.31400E-09        -0.19412E-19         0.00000E+00
    0.31400E-09        -0.17841E-19         0.00000E+00
    0.31400E-09        -0.14116E-19         0.00000E+00
    0.31400E-09        -0.37253E-20         0.00000E+00
    0.31400E-09        -0.63732E-20         0.00000E+00
    0.31400E-09        -0.10098E-19         0.00000E+00
    0.31400E-09        -0.13039E-19         0.00000E+00
    0.31400E-09        -0.10774E-20         0.00000E+00
    0.31400E-09         0.14901E-19         0.00000E+00
    0.31400E-09         0.11176E-19         0.00000E+00
    0.31400E-09         0.55879E-20         0.00000E+00
    0.31400E-09        -0.37253E-20         0.00000E+00
    0.31400E-09        -0.55879E-20         0.00000E+00
    0.31400E-09        -0.55879E-20         0.00000E+00
    0.31400E-09        -0.55879E-20         0.00000E+00
    0.31400E-09         0.18626E-20         0.00000E+00
    0.31400E-09         0.45105E-20         0.00000E+00
    0.31400E-09         0.75966E-20         0.00000E+00
    0.31400E-09         0.12107E-19         0.00000E+00
    0.31400E-09         0.12746E-19         0.00000E+00
    0.27112E-09        -0.18626E-19         0.00000E+00
    0.27112E-09        -0.21276E-19         0.00000E+00
    0.27112E-09        -0.17551E-19         0.00000E+00
    0.27112E-09        -0.10389E-19         0.00000E+00
    0.27112E-09         0.55879E-20         0.00000E+00
    0.27112E-09         0.13039E-19         0.00000E+00
    0.27112E-09         0.25001E-19         0.00000E+00
    0.27112E-09         0.40978E-19         0.00000E+00
    0.27112E-09         0.22352E-19         0.00000E+00
    0.27112E-09         0.18626E-20         0.00000E+00
    0.27112E-09        -0.13039E-19         0.00000E+00
    0.27112E-09        -0.18626E-19         0.00000E+00
    0.27112E-09        -0.18626E-20         0.00000E+00
    0.27112E-09        -0.78705E-21         0.00000E+00
    0.27112E-09        -0.11176E-19         0.00000E+00
    0.27112E-09        -0.85262E-20         0.00000E+00
    0.27112E-09        -0.45123E-20         0.00000E+00
    0.27112E-09        -0.26497E-20         0.00000E+00
    0.27112E-09        -0.10756E-20         0.00000E+00
    0.27112E-09         0.12601E-33         0.00000E+00
    0.27112E-09        -0.11176E-19         0.00000E+00
    0.27112E-09        -0.17839E-19         0.00000E+00
    0.27112E-09        -0.26077E-19         0.00000E+00
    0.27112E-09        -0.25001E-19         0.00000E+00
    0.27112E-09        -0.31665E-19         0.00000E+00
    0.27112E-09        -0.42054E-19         0.00000E+00
    0.27112E-09        -0.31665E-19         0.00000E+00
    0.27112E-09        -0.11176E-19         0.00000E+00
    0.27112E-09        -0.74506E-20         0.00000E+00
    0.27112E-09        -0.22352E-19         0.00000E+00
    0.27112E-09        -0.14901E-19         0.00000E+00
    0.27112E-09        -0.52994E-20         0.00000E+00
    0.27112E-09         0.55879E-20         0.00000E+00
    0.27112E-09         0.12750E-19         0.00000E+00
    0.27112E-09         0.00000E+00         0.00000E+00
    0.27112E-09        -0.74506E-20         0.00000E+00
    0.27112E-09        -0.11176E-19         0.00000E+00
    0.27112E-09        -0.55879E-20         0.00000E+00
    0.27112E-09        -0.11176E-19         0.00000E+00
    0.27112E-09        -0.26864E-19         0.00000E+00
    0.27112E-09        -0.21276E-19         0.00000E+00
    0.27112E-09        -0.29382E-20         0.00000E+00
    0.27112E-09         0.74506E-20         0.00000E+00
    0.27112E-09         0.48009E-20         0.00000E+00
    0.27112E-09         0.78705E-21         0.00000E+00
    0.27112E-09         0.78705E-21         0.00000E+00
    0.27112E-09        -0.18626E-20         0.00000E+00
    0.27112E-09        -0.37253E-20         0.00000E+00
    0.27112E-09        -0.22352E-19         0.00000E+00
    0.27112E-09        -0.29015E-19         0.00000E+00
    0.27112E-09        -0.13327E-19         0.00000E+00
    0.23631E-09         0.11176E-19         0.00000E+00
    0.23631E-09         0.14901E-19         0.00000E+00
    0.23631E-09         0.12250E-19         0.00000E+00
    0.23631E-09         0.74506E-20         0.00000E+00
    0.23631E-09         0.11964E-19         0.00000E+00
    0.23631E-09         0.14901E-19         0.00000E+00
    0.23631E-09         0.74506E-20         0.00000E+00
    0.23631E-09         0.37253E-20         0.00000E+00
    0.23631E-09         0.12250E-19         0.00000E+00
    0.23631E-09         0.85246E-20         0.00000E+00
    0.23631E-09        -0.29367E-20         0.00000E+00
    0.23631E-09        -0.74506E-20         0.00000E+00
    0.23631E-09        -0.37253E-20         0.00000E+00
    0.23631E-09         0.74506E-20         0.00000E+00
    0.23631E-09         0.12250E-19         0.00000E+00
    0.23631E-09         0.55879E-20         0.00000E+00
    0.23631E-09         0.78862E-21         0.00000E+00
    0.23631E-09         0.55879E-20         0.00000E+00
    0.23631E-09        -0.17838E-19         0.00000E+00
    0.23631E-09        -0.24214E-19         0.00000E+00
    0.23631E-09        -0.10890E-19         0.00000E+00
    0.23631E-09        -0.16764E-19         0.00000E+00
    0.23631E-09        -0.42052E-19         0.00000E+00
    0.23631E-09        -0.46566E-19         0.00000E+00
    0.23631E-09        -0.26077E-19         0.00000E+00
    0.23631E-09        -0.16764E-19         0.00000E+00
    0.23631E-09        -0.16764E-19         0.00000E+00
    0.23631E-09        -0.21563E-19         0.00000E+00
    0.23631E-09        -0.24214E-19         0.00000E+00
    0.23631E-09        -0.15690E-19         0.00000E+00
    0.23631E-09        -0.10387E-19         0.00000E+00
    0.23631E-09        -0.13039E-19         0.00000E+00
    0.23631E-09        -0.10890E-19         0.00000E+00
    0.23631E-09         0.78862E-21         0.00000E+00
    0.23631E-09         0.82392E-20         0.00000E+00
    0.23631E-09         0.00000E+00         0.00000E+00
    0.23631E-09        -0.37253E-20         0.00000E+00
    0.23631E-09        -0.10102E-19         0.00000E+00
    0.23631E-09        -0.55879E-20         0.00000E+00
    0.23631E-09         0.11964E-19         0.00000E+00
    0.23631E-09         0.93132E-20         0.00000E+00
    0.23631E-09        -0.45139E-20         0.00000E+00
    0.23631E-09        -0.26513E-20         0.00000E+00
    0.23631E-09        -0.11461E-19         0.00000E+00
    0.23631E-09        -0.23426E-19         0.00000E+00
    0.23631E-09        -0.82392E-20         0.00000E+00
    0.23631E-09         0.13039E-19         0.00000E+00
    0.23631E-09         0.00000E+00         0.00000E+00
    0.23631E-09        -0.82392E-20         0.00000E+00
    0.23631E-09         0.74506E-20         0.00000E+00
    0.23631E-09         0.90278E-20         0.00000E+00
    0.20856E-09         0.74506E-20         0.00000E+00
    0.20856E-09         0.11176E-19         0.00000E+00
    0.20856E-09         0.93132E-20         0.00000E+00
    0.20856E-09         0.00000E+00         0.00000E+00
    0.20856E-09         0.47979E-20         0.00000E+00
    0.20856E-09         0.20489E-19         0.00000E+00
    0.20856E-09         0.26867E-19         0.00000E+00
    0.20856E-09         0.19699E-19         0.00000E+00
    0.20856E-09         0.37253E-20         0.00000E+00
    0.20856E-09         0.26527E-20         0.00000E+00
    0.20856E-09         0.47979E-20         0.00000E+00
    0.20856E-09         0.63779E-20         0.00000E+00
    0.20856E-09         0.63779E-20         0.00000E+00
    0.20856E-09         0.11458E-19         0.00000E+00
    0.20856E-09         0.14111E-19         0.00000E+00
    0.20856E-09         0.34427E-20         0.00000E+00
    0.20856E-09        -0.93132E-20         0.00000E+00
    0.20856E-09        -0.11176E-19         0.00000E+00
    0.20856E-09         0.53053E-20         0.00000E+00
    0.20856E-09         0.66606E-20         0.00000E+00
    0.20856E-09        -0.11966E-19         0.00000E+00
    0.20856E-09        -0.27940E-19         0.00000E+00
    0.20856E-09        -0.17554E-19         0.00000E+00
    0.20856E-09        -0.13829E-19         0.00000E+00
    0.20856E-09        -0.24497E-19         0.00000E+00
    0.20856E-09        -0.29802E-19         0.00000E+00
    0.20856E-09        -0.30592E-19         0.00000E+00
    0.20856E-09        -0.23424E-19         0.00000E+00
    0.20856E-09        -0.21562E-19         0.00000E+00
    0.20856E-09        -0.17554E-19         0.00000E+00
    0.20856E-09        -0.12756E-19         0.00000E+00
    0.20856E-09        -0.37253E-20         0.00000E+00
    0.20856E-09        -0.58706E-20         0.00000E+00
    0.20856E-09        -0.93132E-20         0.00000E+00
    0.20856E-09        -0.10103E-19         0.00000E+00
    0.20856E-09        -0.17046E-19         0.00000E+00
    0.20856E-09        -0.13039E-19         0.00000E+00
    0.20856E-09         0.66606E-20         0.00000E+00
    0.20856E-09         0.74506E-20         0.00000E+00
    0.20856E-09         0.79001E-21         0.00000E+00
    0.20856E-09         0.18626E-20         0.00000E+00
    0.20856E-09         0.29353E-20         0.00000E+00
    0.20856E-09        -0.10386E-19         0.00000E+00
    0.20856E-09        -0.55879E-20         0.00000E+00
    0.20856E-09         0.12249E-19         0.00000E+00
    0.20856E-09         0.73093E-20         0.00000E+00
    0.20856E-09        -0.24356E-19         0.00000E+00
    0.20856E-09        -0.23000E-19         0.00000E+00
    0.20856E-09         0.29353E-20         0.00000E+00
    0.20856E-09         0.25113E-20         0.00000E+00
    0.20856E-09         0.90306E-20         0.00000E+00
    0.18703E-09        -0.14901E-19         0.00000E+00
    0.18703E-09        -0.14901E-19         0.00000E+00
    0.18703E-09        -0.29340E-20         0.00000E+00
    0.18703E-09         0.11967E-19         0.00000E+00
    0.18703E-09         0.13319E-19         0.00000E+00
    0.18703E-09         0.15181E-19         0.00000E+00
    0.18703E-09         0.26539E-20         0.00000E+00
    0.18703E-09        -0.85220E-20         0.00000E+00
    0.18703E-09        -0.18626E-20         0.00000E+00
    0.18703E-09         0.10104E-19         0.00000E+00
    0.18703E-09         0.21280E-19         0.00000E+00
    0.18703E-09         0.21560E-19         0.00000E+00
    0.18703E-09         0.12247E-19         0.00000E+00
    0.18703E-09        -0.18626E-20         0.00000E+00
    0.18703E-09        -0.10104E-19         0.00000E+00
    0.18703E-09        -0.11176E-19         0.00000E+00
    0.18703E-09        -0.12114E-20         0.00000E+00
    0.18703E-09        -0.14005E-21         0.00000E+00
    0.18703E-09        -0.13830E-19         0.00000E+00
    0.18703E-09        -0.93132E-20         0.00000E+00
    0.18703E-09         0.15692E-19         0.00000E+00
    0.18703E-09         0.74506E-20         0.00000E+00
    0.18703E-09        -0.17555E-19         0.00000E+00
    0.18703E-09        -0.22072E-19         0.00000E+00
    0.18703E-09        -0.15973E-19         0.00000E+00
    0.18703E-09        -0.37253E-20         0.00000E+00
    0.18703E-09         0.37253E-20         0.00000E+00
    0.18703E-09        -0.10714E-20         0.00000E+00
    0.18703E-09         0.28010E-21         0.00000E+00
    0.18703E-09         0.47967E-20         0.00000E+00
    0.18703E-09        -0.47967E-20         0.00000E+00
    0.18703E-09        -0.74506E-20         0.00000E+00
    0.18703E-09         0.45166E-20         0.00000E+00
    0.18703E-09         0.15825E-20         0.00000E+00
    0.18703E-09        -0.45166E-20         0.00000E+00
    0.18703E-09        -0.12573E-33         0.00000E+00
    0.18703E-09        -0.10104E-19         0.00000E+00
    0.18703E-09        -0.20209E-19         0.00000E+00
    0.18703E-09        -0.17835E-19         0.00000E+00
    0.18703E-09        -0.15181E-19         0.00000E+00
    0.18703E-09        -0.15973E-19         0.00000E+00
    0.18703E-09        -0.13039E-19         0.00000E+00
    0.18703E-09         0.10714E-20         0.00000E+00
    0.18703E-09         0.85220E-20         0.00000E+00
    0.18703E-09         0.18626E-20         0.00000E+00
    0.18703E-09        -0.17226E-20         0.00000E+00
    0.18703E-09         0.14901E-19         0.00000E+00
    0.18703E-09         0.91732E-20         0.00000E+00
    0.18703E-09        -0.66593E-20         0.00000E+00
    0.18703E-09         0.79127E-21         0.00000E+00
    0.18703E-09         0.00000E+00         0.00000E+00
    0.17107E-09         0.13316E-19         0.00000E+00
    0.17107E-09         0.22352E-19         0.00000E+00
    0.17107E-09         0.13039E-19         0.00000E+00
    0.17107E-09        -0.18626E-20         0.00000E+00
    0.17107E-09        -0.66581E-20         0.00000E+00
    0.17107E-09        -0.75895E-20         0.00000E+00
    0.17107E-09         0.83819E-20         0.00000E+00
    0.17107E-09         0.11176E-19         0.00000E+00
    0.17107E-09         0.00000E+00         0.00000E+00
    0.17107E-09        -0.11176E-19         0.00000E+00
    0.17107E-09        -0.21420E-19         0.00000E+00
    0.17107E-09        -0.12900E-19         0.00000E+00
    0.17107E-09         0.37253E-20         0.00000E+00
    0.17107E-09         0.29328E-20         0.00000E+00
    0.17107E-09         0.12246E-19         0.00000E+00
    0.17107E-09         0.11968E-19         0.00000E+00
    0.17107E-09        -0.11176E-19         0.00000E+00
    0.17107E-09        -0.14109E-19         0.00000E+00
    0.17107E-09         0.53102E-20         0.00000E+00
    0.17107E-09         0.13039E-19         0.00000E+00
    0.17107E-09         0.85208E-20         0.00000E+00
    0.17107E-09         0.66581E-20         0.00000E+00
    0.17107E-09         0.11176E-19         0.00000E+00
    0.17107E-09         0.16903E-19         0.00000E+00
    0.17107E-09         0.73117E-20         0.00000E+00
    0.17107E-09        -0.37253E-20         0.00000E+00
    0.17107E-09        -0.55879E-20         0.00000E+00
    0.17107E-09        -0.37253E-20         0.00000E+00
    0.17107E-09         0.10702E-20         0.00000E+00
    0.17107E-09        -0.13203E-33         0.00000E+00
    0.17107E-09         0.18626E-20         0.00000E+00
    0.17107E-09         0.45177E-20         0.00000E+00
    0.17107E-09        -0.55879E-20         0.00000E+00
    0.17107E-09        -0.10702E-20         0.00000E+00
    0.17107E-09         0.18626E-20         0.00000E+00
    0.17107E-09        -0.13039E-19         0.00000E+00
    0.17107E-09        -0.93132E-20         0.00000E+00
    0.17107E-09        -0.37253E-20         0.00000E+00
    0.17107E-09        -0.37253E-20         0.00000E+00
    0.17107E-09         0.14901E-19         0.00000E+00
    0.17107E-09         0.22352E-19         0.00000E+00
    0.17107E-09         0.93132E-20         0.00000E+00
    0.17107E-09        -0.29328E-20         0.00000E+00
    0.17107E-09        -0.13039E-19         0.00000E+00
    0.17107E-09        -0.71728E-20         0.00000E+00
    0.17107E-09        -0.26551E-20         0.00000E+00
    0.17107E-09        -0.85208E-20         0.00000E+00
    0.17107E-09        -0.55879E-20         0.00000E+00
    0.17107E-09         0.55879E-20         0.00000E+00
    0.17107E-09         0.45177E-20         0.00000E+00
    0.17107E-09         0.15849E-20         0.00000E+00
    0.16022E-09        -0.95888E-20         0.00000E+00
    0.16022E-09        -0.16764E-19         0.00000E+00
    0.16022E-09        -0.11969E-19         0.00000E+00
    0.16022E-09        -0.55879E-20         0.00000E+00
    0.16022E-09        -0.93132E-20         0.00000E+00
    0.16022E-09        -0.47944E-20         0.00000E+00
    0.16022E-09        -0.15970E-19         0.00000E+00
    0.16022E-09        -0.26871E-19         0.00000E+00
    0.16022E-09        -0.22352E-19         0.00000E+00
    0.16022E-09        -0.14108E-19         0.00000E+00
    0.16022E-09         0.47944E-20         0.00000E+00
    0.16022E-09         0.66570E-20         0.00000E+00
    0.16022E-09         0.79355E-21         0.00000E+00
    0.16022E-09         0.11176E-19         0.00000E+00
    0.16022E-09         0.95888E-20         0.00000E+00
    0.16022E-09         0.29317E-20         0.00000E+00
    0.16022E-09         0.11969E-19         0.00000E+00
    0.16022E-09         0.71750E-20         0.00000E+00
    0.16022E-09        -0.66570E-20         0.00000E+00
    0.16022E-09        -0.37253E-20         0.00000E+00
    0.16022E-09         0.16764E-19         0.00000E+00
    0.16022E-09         0.14901E-19         0.00000E+00
    0.16022E-09        -0.45188E-20         0.00000E+00
    0.16022E-09        -0.10107E-19         0.00000E+00
    0.16022E-09        -0.10691E-20         0.00000E+00
    0.16022E-09         0.14901E-19         0.00000E+00
    0.16022E-09         0.12245E-19         0.00000E+00
    0.16022E-09         0.45188E-20         0.00000E+00
    0.16022E-09         0.26562E-20         0.00000E+00
    0.16022E-09         0.15177E-19         0.00000E+00
    0.16022E-09         0.22490E-19         0.00000E+00
    0.16022E-09         0.83819E-20         0.00000E+00
    0.16022E-09         0.74506E-20         0.00000E+00
    0.16022E-09         0.82441E-20         0.00000E+00
    0.16022E-09        -0.11176E-19         0.00000E+00
    0.16022E-09         0.26562E-20         0.00000E+00
    0.16022E-09         0.23145E-19         0.00000E+00
    0.16022E-09         0.14108E-19         0.00000E+00
    0.16022E-09         0.37253E-20         0.00000E+00
    0.16022E-09        -0.85197E-20         0.00000E+00
    0.16022E-09         0.00000E+00         0.00000E+00
    0.16022E-09         0.11176E-19         0.00000E+00
    0.16022E-09         0.10382E-19         0.00000E+00
    0.16022E-09         0.14108E-19         0.00000E+00
    0.16022E-09         0.45188E-20         0.00000E+00
    0.16022E-09        -0.18626E-20         0.00000E+00
    0.16022E-09         0.66570E-20         0.00000E+00
    0.16022E-09         0.82441E-20         0.00000E+00
    0.16022E-09         0.82441E-20         0.00000E+00
    0.16022E-09         0.93132E-20         0.00000E+00
    0.16022E-09         0.74506E-20         0.00000E+00
    0.15415E-09         0.00000E+00         0.00000E+00
    0.15415E-09         0.47933E-20         0.00000E+00
    0.15415E-09         0.14901E-19         0.00000E+00
    0.15415E-09         0.19421E-19         0.00000E+00
    0.15415E-09         0.66559E-20         0.00000E+00
    0.15415E-09        -0.11971E-19         0.00000E+00
    0.15415E-09        -0.20626E-19         0.00000E+00
    0.15415E-09        -0.23283E-19         0.00000E+00
    0.15415E-09        -0.27008E-19         0.00000E+00
    0.15415E-09        -0.29939E-19         0.00000E+00
    0.15415E-09        -0.22352E-19         0.00000E+00
    0.15415E-09        -0.26573E-20         0.00000E+00
    0.15415E-09         0.66559E-20         0.00000E+00
    0.15415E-09        -0.47933E-20         0.00000E+00
    0.15415E-09         0.29307E-20         0.00000E+00
    0.15415E-09         0.37253E-20         0.00000E+00
    0.15415E-09        -0.11449E-19         0.00000E+00
    0.15415E-09        -0.93132E-20         0.00000E+00
    0.15415E-09         0.37253E-20         0.00000E+00
    0.15415E-09         0.55879E-20         0.00000E+00
    0.15415E-09         0.66559E-20         0.00000E+00
    0.15415E-09         0.14107E-19         0.00000E+00
    0.15415E-09         0.63826E-20         0.00000E+00
    0.15415E-09         0.18626E-20         0.00000E+00
    0.15415E-09        -0.37253E-20         0.00000E+00
    0.15415E-09        -0.85186E-20         0.00000E+00
    0.15415E-09        -0.93132E-20         0.00000E+00
    0.15415E-09        -0.45199E-20         0.00000E+00
    0.15415E-09         0.13039E-19         0.00000E+00
    0.15415E-09         0.13833E-19         0.00000E+00
    0.15415E-09         0.55879E-20         0.00000E+00
    0.15415E-09         0.55879E-20         0.00000E+00
    0.15415E-09         0.18626E-20         0.00000E+00
    0.15415E-09        -0.93132E-20         0.00000E+00
    0.15415E-09        -0.37253E-20         0.00000E+00
    0.15415E-09         0.74506E-20         0.00000E+00
    0.15415E-09         0.74506E-20         0.00000E+00
    0.15415E-09         0.16764E-19         0.00000E+00
    0.15415E-09         0.30076E-19         0.00000E+00
    0.15415E-09         0.33528E-19         0.00000E+00
    0.15415E-09         0.90398E-20         0.00000E+00
    0.15415E-09        -0.45199E-20         0.00000E+00
    0.15415E-09         0.55879E-20         0.00000E+00
    0.15415E-09         0.13039E-19         0.00000E+00
    0.15415E-09         0.14901E-19         0.00000E+00
    0.15415E-09         0.13833E-19         0.00000E+00
    0.15415E-09         0.13039E-19         0.00000E+00
    0.15415E-09         0.94499E-20         0.00000E+00
    0.15415E-09         0.93132E-21         0.00000E+00
    0.15415E-09         0.45199E-20         0.00000E+00
    0.15415E-09         0.11176E-19         0.00000E+00
    0.15267E-09         0.58591E-20         0.00000E+00
    0.15267E-09         0.37253E-20         0.00000E+00
    0.15267E-09        -0.10380E-19         0.00000E+00
    0.15267E-09        -0.13834E-19         0.00000E+00
    0.15267E-09        -0.10109E-19         0.00000E+00
    0.15267E-09        -0.17831E-19         0.00000E+00
    0.15267E-09        -0.12243E-19         0.00000E+00
    0.15267E-09        -0.18626E-19         0.00000E+00
    0.15267E-09        -0.34595E-19         0.00000E+00
    0.15267E-09        -0.34459E-19         0.00000E+00
    0.15267E-09        -0.29667E-19         0.00000E+00
    0.15267E-09        -0.27940E-19         0.00000E+00
    0.15267E-09        -0.11176E-19         0.00000E+00
    0.15267E-09         0.74506E-20         0.00000E+00
    0.15267E-09         0.11176E-19         0.00000E+00
    0.15267E-09         0.16764E-19         0.00000E+00
    0.15267E-09         0.18626E-19         0.00000E+00
    0.15267E-09         0.00000E+00         0.00000E+00
    0.15267E-09        -0.55879E-20         0.00000E+00
    0.15267E-09        -0.93132E-20         0.00000E+00
    0.15267E-09        -0.18626E-19         0.00000E+00
    0.15267E-09        -0.74506E-20         0.00000E+00
    0.15267E-09        -0.18626E-20         0.00000E+00
    0.15267E-09        -0.93132E-20         0.00000E+00
    0.15267E-09        -0.74506E-20         0.00000E+00
    0.15267E-09        -0.55879E-20         0.00000E+00
    0.15267E-09        -0.11176E-19         0.00000E+00
    0.15267E-09        -0.18626E-20         0.00000E+00
    0.15267E-09         0.37253E-20         0.00000E+00
    0.15267E-09         0.93132E-20         0.00000E+00
    0.15267E-09         0.20489E-19         0.00000E+00
    0.15267E-09         0.25281E-19         0.00000E+00
    0.15267E-09         0.27940E-19         0.00000E+00
    0.15267E-09         0.27940E-19         0.00000E+00
    0.15267E-09         0.24214E-19         0.00000E+00
    0.15267E-09         0.15697E-19         0.00000E+00
    0.15267E-09         0.13039E-19         0.00000E+00
    0.15267E-09         0.10380E-19         0.00000E+00
    0.15267E-09         0.37253E-20         0.00000E+00
    0.15267E-09         0.79572E-21         0.00000E+00
    0.15267E-09         0.10380E-19         0.00000E+00
    0.15267E-09         0.16764E-19         0.00000E+00
    0.15267E-09         0.10109E-19         0.00000E+00
    0.15267E-09         0.14901E-19         0.00000E+00
    0.15267E-09         0.24214E-19         0.00000E+00
    0.15267E-09         0.15968E-19         0.00000E+00
    0.15267E-09         0.18626E-19         0.00000E+00
    0.15267E-09         0.19422E-19         0.00000E+00
    0.15267E-09         0.66549E-20         0.00000E+00
    0.15267E-09         0.79572E-21         0.00000E+00
    0.15267E-09        -0.79930E-20         0.00000E+00
    0.15575E-09         0.00000E+00         0.00000E+00
    0.15575E-09        -0.66537E-20         0.00000E+00
    0.15575E-09         0.18626E-20         0.00000E+00
    0.15575E-09         0.12242E-19         0.00000E+00
    0.15575E-09         0.57224E-20         0.00000E+00
    0.15575E-09        -0.93132E-21         0.00000E+00
    0.15575E-09        -0.17830E-19         0.00000E+00
    0.15575E-09        -0.31665E-19         0.00000E+00
    0.15575E-09        -0.22352E-19         0.00000E+00
    0.15575E-09        -0.93132E-20         0.00000E+00
    0.15575E-09         0.37253E-20         0.00000E+00
    0.15575E-09         0.93132E-20         0.00000E+00
    0.15575E-09         0.18626E-20         0.00000E+00
    0.15575E-09        -0.63848E-20         0.00000E+00
    0.15575E-09        -0.74506E-20         0.00000E+00
    0.15575E-09        -0.17830E-19         0.00000E+00
    0.15575E-09        -0.22352E-19         0.00000E+00
    0.15575E-09        -0.18626E-19         0.00000E+00
    0.15575E-09        -0.17830E-19         0.00000E+00
    0.15575E-09        -0.14901E-19         0.00000E+00
    0.15575E-09        -0.82474E-20         0.00000E+00
    0.15575E-09        -0.10110E-19         0.00000E+00
    0.15575E-09        -0.74506E-20         0.00000E+00
    0.15575E-09         0.55879E-20         0.00000E+00
    0.15575E-09         0.74506E-20         0.00000E+00
    0.15575E-09         0.45221E-20         0.00000E+00
    0.15575E-09         0.13039E-19         0.00000E+00
    0.15575E-09         0.12242E-19         0.00000E+00
    0.15575E-09         0.13039E-19         0.00000E+00
    0.15575E-09         0.28737E-19         0.00000E+00
    0.15575E-09         0.27940E-19         0.00000E+00
    0.15575E-09         0.18626E-19         0.00000E+00
    0.15575E-09         0.13039E-19         0.00000E+00
    0.15575E-09         0.93132E-20         0.00000E+00
    0.15575E-09         0.18626E-19         0.00000E+00
    0.15575E-09         0.22352E-19         0.00000E+00
    0.15575E-09         0.20489E-19         0.00000E+00
    0.15575E-09         0.14901E-19         0.00000E+00
    0.15575E-09         0.93132E-20         0.00000E+00
    0.15575E-09         0.18626E-19         0.00000E+00
    0.15575E-09         0.93132E-20         0.00000E+00
    0.15575E-09         0.37253E-20         0.00000E+00
    0.15575E-09         0.16764E-19         0.00000E+00
    0.15575E-09         0.13039E-19         0.00000E+00
    0.15575E-09         0.00000E+00         0.00000E+00
    0.15575E-09        -0.93132E-20         0.00000E+00
    0.15575E-09        -0.18626E-19         0.00000E+00
    0.15575E-09        -0.20489E-19         0.00000E+00
    0.15575E-09        -0.14901E-19         0.00000E+00
    0.15575E-09        -0.14104E-19         0.00000E+00
    0.15575E-09        -0.95822E-20         0.00000E+00
    0.16347E-09         0.00000E+00         0.00000E+00
    0.16347E-09         0.13039E-19         0.00000E+00
    0.16347E-09         0.10378E-19         0.00000E+00
    0.16347E-09        -0.13039E-19         0.00000E+00
    0.16347E-09        -0.20489E-19         0.00000E+00
    0.16347E-09        -0.13039E-19         0.00000E+00
    0.16347E-09         0.26607E-20         0.00000E+00
    0.16347E-09         0.16764E-19         0.00000E+00
    0.16347E-09         0.14103E-19         0.00000E+00
    0.16347E-09         0.46566E-20         0.00000E+00
    0.16347E-09        -0.75839E-20         0.00000E+00
    0.16347E-09        -0.14103E-19         0.00000E+00
    0.16347E-09        -0.46566E-20         0.00000E+00
    0.16347E-09        -0.35920E-20         0.00000E+00
    0.16347E-09        -0.93132E-20         0.00000E+00
    0.16347E-09        -0.75839E-20         0.00000E+00
    0.16347E-09        -0.10245E-19         0.00000E+00
    0.16347E-09        -0.14901E-19         0.00000E+00
    0.16347E-09        -0.14901E-19         0.00000E+00
    0.16347E-09        -0.63860E-20         0.00000E+00
    0.16347E-09        -0.74506E-20         0.00000E+00
    0.16347E-09         0.18626E-20         0.00000E+00
    0.16347E-09         0.93132E-20         0.00000E+00
    0.16347E-09        -0.79804E-21         0.00000E+00
    0.16347E-09        -0.25127E-33         0.00000E+00
    0.16347E-09         0.15699E-19         0.00000E+00
    0.16347E-09         0.27940E-19         0.00000E+00
    0.16347E-09         0.27940E-19         0.00000E+00
    0.16347E-09         0.20489E-19         0.00000E+00
    0.16347E-09         0.55879E-20         0.00000E+00
    0.16347E-09         0.37253E-20         0.00000E+00
    0.16347E-09         0.14901E-19         0.00000E+00
    0.16347E-09         0.16764E-19         0.00000E+00
    0.16347E-09         0.79804E-21         0.00000E+00
    0.16347E-09        -0.74506E-20         0.00000E+00
    0.16347E-09         0.82486E-20         0.00000E+00
    0.16347E-09         0.14901E-19         0.00000E+00
    0.16347E-09         0.17030E-19         0.00000E+00
    0.16347E-09         0.23416E-19         0.00000E+00
    0.16347E-09         0.20489E-19         0.00000E+00
    0.16347E-09         0.17562E-19         0.00000E+00
    0.16347E-09         0.13039E-19         0.00000E+00
    0.16347E-09         0.29272E-20         0.00000E+00
    0.16347E-09         0.18626E-20         0.00000E+00
    0.16347E-09         0.74506E-20         0.00000E+00
    0.16347E-09         0.13970E-19         0.00000E+00
    0.16347E-09         0.27940E-20         0.00000E+00
    0.16347E-09        -0.13039E-19         0.00000E+00
    0.16347E-09        -0.14103E-19         0.00000E+00
    0.16347E-09        -0.29272E-20         0.00000E+00
    0.16347E-09         0.53214E-20         0.00000E+00
    0.17607E-09        -0.11176E-19         0.00000E+00
    0.17607E-09        -0.16764E-19         0.00000E+00
    0.17607E-09        -0.11176E-19         0.00000E+00
    0.17607E-09        -0.37253E-20         0.00000E+00
    0.17607E-09         0.37253E-20         0.00000E+00
    0.17607E-09         0.18626E-19         0.00000E+00
    0.17607E-09         0.16764E-19         0.00000E+00
    0.17607E-09         0.55879E-20         0.00000E+00
    0.17607E-09        -0.74506E-20         0.00000E+00
    0.17607E-09        -0.11176E-19         0.00000E+00
    0.17607E-09         0.00000E+00         0.00000E+00
    0.17607E-09         0.74506E-20         0.00000E+00
    0.17607E-09        -0.93132E-20         0.00000E+00
    0.17607E-09        -0.20489E-19         0.00000E+00
    0.17607E-09        -0.16764E-19         0.00000E+00
    0.17607E-09        -0.16764E-19         0.00000E+00
    0.17607E-09        -0.13039E-19         0.00000E+00
    0.17607E-09         0.55879E-20         0.00000E+00
    0.17607E-09         0.74506E-20         0.00000E+00
    0.17607E-09        -0.74506E-20         0.00000E+00
    0.17607E-09         0.18626E-20         0.00000E+00
    0.17607E-09         0.11176E-19         0.00000E+00
    0.17607E-09         0.93132E-20         0.00000E+00
    0.17607E-09         0.11176E-19         0.00000E+00
    0.17607E-09         0.14901E-19         0.00000E+00
    0.17607E-09         0.18626E-19         0.00000E+00
    0.17607E-09         0.13039E-19         0.00000E+00
    0.17607E-09         0.18626E-20         0.00000E+00
    0.17607E-09         0.93132E-20         0.00000E+00
    0.17607E-09         0.23950E-19         0.00000E+00
    0.17607E-09         0.22088E-19         0.00000E+00
    0.17607E-09         0.79785E-20         0.00000E+00
    0.17607E-09        -0.90493E-20         0.00000E+00
    0.17607E-09        -0.39892E-20         0.00000E+00
    0.17607E-09         0.74506E-20         0.00000E+00
    0.17607E-09         0.16764E-19         0.00000E+00
    0.17607E-09         0.22352E-19         0.00000E+00
    0.17607E-09         0.18626E-19         0.00000E+00
    0.17607E-09         0.11176E-19         0.00000E+00
    0.17607E-09         0.93132E-20         0.00000E+00
    0.17607E-09         0.13039E-19         0.00000E+00
    0.17607E-09         0.22352E-19         0.00000E+00
    0.17607E-09         0.22352E-19         0.00000E+00
    0.17607E-09         0.18363E-19         0.00000E+00
    0.17607E-09         0.93132E-20         0.00000E+00
    0.17607E-09        -0.71866E-20         0.00000E+00
    0.17607E-09         0.37253E-20         0.00000E+00
    0.17607E-09         0.24214E-19         0.00000E+00
    0.17607E-09         0.33528E-19         0.00000E+00
    0.17607E-09         0.14901E-19         0.00000E+00
    0.17607E-09        -0.37253E-20         0.00000E+00
    0.19392E-09         0.37253E-20         0.00000E+00
    0.19392E-09        -0.11176E-19         0.00000E+00
    0.19392E-09        -0.13039E-19         0.00000E+00
    0.19392E-09         0.00000E+00         0.00000E+00
    0.19392E-09         0.00000E+00         0.00000E+00
    0.19392E-09         0.74506E-20         0.00000E+00
    0.19392E-09         0.16764E-19         0.00000E+00
    0.19392E-09         0.18626E-19         0.00000E+00
    0.19392E-09         0.11176E-19         0.00000E+00
    0.19392E-09        -0.77116E-20         0.00000E+00
    0.19392E-09        -0.24214E-19         0.00000E+00
    0.19392E-09        -0.29541E-19         0.00000E+00
    0.19392E-09        -0.26338E-19         0.00000E+00
    0.19392E-09        -0.22091E-19         0.00000E+00
    0.19392E-09        -0.14640E-19         0.00000E+00
    0.19392E-09         0.53269E-20         0.00000E+00
    0.19392E-09         0.93132E-20         0.00000E+00
    0.19392E-09        -0.18626E-20         0.00000E+00
    0.19392E-09         0.34642E-20         0.00000E+00
    0.19392E-09         0.14640E-19         0.00000E+00
    0.19392E-09         0.18887E-19         0.00000E+00
    0.19392E-09         0.26338E-19         0.00000E+00
    0.19392E-09         0.22352E-19         0.00000E+00
    0.19392E-09         0.74506E-20         0.00000E+00
    0.19392E-09        -0.18626E-20         0.00000E+00
    0.19392E-09         0.37253E-20         0.00000E+00
    0.19392E-09         0.16764E-19         0.00000E+00
    0.19392E-09         0.26077E-19         0.00000E+00
    0.19392E-09         0.27940E-19         0.00000E+00
    0.19392E-09         0.16016E-20         0.00000E+00
    0.19392E-09        -0.20750E-19         0.00000E+00
    0.19392E-09        -0.50658E-20         0.00000E+00
    0.19392E-09         0.74506E-20         0.00000E+00
    0.19392E-09         0.53269E-20         0.00000E+00
    0.19392E-09         0.11437E-19         0.00000E+00
    0.19392E-09         0.20228E-19         0.00000E+00
    0.19392E-09         0.93132E-20         0.00000E+00
    0.19392E-09        -0.34642E-20         0.00000E+00
    0.19392E-09         0.16764E-19         0.00000E+00
    0.19392E-09         0.29802E-19         0.00000E+00
    0.19392E-09         0.26077E-19         0.00000E+00
    0.19392E-09         0.20228E-19         0.00000E+00
    0.19392E-09         0.22352E-19         0.00000E+00
    0.19392E-09         0.28201E-19         0.00000E+00
    0.19392E-09         0.27940E-19         0.00000E+00
    0.19392E-09         0.31665E-19         0.00000E+00
    0.19392E-09         0.27940E-19         0.00000E+00
    0.19392E-09         0.20489E-19         0.00000E+00
    0.19392E-09         0.00000E+00         0.00000E+00
    0.19392E-09        -0.74506E-20         0.00000E+00
    0.19392E-09         0.00000E+00         0.00000E+00
    0.21755E-09         0.69350E-20         0.00000E+00
    0.21755E-09         0.22352E-19         0.00000E+00
    0.21755E-09         0.30060E-19         0.00000E+00
    0.21755E-09         0.22352E-19         0.00000E+00
    0.21755E-09         0.18369E-19         0.00000E+00
    0.21755E-09         0.11176E-19         0.00000E+00
    0.21755E-09         0.39831E-20         0.00000E+00
    0.21755E-09        -0.93132E-20         0.00000E+00
    0.21755E-09        -0.16764E-19         0.00000E+00
    0.21755E-09        -0.11176E-19         0.00000E+00
    0.21755E-09        -0.55879E-20         0.00000E+00
    0.21755E-09        -0.18626E-20         0.00000E+00
    0.21755E-09         0.18626E-20         0.00000E+00
    0.21755E-09         0.55879E-20         0.00000E+00
    0.21755E-09         0.55879E-20         0.00000E+00
    0.21755E-09        -0.18626E-20         0.00000E+00
    0.21755E-09        -0.55879E-20         0.00000E+00
    0.21755E-09         0.43988E-20         0.00000E+00
    0.21755E-09         0.13712E-19         0.00000E+00
    0.21755E-09         0.20747E-19         0.00000E+00
    0.21755E-09         0.17022E-19         0.00000E+00
    0.21755E-09         0.93132E-20         0.00000E+00
    0.21755E-09         0.93132E-20         0.00000E+00
    0.21755E-09         0.13039E-19         0.00000E+00
    0.21755E-09         0.18626E-19         0.00000E+00
    0.21755E-09         0.16764E-19         0.00000E+00
    0.21755E-09         0.55879E-20         0.00000E+00
    0.21755E-09        -0.93132E-20         0.00000E+00
    0.21755E-09        -0.22352E-19         0.00000E+00
    0.21755E-09        -0.55879E-20         0.00000E+00
    0.21755E-09         0.26077E-19         0.00000E+00
    0.21755E-09         0.26077E-19         0.00000E+00
    0.21755E-09         0.93132E-20         0.00000E+00
    0.21755E-09        -0.18626E-20         0.00000E+00
    0.21755E-09        -0.55879E-20         0.00000E+00
    0.21755E-09        -0.55879E-20         0.00000E+00
    0.21755E-09         0.55879E-20         0.00000E+00
    0.21755E-09         0.16764E-19         0.00000E+00
    0.21755E-09         0.24214E-19         0.00000E+00
    0.21755E-09         0.39116E-19         0.00000E+00
    0.21755E-09         0.42841E-19         0.00000E+00
    0.21755E-09         0.36995E-19         0.00000E+00
    0.21755E-09         0.31665E-19         0.00000E+00
    0.21755E-09         0.22610E-19         0.00000E+00
    0.21755E-09         0.10918E-19         0.00000E+00
    0.21755E-09         0.74506E-20         0.00000E+00
    0.21755E-09        -0.16049E-20         0.00000E+00
    0.21755E-09        -0.55879E-20         0.00000E+00
    0.21755E-09         0.16049E-20         0.00000E+00
    0.21755E-09         0.18626E-20         0.00000E+00
    0.21755E-09         0.51553E-21         0.00000E+00
    0.24767E-09         0.74506E-20         0.00000E+00
    0.24767E-09        -0.18626E-20         0.00000E+00
    0.24767E-09        -0.37253E-20         0.00000E+00
    0.24767E-09         0.93132E-20         0.00000E+00
    0.24767E-09         0.14647E-19         0.00000E+00
    0.24767E-09         0.93132E-20         0.00000E+00
    0.24767E-09        -0.16086E-20         0.00000E+00
    0.24767E-09        -0.18626E-20         0.00000E+00
    0.24767E-09         0.00000E+00         0.00000E+00
    0.24767E-09         0.00000E+00         0.00000E+00
    0.24767E-09         0.18626E-20         0.00000E+00
    0.24767E-09         0.11176E-19         0.00000E+00
    0.24767E-09         0.26077E-19         0.00000E+00
    0.24767E-09         0.22352E-19         0.00000E+00
    0.24767E-09         0.11176E-19         0.00000E+00
    0.24767E-09         0.11176E-19         0.00000E+00
    0.24767E-09         0.14901E-19         0.00000E+00
    0.24767E-09         0.20489E-19         0.00000E+00
    0.24767E-09         0.14901E-19         0.00000E+00
    0.24767E-09         0.13039E-19         0.00000E+00
    0.24767E-09         0.24214E-19         0.00000E+00
    0.24767E-09         0.18626E-19         0.00000E+00
    0.24767E-09        -0.93132E-20         0.00000E+00
    0.24767E-09        -0.11176E-19         0.00000E+00
    0.24767E-09         0.93132E-20         0.00000E+00
    0.24767E-09         0.55879E-20         0.00000E+00
    0.24767E-09         0.74506E-20         0.00000E+00
    0.24767E-09         0.55879E-20         0.00000E+00
    0.24767E-09         0.18626E-20         0.00000E+00
    0.24767E-09         0.11176E-19         0.00000E+00
    0.24767E-09         0.55879E-20         0.00000E+00
    0.24767E-09        -0.11176E-19         0.00000E+00
    0.24767E-09        -0.93132E-20         0.00000E+00
    0.24767E-09         0.55879E-20         0.00000E+00
    0.24767E-09         0.22352E-19         0.00000E+00
    0.24767E-09         0.27940E-19         0.00000E+00
    0.24767E-09         0.55879E-20         0.00000E+00
    0.24767E-09        -0.55879E-20         0.00000E+00
    0.24767E-09        -0.55879E-20         0.00000E+00
    0.24767E-09        -0.18626E-20         0.00000E+00
    0.24767E-09         0.13039E-19         0.00000E+00
    0.24767E-09         0.24214E-19         0.00000E+00
    0.24767E-09         0.24214E-19         0.00000E+00
    0.24767E-09         0.14647E-19         0.00000E+00
    0.24767E-09         0.74506E-20         0.00000E+00
    0.24767E-09         0.58419E-20         0.00000E+00
    0.24767E-09         0.90592E-20         0.00000E+00
    0.24767E-09         0.10922E-19         0.00000E+00
    0.24767E-09         0.93132E-20         0.00000E+00
    0.24767E-09         0.21167E-20         0.00000E+00
    0.24767E-09        -0.32173E-20         0.00000E+00
    0.28518E-09        -0.19126E-19         0.00000E+00
    0.28518E-09        -0.14901E-19         0.00000E+00
    0.28518E-09        -0.12789E-19         0.00000E+00
    0.28518E-09        -0.18626E-20         0.00000E+00
    0.28518E-09         0.10926E-19         0.00000E+00
    0.28518E-09        -0.18626E-20         0.00000E+00
    0.28518E-09        -0.37253E-20         0.00000E+00
    0.28518E-09         0.18626E-20         0.00000E+00
    0.28518E-09        -0.93132E-20         0.00000E+00
    0.28518E-09        -0.18626E-19         0.00000E+00
    0.28518E-09        -0.93132E-20         0.00000E+00
    0.28518E-09         0.18626E-20         0.00000E+00
    0.28518E-09        -0.34756E-20         0.00000E+00
    0.28518E-09         0.14901E-19         0.00000E+00
    0.28518E-09         0.27940E-19         0.00000E+00
    0.28518E-09         0.20489E-19         0.00000E+00
    0.28518E-09         0.14901E-19         0.00000E+00
    0.28518E-09         0.93132E-20         0.00000E+00
    0.28518E-09         0.16514E-19         0.00000E+00
    0.28518E-09         0.20489E-19         0.00000E+00
    0.28518E-09         0.20739E-19         0.00000E+00
    0.28518E-09         0.16764E-19         0.00000E+00
    0.28518E-09         0.18626E-19         0.00000E+00
    0.28518E-09         0.14901E-19         0.00000E+00
    0.28518E-09         0.11176E-19         0.00000E+00
    0.28518E-09         0.22352E-19         0.00000E+00
    0.28518E-09         0.22352E-19         0.00000E+00
    0.28518E-09         0.74506E-20         0.00000E+00
    0.28518E-09        -0.55879E-20         0.00000E+00
    0.28518E-09        -0.11176E-19         0.00000E+00
    0.28518E-09        -0.93132E-20         0.00000E+00
    0.28518E-09         0.14901E-19         0.00000E+00
    0.28518E-09         0.22352E-19         0.00000E+00
    0.28518E-09         0.93132E-20         0.00000E+00
    0.28518E-09        -0.37253E-20         0.00000E+00
    0.28518E-09        -0.74506E-20         0.00000E+00
    0.28518E-09        -0.55879E-20         0.00000E+00
    0.28518E-09        -0.18626E-19         0.00000E+00
    0.28518E-09        -0.37253E-20         0.00000E+00
    0.28518E-09         0.13039E-19         0.00000E+00
    0.28518E-09         0.74506E-20         0.00000E+00
    0.28518E-09         0.18626E-20         0.00000E+00
    0.28518E-09        -0.39750E-20         0.00000E+00
    0.28518E-09         0.93132E-20         0.00000E+00
    0.28518E-09         0.11426E-19         0.00000E+00
    0.28518E-09        -0.37253E-20         0.00000E+00
    0.28518E-09        -0.11426E-19         0.00000E+00
    0.28518E-09        -0.14901E-19         0.00000E+00
    0.28518E-09        -0.10926E-19         0.00000E+00
    0.28518E-09        -0.37253E-20         0.00000E+00
    0.28518E-09         0.00000E+00         0.00000E+00
    0.33119E-09         0.14412E-19         0.00000E+00
    0.33119E-09         0.14657E-19         0.00000E+00
    0.33119E-09         0.11176E-19         0.00000E+00
    0.33119E-09        -0.34807E-20         0.00000E+00
    0.33119E-09        -0.14901E-19         0.00000E+00
    0.33119E-09        -0.18626E-19         0.00000E+00
    0.33119E-09        -0.14901E-19         0.00000E+00
    0.33119E-09        -0.39699E-20         0.00000E+00
    0.33119E-09         0.95578E-20         0.00000E+00
    0.33119E-09         0.18871E-19         0.00000E+00
    0.33119E-09         0.13039E-19         0.00000E+00
    0.33119E-09         0.10931E-19         0.00000E+00
    0.33119E-09         0.14901E-19         0.00000E+00
    0.33119E-09        -0.34807E-20         0.00000E+00
    0.33119E-09        -0.93132E-20         0.00000E+00
    0.33119E-09         0.34807E-20         0.00000E+00
    0.33119E-09         0.93132E-20         0.00000E+00
    0.33119E-09         0.20489E-19         0.00000E+00
    0.33119E-09         0.25832E-19         0.00000E+00
    0.33119E-09         0.24459E-19         0.00000E+00
    0.33119E-09         0.15146E-19         0.00000E+00
    0.33119E-09         0.14901E-19         0.00000E+00
    0.33119E-09         0.14901E-19         0.00000E+00
    0.33119E-09         0.18626E-19         0.00000E+00
    0.33119E-09         0.22352E-19         0.00000E+00
    0.33119E-09         0.00000E+00         0.00000E+00
    0.33119E-09        -0.74506E-20         0.00000E+00
    0.33119E-09         0.18626E-20         0.00000E+00
    0.33119E-09         0.34807E-20         0.00000E+00
    0.33119E-09         0.93132E-20         0.00000E+00
    0.33119E-09         0.74506E-20         0.00000E+00
    0.33119E-09         0.25146E-33         0.00000E+00
    0.33119E-09         0.18626E-20         0.00000E+00
    0.33119E-09        -0.18626E-20         0.00000E+00
    0.33119E-09        -0.12794E-19         0.00000E+00
    0.33119E-09        -0.24459E-19         0.00000E+00
    0.33119E-09        -0.18871E-19         0.00000E+00
    0.33119E-09        -0.37253E-20         0.00000E+00
    0.33119E-09        -0.10931E-19         0.00000E+00
    0.33119E-09        -0.22107E-19         0.00000E+00
    0.33119E-09        -0.11176E-19         0.00000E+00
    0.33119E-09         0.93132E-20         0.00000E+00
    0.33119E-09         0.18626E-19         0.00000E+00
    0.33119E-09         0.93132E-20         0.00000E+00
    0.33119E-09        -0.37253E-20         0.00000E+00
    0.33119E-09        -0.24459E-21         0.00000E+00
    0.33119E-09        -0.93132E-21         0.00000E+00
    0.33119E-09        -0.65193E-20         0.00000E+00
    0.33119E-09        -0.76952E-20         0.00000E+00
    0.33119E-09        -0.90686E-20         0.00000E+00
    0.33119E-09        -0.10687E-19         0.00000E+00
    0.38708E-09        -0.18149E-19         0.00000E+00
    0.38708E-09        -0.26077E-19         0.00000E+00
    0.38708E-09        -0.31904E-19         0.00000E+00
    0.38708E-09        -0.22113E-19         0.00000E+00
    0.38708E-09        -0.74506E-20         0.00000E+00
    0.38708E-09         0.72119E-20         0.00000E+00
    0.38708E-09         0.93132E-20         0.00000E+00
    0.38708E-09        -0.18626E-20         0.00000E+00
    0.38708E-09         0.23866E-21         0.00000E+00
    0.38708E-09         0.11415E-19         0.00000E+00
    0.38708E-09         0.16525E-19         0.00000E+00
    0.38708E-09         0.14901E-19         0.00000E+00
    0.38708E-09        -0.18626E-20         0.00000E+00
    0.38708E-09        -0.74506E-20         0.00000E+00
    0.38708E-09         0.21013E-20         0.00000E+00
    0.38708E-09         0.18626E-20         0.00000E+00
    0.38708E-09         0.93132E-20         0.00000E+00
    0.38708E-09         0.72119E-20         0.00000E+00
    0.38708E-09        -0.58266E-20         0.00000E+00
    0.38708E-09        -0.74506E-20         0.00000E+00
    0.38708E-09        -0.72119E-20         0.00000E+00
    0.38708E-09        -0.53493E-20         0.00000E+00
    0.38708E-09         0.74506E-20         0.00000E+00
    0.38708E-09         0.13039E-19         0.00000E+00
    0.38708E-09         0.14663E-19         0.00000E+00
    0.38708E-09         0.22352E-19         0.00000E+00
    0.38708E-09         0.11415E-19         0.00000E+00
    0.38708E-09         0.00000E+00         0.00000E+00
    0.38708E-09         0.00000E+00         0.00000E+00
    0.38708E-09        -0.37253E-20         0.00000E+00
    0.38708E-09        -0.11176E-19         0.00000E+00
    0.38708E-09        -0.93132E-20         0.00000E+00
    0.38708E-09        -0.14901E-19         0.00000E+00
    0.38708E-09        -0.13277E-19         0.00000E+00
    0.38708E-09         0.11176E-19         0.00000E+00
    0.38708E-09         0.15140E-19         0.00000E+00
    0.38708E-09        -0.23866E-21         0.00000E+00
    0.38708E-09        -0.74506E-20         0.00000E+00
    0.38708E-09        -0.74506E-20         0.00000E+00
    0.38708E-09        -0.37253E-20         0.00000E+00
    0.38708E-09         0.37253E-20         0.00000E+00
    0.38708E-09         0.37253E-20         0.00000E+00
    0.38708E-09        -0.53493E-20         0.00000E+00
    0.38708E-09        -0.13277E-19         0.00000E+00
    0.38708E-09        -0.55879E-20         0.00000E+00
    0.38708E-09         0.21013E-20         0.00000E+00
    0.38708E-09        -0.95519E-20         0.00000E+00
    0.38708E-09        -0.12107E-19         0.00000E+00
    0.38708E-09        -0.69266E-21         0.00000E+00
    0.38708E-09         0.72119E-20         0.00000E+00
    0.38708E-09         0.69733E-20         0.00000E+00
    0.45451E-09         0.74506E-20         0.00000E+00
    0.45451E-09         0.20721E-19         0.00000E+00
    0.45451E-09         0.18626E-19         0.00000E+00
    0.45451E-09        -0.23168E-21         0.00000E+00
    0.45451E-09        -0.93132E-20         0.00000E+00
    0.45451E-09        -0.26077E-19         0.00000E+00
    0.45451E-09        -0.20489E-19         0.00000E+00
    0.45451E-09        -0.16310E-20         0.00000E+00
    0.45451E-09        -0.16764E-19         0.00000E+00
    0.45451E-09        -0.35390E-19         0.00000E+00
    0.45451E-09        -0.25845E-19         0.00000E+00
    0.45451E-09        -0.11176E-19         0.00000E+00
    0.45451E-09         0.37253E-20         0.00000E+00
    0.45451E-09         0.16764E-19         0.00000E+00
    0.45451E-09         0.10944E-19         0.00000E+00
    0.45451E-09         0.11176E-19         0.00000E+00
    0.45451E-09         0.74506E-20         0.00000E+00
    0.45451E-09        -0.20943E-20         0.00000E+00
    0.45451E-09         0.13039E-19         0.00000E+00
    0.45451E-09         0.24214E-19         0.00000E+00
    0.45451E-09         0.13270E-19         0.00000E+00
    0.45451E-09         0.58196E-20         0.00000E+00
    0.45451E-09        -0.37253E-20         0.00000E+00
    0.45451E-09        -0.37253E-20         0.00000E+00
    0.45451E-09         0.53563E-20         0.00000E+00
    0.45451E-09         0.93132E-20         0.00000E+00
    0.45451E-09         0.11408E-19         0.00000E+00
    0.45451E-09        -0.23168E-21         0.00000E+00
    0.45451E-09         0.00000E+00         0.00000E+00
    0.45451E-09         0.37253E-20         0.00000E+00
    0.45451E-09        -0.37253E-20         0.00000E+00
    0.45451E-09        -0.72189E-20         0.00000E+00
    0.45451E-09        -0.39570E-20         0.00000E+00
    0.45451E-09        -0.93132E-20         0.00000E+00
    0.45451E-09        -0.16532E-19         0.00000E+00
    0.45451E-09        -0.76823E-20         0.00000E+00
    0.45451E-09         0.11176E-19         0.00000E+00
    0.45451E-09         0.18626E-19         0.00000E+00
    0.45451E-09         0.90815E-20         0.00000E+00
    0.45451E-09         0.23168E-21         0.00000E+00
    0.45451E-09        -0.55879E-20         0.00000E+00
    0.45451E-09        -0.76823E-20         0.00000E+00
    0.45451E-09         0.00000E+00         0.00000E+00
    0.45451E-09        -0.10944E-19         0.00000E+00
    0.45451E-09        -0.23983E-19         0.00000E+00
    0.45451E-09        -0.14901E-19         0.00000E+00
    0.45451E-09        -0.13270E-19         0.00000E+00
    0.45451E-09        -0.11176E-19         0.00000E+00
    0.45451E-09        -0.46566E-20         0.00000E+00
    0.45451E-09        -0.10476E-19         0.00000E+00
    0.45451E-09        -0.14901E-19         0.00000E+00
    0.53550E-09        -0.37253E-20         0.00000E+00
    0.53550E-09        -0.93132E-20         0.00000E+00
    0.53550E-09        -0.10952E-19         0.00000E+00
    0.53550E-09         0.00000E+00         0.00000E+00
    0.53550E-09        -0.22344E-21         0.00000E+00
    0.53550E-09        -0.74506E-20         0.00000E+00
    0.53550E-09        -0.16764E-19         0.00000E+00
    0.53550E-09        -0.26077E-19         0.00000E+00
    0.53550E-09        -0.37253E-20         0.00000E+00
    0.53550E-09         0.16764E-19         0.00000E+00
    0.53550E-09         0.20861E-20         0.00000E+00
    0.53550E-09        -0.93132E-20         0.00000E+00
    0.53550E-09        -0.95367E-20         0.00000E+00
    0.53550E-09        -0.14678E-19         0.00000E+00
    0.53550E-09        -0.14901E-19         0.00000E+00
    0.53550E-09        -0.11176E-19         0.00000E+00
    0.53550E-09        -0.53645E-20         0.00000E+00
    0.53550E-09        -0.13262E-19         0.00000E+00
    0.53550E-09        -0.20713E-19         0.00000E+00
    0.53550E-09        -0.93132E-20         0.00000E+00
    0.53550E-09         0.13039E-19         0.00000E+00
    0.53550E-09         0.15125E-19         0.00000E+00
    0.53550E-09         0.58114E-20         0.00000E+00
    0.53550E-09         0.93132E-20         0.00000E+00
    0.53550E-09         0.53645E-20         0.00000E+00
    0.53550E-09         0.13039E-19         0.00000E+00
    0.53550E-09         0.11399E-19         0.00000E+00
    0.53550E-09         0.13039E-19         0.00000E+00
    0.53550E-09         0.18626E-19         0.00000E+00
    0.53550E-09         0.14678E-19         0.00000E+00
    0.53550E-09         0.14678E-19         0.00000E+00
    0.53550E-09         0.22344E-21         0.00000E+00
    0.53550E-09        -0.14901E-19         0.00000E+00
    0.53550E-09        -0.18626E-20         0.00000E+00
    0.53550E-09         0.16764E-19         0.00000E+00
    0.53550E-09         0.12815E-19         0.00000E+00
    0.53550E-09        -0.74506E-20         0.00000E+00
    0.53550E-09        -0.23991E-19         0.00000E+00
    0.53550E-09        -0.90898E-20         0.00000E+00
    0.53550E-09         0.53645E-20         0.00000E+00
    0.53550E-09         0.35019E-20         0.00000E+00
    0.53550E-09        -0.72271E-20         0.00000E+00
    0.53550E-09        -0.22128E-19         0.00000E+00
    0.53550E-09        -0.22352E-19         0.00000E+00
    0.53550E-09        -0.22575E-19         0.00000E+00
    0.53550E-09        -0.24438E-19         0.00000E+00
    0.53550E-09        -0.14901E-19         0.00000E+00
    0.53550E-09        -0.37253E-20         0.00000E+00
    0.53550E-09         0.00000E+00         0.00000E+00
    0.53550E-09         0.37253E-20         0.00000E+00
    0.53550E-09         0.74506E-20         0.00000E+00
    0.63247E-09        -0.74506E-20         0.00000E+00
    0.63247E-09        -0.90995E-20         0.00000E+00
    0.63247E-09        -0.35116E-20         0.00000E+00
    0.63247E-09        -0.58016E-20         0.00000E+00
    0.63247E-09        -0.11390E-19         0.00000E+00
    0.63247E-09        -0.16489E-20         0.00000E+00
    0.63247E-09         0.39390E-20         0.00000E+00
    0.63247E-09         0.16489E-20         0.00000E+00
    0.63247E-09        -0.76643E-20         0.00000E+00
    0.63247E-09        -0.74506E-20         0.00000E+00
    0.63247E-09         0.00000E+00         0.00000E+00
    0.63247E-09         0.74506E-20         0.00000E+00
    0.63247E-09         0.74506E-20         0.00000E+00
    0.63247E-09        -0.18626E-20         0.00000E+00
    0.63247E-09         0.18626E-20         0.00000E+00
    0.63247E-09        -0.55879E-20         0.00000E+00
    0.63247E-09        -0.20489E-19         0.00000E+00
    0.63247E-09        -0.14901E-19         0.00000E+00
    0.63247E-09        -0.39390E-20         0.00000E+00
    0.63247E-09        -0.37253E-20         0.00000E+00
    0.63247E-09        -0.35116E-20         0.00000E+00
    0.63247E-09         0.18626E-20         0.00000E+00
    0.63247E-09         0.00000E+00         0.00000E+00
    0.63247E-09         0.20763E-20         0.00000E+00
    0.63247E-09         0.14901E-19         0.00000E+00
    0.63247E-09         0.10962E-19         0.00000E+00
    0.63247E-09         0.74506E-20         0.00000E+00
    0.63247E-09         0.55879E-20         0.00000E+00
    0.63247E-09         0.74506E-20         0.00000E+00
    0.63247E-09         0.16764E-19         0.00000E+00
    0.63247E-09         0.11176E-19         0.00000E+00
    0.63247E-09         0.14901E-19         0.00000E+00
    0.63247E-09         0.11176E-19         0.00000E+00
    0.63247E-09        -0.11176E-19         0.00000E+00
    0.63247E-09        -0.16764E-19         0.00000E+00
    0.63247E-09        -0.76643E-20         0.00000E+00
    0.63247E-09        -0.18626E-20         0.00000E+00
    0.63247E-09        -0.53742E-20         0.00000E+00
    0.63247E-09        -0.14901E-19         0.00000E+00
    0.63247E-09        -0.14901E-19         0.00000E+00
    0.63247E-09        -0.76643E-20         0.00000E+00
    0.63247E-09        -0.74506E-20         0.00000E+00
    0.63247E-09        -0.14474E-19         0.00000E+00
    0.63247E-09        -0.22352E-19         0.00000E+00
    0.63247E-09        -0.15115E-19         0.00000E+00
    0.63247E-09        -0.11176E-19         0.00000E+00
    0.63247E-09        -0.18413E-19         0.00000E+00
    0.63247E-09        -0.12107E-19         0.00000E+00
    0.63247E-09        -0.85956E-20         0.00000E+00
    0.63247E-09        -0.74506E-20         0.00000E+00
    0.63247E-09        -0.74506E-20         0.00000E+00
    0.74829E-09         0.00000E+00         0.00000E+00
    0.74829E-09         0.74506E-20         0.00000E+00
    0.74829E-09         0.74506E-20         0.00000E+00
    0.74829E-09         0.20217E-21         0.00000E+00
    0.74829E-09        -0.37253E-20         0.00000E+00
    0.74829E-09        -0.39275E-20         0.00000E+00
    0.74829E-09         0.91111E-20         0.00000E+00
    0.74829E-09         0.14901E-19         0.00000E+00
    0.74829E-09         0.16966E-19         0.00000E+00
    0.74829E-09         0.18626E-19         0.00000E+00
    0.74829E-09         0.55879E-20         0.00000E+00
    0.74829E-09         0.00000E+00         0.00000E+00
    0.74829E-09         0.74506E-20         0.00000E+00
    0.74829E-09         0.95154E-20         0.00000E+00
    0.74829E-09        -0.37253E-20         0.00000E+00
    0.74829E-09        -0.13241E-19         0.00000E+00
    0.74829E-09        -0.18626E-20         0.00000E+00
    0.74829E-09         0.37253E-20         0.00000E+00
    0.74829E-09         0.37253E-20         0.00000E+00
    0.74829E-09         0.55879E-20         0.00000E+00
    0.74829E-09         0.37253E-20         0.00000E+00
    0.74829E-09        -0.53858E-20         0.00000E+00
    0.74829E-09        -0.37253E-20         0.00000E+00
    0.74829E-09         0.55879E-20         0.00000E+00
    0.74829E-09        -0.37253E-20         0.00000E+00
    0.74829E-09        -0.11176E-19         0.00000E+00
    0.74829E-09        -0.18424E-19         0.00000E+00
    0.74829E-09        -0.22554E-19         0.00000E+00
    0.74829E-09        -0.22554E-19         0.00000E+00
    0.74829E-09        -0.18626E-19         0.00000E+00
    0.74829E-09         0.18626E-20         0.00000E+00
    0.74829E-09         0.11378E-19         0.00000E+00
    0.74829E-09         0.16966E-19         0.00000E+00
    0.74829E-09         0.12836E-19         0.00000E+00
    0.74829E-09        -0.20217E-21         0.00000E+00
    0.74829E-09        -0.74506E-20         0.00000E+00
    0.74829E-09        -0.74506E-20         0.00000E+00
    0.74829E-09         0.00000E+00         0.00000E+00
    0.74829E-09        -0.74506E-20         0.00000E+00
    0.74829E-09        -0.16764E-19         0.00000E+00
    0.74829E-09        -0.13039E-19         0.00000E+00
    0.74829E-09        -0.37253E-20         0.00000E+00
    0.74829E-09        -0.57901E-20         0.00000E+00
    0.74829E-09        -0.10042E-19         0.00000E+00
    0.74829E-09        -0.11905E-19         0.00000E+00
    0.74829E-09        -0.95154E-20         0.00000E+00
    0.74829E-09        -0.63171E-20         0.00000E+00
    0.74829E-09        -0.13970E-19         0.00000E+00
    0.74829E-09        -0.20691E-19         0.00000E+00
    0.74829E-09        -0.55879E-20         0.00000E+00
    0.74829E-09         0.37253E-20         0.00000E+00
    0.88643E-09         0.11176E-19         0.00000E+00
    0.88643E-09         0.93132E-20         0.00000E+00
    0.88643E-09         0.55879E-20         0.00000E+00
    0.88643E-09        -0.18626E-20         0.00000E+00
    0.88643E-09        -0.55879E-20         0.00000E+00
    0.88643E-09         0.37253E-20         0.00000E+00
    0.88643E-09         0.74506E-20         0.00000E+00
    0.88643E-09         0.10987E-19         0.00000E+00
    0.88643E-09         0.93132E-20         0.00000E+00
    0.88643E-09         0.96902E-20         0.00000E+00
    0.88643E-09         0.76391E-20         0.00000E+00
    0.88643E-09        -0.13227E-19         0.00000E+00
    0.88643E-09        -0.11364E-19         0.00000E+00
    0.88643E-09         0.00000E+00         0.00000E+00
    0.88643E-09         0.11176E-19         0.00000E+00
    0.88643E-09         0.14901E-19         0.00000E+00
    0.88643E-09        -0.18626E-20         0.00000E+00
    0.88643E-09        -0.74506E-20         0.00000E+00
    0.88643E-09         0.18626E-20         0.00000E+00
    0.88643E-09         0.18626E-20         0.00000E+00
    0.88643E-09         0.18626E-20         0.00000E+00
    0.88643E-09         0.93132E-20         0.00000E+00
    0.88643E-09         0.18626E-20         0.00000E+00
    0.88643E-09        -0.55879E-20         0.00000E+00
    0.88643E-09        -0.76391E-20         0.00000E+00
    0.88643E-09        -0.74506E-20         0.00000E+00
    0.88643E-09        -0.91247E-20         0.00000E+00
    0.88643E-09        -0.18626E-19         0.00000E+00
    0.88643E-09        -0.14901E-19         0.00000E+00
    0.88643E-09        -0.37253E-20         0.00000E+00
    0.88643E-09         0.00000E+00         0.00000E+00
    0.88643E-09         0.76391E-20         0.00000E+00
    0.88643E-09         0.16764E-19         0.00000E+00
    0.88643E-09         0.14713E-19         0.00000E+00
    0.88643E-09         0.11176E-19         0.00000E+00
    0.88643E-09         0.55879E-20         0.00000E+00
    0.88643E-09         0.00000E+00         0.00000E+00
    0.88643E-09        -0.18626E-20         0.00000E+00
    0.88643E-09        -0.55879E-20         0.00000E+00
    0.88643E-09        -0.13039E-19         0.00000E+00
    0.88643E-09        -0.24214E-19         0.00000E+00
    0.88643E-09        -0.22540E-19         0.00000E+00
    0.88643E-09        -0.13039E-19         0.00000E+00
    0.88643E-09        -0.10987E-19         0.00000E+00
    0.88643E-09        -0.55879E-20         0.00000E+00
    0.88643E-09         0.00000E+00         0.00000E+00
    0.88643E-09         0.00000E+00         0.00000E+00
    0.88643E-09         0.55879E-20         0.00000E+00
    0.88643E-09         0.13039E-19         0.00000E+00
    0.88643E-09         0.53994E-20         0.00000E+00
    0.88643E-09        -0.41023E-20         0.00000E+00
    0.10510E-08        -0.74506E-20         0.00000E+00
    0.10510E-08        -0.37253E-20         0.00000E+00
    0.10510E-08         0.74506E-20         0.00000E+00
    0.10510E-08         0.93132E-20         0.00000E+00
    0.10510E-08         0.54156E-20         0.00000E+00
    0.10510E-08         0.18626E-20         0.00000E+00
    0.10510E-08        -0.35530E-20         0.00000E+00
    0.10510E-08        -0.14729E-19         0.00000E+00
    0.10510E-08        -0.11176E-19         0.00000E+00
    0.10510E-08        -0.18626E-20         0.00000E+00
    0.10510E-08        -0.37253E-20         0.00000E+00
    0.10510E-08         0.91409E-20         0.00000E+00
    0.10510E-08         0.14901E-19         0.00000E+00
    0.10510E-08         0.74506E-20         0.00000E+00
    0.10510E-08        -0.55879E-20         0.00000E+00
    0.10510E-08        -0.11348E-19         0.00000E+00
    0.10510E-08        -0.10058E-32         0.00000E+00
    0.10510E-08         0.74506E-20         0.00000E+00
    0.10510E-08         0.18626E-20         0.00000E+00
    0.10510E-08         0.17230E-21         0.00000E+00
    0.10510E-08        -0.37253E-20         0.00000E+00
    0.10510E-08        -0.18626E-20         0.00000E+00
    0.10510E-08         0.11176E-19         0.00000E+00
    0.10510E-08         0.93132E-20         0.00000E+00
    0.10510E-08         0.16903E-20         0.00000E+00
    0.10510E-08        -0.44843E-20         0.00000E+00
    0.10510E-08        -0.11935E-19         0.00000E+00
    0.10510E-08        -0.20349E-20         0.00000E+00
    0.10510E-08         0.55879E-20         0.00000E+00
    0.10510E-08         0.37253E-20         0.00000E+00
    0.10510E-08         0.93132E-20         0.00000E+00
    0.10510E-08         0.55879E-20         0.00000E+00
    0.10510E-08         0.00000E+00         0.00000E+00
    0.10510E-08         0.35530E-20         0.00000E+00
    0.10510E-08         0.00000E+00         0.00000E+00
    0.10510E-08        -0.35530E-20         0.00000E+00
    0.10510E-08         0.00000E+00         0.00000E+00
    0.10510E-08        -0.55879E-20         0.00000E+00
    0.10510E-08        -0.55879E-20         0.00000E+00
    0.10510E-08         0.00000E+00         0.00000E+00
    0.10510E-08        -0.18626E-20         0.00000E+00
    0.10510E-08         0.55879E-20         0.00000E+00
    0.10510E-08         0.55879E-20         0.00000E+00
    0.10510E-08         0.16903E-20         0.00000E+00
    0.10510E-08        -0.18626E-20         0.00000E+00
    0.10510E-08         0.12759E-20         0.00000E+00
    0.10510E-08         0.74506E-20         0.00000E+00
    0.10510E-08        -0.94855E-20         0.00000E+00
    0.10510E-08        -0.13039E-19         0.00000E+00
    0.10510E-08        -0.17230E-21         0.00000E+00
    0.10510E-08         0.33807E-20         0.00000E+00
    0.12469E-08         0.11176E-19         0.00000E+00
    0.12469E-08         0.37253E-20         0.00000E+00
    0.12469E-08         0.35722E-20         0.00000E+00
    0.12469E-08         0.12885E-19         0.00000E+00
    0.12469E-08         0.93132E-20         0.00000E+00
    0.12469E-08         0.18626E-20         0.00000E+00
    0.12469E-08        -0.17096E-20         0.00000E+00
    0.12469E-08        -0.34192E-20         0.00000E+00
    0.12469E-08        -0.91602E-20         0.00000E+00
    0.12469E-08        -0.57410E-20         0.00000E+00
    0.12469E-08        -0.15307E-21         0.00000E+00
    0.12469E-08        -0.74506E-20         0.00000E+00
    0.12469E-08        -0.37253E-20         0.00000E+00
    0.12469E-08         0.11329E-19         0.00000E+00
    0.12469E-08         0.14901E-19         0.00000E+00
    0.12469E-08         0.54349E-20         0.00000E+00
    0.12469E-08         0.37253E-20         0.00000E+00
    0.12469E-08         0.11023E-19         0.00000E+00
    0.12469E-08         0.11176E-19         0.00000E+00
    0.12469E-08         0.38784E-20         0.00000E+00
    0.12469E-08         0.74506E-20         0.00000E+00
    0.12469E-08         0.93132E-20         0.00000E+00
    0.12469E-08         0.17096E-20         0.00000E+00
    0.12469E-08        -0.18626E-20         0.00000E+00
    0.12469E-08        -0.55879E-20         0.00000E+00
    0.12469E-08        -0.11954E-19         0.00000E+00
    0.12469E-08        -0.45035E-20         0.00000E+00
    0.12469E-08         0.90071E-20         0.00000E+00
    0.12469E-08         0.37253E-20         0.00000E+00
    0.12469E-08        -0.35722E-20         0.00000E+00
    0.12469E-08        -0.37253E-20         0.00000E+00
    0.12469E-08         0.74506E-20         0.00000E+00
    0.12469E-08         0.11176E-19         0.00000E+00
    0.12469E-08         0.74506E-20         0.00000E+00
    0.12469E-08         0.37253E-20         0.00000E+00
    0.12469E-08         0.00000E+00         0.00000E+00
    0.12469E-08         0.00000E+00         0.00000E+00
    0.12469E-08         0.37253E-20         0.00000E+00
    0.12469E-08         0.18626E-20         0.00000E+00
    0.12469E-08         0.00000E+00         0.00000E+00
    0.12469E-08         0.11176E-19         0.00000E+00
    0.12469E-08         0.94663E-20         0.00000E+00
    0.12469E-08         0.18626E-20         0.00000E+00
    0.12469E-08        -0.20157E-20         0.00000E+00
    0.12469E-08        -0.20157E-20         0.00000E+00
    0.12469E-08         0.35722E-20         0.00000E+00
    0.12469E-08         0.74506E-20         0.00000E+00
    0.12469E-08         0.20642E-19         0.00000E+00
    0.12469E-08         0.26230E-19         0.00000E+00
    0.12469E-08         0.12885E-19         0.00000E+00
    0.12469E-08         0.34192E-20         0.00000E+00
    0.14801E-08        -0.21231E-20         0.00000E+00
    0.14801E-08         0.83819E-20         0.00000E+00
    0.14801E-08         0.18757E-19         0.00000E+00
    0.14801E-08         0.11176E-19         0.00000E+00
    0.14801E-08        -0.13023E-21         0.00000E+00
    0.14801E-08        -0.93132E-21         0.00000E+00
    0.14801E-08         0.47868E-20         0.00000E+00
    0.14801E-08         0.93132E-20         0.00000E+00
    0.14801E-08         0.18496E-19         0.00000E+00
    0.14801E-08         0.16764E-19         0.00000E+00
    0.14801E-08         0.46566E-20         0.00000E+00
    0.14801E-08         0.93132E-21         0.00000E+00
    0.14801E-08         0.38555E-20         0.00000E+00
    0.14801E-08        -0.37253E-20         0.00000E+00
    0.14801E-08        -0.18626E-20         0.00000E+00
    0.14801E-08         0.16764E-19         0.00000E+00
    0.14801E-08         0.93132E-20         0.00000E+00
    0.14801E-08         0.18626E-20         0.00000E+00
    0.14801E-08         0.35951E-20         0.00000E+00
    0.14801E-08         0.18626E-20         0.00000E+00
    0.14801E-08         0.13023E-21         0.00000E+00
    0.14801E-08        -0.11176E-19         0.00000E+00
    0.14801E-08        -0.24214E-19         0.00000E+00
    0.14801E-08        -0.14771E-19         0.00000E+00
    0.14801E-08         0.17324E-20         0.00000E+00
    0.14801E-08         0.93132E-20         0.00000E+00
    0.14801E-08         0.15031E-19         0.00000E+00
    0.14801E-08         0.11046E-19         0.00000E+00
    0.14801E-08         0.55879E-20         0.00000E+00
    0.14801E-08         0.11176E-19         0.00000E+00
    0.14801E-08         0.16764E-19         0.00000E+00
    0.14801E-08         0.16764E-19         0.00000E+00
    0.14801E-08         0.11176E-19         0.00000E+00
    0.14801E-08         0.00000E+00         0.00000E+00
    0.14801E-08         0.93132E-20         0.00000E+00
    0.14801E-08         0.20359E-19         0.00000E+00
    0.14801E-08         0.22352E-19         0.00000E+00
    0.14801E-08         0.22482E-19         0.00000E+00
    0.14801E-08         0.24084E-19         0.00000E+00
    0.14801E-08         0.93132E-20         0.00000E+00
    0.14801E-08        -0.55879E-20         0.00000E+00
    0.14801E-08         0.37253E-20         0.00000E+00
    0.14801E-08         0.75808E-20         0.00000E+00
    0.14801E-08         0.93132E-20         0.00000E+00
    0.14801E-08         0.16634E-19         0.00000E+00
    0.14801E-08         0.16764E-19         0.00000E+00
    0.14801E-08         0.75808E-20         0.00000E+00
    0.14801E-08         0.74506E-20         0.00000E+00
    0.14801E-08         0.17565E-19         0.00000E+00
    0.14801E-08         0.10114E-19         0.00000E+00
    0.14801E-08         0.37253E-20         0.00000E+00
    0.17573E-08         0.00000E+00         0.00000E+00
    0.17573E-08         0.37253E-20         0.00000E+00
    0.17573E-08         0.36222E-20         0.00000E+00
    0.17573E-08        -0.38284E-20         0.00000E+00
    0.17573E-08        -0.37253E-20         0.00000E+00
    0.17573E-08        -0.82820E-21         0.00000E+00
    0.17573E-08         0.18626E-20         0.00000E+00
    0.17573E-08        -0.11176E-19         0.00000E+00
    0.17573E-08        -0.17592E-19         0.00000E+00
    0.17573E-08        -0.13039E-19         0.00000E+00
    0.17573E-08         0.00000E+00         0.00000E+00
    0.17573E-08         0.55879E-20         0.00000E+00
    0.17573E-08         0.18626E-20         0.00000E+00
    0.17573E-08         0.18626E-20         0.00000E+00
    0.17573E-08         0.18626E-20         0.00000E+00
    0.17573E-08        -0.18626E-20         0.00000E+00
    0.17573E-08        -0.11176E-19         0.00000E+00
    0.17573E-08        -0.15936E-19         0.00000E+00
    0.17573E-08        -0.84850E-20         0.00000E+00
    0.17573E-08        -0.92101E-20         0.00000E+00
    0.17573E-08        -0.13039E-19         0.00000E+00
    0.17573E-08        -0.11279E-19         0.00000E+00
    0.17573E-08        -0.37253E-20         0.00000E+00
    0.17573E-08         0.20624E-21         0.00000E+00
    0.17573E-08         0.14901E-19         0.00000E+00
    0.17573E-08         0.27837E-19         0.00000E+00
    0.17573E-08         0.18626E-19         0.00000E+00
    0.17573E-08         0.36222E-20         0.00000E+00
    0.17573E-08         0.56911E-20         0.00000E+00
    0.17573E-08         0.56911E-20         0.00000E+00
    0.17573E-08         0.93132E-20         0.00000E+00
    0.17573E-08         0.18626E-19         0.00000E+00
    0.17573E-08         0.27940E-19         0.00000E+00
    0.17573E-08         0.35390E-19         0.00000E+00
    0.17573E-08         0.27940E-19         0.00000E+00
    0.17573E-08         0.24111E-19         0.00000E+00
    0.17573E-08         0.18626E-19         0.00000E+00
    0.17573E-08         0.26180E-19         0.00000E+00
    0.17573E-08         0.26077E-19         0.00000E+00
    0.17573E-08         0.22352E-19         0.00000E+00
    0.17573E-08         0.22352E-19         0.00000E+00
    0.17573E-08         0.13039E-19         0.00000E+00
    0.17573E-08         0.16661E-19         0.00000E+00
    0.17573E-08         0.55879E-20         0.00000E+00
    0.17573E-08         0.55879E-20         0.00000E+00
    0.17573E-08         0.18523E-19         0.00000E+00
    0.17573E-08         0.16764E-19         0.00000E+00
    0.17573E-08         0.94163E-20         0.00000E+00
    0.17573E-08        -0.36222E-20         0.00000E+00
    0.17573E-08        -0.56911E-20         0.00000E+00
    0.17573E-08        -0.39315E-20         0.00000E+00
    0.20870E-08        -0.37253E-20         0.00000E+00
    0.20870E-08        -0.65902E-20         0.00000E+00
    0.20870E-08        -0.11176E-19         0.00000E+00
    0.20870E-08        -0.64483E-20         0.00000E+00
    0.20870E-08         0.64483E-20         0.00000E+00
    0.20870E-08         0.13899E-19         0.00000E+00
    0.20870E-08         0.47275E-20         0.00000E+00
    0.20870E-08         0.93132E-20         0.00000E+00
    0.20870E-08         0.12036E-19         0.00000E+00
    0.20870E-08         0.28649E-20         0.00000E+00
    0.20870E-08        -0.55879E-20         0.00000E+00
    0.20870E-08        -0.84528E-20         0.00000E+00
    0.20870E-08        -0.83110E-20         0.00000E+00
    0.20870E-08        -0.45857E-20         0.00000E+00
    0.20870E-08        -0.18626E-20         0.00000E+00
    0.20870E-08        -0.56589E-20         0.00000E+00
    0.20870E-08        -0.70919E-22         0.00000E+00
    0.20870E-08        -0.18626E-20         0.00000E+00
    0.20870E-08        -0.18626E-20         0.00000E+00
    0.20870E-08         0.18697E-19         0.00000E+00
    0.20870E-08         0.20489E-19         0.00000E+00
    0.20870E-08         0.18626E-20         0.00000E+00
    0.20870E-08        -0.74506E-20         0.00000E+00
    0.20870E-08        -0.37962E-20         0.00000E+00
    0.20870E-08         0.37253E-20         0.00000E+00
    0.20870E-08         0.18626E-20         0.00000E+00
    0.20870E-08         0.18626E-20         0.00000E+00
    0.20870E-08         0.74506E-20         0.00000E+00
    0.20870E-08         0.93132E-20         0.00000E+00
    0.20870E-08         0.75215E-20         0.00000E+00
    0.20870E-08         0.74506E-20         0.00000E+00
    0.20870E-08         0.14901E-19         0.00000E+00
    0.20870E-08         0.14901E-19         0.00000E+00
    0.20870E-08         0.18556E-19         0.00000E+00
    0.20870E-08         0.29873E-19         0.00000E+00
    0.20870E-08         0.27940E-19         0.00000E+00
    0.20870E-08         0.22352E-19         0.00000E+00
    0.20870E-08         0.26077E-19         0.00000E+00
    0.20870E-08         0.35319E-19         0.00000E+00
    0.20870E-08         0.24285E-19         0.00000E+00
    0.20870E-08         0.11176E-19         0.00000E+00
    0.20870E-08         0.11105E-19         0.00000E+00
    0.20870E-08         0.56589E-20         0.00000E+00
    0.20870E-08         0.56589E-20         0.00000E+00
    0.20870E-08         0.36544E-20         0.00000E+00
    0.20870E-08         0.18626E-20         0.00000E+00
    0.20870E-08        -0.36544E-20         0.00000E+00
    0.20870E-08         0.36544E-20         0.00000E+00
    0.20870E-08         0.17695E-19         0.00000E+00
    0.20870E-08         0.83819E-20         0.00000E+00
    0.20870E-08         0.35835E-20         0.00000E+00
    0.24789E-08         0.17973E-20         0.00000E+00
    0.24789E-08         0.83819E-20         0.00000E+00
    0.24789E-08         0.74832E-20         0.00000E+00
    0.24789E-08         0.92806E-20         0.00000E+00
    0.24789E-08         0.16731E-19         0.00000E+00
    0.24789E-08         0.14901E-19         0.00000E+00
    0.24789E-08         0.37580E-20         0.00000E+00
    0.24789E-08         0.27940E-20         0.00000E+00
    0.24789E-08         0.93132E-21         0.00000E+00
    0.24789E-08        -0.92806E-20         0.00000E+00
    0.24789E-08        -0.55879E-20         0.00000E+00
    0.24789E-08        -0.74832E-20         0.00000E+00
    0.24789E-08        -0.74832E-20         0.00000E+00
    0.24789E-08        -0.55553E-20         0.00000E+00
    0.24789E-08         0.32667E-22         0.00000E+00
    0.24789E-08         0.14868E-19         0.00000E+00
    0.24789E-08         0.14868E-19         0.00000E+00
    0.24789E-08         0.37253E-20         0.00000E+00
    0.24789E-08         0.00000E+00         0.00000E+00
    0.24789E-08         0.18626E-20         0.00000E+00
    0.24789E-08         0.00000E+00         0.00000E+00
    0.24789E-08        -0.18626E-20         0.00000E+00
    0.24789E-08        -0.55879E-20         0.00000E+00
    0.24789E-08        -0.11143E-19         0.00000E+00
    0.24789E-08        -0.37253E-20         0.00000E+00
    0.24789E-08         0.74506E-20         0.00000E+00
    0.24789E-08         0.93132E-20         0.00000E+00
    0.24789E-08        -0.18953E-20         0.00000E+00
    0.24789E-08        -0.14901E-19         0.00000E+00
    0.24789E-08        -0.13006E-19         0.00000E+00
    0.24789E-08         0.18626E-20         0.00000E+00
    0.24789E-08         0.93132E-20         0.00000E+00
    0.24789E-08         0.20489E-19         0.00000E+00
    0.24789E-08         0.33495E-19         0.00000E+00
    0.24789E-08         0.29802E-19         0.00000E+00
    0.24789E-08         0.42841E-19         0.00000E+00
    0.24789E-08         0.52154E-19         0.00000E+00
    0.24789E-08         0.29802E-19         0.00000E+00
    0.24789E-08         0.13071E-19         0.00000E+00
    0.24789E-08         0.20522E-19         0.00000E+00
    0.24789E-08         0.16764E-19         0.00000E+00
    0.24789E-08         0.36926E-20         0.00000E+00
    0.24789E-08         0.74506E-20         0.00000E+00
    0.24789E-08         0.18659E-19         0.00000E+00
    0.24789E-08         0.22319E-19         0.00000E+00
    0.24789E-08         0.14868E-19         0.00000E+00
    0.24789E-08         0.74832E-20         0.00000E+00
    0.24789E-08        -0.18300E-20         0.00000E+00
    0.24789E-08        -0.12140E-19         0.00000E+00
    0.24789E-08        -0.14003E-19         0.00000E+00
    0.24789E-08        -0.74506E-20         0.00000E+00
    0.29447E-08         0.74250E-20         0.00000E+00
    0.29447E-08        -0.18754E-20         0.00000E+00
    0.29447E-08         0.12776E-22         0.00000E+00
    0.29447E-08         0.56007E-20         0.00000E+00
    0.29447E-08         0.37253E-20         0.00000E+00
    0.29447E-08         0.55879E-20         0.00000E+00
    0.29447E-08         0.27812E-20         0.00000E+00
    0.29447E-08         0.46566E-20         0.00000E+00
    0.29447E-08        -0.18499E-20         0.00000E+00
    0.29447E-08         0.91855E-21         0.00000E+00
    0.29447E-08         0.19545E-19         0.00000E+00
    0.29447E-08         0.16764E-19         0.00000E+00
    0.29447E-08         0.83947E-20         0.00000E+00
    0.29447E-08         0.46566E-20         0.00000E+00
    0.29447E-08        -0.10245E-19         0.00000E+00
    0.29447E-08        -0.13957E-19         0.00000E+00
    0.29447E-08         0.91855E-21         0.00000E+00
    0.29447E-08         0.11176E-19         0.00000E+00
    0.29447E-08         0.13983E-19         0.00000E+00
    0.29447E-08         0.00000E+00         0.00000E+00
    0.29447E-08        -0.18626E-20         0.00000E+00
    0.29447E-08        -0.18626E-20         0.00000E+00
    0.29447E-08        -0.13039E-19         0.00000E+00
    0.29447E-08        -0.18639E-19         0.00000E+00
    0.29447E-08        -0.17695E-19         0.00000E+00
    0.29447E-08        -0.65065E-20         0.00000E+00
    0.29447E-08        -0.37253E-20         0.00000E+00
    0.29447E-08        -0.55879E-20         0.00000E+00
    0.29447E-08        -0.37253E-20         0.00000E+00
    0.29447E-08        -0.37253E-20         0.00000E+00
    0.29447E-08         0.13039E-19         0.00000E+00
    0.29447E-08         0.25133E-19         0.00000E+00
    0.29447E-08         0.39116E-19         0.00000E+00
    0.29447E-08         0.49360E-19         0.00000E+00
    0.29447E-08         0.39116E-19         0.00000E+00
    0.29447E-08         0.18639E-19         0.00000E+00
    0.29447E-08         0.74378E-20         0.00000E+00
    0.29447E-08         0.18499E-20         0.00000E+00
    0.29447E-08         0.37253E-20         0.00000E+00
    0.29447E-08         0.37253E-20         0.00000E+00
    0.29447E-08         0.11189E-19         0.00000E+00
    0.29447E-08         0.20502E-19         0.00000E+00
    0.29447E-08         0.93132E-20         0.00000E+00
    0.29447E-08         0.00000E+00         0.00000E+00
    0.29447E-08        -0.74506E-20         0.00000E+00
    0.29447E-08        -0.74506E-20         0.00000E+00
    0.29447E-08        -0.74506E-20         0.00000E+00
    0.29447E-08        -0.28067E-20         0.00000E+00
    0.29447E-08         0.46438E-20         0.00000E+00
    0.29447E-08         0.37381E-20         0.00000E+00
    0.29447E-08         0.25551E-22         0.00000E+00
    0.34984E-08         0.37253E-20         0.00000E+00
    0.34984E-08         0.74506E-20         0.00000E+00
    0.34984E-08         0.64525E-20         0.00000E+00
    0.34984E-08         0.27940E-20         0.00000E+00
    0.34984E-08        -0.36585E-20         0.00000E+00
    0.34984E-08        -0.11176E-19         0.00000E+00
    0.34984E-08        -0.16764E-19         0.00000E+00
    0.34984E-08        -0.18626E-19         0.00000E+00
    0.34984E-08        -0.13039E-19         0.00000E+00
    0.34984E-08        -0.37253E-20         0.00000E+00
    0.34984E-08        -0.74506E-20         0.00000E+00
    0.34984E-08        -0.66764E-22         0.00000E+00
    0.34984E-08         0.11109E-19         0.00000E+00
    0.34984E-08         0.37253E-20         0.00000E+00
    0.34984E-08         0.28607E-20         0.00000E+00
    0.34984E-08         0.99809E-21         0.00000E+00
    0.34984E-08         0.00000E+00         0.00000E+00
    0.34984E-08         0.74506E-20         0.00000E+00
    0.34984E-08        -0.37253E-20         0.00000E+00
    0.34984E-08        -0.11176E-19         0.00000E+00
    0.34984E-08        -0.93132E-20         0.00000E+00
    0.34984E-08        -0.16764E-19         0.00000E+00
    0.34984E-08        -0.20489E-19         0.00000E+00
    0.34984E-08        -0.93132E-20         0.00000E+00
    0.34984E-08        -0.93132E-20         0.00000E+00
    0.34984E-08        -0.18626E-19         0.00000E+00
    0.34984E-08        -0.18626E-19         0.00000E+00
    0.34984E-08        -0.13039E-19         0.00000E+00
    0.34984E-08        -0.11176E-19         0.00000E+00
    0.34984E-08        -0.55879E-20         0.00000E+00
    0.34984E-08        -0.18626E-20         0.00000E+00
    0.34984E-08         0.64525E-20         0.00000E+00
    0.34984E-08         0.17695E-19         0.00000E+00
    0.34984E-08         0.16831E-19         0.00000E+00
    0.34984E-08         0.14901E-19         0.00000E+00
    0.34984E-08         0.20489E-19         0.00000E+00
    0.34984E-08         0.22352E-19         0.00000E+00
    0.34984E-08         0.13039E-19         0.00000E+00
    0.34984E-08         0.74506E-20         0.00000E+00
    0.34984E-08         0.14834E-19         0.00000E+00
    0.34984E-08         0.13039E-19         0.00000E+00
    0.34984E-08         0.11176E-19         0.00000E+00
    0.34984E-08         0.11109E-19         0.00000E+00
    0.34984E-08        -0.74506E-20         0.00000E+00
    0.34984E-08        -0.92465E-20         0.00000E+00
    0.34984E-08        -0.55212E-20         0.00000E+00
    0.34984E-08        -0.22419E-19         0.00000E+00
    0.34984E-08        -0.27008E-19         0.00000E+00
    0.34984E-08        -0.15766E-19         0.00000E+00
    0.34984E-08        -0.36585E-20         0.00000E+00
    0.34984E-08         0.13353E-21         0.00000E+00
    0.41564E-08        -0.74506E-20         0.00000E+00
    0.41564E-08        -0.37253E-20         0.00000E+00
    0.41564E-08         0.74506E-20         0.00000E+00
    0.41564E-08         0.55879E-20         0.00000E+00
    0.41564E-08        -0.74506E-20         0.00000E+00
    0.41564E-08        -0.75815E-20         0.00000E+00
    0.41564E-08        -0.74506E-20         0.00000E+00
    0.41564E-08        -0.11176E-19         0.00000E+00
    0.41564E-08        -0.11176E-19         0.00000E+00
    0.41564E-08         0.19936E-20         0.00000E+00
    0.41564E-08         0.14901E-19         0.00000E+00
    0.41564E-08         0.74506E-20         0.00000E+00
    0.41564E-08         0.18626E-20         0.00000E+00
    0.41564E-08         0.45257E-20         0.00000E+00
    0.41564E-08        -0.37253E-20         0.00000E+00
    0.41564E-08        -0.45257E-20         0.00000E+00
    0.41564E-08        -0.75815E-20         0.00000E+00
    0.41564E-08        -0.15832E-19         0.00000E+00
    0.41564E-08        -0.23152E-19         0.00000E+00
    0.41564E-08        -0.22352E-19         0.00000E+00
    0.41564E-08        -0.22352E-19         0.00000E+00
    0.41564E-08        -0.14901E-19         0.00000E+00
    0.41564E-08        -0.14901E-19         0.00000E+00
    0.41564E-08        -0.27940E-19         0.00000E+00
    0.41564E-08        -0.37253E-19         0.00000E+00
    0.41564E-08        -0.31796E-19         0.00000E+00
    0.41564E-08        -0.17695E-19         0.00000E+00
    0.41564E-08        -0.23152E-19         0.00000E+00
    0.41564E-08        -0.20489E-19         0.00000E+00
    0.41564E-08        -0.74506E-20         0.00000E+00
    0.41564E-08         0.74506E-20         0.00000E+00
    0.41564E-08         0.93132E-20         0.00000E+00
    0.41564E-08         0.11176E-19         0.00000E+00
    0.41564E-08         0.22352E-19         0.00000E+00
    0.41564E-08         0.16764E-19         0.00000E+00
    0.41564E-08         0.13039E-19         0.00000E+00
    0.41564E-08         0.18626E-19         0.00000E+00
    0.41564E-08         0.20489E-19         0.00000E+00
    0.41564E-08         0.11176E-19         0.00000E+00
    0.41564E-08         0.55879E-20         0.00000E+00
    0.41564E-08         0.80041E-21         0.00000E+00
    0.41564E-08        -0.66502E-20         0.00000E+00
    0.41564E-08        -0.12908E-19         0.00000E+00
    0.41564E-08        -0.74506E-20         0.00000E+00
    0.41564E-08        -0.14901E-19         0.00000E+00
    0.41564E-08        -0.18626E-19         0.00000E+00
    0.41564E-08        -0.15832E-19         0.00000E+00
    0.41564E-08        -0.12908E-19         0.00000E+00
    0.41564E-08        -0.55879E-20         0.00000E+00
    0.41564E-08         0.13091E-21         0.00000E+00
    0.41564E-08         0.39871E-20         0.00000E+00
    0.49384E-08        -0.41424E-21         0.00000E+00
    0.49384E-08        -0.18626E-20         0.00000E+00
    0.49384E-08        -0.35182E-20         0.00000E+00
    0.49384E-08        -0.18626E-20         0.00000E+00
    0.49384E-08         0.00000E+00         0.00000E+00
    0.49384E-08        -0.37253E-20         0.00000E+00
    0.49384E-08        -0.74506E-20         0.00000E+00
    0.49384E-08        -0.11176E-19         0.00000E+00
    0.49384E-08        -0.11176E-19         0.00000E+00
    0.49384E-08        -0.74506E-20         0.00000E+00
    0.49384E-08         0.00000E+00         0.00000E+00
    0.49384E-08         0.37253E-20         0.00000E+00
    0.49384E-08         0.37253E-20         0.00000E+00
    0.49384E-08         0.11176E-19         0.00000E+00
    0.49384E-08         0.18626E-20         0.00000E+00
    0.49384E-08        -0.37253E-20         0.00000E+00
    0.49384E-08         0.55879E-20         0.00000E+00
    0.49384E-08        -0.55879E-20         0.00000E+00
    0.49384E-08        -0.18626E-19         0.00000E+00
    0.49384E-08        -0.22352E-19         0.00000E+00
    0.49384E-08        -0.20489E-19         0.00000E+00
    0.49384E-08        -0.93132E-20         0.00000E+00
    0.49384E-08        -0.55879E-20         0.00000E+00
    0.49384E-08        -0.57951E-20         0.00000E+00
    0.49384E-08        -0.18626E-19         0.00000E+00
    0.49384E-08        -0.31665E-19         0.00000E+00
    0.49384E-08        -0.32596E-19         0.00000E+00
    0.49384E-08        -0.24939E-19         0.00000E+00
    0.49384E-08        -0.20489E-19         0.00000E+00
    0.49384E-08        -0.22352E-19         0.00000E+00
    0.49384E-08        -0.16764E-19         0.00000E+00
    0.49384E-08        -0.48637E-20         0.00000E+00
    0.49384E-08         0.27940E-20         0.00000E+00
    0.49384E-08         0.57951E-20         0.00000E+00
    0.49384E-08         0.13039E-19         0.00000E+00
    0.49384E-08         0.13039E-19         0.00000E+00
    0.49384E-08         0.74506E-20         0.00000E+00
    0.49384E-08         0.00000E+00         0.00000E+00
    0.49384E-08         0.00000E+00         0.00000E+00
    0.49384E-08         0.00000E+00         0.00000E+00
    0.49384E-08        -0.37253E-20         0.00000E+00
    0.49384E-08        -0.18626E-20         0.00000E+00
    0.49384E-08        -0.55879E-20         0.00000E+00
    0.49384E-08        -0.18626E-19         0.00000E+00
    0.49384E-08        -0.26077E-19         0.00000E+00
    0.49384E-08        -0.29078E-19         0.00000E+00
    0.49384E-08        -0.24214E-19         0.00000E+00
    0.49384E-08        -0.81748E-20         0.00000E+00
    0.49384E-08         0.00000E+00         0.00000E+00
    0.49384E-08        -0.72420E-21         0.00000E+00
    0.49384E-08         0.22769E-20         0.00000E+00
    0.58676E-08         0.00000E+00         0.00000E+00
    0.58676E-08         0.15650E-20         0.00000E+00
    0.58676E-08        -0.55879E-20         0.00000E+00
    0.58676E-08        -0.17695E-19         0.00000E+00
    0.58676E-08        -0.93132E-20         0.00000E+00
    0.58676E-08         0.68169E-20         0.00000E+00
    0.58676E-08         0.11176E-19         0.00000E+00
    0.58676E-08         0.14901E-19         0.00000E+00
    0.58676E-08         0.18626E-20         0.00000E+00
    0.58676E-08        -0.18626E-20         0.00000E+00
    0.58676E-08        -0.37253E-20         0.00000E+00
    0.58676E-08        -0.58856E-20         0.00000E+00
    0.58676E-08         0.58856E-20         0.00000E+00
    0.58676E-08         0.21603E-20         0.00000E+00
    0.58676E-08        -0.29768E-21         0.00000E+00
    0.58676E-08         0.00000E+00         0.00000E+00
    0.58676E-08        -0.11176E-19         0.00000E+00
    0.58676E-08        -0.13039E-19         0.00000E+00
    0.58676E-08        -0.11176E-19         0.00000E+00
    0.58676E-08        -0.16764E-19         0.00000E+00
    0.58676E-08        -0.22352E-19         0.00000E+00
    0.58676E-08        -0.24214E-19         0.00000E+00
    0.58676E-08        -0.26077E-19         0.00000E+00
    0.58676E-08        -0.22649E-19         0.00000E+00
    0.58676E-08        -0.18626E-19         0.00000E+00
    0.58676E-08        -0.29802E-19         0.00000E+00
    0.58676E-08        -0.39116E-19         0.00000E+00
    0.58676E-08        -0.27642E-19         0.00000E+00
    0.58676E-08        -0.13039E-19         0.00000E+00
    0.58676E-08        -0.14901E-19         0.00000E+00
    0.58676E-08        -0.13039E-19         0.00000E+00
    0.58676E-08        -0.93132E-20         0.00000E+00
    0.58676E-08        -0.11176E-19         0.00000E+00
    0.58676E-08        -0.18626E-20         0.00000E+00
    0.58676E-08        -0.55879E-20         0.00000E+00
    0.58676E-08        -0.63365E-21         0.00000E+00
    0.58676E-08         0.13039E-19         0.00000E+00
    0.58676E-08         0.11810E-19         0.00000E+00
    0.58676E-08         0.13039E-19         0.00000E+00
    0.58676E-08         0.14901E-19         0.00000E+00
    0.58676E-08         0.43589E-20         0.00000E+00
    0.58676E-08        -0.27940E-20         0.00000E+00
    0.58676E-08        -0.15650E-20         0.00000E+00
    0.58676E-08        -0.40230E-20         0.00000E+00
    0.58676E-08        -0.12107E-19         0.00000E+00
    0.58676E-08        -0.62216E-20         0.00000E+00
    0.58676E-08        -0.10878E-19         0.00000E+00
    0.58676E-08        -0.22649E-19         0.00000E+00
    0.58676E-08        -0.22016E-19         0.00000E+00
    0.58676E-08         0.33893E-20         0.00000E+00
    0.58676E-08         0.14229E-19         0.00000E+00
    0.69719E-08         0.37253E-20         0.00000E+00
    0.69719E-08         0.74506E-20         0.00000E+00
    0.69719E-08         0.97185E-20         0.00000E+00
    0.69719E-08         0.93132E-20         0.00000E+00
    0.69719E-08        -0.41306E-20         0.00000E+00
    0.69719E-08        -0.93132E-20         0.00000E+00
    0.69719E-08         0.10771E-19         0.00000E+00
    0.69719E-08         0.13970E-19         0.00000E+00
    0.69719E-08         0.87872E-20         0.00000E+00
    0.69719E-08         0.93132E-20         0.00000E+00
    0.69719E-08         0.00000E+00         0.00000E+00
    0.69719E-08        -0.18626E-20         0.00000E+00
    0.69719E-08         0.37253E-20         0.00000E+00
    0.69719E-08         0.42513E-20         0.00000E+00
    0.69719E-08         0.18626E-20         0.00000E+00
    0.69719E-08         0.10245E-19         0.00000E+00
    0.69719E-08         0.00000E+00         0.00000E+00
    0.69719E-08        -0.16359E-19         0.00000E+00
    0.69719E-08        -0.20489E-19         0.00000E+00
    0.69719E-08        -0.22352E-19         0.00000E+00
    0.69719E-08        -0.39116E-19         0.00000E+00
    0.69719E-08        -0.42841E-19         0.00000E+00
    0.69719E-08        -0.18626E-19         0.00000E+00
    0.69719E-08        -0.13039E-19         0.00000E+00
    0.69719E-08        -0.31665E-19         0.00000E+00
    0.69719E-08        -0.37253E-19         0.00000E+00
    0.69719E-08        -0.27940E-19         0.00000E+00
    0.69719E-08        -0.22352E-19         0.00000E+00
    0.69719E-08        -0.18626E-19         0.00000E+00
    0.69719E-08        -0.74506E-20         0.00000E+00
    0.69719E-08         0.00000E+00         0.00000E+00
    0.69719E-08        -0.18626E-20         0.00000E+00
    0.69719E-08        -0.18626E-20         0.00000E+00
    0.69719E-08         0.00000E+00         0.00000E+00
    0.69719E-08        -0.18626E-20         0.00000E+00
    0.69719E-08        -0.93132E-20         0.00000E+00
    0.69719E-08        -0.50619E-20         0.00000E+00
    0.69719E-08        -0.31992E-20         0.00000E+00
    0.69719E-08        -0.23887E-20         0.00000E+00
    0.69719E-08         0.87872E-20         0.00000E+00
    0.69719E-08         0.55879E-20         0.00000E+00
    0.69719E-08         0.74506E-20         0.00000E+00
    0.69719E-08         0.14901E-19         0.00000E+00
    0.69719E-08         0.13039E-19         0.00000E+00
    0.69719E-08         0.18626E-20         0.00000E+00
    0.69719E-08        -0.11176E-19         0.00000E+00
    0.69719E-08        -0.14901E-19         0.00000E+00
    0.69719E-08        -0.93132E-20         0.00000E+00
    0.69719E-08        -0.93132E-20         0.00000E+00
    0.69719E-08        -0.10771E-19         0.00000E+00
    0.69719E-08        -0.66400E-20         0.00000E+00
    0.82841E-08         0.00000E+00         0.00000E+00
    0.82841E-08        -0.18626E-20         0.00000E+00
    0.82841E-08        -0.79837E-20         0.00000E+00
    0.82841E-08        -0.37253E-20         0.00000E+00
    0.82841E-08         0.23958E-20         0.00000E+00
    0.82841E-08         0.74506E-20         0.00000E+00
    0.82841E-08         0.16764E-19         0.00000E+00
    0.82841E-08         0.11176E-19         0.00000E+00
    0.82841E-08        -0.98463E-20         0.00000E+00
    0.82841E-08        -0.16764E-19         0.00000E+00
    0.82841E-08        -0.10643E-19         0.00000E+00
    0.82841E-08        -0.69175E-20         0.00000E+00
    0.82841E-08         0.37253E-20         0.00000E+00
    0.82841E-08         0.87801E-20         0.00000E+00
    0.82841E-08         0.11176E-19         0.00000E+00
    0.82841E-08         0.14901E-19         0.00000E+00
    0.82841E-08        -0.18626E-20         0.00000E+00
    0.82841E-08        -0.18626E-19         0.00000E+00
    0.82841E-08        -0.29802E-19         0.00000E+00
    0.82841E-08        -0.37253E-19         0.00000E+00
    0.82841E-08        -0.22352E-19         0.00000E+00
    0.82841E-08        -0.11176E-19         0.00000E+00
    0.82841E-08        -0.20489E-19         0.00000E+00
    0.82841E-08        -0.24214E-19         0.00000E+00
    0.82841E-08        -0.24214E-19         0.00000E+00
    0.82841E-08        -0.18626E-19         0.00000E+00
    0.82841E-08        -0.13039E-19         0.00000E+00
    0.82841E-08        -0.22352E-19         0.00000E+00
    0.82841E-08        -0.13039E-19         0.00000E+00
    0.82841E-08        -0.37253E-20         0.00000E+00
    0.82841E-08         0.00000E+00         0.00000E+00
    0.82841E-08         0.18626E-20         0.00000E+00
    0.82841E-08        -0.11176E-19         0.00000E+00
    0.82841E-08        -0.69175E-20         0.00000E+00
    0.82841E-08        -0.37253E-20         0.00000E+00
    0.82841E-08        -0.79837E-20         0.00000E+00
    0.82841E-08        -0.74506E-20         0.00000E+00
    0.82841E-08         0.00000E+00         0.00000E+00
    0.82841E-08         0.93132E-20         0.00000E+00
    0.82841E-08         0.00000E+00         0.00000E+00
    0.82841E-08        -0.74506E-20         0.00000E+00
    0.82841E-08        -0.55879E-20         0.00000E+00
    0.82841E-08        -0.61211E-20         0.00000E+00
    0.82841E-08         0.00000E+00         0.00000E+00
    0.82841E-08         0.61211E-20         0.00000E+00
    0.82841E-08         0.13039E-19         0.00000E+00
    0.82841E-08         0.50548E-20         0.00000E+00
    0.82841E-08        -0.19558E-19         0.00000E+00
    0.82841E-08        -0.19025E-19         0.00000E+00
    0.82841E-08        -0.13295E-20         0.00000E+00
    0.82841E-08         0.47915E-20         0.00000E+00
    0.98433E-08        -0.37253E-20         0.00000E+00
    0.98433E-08        -0.93132E-20         0.00000E+00
    0.98433E-08        -0.93132E-20         0.00000E+00
    0.98433E-08        -0.37253E-20         0.00000E+00
    0.98433E-08         0.18626E-20         0.00000E+00
    0.98433E-08         0.37253E-20         0.00000E+00
    0.98433E-08         0.44103E-20         0.00000E+00
    0.98433E-08         0.18626E-20         0.00000E+00
    0.98433E-08        -0.81356E-20         0.00000E+00
    0.98433E-08        -0.13039E-19         0.00000E+00
    0.98433E-08        -0.74506E-20         0.00000E+00
    0.98433E-08         0.00000E+00         0.00000E+00
    0.98433E-08         0.00000E+00         0.00000E+00
    0.98433E-08        -0.44103E-20         0.00000E+00
    0.98433E-08        -0.74506E-20         0.00000E+00
    0.98433E-08        -0.11776E-20         0.00000E+00
    0.98433E-08         0.00000E+00         0.00000E+00
    0.98433E-08         0.37253E-20         0.00000E+00
    0.98433E-08         0.37253E-20         0.00000E+00
    0.98433E-08        -0.93132E-20         0.00000E+00
    0.98433E-08        -0.29802E-19         0.00000E+00
    0.98433E-08        -0.39116E-19         0.00000E+00
    0.98433E-08        -0.20489E-19         0.00000E+00
    0.98433E-08        -0.18626E-19         0.00000E+00
    0.98433E-08        -0.31665E-19         0.00000E+00
    0.98433E-08        -0.31665E-19         0.00000E+00
    0.98433E-08        -0.22352E-19         0.00000E+00
    0.98433E-08        -0.13039E-19         0.00000E+00
    0.98433E-08        -0.11176E-19         0.00000E+00
    0.98433E-08        -0.74506E-20         0.00000E+00
    0.98433E-08         0.37253E-20         0.00000E+00
    0.98433E-08         0.93132E-20         0.00000E+00
    0.98433E-08         0.00000E+00         0.00000E+00
    0.98433E-08        -0.37253E-20         0.00000E+00
    0.98433E-08        -0.37253E-20         0.00000E+00
    0.98433E-08        -0.55879E-20         0.00000E+00
    0.98433E-08        -0.37253E-20         0.00000E+00
    0.98433E-08        -0.11176E-19         0.00000E+00
    0.98433E-08        -0.93132E-20         0.00000E+00
    0.98433E-08         0.37253E-20         0.00000E+00
    0.98433E-08        -0.18626E-20         0.00000E+00
    0.98433E-08        -0.55879E-20         0.00000E+00
    0.98433E-08        -0.11776E-20         0.00000E+00
    0.98433E-08        -0.55879E-20         0.00000E+00
    0.98433E-08        -0.99983E-20         0.00000E+00
    0.98433E-08        -0.62730E-20         0.00000E+00
    0.98433E-08        -0.93132E-21         0.00000E+00
    0.98433E-08         0.16164E-20         0.00000E+00
    0.98433E-08         0.74506E-20         0.00000E+00
    0.98433E-08         0.11861E-19         0.00000E+00
    0.98433E-08         0.88207E-20         0.00000E+00
    0.11696E-07         0.37253E-20         0.00000E+00
    0.11696E-07         0.00000E+00         0.00000E+00
    0.11696E-07        -0.13039E-19         0.00000E+00
    0.11696E-07        -0.14901E-19         0.00000E+00
    0.11696E-07        -0.37911E-20         0.00000E+00
    0.11696E-07        -0.50292E-33         0.00000E+00
    0.11696E-07        -0.73848E-20         0.00000E+00
    0.11696E-07        -0.14967E-19         0.00000E+00
    0.11696E-07        -0.11176E-19         0.00000E+00
    0.11696E-07         0.19284E-20         0.00000E+00
    0.11696E-07         0.55879E-20         0.00000E+00
    0.11696E-07         0.18626E-20         0.00000E+00
    0.11696E-07         0.37253E-20         0.00000E+00
    0.11696E-07         0.37253E-20         0.00000E+00
    0.11696E-07         0.00000E+00         0.00000E+00
    0.11696E-07        -0.37253E-20         0.00000E+00
    0.11696E-07        -0.37253E-20         0.00000E+00
    0.11696E-07        -0.74506E-20         0.00000E+00
    0.11696E-07        -0.13039E-19         0.00000E+00
    0.11696E-07        -0.11176E-19         0.00000E+00
    0.11696E-07        -0.24214E-19         0.00000E+00
    0.11696E-07        -0.37253E-19         0.00000E+00
    0.11696E-07        -0.26077E-19         0.00000E+00
    0.11696E-07        -0.18626E-19         0.00000E+00
    0.11696E-07        -0.27940E-19         0.00000E+00
    0.11696E-07        -0.24214E-19         0.00000E+00
    0.11696E-07        -0.93132E-20         0.00000E+00
    0.11696E-07        -0.55879E-20         0.00000E+00
    0.11696E-07         0.18626E-20         0.00000E+00
    0.11696E-07         0.37253E-20         0.00000E+00
    0.11696E-07         0.18626E-20         0.00000E+00
    0.11696E-07         0.18626E-20         0.00000E+00
    0.11696E-07        -0.18626E-20         0.00000E+00
    0.11696E-07        -0.18626E-20         0.00000E+00
    0.11696E-07         0.00000E+00         0.00000E+00
    0.11696E-07        -0.65774E-22         0.00000E+00
    0.11696E-07         0.93132E-21         0.00000E+00
    0.11696E-07        -0.86555E-21         0.00000E+00
    0.11696E-07        -0.65774E-22         0.00000E+00
    0.11696E-07        -0.13235E-33         0.00000E+00
    0.11696E-07        -0.17969E-20         0.00000E+00
    0.11696E-07        -0.93790E-20         0.00000E+00
    0.11696E-07        -0.14967E-19         0.00000E+00
    0.11696E-07        -0.36595E-20         0.00000E+00
    0.11696E-07         0.56537E-20         0.00000E+00
    0.11696E-07        -0.28597E-20         0.00000E+00
    0.11696E-07        -0.83819E-20         0.00000E+00
    0.11696E-07        -0.12973E-19         0.00000E+00
    0.11696E-07        -0.75164E-20         0.00000E+00
    0.11696E-07         0.36595E-20         0.00000E+00
    0.11696E-07         0.74506E-20         0.00000E+00
    0.13898E-07        -0.34279E-20         0.00000E+00
    0.13898E-07        -0.37253E-20         0.00000E+00
    0.13898E-07        -0.20114E-20         0.00000E+00
    0.13898E-07        -0.38740E-20         0.00000E+00
    0.13898E-07        -0.45079E-20         0.00000E+00
    0.13898E-07        -0.63389E-21         0.00000E+00
    0.13898E-07         0.35766E-20         0.00000E+00
    0.13898E-07         0.35766E-20         0.00000E+00
    0.13898E-07        -0.37253E-20         0.00000E+00
    0.13898E-07         0.00000E+00         0.00000E+00
    0.13898E-07         0.37253E-20         0.00000E+00
    0.13898E-07         0.55879E-20         0.00000E+00
    0.13898E-07         0.37253E-20         0.00000E+00
    0.13898E-07         0.18626E-20         0.00000E+00
    0.13898E-07         0.35766E-20         0.00000E+00
    0.13898E-07        -0.63705E-20         0.00000E+00
    0.13898E-07        -0.19260E-19         0.00000E+00
    0.13898E-07        -0.27940E-19         0.00000E+00
    0.13898E-07        -0.24363E-19         0.00000E+00
    0.13898E-07        -0.16913E-19         0.00000E+00
    0.13898E-07        -0.16764E-19         0.00000E+00
    0.13898E-07        -0.16764E-19         0.00000E+00
    0.13898E-07        -0.13039E-19         0.00000E+00
    0.13898E-07        -0.14901E-19         0.00000E+00
    0.13898E-07        -0.16764E-19         0.00000E+00
    0.13898E-07        -0.13039E-19         0.00000E+00
    0.13898E-07        -0.93132E-20         0.00000E+00
    0.13898E-07        -0.11176E-19         0.00000E+00
    0.13898E-07        -0.93132E-20         0.00000E+00
    0.13898E-07        -0.74506E-20         0.00000E+00
    0.13898E-07        -0.74506E-20         0.00000E+00
    0.13898E-07        -0.74506E-20         0.00000E+00
    0.13898E-07        -0.74506E-20         0.00000E+00
    0.13898E-07        -0.55879E-20         0.00000E+00
    0.13898E-07         0.00000E+00         0.00000E+00
    0.13898E-07         0.15050E-19         0.00000E+00
    0.13898E-07         0.22500E-19         0.00000E+00
    0.13898E-07         0.18626E-19         0.00000E+00
    0.13898E-07         0.91645E-20         0.00000E+00
    0.13898E-07         0.55879E-20         0.00000E+00
    0.13898E-07         0.18626E-20         0.00000E+00
    0.13898E-07        -0.75993E-20         0.00000E+00
    0.13898E-07        -0.18626E-19         0.00000E+00
    0.13898E-07        -0.14901E-19         0.00000E+00
    0.13898E-07        -0.17139E-20         0.00000E+00
    0.13898E-07         0.66157E-34         0.00000E+00
    0.13898E-07        -0.46566E-20         0.00000E+00
    0.13898E-07        -0.13821E-19         0.00000E+00
    0.13898E-07        -0.12405E-19         0.00000E+00
    0.13898E-07         0.18626E-20         0.00000E+00
    0.13898E-07        -0.12678E-20         0.00000E+00
    0.16514E-07        -0.74506E-20         0.00000E+00
    0.16514E-07        -0.55879E-20         0.00000E+00
    0.16514E-07        -0.33217E-20         0.00000E+00
    0.16514E-07        -0.14591E-20         0.00000E+00
    0.16514E-07        -0.55879E-20         0.00000E+00
    0.16514E-07        -0.59915E-20         0.00000E+00
    0.16514E-07        -0.78542E-20         0.00000E+00
    0.16514E-07        -0.14901E-19         0.00000E+00
    0.16514E-07        -0.11176E-19         0.00000E+00
    0.16514E-07         0.00000E+00         0.00000E+00
    0.16514E-07         0.00000E+00         0.00000E+00
    0.16514E-07        -0.37253E-20         0.00000E+00
    0.16514E-07         0.41289E-20         0.00000E+00
    0.16514E-07         0.27940E-20         0.00000E+00
    0.16514E-07        -0.73264E-20         0.00000E+00
    0.16514E-07        -0.46566E-20         0.00000E+00
    0.16514E-07        -0.23904E-20         0.00000E+00
    0.16514E-07        -0.13039E-19         0.00000E+00
    0.16514E-07        -0.12635E-19         0.00000E+00
    0.16514E-07        -0.14901E-19         0.00000E+00
    0.16514E-07        -0.30206E-19         0.00000E+00
    0.16514E-07        -0.33528E-19         0.00000E+00
    0.16514E-07        -0.20489E-19         0.00000E+00
    0.16514E-07        -0.14901E-19         0.00000E+00
    0.16514E-07        -0.22352E-19         0.00000E+00
    0.16514E-07        -0.14901E-19         0.00000E+00
    0.16514E-07         0.18626E-20         0.00000E+00
    0.16514E-07         0.37253E-20         0.00000E+00
    0.16514E-07        -0.18626E-20         0.00000E+00
    0.16514E-07        -0.11176E-19         0.00000E+00
    0.16514E-07        -0.93132E-20         0.00000E+00
    0.16514E-07        -0.37253E-20         0.00000E+00
    0.16514E-07        -0.18626E-20         0.00000E+00
    0.16514E-07         0.37253E-20         0.00000E+00
    0.16514E-07         0.13039E-19         0.00000E+00
    0.16514E-07         0.18626E-19         0.00000E+00
    0.16514E-07         0.93132E-20         0.00000E+00
    0.16514E-07         0.37253E-20         0.00000E+00
    0.16514E-07         0.93132E-20         0.00000E+00
    0.16514E-07         0.59915E-20         0.00000E+00
    0.16514E-07        -0.89096E-20         0.00000E+00
    0.16514E-07        -0.14373E-19         0.00000E+00
    0.16514E-07        -0.31976E-20         0.00000E+00
    0.16514E-07        -0.42530E-20         0.00000E+00
    0.16514E-07        -0.42530E-20         0.00000E+00
    0.16514E-07        -0.74506E-20         0.00000E+00
    0.16514E-07        -0.19961E-19         0.00000E+00
    0.16514E-07        -0.18099E-19         0.00000E+00
    0.16514E-07        -0.74506E-20         0.00000E+00
    0.16514E-07         0.50602E-20         0.00000E+00
    0.16514E-07         0.13846E-19         0.00000E+00
    0.19623E-07         0.70008E-20         0.00000E+00
    0.19623E-07         0.18626E-20         0.00000E+00
    0.19623E-07        -0.53630E-20         0.00000E+00
    0.19623E-07        -0.74506E-20         0.00000E+00
    0.19623E-07        -0.14195E-19         0.00000E+00
    0.19623E-07        -0.19558E-19         0.00000E+00
    0.19623E-07        -0.16764E-19         0.00000E+00
    0.19623E-07        -0.23283E-19         0.00000E+00
    0.19623E-07        -0.21196E-19         0.00000E+00
    0.19623E-07        -0.11176E-19         0.00000E+00
    0.19623E-07         0.25691E-20         0.00000E+00
    0.19623E-07         0.62944E-20         0.00000E+00
    0.19623E-07         0.22490E-21         0.00000E+00
    0.19623E-07        -0.16377E-20         0.00000E+00
    0.19623E-07        -0.74506E-20         0.00000E+00
    0.19623E-07        -0.20489E-19         0.00000E+00
    0.19623E-07        -0.29802E-19         0.00000E+00
    0.19623E-07        -0.20489E-19         0.00000E+00
    0.19623E-07        -0.95381E-20         0.00000E+00
    0.19623E-07        -0.83819E-20         0.00000E+00
    0.19623E-07        -0.23058E-19         0.00000E+00
    0.19623E-07        -0.29802E-19         0.00000E+00
    0.19623E-07        -0.16764E-19         0.00000E+00
    0.19623E-07        -0.55879E-20         0.00000E+00
    0.19623E-07        -0.93132E-20         0.00000E+00
    0.19623E-07        -0.74506E-20         0.00000E+00
    0.19623E-07         0.18626E-20         0.00000E+00
    0.19623E-07         0.93132E-20         0.00000E+00
    0.19623E-07         0.13039E-19         0.00000E+00
    0.19623E-07         0.11176E-19         0.00000E+00
    0.19623E-07         0.11882E-19         0.00000E+00
    0.19623E-07         0.27940E-20         0.00000E+00
    0.19623E-07         0.39502E-20         0.00000E+00
    0.19623E-07         0.13745E-19         0.00000E+00
    0.19623E-07         0.11176E-19         0.00000E+00
    0.19623E-07         0.83819E-20         0.00000E+00
    0.19623E-07         0.12107E-19         0.00000E+00
    0.19623E-07         0.12332E-19         0.00000E+00
    0.19623E-07         0.37253E-20         0.00000E+00
    0.19623E-07        -0.22490E-21         0.00000E+00
    0.19623E-07        -0.95381E-20         0.00000E+00
    0.19623E-07        -0.25852E-19         0.00000E+00
    0.19623E-07        -0.20264E-19         0.00000E+00
    0.19623E-07        -0.18626E-20         0.00000E+00
    0.19623E-07        -0.30189E-20         0.00000E+00
    0.19623E-07        -0.13039E-19         0.00000E+00
    0.19623E-07        -0.55879E-20         0.00000E+00
    0.19623E-07        -0.65193E-20         0.00000E+00
    0.19623E-07        -0.10951E-19         0.00000E+00
    0.19623E-07        -0.39502E-20         0.00000E+00
    0.19623E-07        -0.41751E-20         0.00000E+00
    0.23317E-07        -0.53180E-20         0.00000E+00
    0.23317E-07         0.47916E-20         0.00000E+00
    0.23317E-07         0.11176E-19         0.00000E+00
    0.23317E-07        -0.37253E-20         0.00000E+00
    0.23317E-07        -0.18626E-19         0.00000E+00
    0.23317E-07        -0.21555E-19         0.00000E+00
    0.23317E-07        -0.11176E-19         0.00000E+00
    0.23317E-07        -0.13039E-19         0.00000E+00
    0.23317E-07        -0.18626E-19         0.00000E+00
    0.23317E-07        -0.11176E-19         0.00000E+00
    0.23317E-07        -0.11176E-19         0.00000E+00
    0.23317E-07        -0.74506E-20         0.00000E+00
    0.23317E-07        -0.85169E-20         0.00000E+00
    0.23317E-07        -0.18626E-20         0.00000E+00
    0.23317E-07         0.18626E-20         0.00000E+00
    0.23317E-07        -0.63843E-20         0.00000E+00
    0.23317E-07        -0.55879E-20         0.00000E+00
    0.23317E-07        -0.74506E-20         0.00000E+00
    0.23317E-07        -0.11176E-19         0.00000E+00
    0.23317E-07        -0.15967E-19         0.00000E+00
    0.23317E-07        -0.26077E-19         0.00000E+00
    0.23317E-07        -0.24214E-19         0.00000E+00
    0.23317E-07        -0.11176E-19         0.00000E+00
    0.23317E-07        -0.55879E-20         0.00000E+00
    0.23317E-07        -0.11176E-19         0.00000E+00
    0.23317E-07        -0.13039E-19         0.00000E+00
    0.23317E-07         0.00000E+00         0.00000E+00
    0.23317E-07         0.74506E-20         0.00000E+00
    0.23317E-07         0.93132E-20         0.00000E+00
    0.23317E-07         0.00000E+00         0.00000E+00
    0.23317E-07        -0.55879E-20         0.00000E+00
    0.23317E-07         0.18626E-20         0.00000E+00
    0.23317E-07         0.12242E-19         0.00000E+00
    0.23317E-07         0.16764E-19         0.00000E+00
    0.23317E-07         0.15698E-19         0.00000E+00
    0.23317E-07         0.18626E-19         0.00000E+00
    0.23317E-07         0.16764E-19         0.00000E+00
    0.23317E-07         0.14105E-19         0.00000E+00
    0.23317E-07         0.93132E-20         0.00000E+00
    0.23317E-07         0.55879E-20         0.00000E+00
    0.23317E-07         0.18626E-20         0.00000E+00
    0.23317E-07        -0.93132E-20         0.00000E+00
    0.23317E-07        -0.16764E-19         0.00000E+00
    0.23317E-07        -0.11176E-19         0.00000E+00
    0.23317E-07        -0.45217E-20         0.00000E+00
    0.23317E-07        -0.66542E-20         0.00000E+00
    0.23317E-07        -0.14901E-19         0.00000E+00
    0.23317E-07        -0.18626E-19         0.00000E+00
    0.23317E-07        -0.85169E-20         0.00000E+00
    0.23317E-07         0.29289E-20         0.00000E+00
    0.23317E-07         0.58579E-20         0.00000E+00
    0.27706E-07         0.73753E-21         0.00000E+00
    0.27706E-07        -0.93132E-21         0.00000E+00
    0.27706E-07         0.56256E-21         0.00000E+00
    0.27706E-07        -0.13601E-19         0.00000E+00
    0.27706E-07        -0.24214E-19         0.00000E+00
    0.27706E-07        -0.12476E-19         0.00000E+00
    0.27706E-07        -0.16395E-19         0.00000E+00
    0.27706E-07        -0.21983E-19         0.00000E+00
    0.27706E-07        -0.12476E-19         0.00000E+00
    0.27706E-07         0.93132E-21         0.00000E+00
    0.27706E-07        -0.14939E-20         0.00000E+00
    0.27706E-07         0.24252E-20         0.00000E+00
    0.27706E-07         0.65193E-20         0.00000E+00
    0.27706E-07        -0.89445E-20         0.00000E+00
    0.27706E-07        -0.14901E-19         0.00000E+00
    0.27706E-07        -0.11545E-19         0.00000E+00
    0.27706E-07        -0.13039E-19         0.00000E+00
    0.27706E-07        -0.20489E-19         0.00000E+00
    0.27706E-07        -0.11176E-19         0.00000E+00
    0.27706E-07        -0.16395E-19         0.00000E+00
    0.27706E-07        -0.22352E-19         0.00000E+00
    0.27706E-07        -0.24214E-19         0.00000E+00
    0.27706E-07        -0.16764E-19         0.00000E+00
    0.27706E-07        -0.74506E-20         0.00000E+00
    0.27706E-07        -0.31627E-20         0.00000E+00
    0.27706E-07        -0.55879E-20         0.00000E+00
    0.27706E-07        -0.42878E-20         0.00000E+00
    0.27706E-07        -0.74506E-20         0.00000E+00
    0.27706E-07        -0.37253E-20         0.00000E+00
    0.27706E-07         0.37253E-20         0.00000E+00
    0.27706E-07         0.74506E-20         0.00000E+00
    0.27706E-07         0.13039E-19         0.00000E+00
    0.27706E-07         0.15464E-19         0.00000E+00
    0.27706E-07         0.15832E-19         0.00000E+00
    0.27706E-07         0.20489E-19         0.00000E+00
    0.27706E-07         0.21614E-19         0.00000E+00
    0.27706E-07         0.14339E-19         0.00000E+00
    0.27706E-07         0.12476E-19         0.00000E+00
    0.27706E-07         0.10807E-19         0.00000E+00
    0.27706E-07         0.11176E-19         0.00000E+00
    0.27706E-07         0.55879E-20         0.00000E+00
    0.27706E-07        -0.74506E-20         0.00000E+00
    0.27706E-07        -0.16764E-19         0.00000E+00
    0.27706E-07        -0.14901E-19         0.00000E+00
    0.27706E-07        -0.13039E-19         0.00000E+00
    0.27706E-07        -0.14901E-19         0.00000E+00
    0.27706E-07        -0.14901E-19         0.00000E+00
    0.27706E-07        -0.22352E-19         0.00000E+00
    0.27706E-07        -0.24214E-19         0.00000E+00
    0.27706E-07        -0.93132E-20         0.00000E+00
    0.27706E-07         0.37253E-20         0.00000E+00
    0.32922E-07        -0.37253E-20         0.00000E+00
    0.32922E-07        -0.10706E-20         0.00000E+00
    0.32922E-07         0.79200E-21         0.00000E+00
    0.32922E-07        -0.11176E-19         0.00000E+00
    0.32922E-07        -0.23144E-19         0.00000E+00
    0.32922E-07        -0.17556E-19         0.00000E+00
    0.32922E-07        -0.47959E-20         0.00000E+00
    0.32922E-07        -0.93132E-20         0.00000E+00
    0.32922E-07        -0.20489E-19         0.00000E+00
    0.32922E-07        -0.19697E-19         0.00000E+00
    0.32922E-07        -0.17556E-19         0.00000E+00
    0.32922E-07        -0.13039E-19         0.00000E+00
    0.32922E-07        -0.47959E-20         0.00000E+00
    0.32922E-07        -0.10706E-20         0.00000E+00
    0.32922E-07        -0.93132E-20         0.00000E+00
    0.32922E-07        -0.16485E-19         0.00000E+00
    0.32922E-07        -0.11968E-19         0.00000E+00
    0.32922E-07        -0.93132E-20         0.00000E+00
    0.32922E-07        -0.11968E-19         0.00000E+00
    0.32922E-07        -0.15040E-19         0.00000E+00
    0.32922E-07        -0.33667E-19         0.00000E+00
    0.32922E-07        -0.35390E-19         0.00000E+00
    0.32922E-07        -0.20489E-19         0.00000E+00
    0.32922E-07        -0.14901E-19         0.00000E+00
    0.32922E-07        -0.20489E-19         0.00000E+00
    0.32922E-07        -0.37253E-20         0.00000E+00
    0.32922E-07         0.11968E-19         0.00000E+00
    0.32922E-07         0.18626E-20         0.00000E+00
    0.32922E-07         0.18626E-20         0.00000E+00
    0.32922E-07         0.55879E-20         0.00000E+00
    0.32922E-07         0.66586E-20         0.00000E+00
    0.32922E-07         0.37253E-20         0.00000E+00
    0.32922E-07         0.82426E-20         0.00000E+00
    0.32922E-07         0.14901E-19         0.00000E+00
    0.32922E-07         0.11315E-19         0.00000E+00
    0.32922E-07         0.57273E-20         0.00000E+00
    0.32922E-07         0.14762E-19         0.00000E+00
    0.32922E-07         0.19558E-19         0.00000E+00
    0.32922E-07         0.12247E-19         0.00000E+00
    0.32922E-07         0.18626E-20         0.00000E+00
    0.32922E-07        -0.11315E-19         0.00000E+00
    0.32922E-07        -0.15832E-19         0.00000E+00
    0.32922E-07        -0.93132E-20         0.00000E+00
    0.32922E-07        -0.29333E-20         0.00000E+00
    0.32922E-07         0.13932E-21         0.00000E+00
    0.32922E-07        -0.17233E-20         0.00000E+00
    0.32922E-07        -0.38646E-20         0.00000E+00
    0.32922E-07        -0.65193E-20         0.00000E+00
    0.32922E-07        -0.79200E-21         0.00000E+00
    0.32922E-07         0.66586E-20         0.00000E+00
    0.32922E-07         0.58666E-20         0.00000E+00
    0.39119E-07        -0.37253E-20         0.00000E+00
    0.39119E-07         0.29822E-20         0.00000E+00
    0.39119E-07         0.55879E-20         0.00000E+00
    0.39119E-07        -0.11196E-20         0.00000E+00
    0.39119E-07        -0.37253E-20         0.00000E+00
    0.39119E-07        -0.10056E-19         0.00000E+00
    0.39119E-07        -0.17507E-19         0.00000E+00
    0.39119E-07        -0.14158E-19         0.00000E+00
    0.39119E-07        -0.17883E-19         0.00000E+00
    0.39119E-07        -0.21232E-19         0.00000E+00
    0.39119E-07        -0.17507E-19         0.00000E+00
    0.39119E-07        -0.19746E-19         0.00000E+00
    0.39119E-07        -0.17883E-19         0.00000E+00
    0.39119E-07        -0.14901E-19         0.00000E+00
    0.39119E-07        -0.13782E-19         0.00000E+00
    0.39119E-07        -0.11919E-19         0.00000E+00
    0.39119E-07        -0.37253E-20         0.00000E+00
    0.39119E-07        -0.18826E-21         0.00000E+00
    0.39119E-07        -0.95015E-20         0.00000E+00
    0.39119E-07        -0.17507E-19         0.00000E+00
    0.39119E-07        -0.25146E-19         0.00000E+00
    0.39119E-07        -0.24403E-19         0.00000E+00
    0.39119E-07        -0.23095E-19         0.00000E+00
    0.39119E-07        -0.23095E-19         0.00000E+00
    0.39119E-07        -0.20677E-19         0.00000E+00
    0.39119E-07        -0.18626E-20         0.00000E+00
    0.39119E-07         0.20509E-20         0.00000E+00
    0.39119E-07        -0.18626E-20         0.00000E+00
    0.39119E-07         0.74307E-21         0.00000E+00
    0.39119E-07        -0.27940E-20         0.00000E+00
    0.39119E-07        -0.72623E-20         0.00000E+00
    0.39119E-07        -0.55879E-20         0.00000E+00
    0.39119E-07        -0.74506E-20         0.00000E+00
    0.39119E-07        -0.85702E-20         0.00000E+00
    0.39119E-07         0.26057E-20         0.00000E+00
    0.39119E-07         0.74506E-20         0.00000E+00
    0.39119E-07         0.39135E-20         0.00000E+00
    0.39119E-07         0.39135E-20         0.00000E+00
    0.39119E-07         0.93132E-20         0.00000E+00
    0.39119E-07         0.72623E-20         0.00000E+00
    0.39119E-07        -0.35735E-33         0.00000E+00
    0.39119E-07         0.93132E-21         0.00000E+00
    0.39119E-07        -0.29822E-20         0.00000E+00
    0.39119E-07        -0.55879E-20         0.00000E+00
    0.39119E-07        -0.18626E-20         0.00000E+00
    0.39119E-07         0.11196E-20         0.00000E+00
    0.39119E-07         0.57762E-20         0.00000E+00
    0.39119E-07        -0.18626E-20         0.00000E+00
    0.39119E-07        -0.20509E-20         0.00000E+00
    0.39119E-07         0.14861E-20         0.00000E+00
    0.39119E-07         0.70741E-20         0.00000E+00
    0.46483E-07        -0.37253E-20         0.00000E+00
    0.46483E-07         0.55879E-20         0.00000E+00
    0.46483E-07         0.97154E-20         0.00000E+00
    0.46483E-07        -0.18626E-20         0.00000E+00
    0.46483E-07        -0.15303E-19         0.00000E+00
    0.46483E-07        -0.93132E-20         0.00000E+00
    0.46483E-07        -0.74506E-20         0.00000E+00
    0.46483E-07        -0.18626E-19         0.00000E+00
    0.46483E-07        -0.14499E-19         0.00000E+00
    0.46483E-07        -0.70484E-20         0.00000E+00
    0.46483E-07        -0.59901E-20         0.00000E+00
    0.46483E-07        -0.93132E-20         0.00000E+00
    0.46483E-07        -0.11176E-19         0.00000E+00
    0.46483E-07        -0.13039E-19         0.00000E+00
    0.46483E-07        -0.16362E-19         0.00000E+00
    0.46483E-07        -0.16764E-19         0.00000E+00
    0.46483E-07        -0.20891E-19         0.00000E+00
    0.46483E-07        -0.29802E-19         0.00000E+00
    0.46483E-07        -0.19960E-19         0.00000E+00
    0.46483E-07        -0.10245E-19         0.00000E+00
    0.46483E-07        -0.23410E-19         0.00000E+00
    0.46483E-07        -0.24214E-19         0.00000E+00
    0.46483E-07        -0.12509E-19         0.00000E+00
    0.46483E-07        -0.12107E-19         0.00000E+00
    0.46483E-07        -0.15832E-19         0.00000E+00
    0.46483E-07        -0.55879E-20         0.00000E+00
    0.46483E-07         0.93132E-21         0.00000E+00
    0.46483E-07         0.14605E-20         0.00000E+00
    0.46483E-07         0.00000E+00         0.00000E+00
    0.46483E-07        -0.23918E-20         0.00000E+00
    0.46483E-07        -0.97154E-20         0.00000E+00
    0.46483E-07        -0.14901E-19         0.00000E+00
    0.46483E-07        -0.11303E-19         0.00000E+00
    0.46483E-07        -0.40218E-21         0.00000E+00
    0.46483E-07         0.33231E-20         0.00000E+00
    0.46483E-07         0.18626E-20         0.00000E+00
    0.46483E-07         0.37253E-20         0.00000E+00
    0.46483E-07        -0.51858E-20         0.00000E+00
    0.46483E-07        -0.93132E-20         0.00000E+00
    0.46483E-07        -0.40218E-21         0.00000E+00
    0.46483E-07        -0.18626E-20         0.00000E+00
    0.46483E-07        -0.89110E-20         0.00000E+00
    0.46483E-07        -0.89110E-20         0.00000E+00
    0.46483E-07        -0.63923E-20         0.00000E+00
    0.46483E-07        -0.59901E-20         0.00000E+00
    0.46483E-07        -0.14605E-20         0.00000E+00
    0.46483E-07        -0.37253E-20         0.00000E+00
    0.46483E-07        -0.55879E-20         0.00000E+00
    0.46483E-07         0.41275E-20         0.00000E+00
    0.46483E-07         0.11176E-19         0.00000E+00
    0.46483E-07         0.10372E-19         0.00000E+00
    0.55234E-07        -0.74506E-20         0.00000E+00
    0.55234E-07        -0.37253E-20         0.00000E+00
    0.55234E-07         0.00000E+00         0.00000E+00
    0.55234E-07        -0.93132E-20         0.00000E+00
    0.55234E-07        -0.55879E-20         0.00000E+00
    0.55234E-07         0.18626E-20         0.00000E+00
    0.55234E-07        -0.74506E-20         0.00000E+00
    0.55234E-07        -0.97635E-20         0.00000E+00
    0.55234E-07        -0.14901E-19         0.00000E+00
    0.55234E-07        -0.70003E-20         0.00000E+00
    0.55234E-07         0.13816E-20         0.00000E+00
    0.55234E-07         0.27940E-20         0.00000E+00
    0.55234E-07        -0.18626E-20         0.00000E+00
    0.55234E-07        -0.11626E-19         0.00000E+00
    0.55234E-07        -0.19527E-19         0.00000E+00
    0.55234E-07        -0.22833E-19         0.00000E+00
    0.55234E-07        -0.18626E-19         0.00000E+00
    0.55234E-07        -0.16314E-19         0.00000E+00
    0.55234E-07        -0.20970E-19         0.00000E+00
    0.55234E-07        -0.20458E-19         0.00000E+00
    0.55234E-07        -0.20008E-19         0.00000E+00
    0.55234E-07        -0.17245E-19         0.00000E+00
    0.55234E-07        -0.15382E-19         0.00000E+00
    0.55234E-07        -0.13039E-19         0.00000E+00
    0.55234E-07        -0.93132E-20         0.00000E+00
    0.55234E-07        -0.88322E-20         0.00000E+00
    0.55234E-07        -0.74506E-20         0.00000E+00
    0.55234E-07        -0.93132E-20         0.00000E+00
    0.55234E-07        -0.51069E-20         0.00000E+00
    0.55234E-07         0.18626E-20         0.00000E+00
    0.55234E-07         0.13816E-20         0.00000E+00
    0.55234E-07         0.46324E-33         0.00000E+00
    0.55234E-07         0.18626E-20         0.00000E+00
    0.55234E-07         0.55879E-20         0.00000E+00
    0.55234E-07         0.00000E+00         0.00000E+00
    0.55234E-07        -0.97943E-20         0.00000E+00
    0.55234E-07        -0.93132E-20         0.00000E+00
    0.55234E-07        -0.42063E-20         0.00000E+00
    0.55234E-07        -0.18626E-20         0.00000E+00
    0.55234E-07        -0.32442E-20         0.00000E+00
    0.55234E-07        -0.69695E-20         0.00000E+00
    0.55234E-07        -0.14901E-19         0.00000E+00
    0.55234E-07        -0.20489E-19         0.00000E+00
    0.55234E-07        -0.14901E-19         0.00000E+00
    0.55234E-07        -0.42063E-20         0.00000E+00
    0.55234E-07        -0.37253E-20         0.00000E+00
    0.55234E-07        -0.37253E-20         0.00000E+00
    0.55234E-07        -0.74506E-20         0.00000E+00
    0.55234E-07        -0.55879E-20         0.00000E+00
    0.55234E-07         0.74506E-20         0.00000E+00
    0.55234E-07         0.11176E-19         0.00000E+00
    0.65632E-07         0.00000E+00         0.00000E+00
    0.65632E-07         0.74506E-20         0.00000E+00
    0.65632E-07         0.11176E-19         0.00000E+00
    0.65632E-07         0.37253E-20         0.00000E+00
    0.65632E-07        -0.70511E-20         0.00000E+00
    0.65632E-07        -0.93132E-20         0.00000E+00
    0.65632E-07        -0.11575E-19         0.00000E+00
    0.65632E-07        -0.14502E-19         0.00000E+00
    0.65632E-07        -0.74506E-20         0.00000E+00
    0.65632E-07        -0.41247E-20         0.00000E+00
    0.65632E-07        -0.14632E-20         0.00000E+00
    0.65632E-07        -0.78500E-20         0.00000E+00
    0.65632E-07        -0.13438E-19         0.00000E+00
    0.65632E-07        -0.10377E-19         0.00000E+00
    0.65632E-07        -0.14502E-19         0.00000E+00
    0.65632E-07        -0.17563E-19         0.00000E+00
    0.65632E-07        -0.20489E-19         0.00000E+00
    0.65632E-07        -0.25146E-19         0.00000E+00
    0.65632E-07        -0.25945E-19         0.00000E+00
    0.65632E-07        -0.20090E-19         0.00000E+00
    0.65632E-07        -0.27540E-19         0.00000E+00
    0.65632E-07        -0.29802E-19         0.00000E+00
    0.65632E-07        -0.12639E-19         0.00000E+00
    0.65632E-07        -0.89138E-20         0.00000E+00
    0.65632E-07        -0.15700E-19         0.00000E+00
    0.65632E-07        -0.11176E-19         0.00000E+00
    0.65632E-07        -0.70511E-20         0.00000E+00
    0.65632E-07        -0.13438E-19         0.00000E+00
    0.65632E-07        -0.11575E-19         0.00000E+00
    0.65632E-07        -0.89138E-20         0.00000E+00
    0.65632E-07        -0.85143E-20         0.00000E+00
    0.65632E-07         0.00000E+00         0.00000E+00
    0.65632E-07         0.66517E-20         0.00000E+00
    0.65632E-07         0.11176E-19         0.00000E+00
    0.65632E-07         0.59874E-20         0.00000E+00
    0.65632E-07        -0.79891E-21         0.00000E+00
    0.65632E-07        -0.37253E-20         0.00000E+00
    0.65632E-07        -0.51885E-20         0.00000E+00
    0.65632E-07        -0.37253E-20         0.00000E+00
    0.65632E-07         0.14632E-20         0.00000E+00
    0.65632E-07        -0.37253E-20         0.00000E+00
    0.65632E-07        -0.89138E-20         0.00000E+00
    0.65632E-07        -0.10644E-19         0.00000E+00
    0.65632E-07        -0.37253E-20         0.00000E+00
    0.65632E-07         0.31934E-20         0.00000E+00
    0.65632E-07         0.79824E-20         0.00000E+00
    0.65632E-07         0.79824E-20         0.00000E+00
    0.65632E-07        -0.29264E-20         0.00000E+00
    0.65632E-07        -0.14632E-20         0.00000E+00
    0.65632E-07         0.19951E-20         0.00000E+00
    0.65632E-07         0.47890E-20         0.00000E+00
    0.77987E-07        -0.74506E-20         0.00000E+00
    0.77987E-07         0.18626E-20         0.00000E+00
    0.77987E-07         0.11176E-19         0.00000E+00
    0.77987E-07         0.00000E+00         0.00000E+00
    0.77987E-07        -0.63921E-20         0.00000E+00
    0.77987E-07        -0.38525E-20         0.00000E+00
    0.77987E-07        -0.30483E-20         0.00000E+00
    0.77987E-07        -0.82547E-20         0.00000E+00
    0.77987E-07        -0.23156E-19         0.00000E+00
    0.77987E-07        -0.18626E-19         0.00000E+00
    0.77987E-07        -0.93132E-20         0.00000E+00
    0.77987E-07        -0.82547E-20         0.00000E+00
    0.77987E-07        -0.10117E-19         0.00000E+00
    0.77987E-07        -0.13039E-19         0.00000E+00
    0.77987E-07        -0.24214E-19         0.00000E+00
    0.77987E-07        -0.26077E-19         0.00000E+00
    0.77987E-07        -0.15960E-19         0.00000E+00
    0.77987E-07        -0.17949E-19         0.00000E+00
    0.77987E-07        -0.22479E-19         0.00000E+00
    0.77987E-07        -0.24214E-19         0.00000E+00
    0.77987E-07        -0.19303E-19         0.00000E+00
    0.77987E-07        -0.25950E-19         0.00000E+00
    0.77987E-07        -0.25273E-19         0.00000E+00
    0.77987E-07        -0.17568E-19         0.00000E+00
    0.77987E-07        -0.14097E-19         0.00000E+00
    0.77987E-07        -0.66464E-20         0.00000E+00
    0.77987E-07         0.47838E-20         0.00000E+00
    0.77987E-07         0.37253E-20         0.00000E+00
    0.77987E-07        -0.45294E-20         0.00000E+00
    0.77987E-07        -0.10117E-19         0.00000E+00
    0.77987E-07        -0.74506E-20         0.00000E+00
    0.77987E-07         0.00000E+00         0.00000E+00
    0.77987E-07         0.37253E-20         0.00000E+00
    0.77987E-07         0.80415E-21         0.00000E+00
    0.77987E-07         0.80415E-21         0.00000E+00
    0.77987E-07        -0.47838E-20         0.00000E+00
    0.77987E-07        -0.74506E-20         0.00000E+00
    0.77987E-07        -0.45294E-20         0.00000E+00
    0.77987E-07         0.26668E-20         0.00000E+00
    0.77987E-07         0.13843E-19         0.00000E+00
    0.77987E-07         0.10585E-20         0.00000E+00
    0.77987E-07        -0.14647E-19         0.00000E+00
    0.77987E-07        -0.65193E-20         0.00000E+00
    0.77987E-07         0.35981E-20         0.00000E+00
    0.77987E-07         0.74506E-20         0.00000E+00
    0.77987E-07         0.37253E-20         0.00000E+00
    0.77987E-07         0.18626E-20         0.00000E+00
    0.77987E-07         0.37253E-20         0.00000E+00
    0.77987E-07         0.37253E-20         0.00000E+00
    0.77987E-07         0.54608E-20         0.00000E+00
    0.77987E-07         0.34710E-20         0.00000E+00
    0.92669E-07        -0.37253E-20         0.00000E+00
    0.92669E-07         0.00000E+00         0.00000E+00
    0.92669E-07         0.96849E-20         0.00000E+00
    0.92669E-07         0.78223E-20         0.00000E+00
    0.92669E-07        -0.91253E-20         0.00000E+00
    0.92669E-07        -0.91253E-20         0.00000E+00
    0.92669E-07        -0.14909E-20         0.00000E+00
    0.92669E-07        -0.52162E-20         0.00000E+00
    0.92669E-07        -0.37253E-20         0.00000E+00
    0.92669E-07        -0.33536E-20         0.00000E+00
    0.92669E-07        -0.10804E-19         0.00000E+00
    0.92669E-07        -0.22723E-19         0.00000E+00
    0.92669E-07        -0.20861E-19         0.00000E+00
    0.92669E-07        -0.93132E-20         0.00000E+00
    0.92669E-07        -0.11548E-19         0.00000E+00
    0.92669E-07        -0.20489E-19         0.00000E+00
    0.92669E-07        -0.27196E-19         0.00000E+00
    0.92669E-07        -0.23843E-19         0.00000E+00
    0.92669E-07        -0.18998E-19         0.00000E+00
    0.92669E-07        -0.20489E-19         0.00000E+00
    0.92669E-07        -0.33156E-19         0.00000E+00
    0.92669E-07        -0.37253E-19         0.00000E+00
    0.92669E-07        -0.20861E-19         0.00000E+00
    0.92669E-07        -0.11919E-19         0.00000E+00
    0.92669E-07        -0.98728E-20         0.00000E+00
    0.92669E-07        -0.37253E-20         0.00000E+00
    0.92669E-07         0.00000E+00         0.00000E+00
    0.92669E-07        -0.42849E-20         0.00000E+00
    0.92669E-07        -0.54000E-20         0.00000E+00
    0.92669E-07        -0.50283E-20         0.00000E+00
    0.92669E-07        -0.10804E-19         0.00000E+00
    0.92669E-07        -0.74506E-20         0.00000E+00
    0.92669E-07         0.50283E-20         0.00000E+00
    0.92669E-07         0.54000E-20         0.00000E+00
    0.92669E-07        -0.40970E-20         0.00000E+00
    0.92669E-07        -0.37253E-20         0.00000E+00
    0.92669E-07        -0.13030E-20         0.00000E+00
    0.92669E-07         0.39132E-20         0.00000E+00
    0.92669E-07         0.13410E-19         0.00000E+00
    0.92669E-07         0.11919E-19         0.00000E+00
    0.92669E-07         0.59596E-20         0.00000E+00
    0.92669E-07        -0.18626E-20         0.00000E+00
    0.92669E-07        -0.59596E-20         0.00000E+00
    0.92669E-07        -0.22343E-20         0.00000E+00
    0.92669E-07         0.00000E+00         0.00000E+00
    0.92669E-07        -0.37170E-21         0.00000E+00
    0.92669E-07         0.26425E-34         0.00000E+00
    0.92669E-07        -0.24223E-20         0.00000E+00
    0.92669E-07         0.40970E-20         0.00000E+00
    0.92669E-07         0.78223E-20         0.00000E+00
    0.92669E-07         0.37253E-20         0.00000E+00
    0.11011E-06         0.41697E-21         0.00000E+00
    0.11011E-06        -0.12837E-32         0.00000E+00
    0.11011E-06         0.93132E-20         0.00000E+00
    0.11011E-06        -0.46566E-20         0.00000E+00
    0.11011E-06        -0.16249E-19         0.00000E+00
    0.11011E-06        -0.74506E-20         0.00000E+00
    0.11011E-06        -0.10967E-19         0.00000E+00
    0.11011E-06        -0.44481E-20         0.00000E+00
    0.11011E-06        -0.85904E-20         0.00000E+00
    0.11011E-06        -0.93132E-20         0.00000E+00
    0.11011E-06        -0.10036E-19         0.00000E+00
    0.11011E-06        -0.10453E-19         0.00000E+00
    0.11011E-06        -0.55879E-20         0.00000E+00
    0.11011E-06         0.20849E-21         0.00000E+00
    0.11011E-06        -0.76591E-20         0.00000E+00
    0.11011E-06        -0.20906E-19         0.00000E+00
    0.11011E-06        -0.20072E-19         0.00000E+00
    0.11011E-06        -0.26800E-19         0.00000E+00
    0.11011E-06        -0.24214E-19         0.00000E+00
    0.11011E-06        -0.19349E-19         0.00000E+00
    0.11011E-06        -0.38393E-19         0.00000E+00
    0.11011E-06        -0.38393E-19         0.00000E+00
    0.11011E-06        -0.20489E-19         0.00000E+00
    0.11011E-06        -0.16041E-19         0.00000E+00
    0.11011E-06        -0.13761E-19         0.00000E+00
    0.11011E-06        -0.11176E-19         0.00000E+00
    0.11011E-06        -0.30025E-20         0.00000E+00
    0.11011E-06         0.11398E-20         0.00000E+00
    0.11011E-06         0.57964E-20         0.00000E+00
    0.11011E-06        -0.20711E-20         0.00000E+00
    0.11011E-06        -0.93132E-20         0.00000E+00
    0.11011E-06        -0.74506E-20         0.00000E+00
    0.11011E-06        -0.67277E-20         0.00000E+00
    0.11011E-06         0.12107E-19         0.00000E+00
    0.11011E-06         0.13970E-19         0.00000E+00
    0.11011E-06         0.10662E-19         0.00000E+00
    0.11011E-06         0.11176E-19         0.00000E+00
    0.11011E-06         0.18626E-20         0.00000E+00
    0.11011E-06        -0.46566E-20         0.00000E+00
    0.11011E-06        -0.46566E-20         0.00000E+00
    0.11011E-06        -0.18626E-20         0.00000E+00
    0.11011E-06        -0.95217E-20         0.00000E+00
    0.11011E-06        -0.74506E-20         0.00000E+00
    0.11011E-06         0.18626E-20         0.00000E+00
    0.11011E-06         0.35168E-20         0.00000E+00
    0.11011E-06         0.30025E-20         0.00000E+00
    0.11011E-06         0.20711E-20         0.00000E+00
    0.11011E-06        -0.11398E-20         0.00000E+00
    0.11011E-06         0.55879E-20         0.00000E+00
    0.11011E-06         0.18835E-19         0.00000E+00
    0.11011E-06         0.19043E-19         0.00000E+00
    0.13084E-06        -0.81810E-20         0.00000E+00
    0.13084E-06         0.55879E-20         0.00000E+00
    0.13084E-06         0.13039E-19         0.00000E+00
    0.13084E-06         0.55879E-20         0.00000E+00
    0.13084E-06         0.36519E-21         0.00000E+00
    0.13084E-06        -0.70854E-20         0.00000E+00
    0.13084E-06        -0.93132E-20         0.00000E+00
    0.13084E-06        -0.17695E-19         0.00000E+00
    0.13084E-06        -0.18626E-19         0.00000E+00
    0.13084E-06        -0.14901E-19         0.00000E+00
    0.13084E-06        -0.55879E-20         0.00000E+00
    0.13084E-06        -0.31592E-20         0.00000E+00
    0.13084E-06        -0.55879E-20         0.00000E+00
    0.13084E-06        -0.68845E-20         0.00000E+00
    0.13084E-06        -0.12472E-19         0.00000E+00
    0.13084E-06        -0.52227E-20         0.00000E+00
    0.13084E-06        -0.14901E-19         0.00000E+00
    0.13084E-06        -0.24781E-19         0.00000E+00
    0.13084E-06        -0.15102E-19         0.00000E+00
    0.13084E-06        -0.22352E-19         0.00000E+00
    0.13084E-06        -0.32961E-19         0.00000E+00
    0.13084E-06        -0.40412E-19         0.00000E+00
    0.13084E-06        -0.24214E-19         0.00000E+00
    0.13084E-06        -0.16198E-19         0.00000E+00
    0.13084E-06        -0.21987E-19         0.00000E+00
    0.13084E-06        -0.10245E-19         0.00000E+00
    0.13084E-06         0.37253E-20         0.00000E+00
    0.13084E-06         0.18626E-20         0.00000E+00
    0.13084E-06        -0.36519E-21         0.00000E+00
    0.13084E-06        -0.27940E-20         0.00000E+00
    0.13084E-06        -0.46566E-20         0.00000E+00
    0.13084E-06         0.78158E-20         0.00000E+00
    0.13084E-06         0.93132E-20         0.00000E+00
    0.13084E-06         0.59531E-20         0.00000E+00
    0.13084E-06         0.46566E-20         0.00000E+00
    0.13084E-06        -0.30431E-33         0.00000E+00
    0.13084E-06         0.27940E-20         0.00000E+00
    0.13084E-06         0.93132E-20         0.00000E+00
    0.13084E-06         0.83819E-20         0.00000E+00
    0.13084E-06         0.46566E-20         0.00000E+00
    0.13084E-06         0.37253E-20         0.00000E+00
    0.13084E-06        -0.27940E-20         0.00000E+00
    0.13084E-06        -0.11742E-19         0.00000E+00
    0.13084E-06        -0.13039E-19         0.00000E+00
    0.13084E-06        -0.13769E-19         0.00000E+00
    0.13084E-06        -0.40905E-20         0.00000E+00
    0.13084E-06         0.87471E-20         0.00000E+00
    0.13084E-06         0.18626E-20         0.00000E+00
    0.13084E-06         0.18626E-20         0.00000E+00
    0.13084E-06        -0.56613E-21         0.00000E+00
    0.13084E-06        -0.85828E-20         0.00000E+00
    0.15547E-06        -0.37253E-20         0.00000E+00
    0.15547E-06         0.90205E-21         0.00000E+00
    0.15547E-06         0.74506E-20         0.00000E+00
    0.15547E-06         0.96060E-21         0.00000E+00
    0.15547E-06        -0.74506E-20         0.00000E+00
    0.15547E-06        -0.55879E-20         0.00000E+00
    0.15547E-06        -0.12136E-19         0.00000E+00
    0.15547E-06        -0.17724E-19         0.00000E+00
    0.15547E-06        -0.93132E-20         0.00000E+00
    0.15547E-06        -0.55879E-20         0.00000E+00
    0.15547E-06        -0.13039E-19         0.00000E+00
    0.15547E-06        -0.14843E-19         0.00000E+00
    0.15547E-06        -0.37253E-20         0.00000E+00
    0.15547E-06        -0.19212E-20         0.00000E+00
    0.15547E-06        -0.18568E-19         0.00000E+00
    0.15547E-06        -0.26077E-19         0.00000E+00
    0.15547E-06        -0.19587E-19         0.00000E+00
    0.15547E-06        -0.17695E-19         0.00000E+00
    0.15547E-06        -0.22381E-19         0.00000E+00
    0.15547E-06        -0.22352E-19         0.00000E+00
    0.15547E-06        -0.27910E-19         0.00000E+00
    0.15547E-06        -0.24185E-19         0.00000E+00
    0.15547E-06        -0.16793E-19         0.00000E+00
    0.15547E-06        -0.13970E-19         0.00000E+00
    0.15547E-06        -0.11176E-19         0.00000E+00
    0.15547E-06        -0.74506E-20         0.00000E+00
    0.15547E-06         0.46859E-20         0.00000E+00
    0.15547E-06         0.83526E-20         0.00000E+00
    0.15547E-06         0.12078E-19         0.00000E+00
    0.15547E-06         0.56465E-20         0.00000E+00
    0.15547E-06         0.18626E-20         0.00000E+00
    0.15547E-06         0.74213E-20         0.00000E+00
    0.15547E-06         0.27940E-20         0.00000E+00
    0.15547E-06         0.12107E-19         0.00000E+00
    0.15547E-06         0.93425E-20         0.00000E+00
    0.15547E-06        -0.65485E-20         0.00000E+00
    0.15547E-06        -0.84112E-20         0.00000E+00
    0.15547E-06        -0.55587E-20         0.00000E+00
    0.15547E-06         0.29274E-22         0.00000E+00
    0.15547E-06        -0.18919E-20         0.00000E+00
    0.15547E-06        -0.37253E-20         0.00000E+00
    0.15547E-06        -0.27940E-20         0.00000E+00
    0.15547E-06        -0.28232E-20         0.00000E+00
    0.15547E-06        -0.55879E-20         0.00000E+00
    0.15547E-06        -0.37253E-20         0.00000E+00
    0.15547E-06         0.00000E+00         0.00000E+00
    0.15547E-06        -0.46273E-20         0.00000E+00
    0.15547E-06        -0.83526E-20         0.00000E+00
    0.15547E-06         0.37253E-20         0.00000E+00
    0.15547E-06         0.12078E-19         0.00000E+00
    0.15547E-06         0.92547E-20         0.00000E+00
    0.18474E-06        -0.36693E-20         0.00000E+00
    0.18474E-06        -0.18626E-20         0.00000E+00
    0.18474E-06        -0.18906E-20         0.00000E+00
    0.18474E-06        -0.93132E-20         0.00000E+00
    0.18474E-06        -0.13039E-19         0.00000E+00
    0.18474E-06        -0.10217E-19         0.00000E+00
    0.18474E-06        -0.13942E-19         0.00000E+00
    0.18474E-06        -0.13998E-19         0.00000E+00
    0.18474E-06        -0.16764E-19         0.00000E+00
    0.18474E-06        -0.12079E-19         0.00000E+00
    0.18474E-06         0.74226E-20         0.00000E+00
    0.18474E-06         0.36973E-20         0.00000E+00
    0.18474E-06        -0.12079E-19         0.00000E+00
    0.18474E-06        -0.13039E-19         0.00000E+00
    0.18474E-06        -0.12163E-19         0.00000E+00
    0.18474E-06        -0.11204E-19         0.00000E+00
    0.18474E-06        -0.18598E-19         0.00000E+00
    0.18474E-06        -0.20433E-19         0.00000E+00
    0.18474E-06        -0.20461E-19         0.00000E+00
    0.18474E-06        -0.24214E-19         0.00000E+00
    0.18474E-06        -0.27940E-19         0.00000E+00
    0.18474E-06        -0.27940E-19         0.00000E+00
    0.18474E-06        -0.13066E-19         0.00000E+00
    0.18474E-06        -0.56159E-20         0.00000E+00
    0.18474E-06        -0.92853E-20         0.00000E+00
    0.18474E-06        -0.74506E-20         0.00000E+00
    0.18474E-06        -0.18906E-20         0.00000E+00
    0.18474E-06         0.27973E-22         0.00000E+00
    0.18474E-06         0.18906E-20         0.00000E+00
    0.18474E-06         0.64633E-20         0.00000E+00
    0.18474E-06         0.46286E-20         0.00000E+00
    0.18474E-06         0.37058E-33         0.00000E+00
    0.18474E-06         0.74506E-20         0.00000E+00
    0.18474E-06         0.93412E-20         0.00000E+00
    0.18474E-06         0.74506E-20         0.00000E+00
    0.18474E-06         0.18906E-20         0.00000E+00
    0.18474E-06        -0.18347E-20         0.00000E+00
    0.18474E-06        -0.18906E-20         0.00000E+00
    0.18474E-06        -0.46566E-20         0.00000E+00
    0.18474E-06        -0.27660E-20         0.00000E+00
    0.18474E-06        -0.74506E-20         0.00000E+00
    0.18474E-06        -0.18626E-19         0.00000E+00
    0.18474E-06        -0.17723E-19         0.00000E+00
    0.18474E-06        -0.10273E-19         0.00000E+00
    0.18474E-06        -0.10217E-19         0.00000E+00
    0.18474E-06        -0.13970E-19         0.00000E+00
    0.18474E-06        -0.37533E-20         0.00000E+00
    0.18474E-06         0.95930E-21         0.00000E+00
    0.18474E-06        -0.27660E-20         0.00000E+00
    0.18474E-06         0.00000E+00         0.00000E+00
    0.18474E-06         0.37253E-20         0.00000E+00
    0.21952E-06        -0.37253E-20         0.00000E+00
    0.21952E-06        -0.58973E-20         0.00000E+00
    0.21952E-06        -0.40346E-20         0.00000E+00
    0.21952E-06        -0.74506E-20         0.00000E+00
    0.21952E-06        -0.80726E-20         0.00000E+00
    0.21952E-06        -0.93132E-20         0.00000E+00
    0.21952E-06        -0.10245E-19         0.00000E+00
    0.21952E-06        -0.16454E-19         0.00000E+00
    0.21952E-06        -0.14901E-19         0.00000E+00
    0.21952E-06        -0.16142E-19         0.00000E+00
    0.21952E-06        -0.19867E-19         0.00000E+00
    0.21952E-06        -0.93132E-20         0.00000E+00
    0.21952E-06        -0.37253E-20         0.00000E+00
    0.21952E-06        -0.68319E-20         0.00000E+00
    0.21952E-06        -0.16145E-19         0.00000E+00
    0.21952E-06        -0.23902E-19         0.00000E+00
    0.21952E-06        -0.22039E-19         0.00000E+00
    0.21952E-06        -0.16764E-19         0.00000E+00
    0.21952E-06        -0.14901E-19         0.00000E+00
    0.21952E-06        -0.18626E-19         0.00000E+00
    0.21952E-06        -0.24214E-19         0.00000E+00
    0.21952E-06        -0.22042E-19         0.00000E+00
    0.21952E-06        -0.18317E-19         0.00000E+00
    0.21952E-06        -0.14901E-19         0.00000E+00
    0.21952E-06        -0.12417E-19         0.00000E+00
    0.21952E-06         0.00000E+00         0.00000E+00
    0.21952E-06         0.11176E-19         0.00000E+00
    0.21952E-06         0.55879E-20         0.00000E+00
    0.21952E-06         0.61871E-21         0.00000E+00
    0.21952E-06        -0.21720E-20         0.00000E+00
    0.21952E-06        -0.15500E-20         0.00000E+00
    0.21952E-06         0.86913E-20         0.00000E+00
    0.21952E-06         0.93132E-20         0.00000E+00
    0.21952E-06         0.43473E-20         0.00000E+00
    0.21952E-06         0.55879E-20         0.00000E+00
    0.21952E-06         0.49660E-20         0.00000E+00
    0.21952E-06         0.37253E-20         0.00000E+00
    0.21952E-06        -0.12407E-20         0.00000E+00
    0.21952E-06        -0.74506E-20         0.00000E+00
    0.21952E-06        -0.74506E-20         0.00000E+00
    0.21952E-06        -0.74506E-20         0.00000E+00
    0.21952E-06        -0.99352E-20         0.00000E+00
    0.21952E-06        -0.80726E-20         0.00000E+00
    0.21952E-06        -0.58973E-20         0.00000E+00
    0.21952E-06        -0.77599E-20         0.00000E+00
    0.21952E-06         0.49660E-20         0.00000E+00
    0.21952E-06         0.93132E-21         0.00000E+00
    0.21952E-06        -0.58973E-20         0.00000E+00
    0.21952E-06         0.13348E-19         0.00000E+00
    0.21952E-06         0.13039E-19         0.00000E+00
    0.21952E-06         0.31066E-20         0.00000E+00
    0.26085E-06        -0.37253E-20         0.00000E+00
    0.26085E-06         0.74595E-20         0.00000E+00
    0.26085E-06         0.13039E-19         0.00000E+00
    0.26085E-06        -0.88844E-23         0.00000E+00
    0.26085E-06        -0.13030E-19         0.00000E+00
    0.26085E-06        -0.16755E-19         0.00000E+00
    0.26085E-06        -0.20498E-19         0.00000E+00
    0.26085E-06        -0.18626E-19         0.00000E+00
    0.26085E-06        -0.14901E-19         0.00000E+00
    0.26085E-06        -0.93221E-20         0.00000E+00
    0.26085E-06        -0.74506E-20         0.00000E+00
    0.26085E-06        -0.13030E-19         0.00000E+00
    0.26085E-06        -0.11167E-19         0.00000E+00
    0.26085E-06        -0.14910E-19         0.00000E+00
    0.26085E-06        -0.15824E-19         0.00000E+00
    0.26085E-06        -0.16764E-19         0.00000E+00
    0.26085E-06        -0.17713E-19         0.00000E+00
    0.26085E-06        -0.14901E-19         0.00000E+00
    0.26085E-06        -0.13039E-19         0.00000E+00
    0.26085E-06        -0.93132E-20         0.00000E+00
    0.26085E-06        -0.13030E-19         0.00000E+00
    0.26085E-06        -0.16755E-19         0.00000E+00
    0.26085E-06        -0.14910E-19         0.00000E+00
    0.26085E-06        -0.11176E-19         0.00000E+00
    0.26085E-06        -0.11176E-19         0.00000E+00
    0.26085E-06        -0.93221E-20         0.00000E+00
    0.26085E-06        -0.55879E-20         0.00000E+00
    0.26085E-06        -0.93043E-20         0.00000E+00
    0.26085E-06        -0.55879E-20         0.00000E+00
    0.26085E-06        -0.88844E-23         0.00000E+00
    0.26085E-06         0.37253E-20         0.00000E+00
    0.26085E-06         0.55879E-20         0.00000E+00
    0.26085E-06         0.37253E-20         0.00000E+00
    0.26085E-06         0.18626E-20         0.00000E+00
    0.26085E-06         0.00000E+00         0.00000E+00
    0.26085E-06         0.00000E+00         0.00000E+00
    0.26085E-06         0.55879E-20         0.00000E+00
    0.26085E-06         0.93132E-20         0.00000E+00
    0.26085E-06         0.12125E-19         0.00000E+00
    0.26085E-06         0.55879E-20         0.00000E+00
    0.26085E-06        -0.13988E-19         0.00000E+00
    0.26085E-06        -0.18618E-19         0.00000E+00
    0.26085E-06        -0.11176E-19         0.00000E+00
    0.26085E-06        -0.39873E-34         0.00000E+00
    0.26085E-06         0.55879E-20         0.00000E+00
    0.26085E-06        -0.88844E-23         0.00000E+00
    0.26085E-06         0.18626E-20         0.00000E+00
    0.26085E-06         0.37342E-20         0.00000E+00
    0.26085E-06        -0.37253E-20         0.00000E+00
    0.26085E-06        -0.88844E-23         0.00000E+00
    0.26085E-06         0.74506E-20         0.00000E+00
    0.30995E-06         0.25577E-20         0.00000E+00
    0.30995E-06        -0.27940E-20         0.00000E+00
    0.30995E-06        -0.46566E-20         0.00000E+00
    0.30995E-06        -0.11176E-19         0.00000E+00
    0.30995E-06        -0.16298E-19         0.00000E+00
    0.30995E-06        -0.16298E-19         0.00000E+00
    0.30995E-06        -0.13504E-19         0.00000E+00
    0.30995E-06        -0.13504E-19         0.00000E+00
    0.30995E-06        -0.18161E-19         0.00000E+00
    0.30995E-06        -0.19092E-19         0.00000E+00
    0.30995E-06        -0.16764E-19         0.00000E+00
    0.30995E-06        -0.13970E-19         0.00000E+00
    0.30995E-06        -0.10710E-19         0.00000E+00
    0.30995E-06        -0.57061E-20         0.00000E+00
    0.30995E-06        -0.83819E-20         0.00000E+00
    0.30995E-06        -0.20371E-19         0.00000E+00
    0.30995E-06        -0.21420E-19         0.00000E+00
    0.30995E-06        -0.17695E-19         0.00000E+00
    0.30995E-06        -0.16646E-19         0.00000E+00
    0.30995E-06        -0.13970E-19         0.00000E+00
    0.30995E-06        -0.17695E-19         0.00000E+00
    0.30995E-06        -0.16764E-19         0.00000E+00
    0.30995E-06        -0.37253E-20         0.00000E+00
    0.30995E-06         0.18626E-20         0.00000E+00
    0.30995E-06         0.93132E-21         0.00000E+00
    0.30995E-06         0.17445E-20         0.00000E+00
    0.30995E-06         0.93132E-21         0.00000E+00
    0.30995E-06        -0.26758E-20         0.00000E+00
    0.30995E-06        -0.37253E-20         0.00000E+00
    0.30995E-06        -0.37253E-20         0.00000E+00
    0.30995E-06        -0.47747E-20         0.00000E+00
    0.30995E-06        -0.47747E-20         0.00000E+00
    0.30995E-06         0.37253E-20         0.00000E+00
    0.30995E-06         0.10363E-19         0.00000E+00
    0.30995E-06         0.15019E-19         0.00000E+00
    0.30995E-06         0.13970E-19         0.00000E+00
    0.30995E-06         0.74506E-20         0.00000E+00
    0.30995E-06         0.27940E-20         0.00000E+00
    0.30995E-06         0.81320E-21         0.00000E+00
    0.30995E-06        -0.41910E-20         0.00000E+00
    0.30995E-06         0.23283E-20         0.00000E+00
    0.30995E-06         0.51223E-20         0.00000E+00
    0.30995E-06        -0.22102E-20         0.00000E+00
    0.30995E-06        -0.55879E-20         0.00000E+00
    0.30995E-06        -0.55879E-20         0.00000E+00
    0.30995E-06        -0.18626E-20         0.00000E+00
    0.30995E-06        -0.18626E-20         0.00000E+00
    0.30995E-06        -0.74506E-20         0.00000E+00
    0.30995E-06        -0.37253E-20         0.00000E+00
    0.30995E-06         0.15019E-19         0.00000E+00
    0.30995E-06         0.28176E-19         0.00000E+00
    0.36830E-06        -0.13600E-20         0.00000E+00
    0.36830E-06        -0.50292E-33         0.00000E+00
    0.36830E-06        -0.77019E-20         0.00000E+00
    0.36830E-06        -0.95276E-20         0.00000E+00
    0.36830E-06        -0.58023E-20         0.00000E+00
    0.36830E-06        -0.67706E-20         0.00000E+00
    0.36830E-06        -0.13290E-19         0.00000E+00
    0.36830E-06        -0.13970E-19         0.00000E+00
    0.36830E-06         0.68000E-21         0.00000E+00
    0.36830E-06        -0.83819E-20         0.00000E+00
    0.36830E-06        -0.15581E-19         0.00000E+00
    0.36830E-06        -0.46566E-20         0.00000E+00
    0.36830E-06        -0.83819E-20         0.00000E+00
    0.36830E-06        -0.11176E-19         0.00000E+00
    0.36830E-06        -0.18626E-19         0.00000E+00
    0.36830E-06        -0.20489E-19         0.00000E+00
    0.36830E-06        -0.15832E-19         0.00000E+00
    0.36830E-06        -0.12107E-19         0.00000E+00
    0.36830E-06        -0.11176E-19         0.00000E+00
    0.36830E-06        -0.16764E-19         0.00000E+00
    0.36830E-06        -0.16764E-19         0.00000E+00
    0.36830E-06        -0.12107E-19         0.00000E+00
    0.36830E-06        -0.27940E-20         0.00000E+00
    0.36830E-06         0.37253E-20         0.00000E+00
    0.36830E-06         0.27940E-20         0.00000E+00
    0.36830E-06         0.55879E-20         0.00000E+00
    0.36830E-06         0.10245E-19         0.00000E+00
    0.36830E-06         0.83819E-20         0.00000E+00
    0.36830E-06         0.65193E-20         0.00000E+00
    0.36830E-06         0.18626E-20         0.00000E+00
    0.36830E-06         0.18626E-20         0.00000E+00
    0.36830E-06         0.39766E-20         0.00000E+00
    0.36830E-06         0.32596E-20         0.00000E+00
    0.36830E-06         0.60536E-20         0.00000E+00
    0.36830E-06         0.46566E-20         0.00000E+00
    0.36830E-06        -0.49079E-20         0.00000E+00
    0.36830E-06         0.00000E+00         0.00000E+00
    0.36830E-06         0.58393E-20         0.00000E+00
    0.36830E-06         0.69849E-20         0.00000E+00
    0.36830E-06         0.11390E-19         0.00000E+00
    0.36830E-06         0.86332E-20         0.00000E+00
    0.36830E-06        -0.27940E-20         0.00000E+00
    0.36830E-06        -0.30453E-20         0.00000E+00
    0.36830E-06         0.93132E-21         0.00000E+00
    0.36830E-06        -0.46566E-20         0.00000E+00
    0.36830E-06        -0.62679E-20         0.00000E+00
    0.36830E-06        -0.18626E-20         0.00000E+00
    0.36830E-06        -0.25132E-21         0.00000E+00
    0.36830E-06         0.49079E-20         0.00000E+00
    0.36830E-06         0.13719E-19         0.00000E+00
    0.36830E-06         0.17621E-19         0.00000E+00
    0.43764E-06        -0.55879E-20         0.00000E+00
    0.43764E-06        -0.14419E-19         0.00000E+00
    0.43764E-06         0.37253E-20         0.00000E+00
    0.43764E-06         0.78999E-20         0.00000E+00
    0.43764E-06        -0.27458E-19         0.00000E+00
    0.43764E-06        -0.23732E-19         0.00000E+00
    0.43764E-06         0.46239E-20         0.00000E+00
    0.43764E-06         0.88312E-20         0.00000E+00
    0.43764E-06        -0.13806E-20         0.00000E+00
    0.43764E-06         0.93132E-21         0.00000E+00
    0.43764E-06        -0.18626E-20         0.00000E+00
    0.43764E-06        -0.93132E-20         0.00000E+00
    0.43764E-06        -0.37253E-20         0.00000E+00
    0.43764E-06        -0.12556E-19         0.00000E+00
    0.43764E-06        -0.37253E-20         0.00000E+00
    0.43764E-06         0.69685E-20         0.00000E+00
    0.43764E-06        -0.65193E-20         0.00000E+00
    0.43764E-06        -0.14901E-19         0.00000E+00
    0.43764E-06        -0.10245E-19         0.00000E+00
    0.43764E-06        -0.65193E-20         0.00000E+00
    0.43764E-06        -0.14901E-19         0.00000E+00
    0.43764E-06        -0.13039E-19         0.00000E+00
    0.43764E-06        -0.37253E-20         0.00000E+00
    0.43764E-06         0.37253E-20         0.00000E+00
    0.43764E-06         0.37253E-20         0.00000E+00
    0.43764E-06         0.65193E-20         0.00000E+00
    0.43764E-06         0.11176E-19         0.00000E+00
    0.43764E-06         0.65193E-20         0.00000E+00
    0.43764E-06         0.18626E-20         0.00000E+00
    0.43764E-06         0.00000E+00         0.00000E+00
    0.43764E-06         0.00000E+00         0.00000E+00
    0.43764E-06        -0.32269E-20         0.00000E+00
    0.43764E-06         0.51223E-20         0.00000E+00
    0.43764E-06         0.12074E-19         0.00000E+00
    0.43764E-06         0.46566E-20         0.00000E+00
    0.43764E-06         0.46566E-20         0.00000E+00
    0.43764E-06         0.27940E-20         0.00000E+00
    0.43764E-06        -0.27940E-20         0.00000E+00
    0.43764E-06        -0.27940E-20         0.00000E+00
    0.43764E-06         0.37253E-20         0.00000E+00
    0.43764E-06         0.00000E+00         0.00000E+00
    0.43764E-06        -0.55879E-20         0.00000E+00
    0.43764E-06         0.00000E+00         0.00000E+00
    0.43764E-06        -0.88312E-20         0.00000E+00
    0.43764E-06        -0.93132E-21         0.00000E+00
    0.43764E-06         0.10694E-19         0.00000E+00
    0.43764E-06        -0.10694E-19         0.00000E+00
    0.43764E-06        -0.14419E-19         0.00000E+00
    0.43764E-06         0.13022E-19         0.00000E+00
    0.43764E-06         0.14403E-19         0.00000E+00
    0.43764E-06        -0.28267E-20         0.00000E+00
    0.47529E-06         0.00000E+00         0.00000E+00
    0.47529E-06         0.00000E+00         0.00000E+00
    0.47529E-06         0.00000E+00         0.00000E+00
    0.47529E-06         0.00000E+00         0.00000E+00
    0.47529E-06         0.00000E+00         0.00000E+00
    0.47529E-06         0.00000E+00         0.00000E+00
    0.47529E-06         0.00000E+00         0.00000E+00
    0.47529E-06         0.00000E+00         0.00000E+00
    0.47529E-06         0.00000E+00         0.00000E+00
    0.47529E-06        -0.13970E-19         0.00000E+00
    0.47529E-06         0.00000E+00         0.00000E+00
    0.47529E-06         0.13970E-19         0.00000E+00
    0.47529E-06         0.00000E+00         0.00000E+00
    0.47529E-06         0.00000E+00         0.00000E+00
    0.47529E-06         0.00000E+00         0.00000E+00
    0.47529E-06         0.00000E+00         0.00000E+00
    0.47529E-06         0.00000E+00         0.00000E+00
    0.47529E-06         0.13970E-19         0.00000E+00
    0.47529E-06         0.00000E+00         0.00000E+00
    0.47529E-06        -0.13970E-19         0.00000E+00
    0.47529E-06         0.00000E+00         0.00000E+00
    0.47529E-06         0.00000E+00         0.00000E+00
    0.47529E-06         0.00000E+00         0.00000E+00
    0.47529E-06         0.00000E+00         0.00000E+00
    0.47529E-06         0.00000E+00         0.00000E+00
    0.47529E-06         0.00000E+00         0.00000E+00
    0.47529E-06         0.00000E+00         0.00000E+00
    0.47529E-06         0.00000E+00         0.00000E+00
    0.47529E-06         0.00000E+00         0.00000E+00
    0.47529E-06         0.00000E+00         0.00000E+00
    0.47529E-06         0.00000E+00         0.00000E+00
    0.47529E-06         0.00000E+00         0.00000E+00
    0.47529E-06         0.00000E+00         0.00000E+00
    0.47529E-06         0.00000E+00         0.00000E+00
    0.47529E-06         0.00000E+00         0.00000E+00
    0.47529E-06         0.00000E+00         0.00000E+00
    0.47529E-06         0.00000E+00         0.00000E+00
    0.47529E-06         0.00000E+00         0.00000E+00
    0.47529E-06         0.00000E+00         0.00000E+00
    0.47529E-06        -0.14901E-19         0.00000E+00
    0.47529E-06        -0.13970E-19         0.00000E+00
    0.47529E-06         0.13970E-19         0.00000E+00
    0.47529E-06         0.13970E-19         0.00000E+00
    0.47529E-06         0.00000E+00         0.00000E+00
    0.47529E-06         0.00000E+00         0.00000E+00
    0.47529E-06         0.00000E+00         0.00000E+00
    0.47529E-06         0.00000E+00         0.00000E+00
    0.47529E-06         0.13970E-19         0.00000E+00
    0.47529E-06         0.93132E-21         0.00000E+00
    0.47529E-06         0.00000E+00         0.00000E+00
    0.47529E-06         0.27940E-19         0.00000E+00
CELL_DATA       5000
TENSORS stressef double 
    0.20684E+08        -0.41331E+06         0.00000E+00
   -0.41331E+06         0.18409E+08         0.00000E+00
    0.00000E+00         0.00000E+00         0.10687E+08
 
    0.19939E+08        -0.45681E+06         0.00000E+00
   -0.45681E+06         0.18299E+08         0.00000E+00
    0.00000E+00         0.00000E+00         0.98927E+07
 
    0.19265E+08        -0.47487E+06         0.00000E+00
   -0.47487E+06         0.18174E+08         0.00000E+00
    0.00000E+00         0.00000E+00         0.91952E+07
 
    0.18659E+08        -0.48025E+06         0.00000E+00
   -0.48025E+06         0.18037E+08         0.00000E+00
    0.00000E+00         0.00000E+00         0.85790E+07
 
    0.18117E+08        -0.48065E+06         0.00000E+00
   -0.48065E+06         0.17892E+08         0.00000E+00
    0.00000E+00         0.00000E+00         0.80311E+07
 
    0.17637E+08        -0.48162E+06         0.00000E+00
   -0.48162E+06         0.17742E+08         0.00000E+00
    0.00000E+00         0.00000E+00         0.75411E+07
 
    0.17197E+08        -0.48787E+06         0.00000E+00
   -0.48787E+06         0.17578E+08         0.00000E+00
    0.00000E+00         0.00000E+00         0.71242E+07
 
    0.16745E+08        -0.49796E+06         0.00000E+00
   -0.49796E+06         0.17384E+08         0.00000E+00
    0.00000E+00         0.00000E+00         0.68423E+07
 
    0.16293E+08        -0.49665E+06         0.00000E+00
   -0.49665E+06         0.17197E+08         0.00000E+00
    0.00000E+00         0.00000E+00         0.66980E+07
 
    0.15889E+08        -0.48662E+06         0.00000E+00
   -0.48662E+06         0.17013E+08         0.00000E+00
    0.00000E+00         0.00000E+00         0.65804E+07
 
    0.15529E+08        -0.47205E+06         0.00000E+00
   -0.47205E+06         0.16833E+08         0.00000E+00
    0.00000E+00         0.00000E+00         0.64724E+07
 
    0.15204E+08        -0.45501E+06         0.00000E+00
   -0.45501E+06         0.16658E+08         0.00000E+00
    0.00000E+00         0.00000E+00         0.63726E+07
 
    0.14910E+08        -0.43668E+06         0.00000E+00
   -0.43668E+06         0.16489E+08         0.00000E+00
    0.00000E+00         0.00000E+00         0.62799E+07
 
    0.14640E+08        -0.41779E+06         0.00000E+00
   -0.41779E+06         0.16327E+08         0.00000E+00
    0.00000E+00         0.00000E+00         0.61934E+07
 
    0.14391E+08        -0.39873E+06         0.00000E+00
   -0.39873E+06         0.16171E+08         0.00000E+00
    0.00000E+00         0.00000E+00         0.61123E+07
 
    0.14159E+08        -0.37976E+06         0.00000E+00
   -0.37976E+06         0.16022E+08         0.00000E+00
    0.00000E+00         0.00000E+00         0.60360E+07
 
    0.13941E+08        -0.36101E+06         0.00000E+00
   -0.36101E+06         0.15879E+08         0.00000E+00
    0.00000E+00         0.00000E+00         0.59641E+07
 
    0.13736E+08        -0.34253E+06         0.00000E+00
   -0.34253E+06         0.15744E+08         0.00000E+00
    0.00000E+00         0.00000E+00         0.58959E+07
 
    0.13541E+08        -0.32436E+06         0.00000E+00
   -0.32436E+06         0.15615E+08         0.00000E+00
    0.00000E+00         0.00000E+00         0.58312E+07
 
    0.13355E+08        -0.30649E+06         0.00000E+00
   -0.30649E+06         0.15493E+08         0.00000E+00
    0.00000E+00         0.00000E+00         0.57696E+07
 
    0.13176E+08        -0.28891E+06         0.00000E+00
   -0.28891E+06         0.15377E+08         0.00000E+00
    0.00000E+00         0.00000E+00         0.57107E+07
 
    0.13003E+08        -0.27158E+06         0.00000E+00
   -0.27158E+06         0.15268E+08         0.00000E+00
    0.00000E+00         0.00000E+00         0.56543E+07
 
    0.12834E+08        -0.25445E+06         0.00000E+00
   -0.25445E+06         0.15166E+08         0.00000E+00
    0.00000E+00         0.00000E+00         0.56001E+07
 
    0.12669E+08        -0.23748E+06         0.00000E+00
   -0.23748E+06         0.15070E+08         0.00000E+00
    0.00000E+00         0.00000E+00         0.55478E+07
 
    0.12505E+08        -0.22062E+06         0.00000E+00
   -0.22062E+06         0.14981E+08         0.00000E+00
    0.00000E+00         0.00000E+00         0.54974E+07
 
    0.12343E+08        -0.20380E+06         0.00000E+00
   -0.20380E+06         0.14899E+08         0.00000E+00
    0.00000E+00         0.00000E+00         0.54484E+07
 
    0.12182E+08        -0.18695E+06         0.00000E+00
   -0.18695E+06         0.14823E+08         0.00000E+00
    0.00000E+00         0.00000E+00         0.54008E+07
 
    0.12019E+08        -0.17000E+06         0.00000E+00
   -0.17000E+06         0.14753E+08         0.00000E+00
    0.00000E+00         0.00000E+00         0.53544E+07
 
    0.11855E+08        -0.15287E+06         0.00000E+00
   -0.15287E+06         0.14690E+08         0.00000E+00
    0.00000E+00         0.00000E+00         0.53090E+07
 
    0.11688E+08        -0.13546E+06         0.00000E+00
   -0.13546E+06         0.14634E+08         0.00000E+00
    0.00000E+00         0.00000E+00         0.52644E+07
 
    0.11517E+08        -0.11766E+06         0.00000E+00
   -0.11766E+06         0.14585E+08         0.00000E+00
    0.00000E+00         0.00000E+00         0.52204E+07
 
    0.11341E+08        -0.99363E+05         0.00000E+00
   -0.99363E+05         0.14543E+08         0.00000E+00
    0.00000E+00         0.00000E+00         0.51769E+07
 
    0.11160E+08        -0.80413E+05         0.00000E+00
   -0.80413E+05         0.14509E+08         0.00000E+00
    0.00000E+00         0.00000E+00         0.51336E+07
 
    0.10971E+08        -0.60646E+05         0.00000E+00
   -0.60646E+05         0.14482E+08         0.00000E+00
    0.00000E+00         0.00000E+00         0.50905E+07
 
    0.10773E+08        -0.39862E+05         0.00000E+00
   -0.39862E+05         0.14463E+08         0.00000E+00
    0.00000E+00         0.00000E+00         0.50472E+07
 
    0.10566E+08        -0.17823E+05         0.00000E+00
   -0.17823E+05         0.14452E+08         0.00000E+00
    0.00000E+00         0.00000E+00         0.50036E+07
 
    0.10347E+08         0.57670E+04         0.00000E+00
    0.57670E+04         0.14450E+08         0.00000E+00
    0.00000E+00         0.00000E+00         0.49595E+07
 
    0.10114E+08         0.31271E+05         0.00000E+00
    0.31271E+05         0.14459E+08         0.00000E+00
    0.00000E+00         0.00000E+00         0.49145E+07
 
    0.98652E+07         0.59145E+05         0.00000E+00
    0.59145E+05         0.14477E+08         0.00000E+00
    0.00000E+00         0.00000E+00         0.48685E+07
 
    0.95977E+07         0.89973E+05         0.00000E+00
    0.89973E+05         0.14507E+08         0.00000E+00
    0.00000E+00         0.00000E+00         0.48210E+07
 
    0.93085E+07         0.12451E+06         0.00000E+00
    0.12451E+06         0.14550E+08         0.00000E+00
    0.00000E+00         0.00000E+00         0.47718E+07
 
    0.89937E+07         0.16376E+06         0.00000E+00
    0.16376E+06         0.14608E+08         0.00000E+00
    0.00000E+00         0.00000E+00         0.47203E+07
 
    0.86486E+07         0.20907E+06         0.00000E+00
    0.20907E+06         0.14681E+08         0.00000E+00
    0.00000E+00         0.00000E+00         0.46660E+07
 
    0.82673E+07         0.26231E+06         0.00000E+00
    0.26231E+06         0.14773E+08         0.00000E+00
    0.00000E+00         0.00000E+00         0.46082E+07
 
    0.78423E+07         0.32614E+06         0.00000E+00
    0.32614E+06         0.14888E+08         0.00000E+00
    0.00000E+00         0.00000E+00         0.45460E+07
 
    0.73636E+07         0.40445E+06         0.00000E+00
    0.40445E+06         0.15028E+08         0.00000E+00
    0.00000E+00         0.00000E+00         0.44784E+07
 
    0.68178E+07         0.50316E+06         0.00000E+00
    0.50316E+06         0.15200E+08         0.00000E+00
    0.00000E+00         0.00000E+00         0.44036E+07
 
    0.61863E+07         0.63171E+06         0.00000E+00
    0.63171E+06         0.15411E+08         0.00000E+00
    0.00000E+00         0.00000E+00         0.43196E+07
 
    0.54413E+07         0.80585E+06         0.00000E+00
    0.80585E+06         0.15672E+08         0.00000E+00
    0.00000E+00         0.00000E+00         0.42226E+07
 
    0.45400E+07         0.10534E+07         0.00000E+00
    0.10534E+07         0.15995E+08         0.00000E+00
    0.00000E+00         0.00000E+00         0.41070E+07
 
    0.16417E+08        -0.14478E+06         0.00000E+00
   -0.14478E+06         0.15576E+08         0.00000E+00
    0.00000E+00         0.00000E+00         0.63986E+07
 
    0.16126E+08        -0.45584E+06         0.00000E+00
   -0.45584E+06         0.15638E+08         0.00000E+00
    0.00000E+00         0.00000E+00         0.63527E+07
 
    0.15740E+08        -0.68290E+06         0.00000E+00
   -0.68290E+06         0.15653E+08         0.00000E+00
    0.00000E+00         0.00000E+00         0.62786E+07
 
    0.15321E+08        -0.84732E+06         0.00000E+00
   -0.84732E+06         0.15631E+08         0.00000E+00
    0.00000E+00         0.00000E+00         0.61904E+07
 
    0.14899E+08        -0.96609E+06         0.00000E+00
   -0.96609E+06         0.15579E+08         0.00000E+00
    0.00000E+00         0.00000E+00         0.60957E+07
 
    0.14486E+08        -0.10525E+07         0.00000E+00
   -0.10525E+07         0.15505E+08         0.00000E+00
    0.00000E+00         0.00000E+00         0.59982E+07
 
    0.14087E+08        -0.11159E+07         0.00000E+00
   -0.11159E+07         0.15426E+08         0.00000E+00
    0.00000E+00         0.00000E+00         0.59025E+07
 
    0.13710E+08        -0.11562E+07         0.00000E+00
   -0.11562E+07         0.15369E+08         0.00000E+00
    0.00000E+00         0.00000E+00         0.58158E+07
 
    0.13348E+08        -0.11738E+07         0.00000E+00
   -0.11738E+07         0.15293E+08         0.00000E+00
    0.00000E+00         0.00000E+00         0.57283E+07
 
    0.13007E+08        -0.11733E+07         0.00000E+00
   -0.11733E+07         0.15209E+08         0.00000E+00
    0.00000E+00         0.00000E+00         0.56432E+07
 
    0.12688E+08        -0.11599E+07         0.00000E+00
   -0.11599E+07         0.15120E+08         0.00000E+00
    0.00000E+00         0.00000E+00         0.55616E+07
 
    0.12392E+08        -0.11372E+07         0.00000E+00
   -0.11372E+07         0.15026E+08         0.00000E+00
    0.00000E+00         0.00000E+00         0.54836E+07
 
    0.12115E+08        -0.11080E+07         0.00000E+00
   -0.11080E+07         0.14930E+08         0.00000E+00
    0.00000E+00         0.00000E+00         0.54092E+07
 
    0.11858E+08        -0.10740E+07         0.00000E+00
   -0.10740E+07         0.14833E+08         0.00000E+00
    0.00000E+00         0.00000E+00         0.53382E+07
 
    0.11616E+08        -0.10368E+07         0.00000E+00
   -0.10368E+07         0.14737E+08         0.00000E+00
    0.00000E+00         0.00000E+00         0.52706E+07
 
    0.11389E+08        -0.99714E+06         0.00000E+00
   -0.99714E+06         0.14641E+08         0.00000E+00
    0.00000E+00         0.00000E+00         0.52060E+07
 
    0.11175E+08        -0.95586E+06         0.00000E+00
   -0.95586E+06         0.14546E+08         0.00000E+00
    0.00000E+00         0.00000E+00         0.51442E+07
 
    0.10972E+08        -0.91345E+06         0.00000E+00
   -0.91345E+06         0.14454E+08         0.00000E+00
    0.00000E+00         0.00000E+00         0.50851E+07
 
    0.10778E+08        -0.87023E+06         0.00000E+00
   -0.87023E+06         0.14364E+08         0.00000E+00
    0.00000E+00         0.00000E+00         0.50285E+07
 
    0.10593E+08        -0.82645E+06         0.00000E+00
   -0.82645E+06         0.14278E+08         0.00000E+00
    0.00000E+00         0.00000E+00         0.49741E+07
 
    0.10414E+08        -0.78226E+06         0.00000E+00
   -0.78226E+06         0.14195E+08         0.00000E+00
    0.00000E+00         0.00000E+00         0.49219E+07
 
    0.10241E+08        -0.73772E+06         0.00000E+00
   -0.73772E+06         0.14116E+08         0.00000E+00
    0.00000E+00         0.00000E+00         0.48715E+07
 
    0.10072E+08        -0.69288E+06         0.00000E+00
   -0.69288E+06         0.14042E+08         0.00000E+00
    0.00000E+00         0.00000E+00         0.48228E+07
 
    0.99076E+07        -0.64771E+06         0.00000E+00
   -0.64771E+06         0.13971E+08         0.00000E+00
    0.00000E+00         0.00000E+00         0.47757E+07
 
    0.97452E+07        -0.60215E+06         0.00000E+00
   -0.60215E+06         0.13905E+08         0.00000E+00
    0.00000E+00         0.00000E+00         0.47301E+07
 
    0.95845E+07        -0.55611E+06         0.00000E+00
   -0.55611E+06         0.13844E+08         0.00000E+00
    0.00000E+00         0.00000E+00         0.46858E+07
 
    0.94246E+07        -0.50947E+06         0.00000E+00
   -0.50947E+06         0.13788E+08         0.00000E+00
    0.00000E+00         0.00000E+00         0.46426E+07
 
    0.92645E+07        -0.46208E+06         0.00000E+00
   -0.46208E+06         0.13738E+08         0.00000E+00
    0.00000E+00         0.00000E+00         0.46004E+07
 
    0.91034E+07        -0.41374E+06         0.00000E+00
   -0.41374E+06         0.13692E+08         0.00000E+00
    0.00000E+00         0.00000E+00         0.45592E+07
 
    0.89406E+07        -0.36422E+06         0.00000E+00
   -0.36422E+06         0.13653E+08         0.00000E+00
    0.00000E+00         0.00000E+00         0.45187E+07
 
    0.87750E+07        -0.31326E+06         0.00000E+00
   -0.31326E+06         0.13619E+08         0.00000E+00
    0.00000E+00         0.00000E+00         0.44788E+07
 
    0.86058E+07        -0.26052E+06         0.00000E+00
   -0.26052E+06         0.13591E+08         0.00000E+00
    0.00000E+00         0.00000E+00         0.44395E+07
 
    0.84322E+07        -0.20565E+06         0.00000E+00
   -0.20565E+06         0.13570E+08         0.00000E+00
    0.00000E+00         0.00000E+00         0.44005E+07
 
    0.82530E+07        -0.14818E+06         0.00000E+00
   -0.14818E+06         0.13556E+08         0.00000E+00
    0.00000E+00         0.00000E+00         0.43619E+07
 
    0.80675E+07        -0.87582E+05         0.00000E+00
   -0.87582E+05         0.13549E+08         0.00000E+00
    0.00000E+00         0.00000E+00         0.43234E+07
 
    0.78743E+07        -0.23219E+05         0.00000E+00
   -0.23219E+05         0.13550E+08         0.00000E+00
    0.00000E+00         0.00000E+00         0.42849E+07
 
    0.76725E+07         0.45682E+05         0.00000E+00
    0.45682E+05         0.13559E+08         0.00000E+00
    0.00000E+00         0.00000E+00         0.42463E+07
 
    0.74608E+07         0.12006E+06         0.00000E+00
    0.12006E+06         0.13577E+08         0.00000E+00
    0.00000E+00         0.00000E+00         0.42075E+07
 
    0.72379E+07         0.20107E+06         0.00000E+00
    0.20107E+06         0.13604E+08         0.00000E+00
    0.00000E+00         0.00000E+00         0.41684E+07
 
    0.70024E+07         0.29014E+06         0.00000E+00
    0.29014E+06         0.13641E+08         0.00000E+00
    0.00000E+00         0.00000E+00         0.41287E+07
 
    0.67528E+07         0.38904E+06         0.00000E+00
    0.38904E+06         0.13689E+08         0.00000E+00
    0.00000E+00         0.00000E+00         0.40884E+07
 
    0.64876E+07         0.50003E+06         0.00000E+00
    0.50003E+06         0.13750E+08         0.00000E+00
    0.00000E+00         0.00000E+00         0.40475E+07
 
    0.62054E+07         0.62595E+06         0.00000E+00
    0.62595E+06         0.13823E+08         0.00000E+00
    0.00000E+00         0.00000E+00         0.40057E+07
 
    0.59048E+07         0.77051E+06         0.00000E+00
    0.77051E+06         0.13910E+08         0.00000E+00
    0.00000E+00         0.00000E+00         0.39630E+07
 
    0.55850E+07         0.93848E+06         0.00000E+00
    0.93848E+06         0.14013E+08         0.00000E+00
    0.00000E+00         0.00000E+00         0.39197E+07
 
    0.52464E+07         0.11362E+07         0.00000E+00
    0.11362E+07         0.14133E+08         0.00000E+00
    0.00000E+00         0.00000E+00         0.38758E+07
 
    0.48915E+07         0.13719E+07         0.00000E+00
    0.13719E+07         0.14270E+08         0.00000E+00
    0.00000E+00         0.00000E+00         0.38323E+07
 
    0.45273E+07         0.16567E+07         0.00000E+00
    0.16567E+07         0.14425E+08         0.00000E+00
    0.00000E+00         0.00000E+00         0.37904E+07
 
    0.41707E+07         0.20052E+07         0.00000E+00
    0.20052E+07         0.14597E+08         0.00000E+00
    0.00000E+00         0.00000E+00         0.37536E+07
 
    0.38588E+07         0.24357E+07         0.00000E+00
    0.24357E+07         0.14784E+08         0.00000E+00
    0.00000E+00         0.00000E+00         0.37287E+07
 
    0.12640E+08        -0.14555E+06         0.00000E+00
   -0.14555E+06         0.13012E+08         0.00000E+00
    0.00000E+00         0.00000E+00         0.51304E+07
 
    0.12457E+08        -0.38305E+06         0.00000E+00
   -0.38305E+06         0.13003E+08         0.00000E+00
    0.00000E+00         0.00000E+00         0.50920E+07
 
    0.12259E+08        -0.60840E+06         0.00000E+00
   -0.60840E+06         0.13018E+08         0.00000E+00
    0.00000E+00         0.00000E+00         0.50554E+07
 
    0.12037E+08        -0.80691E+06         0.00000E+00
   -0.80691E+06         0.13043E+08         0.00000E+00
    0.00000E+00         0.00000E+00         0.50158E+07
 
    0.11793E+08        -0.97330E+06         0.00000E+00
   -0.97330E+06         0.13070E+08         0.00000E+00
    0.00000E+00         0.00000E+00         0.49724E+07
 
    0.11535E+08        -0.11068E+07         0.00000E+00
   -0.11068E+07         0.13095E+08         0.00000E+00
    0.00000E+00         0.00000E+00         0.49260E+07
 
    0.11272E+08        -0.12090E+07         0.00000E+00
   -0.12090E+07         0.13114E+08         0.00000E+00
    0.00000E+00         0.00000E+00         0.48771E+07
 
    0.11007E+08        -0.12855E+07         0.00000E+00
   -0.12855E+07         0.13120E+08         0.00000E+00
    0.00000E+00         0.00000E+00         0.48253E+07
 
    0.10746E+08        -0.13408E+07         0.00000E+00
   -0.13408E+07         0.13122E+08         0.00000E+00
    0.00000E+00         0.00000E+00         0.47737E+07
 
    0.10490E+08        -0.13767E+07         0.00000E+00
   -0.13767E+07         0.13119E+08         0.00000E+00
    0.00000E+00         0.00000E+00         0.47218E+07
 
    0.10241E+08        -0.13954E+07         0.00000E+00
   -0.13954E+07         0.13110E+08         0.00000E+00
    0.00000E+00         0.00000E+00         0.46700E+07
 
    0.99993E+07        -0.13995E+07         0.00000E+00
   -0.13995E+07         0.13094E+08         0.00000E+00
    0.00000E+00         0.00000E+00         0.46186E+07
 
    0.97669E+07        -0.13913E+07         0.00000E+00
   -0.13913E+07         0.13073E+08         0.00000E+00
    0.00000E+00         0.00000E+00         0.45679E+07
 
    0.95436E+07        -0.13729E+07         0.00000E+00
   -0.13729E+07         0.13047E+08         0.00000E+00
    0.00000E+00         0.00000E+00         0.45182E+07
 
    0.93295E+07        -0.13462E+07         0.00000E+00
   -0.13462E+07         0.13018E+08         0.00000E+00
    0.00000E+00         0.00000E+00         0.44694E+07
 
    0.91242E+07        -0.13126E+07         0.00000E+00
   -0.13126E+07         0.12985E+08         0.00000E+00
    0.00000E+00         0.00000E+00         0.44219E+07
 
    0.89271E+07        -0.12732E+07         0.00000E+00
   -0.12732E+07         0.12950E+08         0.00000E+00
    0.00000E+00         0.00000E+00         0.43755E+07
 
    0.87377E+07        -0.12292E+07         0.00000E+00
   -0.12292E+07         0.12914E+08         0.00000E+00
    0.00000E+00         0.00000E+00         0.43304E+07
 
    0.85553E+07        -0.11811E+07         0.00000E+00
   -0.11811E+07         0.12877E+08         0.00000E+00
    0.00000E+00         0.00000E+00         0.42865E+07
 
    0.83790E+07        -0.11298E+07         0.00000E+00
   -0.11298E+07         0.12840E+08         0.00000E+00
    0.00000E+00         0.00000E+00         0.42438E+07
 
    0.82082E+07        -0.10756E+07         0.00000E+00
   -0.10756E+07         0.12803E+08         0.00000E+00
    0.00000E+00         0.00000E+00         0.42022E+07
 
    0.80422E+07        -0.10189E+07         0.00000E+00
   -0.10189E+07         0.12767E+08         0.00000E+00
    0.00000E+00         0.00000E+00         0.41618E+07
 
    0.78801E+07        -0.95995E+06         0.00000E+00
   -0.95995E+06         0.12732E+08         0.00000E+00
    0.00000E+00         0.00000E+00         0.41224E+07
 
    0.77214E+07        -0.89889E+06         0.00000E+00
   -0.89889E+06         0.12699E+08         0.00000E+00
    0.00000E+00         0.00000E+00         0.40841E+07
 
    0.75653E+07        -0.83582E+06         0.00000E+00
   -0.83582E+06         0.12668E+08         0.00000E+00
    0.00000E+00         0.00000E+00         0.40467E+07
 
    0.74112E+07        -0.77074E+06         0.00000E+00
   -0.77074E+06         0.12640E+08         0.00000E+00
    0.00000E+00         0.00000E+00         0.40102E+07
 
    0.72584E+07        -0.70359E+06         0.00000E+00
   -0.70359E+06         0.12615E+08         0.00000E+00
    0.00000E+00         0.00000E+00         0.39746E+07
 
    0.71063E+07        -0.63425E+06         0.00000E+00
   -0.63425E+06         0.12593E+08         0.00000E+00
    0.00000E+00         0.00000E+00         0.39398E+07
 
    0.69543E+07        -0.56254E+06         0.00000E+00
   -0.56254E+06         0.12574E+08         0.00000E+00
    0.00000E+00         0.00000E+00         0.39057E+07
 
    0.68018E+07        -0.48821E+06         0.00000E+00
   -0.48821E+06         0.12559E+08         0.00000E+00
    0.00000E+00         0.00000E+00         0.38722E+07
 
    0.66483E+07        -0.41095E+06         0.00000E+00
   -0.41095E+06         0.12549E+08         0.00000E+00
    0.00000E+00         0.00000E+00         0.38394E+07
 
    0.64932E+07        -0.33037E+06         0.00000E+00
   -0.33037E+06         0.12543E+08         0.00000E+00
    0.00000E+00         0.00000E+00         0.38072E+07
 
    0.63359E+07        -0.24600E+06         0.00000E+00
   -0.24600E+06         0.12542E+08         0.00000E+00
    0.00000E+00         0.00000E+00         0.37755E+07
 
    0.61760E+07        -0.15729E+06         0.00000E+00
   -0.15729E+06         0.12546E+08         0.00000E+00
    0.00000E+00         0.00000E+00         0.37443E+07
 
    0.60130E+07        -0.63568E+05         0.00000E+00
   -0.63568E+05         0.12555E+08         0.00000E+00
    0.00000E+00         0.00000E+00         0.37136E+07
 
    0.58464E+07         0.35940E+05         0.00000E+00
    0.35940E+05         0.12570E+08         0.00000E+00
    0.00000E+00         0.00000E+00         0.36833E+07
 
    0.56759E+07         0.14215E+06         0.00000E+00
    0.14215E+06         0.12591E+08         0.00000E+00
    0.00000E+00         0.00000E+00         0.36534E+07
 
    0.55012E+07         0.25614E+06         0.00000E+00
    0.25614E+06         0.12618E+08         0.00000E+00
    0.00000E+00         0.00000E+00         0.36239E+07
 
    0.53222E+07         0.37916E+06         0.00000E+00
    0.37916E+06         0.12652E+08         0.00000E+00
    0.00000E+00         0.00000E+00         0.35949E+07
 
    0.51388E+07         0.51269E+06         0.00000E+00
    0.51269E+06         0.12693E+08         0.00000E+00
    0.00000E+00         0.00000E+00         0.35664E+07
 
    0.49512E+07         0.65845E+06         0.00000E+00
    0.65845E+06         0.12741E+08         0.00000E+00
    0.00000E+00         0.00000E+00         0.35384E+07
 
    0.47602E+07         0.81840E+06         0.00000E+00
    0.81840E+06         0.12795E+08         0.00000E+00
    0.00000E+00         0.00000E+00         0.35111E+07
 
    0.45666E+07         0.99483E+06         0.00000E+00
    0.99483E+06         0.12857E+08         0.00000E+00
    0.00000E+00         0.00000E+00         0.34846E+07
 
    0.43723E+07         0.11903E+07         0.00000E+00
    0.11903E+07         0.12924E+08         0.00000E+00
    0.00000E+00         0.00000E+00         0.34593E+07
 
    0.41798E+07         0.14075E+07         0.00000E+00
    0.14075E+07         0.12997E+08         0.00000E+00
    0.00000E+00         0.00000E+00         0.34354E+07
 
    0.39928E+07         0.16492E+07         0.00000E+00
    0.16492E+07         0.13074E+08         0.00000E+00
    0.00000E+00         0.00000E+00         0.34134E+07
 
    0.38162E+07         0.19181E+07         0.00000E+00
    0.19181E+07         0.13153E+08         0.00000E+00
    0.00000E+00         0.00000E+00         0.33939E+07
 
    0.36559E+07         0.22153E+07         0.00000E+00
    0.22153E+07         0.13229E+08         0.00000E+00
    0.00000E+00         0.00000E+00         0.33771E+07
 
    0.35169E+07         0.25398E+07         0.00000E+00
    0.25398E+07         0.13297E+08         0.00000E+00
    0.00000E+00         0.00000E+00         0.33629E+07
 
    0.33975E+07         0.28850E+07         0.00000E+00
    0.28850E+07         0.13348E+08         0.00000E+00
    0.00000E+00         0.00000E+00         0.33491E+07
 
    0.93793E+07        -0.13707E+06         0.00000E+00
   -0.13707E+06         0.10975E+08         0.00000E+00
    0.00000E+00         0.00000E+00         0.40709E+07
 
    0.93131E+07        -0.34879E+06         0.00000E+00
   -0.34879E+06         0.10986E+08         0.00000E+00
    0.00000E+00         0.00000E+00         0.40599E+07
 
    0.92257E+07        -0.53624E+06         0.00000E+00
   -0.53624E+06         0.10999E+08         0.00000E+00
    0.00000E+00         0.00000E+00         0.40450E+07
 
    0.91217E+07        -0.70398E+06         0.00000E+00
   -0.70398E+06         0.11018E+08         0.00000E+00
    0.00000E+00         0.00000E+00         0.40279E+07
 
    0.90019E+07        -0.85261E+06         0.00000E+00
   -0.85261E+06         0.11042E+08         0.00000E+00
    0.00000E+00         0.00000E+00         0.40088E+07
 
    0.88676E+07        -0.98201E+06         0.00000E+00
   -0.98201E+06         0.11070E+08         0.00000E+00
    0.00000E+00         0.00000E+00         0.39876E+07
 
    0.87206E+07        -0.10924E+07         0.00000E+00
   -0.10924E+07         0.11101E+08         0.00000E+00
    0.00000E+00         0.00000E+00         0.39642E+07
 
    0.85637E+07        -0.11833E+07         0.00000E+00
   -0.11833E+07         0.11133E+08         0.00000E+00
    0.00000E+00         0.00000E+00         0.39394E+07
 
    0.83992E+07        -0.12555E+07         0.00000E+00
   -0.12555E+07         0.11164E+08         0.00000E+00
    0.00000E+00         0.00000E+00         0.39126E+07
 
    0.82301E+07        -0.13107E+07         0.00000E+00
   -0.13107E+07         0.11193E+08         0.00000E+00
    0.00000E+00         0.00000E+00         0.38846E+07
 
    0.80582E+07        -0.13502E+07         0.00000E+00
   -0.13502E+07         0.11220E+08         0.00000E+00
    0.00000E+00         0.00000E+00         0.38556E+07
 
    0.78852E+07        -0.13753E+07         0.00000E+00
   -0.13753E+07         0.11244E+08         0.00000E+00
    0.00000E+00         0.00000E+00         0.38258E+07
 
    0.77124E+07        -0.13874E+07         0.00000E+00
   -0.13874E+07         0.11265E+08         0.00000E+00
    0.00000E+00         0.00000E+00         0.37955E+07
 
    0.75408E+07        -0.13878E+07         0.00000E+00
   -0.13878E+07         0.11283E+08         0.00000E+00
    0.00000E+00         0.00000E+00         0.37648E+07
 
    0.73713E+07        -0.13777E+07         0.00000E+00
   -0.13777E+07         0.11298E+08         0.00000E+00
    0.00000E+00         0.00000E+00         0.37339E+07
 
    0.72045E+07        -0.13583E+07         0.00000E+00
   -0.13583E+07         0.11311E+08         0.00000E+00
    0.00000E+00         0.00000E+00         0.37030E+07
 
    0.70406E+07        -0.13306E+07         0.00000E+00
   -0.13306E+07         0.11321E+08         0.00000E+00
    0.00000E+00         0.00000E+00         0.36722E+07
 
    0.68800E+07        -0.12955E+07         0.00000E+00
   -0.12955E+07         0.11328E+08         0.00000E+00
    0.00000E+00         0.00000E+00         0.36416E+07
 
    0.67226E+07        -0.12540E+07         0.00000E+00
   -0.12540E+07         0.11334E+08         0.00000E+00
    0.00000E+00         0.00000E+00         0.36113E+07
 
    0.65684E+07        -0.12065E+07         0.00000E+00
   -0.12065E+07         0.11338E+08         0.00000E+00
    0.00000E+00         0.00000E+00         0.35814E+07
 
    0.64173E+07        -0.11539E+07         0.00000E+00
   -0.11539E+07         0.11342E+08         0.00000E+00
    0.00000E+00         0.00000E+00         0.35518E+07
 
    0.62691E+07        -0.10964E+07         0.00000E+00
   -0.10964E+07         0.11344E+08         0.00000E+00
    0.00000E+00         0.00000E+00         0.35227E+07
 
    0.61235E+07        -0.10344E+07         0.00000E+00
   -0.10344E+07         0.11346E+08         0.00000E+00
    0.00000E+00         0.00000E+00         0.34940E+07
 
    0.59804E+07        -0.96838E+06         0.00000E+00
   -0.96838E+06         0.11349E+08         0.00000E+00
    0.00000E+00         0.00000E+00         0.34658E+07
 
    0.58393E+07        -0.89836E+06         0.00000E+00
   -0.89836E+06         0.11351E+08         0.00000E+00
    0.00000E+00         0.00000E+00         0.34381E+07
 
    0.57000E+07        -0.82451E+06         0.00000E+00
   -0.82451E+06         0.11355E+08         0.00000E+00
    0.00000E+00         0.00000E+00         0.34110E+07
 
    0.55623E+07        -0.74686E+06         0.00000E+00
   -0.74686E+06         0.11359E+08         0.00000E+00
    0.00000E+00         0.00000E+00         0.33844E+07
 
    0.54259E+07        -0.66539E+06         0.00000E+00
   -0.66539E+06         0.11365E+08         0.00000E+00
    0.00000E+00         0.00000E+00         0.33582E+07
 
    0.52904E+07        -0.57999E+06         0.00000E+00
   -0.57999E+06         0.11373E+08         0.00000E+00
    0.00000E+00         0.00000E+00         0.33327E+07
 
    0.51557E+07        -0.49048E+06         0.00000E+00
   -0.49048E+06         0.11383E+08         0.00000E+00
    0.00000E+00         0.00000E+00         0.33076E+07
 
    0.50215E+07        -0.39662E+06         0.00000E+00
   -0.39662E+06         0.11394E+08         0.00000E+00
    0.00000E+00         0.00000E+00         0.32832E+07
 
    0.48877E+07        -0.29811E+06         0.00000E+00
   -0.29811E+06         0.11408E+08         0.00000E+00
    0.00000E+00         0.00000E+00         0.32592E+07
 
    0.47541E+07        -0.19455E+06         0.00000E+00
   -0.19455E+06         0.11425E+08         0.00000E+00
    0.00000E+00         0.00000E+00         0.32359E+07
 
    0.46207E+07        -0.85481E+05         0.00000E+00
   -0.85481E+05         0.11445E+08         0.00000E+00
    0.00000E+00         0.00000E+00         0.32131E+07
 
    0.44875E+07         0.29632E+05         0.00000E+00
    0.29632E+05         0.11467E+08         0.00000E+00
    0.00000E+00         0.00000E+00         0.31909E+07
 
    0.43545E+07         0.15141E+06         0.00000E+00
    0.15141E+06         0.11493E+08         0.00000E+00
    0.00000E+00         0.00000E+00         0.31695E+07
 
    0.42220E+07         0.28055E+06         0.00000E+00
    0.28055E+06         0.11521E+08         0.00000E+00
    0.00000E+00         0.00000E+00         0.31487E+07
 
    0.40903E+07         0.41784E+06         0.00000E+00
    0.41784E+06         0.11553E+08         0.00000E+00
    0.00000E+00         0.00000E+00         0.31286E+07
 
    0.39599E+07         0.56413E+06         0.00000E+00
    0.56413E+06         0.11587E+08         0.00000E+00
    0.00000E+00         0.00000E+00         0.31095E+07
 
    0.38315E+07         0.72034E+06         0.00000E+00
    0.72034E+06         0.11624E+08         0.00000E+00
    0.00000E+00         0.00000E+00         0.30912E+07
 
    0.37061E+07         0.88747E+06         0.00000E+00
    0.88747E+06         0.11664E+08         0.00000E+00
    0.00000E+00         0.00000E+00         0.30740E+07
 
    0.35848E+07         0.10665E+07         0.00000E+00
    0.10665E+07         0.11705E+08         0.00000E+00
    0.00000E+00         0.00000E+00         0.30580E+07
 
    0.34691E+07         0.12584E+07         0.00000E+00
    0.12584E+07         0.11747E+08         0.00000E+00
    0.00000E+00         0.00000E+00         0.30432E+07
 
    0.33608E+07         0.14641E+07         0.00000E+00
    0.14641E+07         0.11789E+08         0.00000E+00
    0.00000E+00         0.00000E+00         0.30300E+07
 
    0.32620E+07         0.16843E+07         0.00000E+00
    0.16843E+07         0.11830E+08         0.00000E+00
    0.00000E+00         0.00000E+00         0.30184E+07
 
    0.31751E+07         0.19194E+07         0.00000E+00
    0.19194E+07         0.11868E+08         0.00000E+00
    0.00000E+00         0.00000E+00         0.30086E+07
 
    0.31022E+07         0.21695E+07         0.00000E+00
    0.21695E+07         0.11902E+08         0.00000E+00
    0.00000E+00         0.00000E+00         0.30008E+07
 
    0.30455E+07         0.24344E+07         0.00000E+00
    0.24344E+07         0.11929E+08         0.00000E+00
    0.00000E+00         0.00000E+00         0.29949E+07
 
    0.30074E+07         0.27142E+07         0.00000E+00
    0.27142E+07         0.11948E+08         0.00000E+00
    0.00000E+00         0.00000E+00         0.29911E+07
 
    0.29923E+07         0.30103E+07         0.00000E+00
    0.30103E+07         0.11961E+08         0.00000E+00
    0.00000E+00         0.00000E+00         0.29906E+07
 
    0.66236E+07        -0.10286E+06         0.00000E+00
   -0.10286E+06         0.92297E+07         0.00000E+00
    0.00000E+00         0.00000E+00         0.31707E+07
 
    0.66549E+07        -0.27708E+06         0.00000E+00
   -0.27708E+06         0.92409E+07         0.00000E+00
    0.00000E+00         0.00000E+00         0.31792E+07
 
    0.66617E+07        -0.43614E+06         0.00000E+00
   -0.43614E+06         0.92603E+07         0.00000E+00
    0.00000E+00         0.00000E+00         0.31844E+07
 
    0.66468E+07        -0.57931E+06         0.00000E+00
   -0.57931E+06         0.92852E+07         0.00000E+00
    0.00000E+00         0.00000E+00         0.31864E+07
 
    0.66133E+07        -0.70711E+06         0.00000E+00
   -0.70711E+06         0.93147E+07         0.00000E+00
    0.00000E+00         0.00000E+00         0.31856E+07
 
    0.65636E+07        -0.82006E+06         0.00000E+00
   -0.82006E+06         0.93483E+07         0.00000E+00
    0.00000E+00         0.00000E+00         0.31824E+07
 
    0.64999E+07        -0.91846E+06         0.00000E+00
   -0.91846E+06         0.93851E+07         0.00000E+00
    0.00000E+00         0.00000E+00         0.31770E+07
 
    0.64238E+07        -0.10029E+07         0.00000E+00
   -0.10029E+07         0.94242E+07         0.00000E+00
    0.00000E+00         0.00000E+00         0.31696E+07
 
    0.63371E+07        -0.10737E+07         0.00000E+00
   -0.10737E+07         0.94652E+07         0.00000E+00
    0.00000E+00         0.00000E+00         0.31605E+07
 
    0.62413E+07        -0.11312E+07         0.00000E+00
   -0.11312E+07         0.95073E+07         0.00000E+00
    0.00000E+00         0.00000E+00         0.31497E+07
 
    0.61380E+07        -0.11758E+07         0.00000E+00
   -0.11758E+07         0.95496E+07         0.00000E+00
    0.00000E+00         0.00000E+00         0.31375E+07
 
    0.60288E+07        -0.12084E+07         0.00000E+00
   -0.12084E+07         0.95916E+07         0.00000E+00
    0.00000E+00         0.00000E+00         0.31241E+07
 
    0.59149E+07        -0.12295E+07         0.00000E+00
   -0.12295E+07         0.96330E+07         0.00000E+00
    0.00000E+00         0.00000E+00         0.31096E+07
 
    0.57974E+07        -0.12397E+07         0.00000E+00
   -0.12397E+07         0.96734E+07         0.00000E+00
    0.00000E+00         0.00000E+00         0.30942E+07
 
    0.56773E+07        -0.12399E+07         0.00000E+00
   -0.12399E+07         0.97125E+07         0.00000E+00
    0.00000E+00         0.00000E+00         0.30780E+07
 
    0.55555E+07        -0.12307E+07         0.00000E+00
   -0.12307E+07         0.97502E+07         0.00000E+00
    0.00000E+00         0.00000E+00         0.30611E+07
 
    0.54326E+07        -0.12127E+07         0.00000E+00
   -0.12127E+07         0.97864E+07         0.00000E+00
    0.00000E+00         0.00000E+00         0.30438E+07
 
    0.53093E+07        -0.11866E+07         0.00000E+00
   -0.11866E+07         0.98211E+07         0.00000E+00
    0.00000E+00         0.00000E+00         0.30261E+07
 
    0.51859E+07        -0.11529E+07         0.00000E+00
   -0.11529E+07         0.98544E+07         0.00000E+00
    0.00000E+00         0.00000E+00         0.30081E+07
 
    0.50630E+07        -0.11122E+07         0.00000E+00
   -0.11122E+07         0.98863E+07         0.00000E+00
    0.00000E+00         0.00000E+00         0.29898E+07
 
    0.49407E+07        -0.10649E+07         0.00000E+00
   -0.10649E+07         0.99169E+07         0.00000E+00
    0.00000E+00         0.00000E+00         0.29715E+07
 
    0.48193E+07        -0.10115E+07         0.00000E+00
   -0.10115E+07         0.99465E+07         0.00000E+00
    0.00000E+00         0.00000E+00         0.29532E+07
 
    0.46989E+07        -0.95225E+06         0.00000E+00
   -0.95225E+06         0.99752E+07         0.00000E+00
    0.00000E+00         0.00000E+00         0.29348E+07
 
    0.45797E+07        -0.88748E+06         0.00000E+00
   -0.88748E+06         0.10003E+08         0.00000E+00
    0.00000E+00         0.00000E+00         0.29166E+07
 
    0.44617E+07        -0.81740E+06         0.00000E+00
   -0.81740E+06         0.10031E+08         0.00000E+00
    0.00000E+00         0.00000E+00         0.28985E+07
 
    0.43450E+07        -0.74217E+06         0.00000E+00
   -0.74217E+06         0.10058E+08         0.00000E+00
    0.00000E+00         0.00000E+00         0.28806E+07
 
    0.42296E+07        -0.66189E+06         0.00000E+00
   -0.66189E+06         0.10085E+08         0.00000E+00
    0.00000E+00         0.00000E+00         0.28629E+07
 
    0.41156E+07        -0.57660E+06         0.00000E+00
   -0.57660E+06         0.10112E+08         0.00000E+00
    0.00000E+00         0.00000E+00         0.28455E+07
 
    0.40031E+07        -0.48629E+06         0.00000E+00
   -0.48629E+06         0.10139E+08         0.00000E+00
    0.00000E+00         0.00000E+00         0.28284E+07
 
    0.38920E+07        -0.39089E+06         0.00000E+00
   -0.39089E+06         0.10166E+08         0.00000E+00
    0.00000E+00         0.00000E+00         0.28117E+07
 
    0.37826E+07        -0.29028E+06         0.00000E+00
   -0.29028E+06         0.10194E+08         0.00000E+00
    0.00000E+00         0.00000E+00         0.27954E+07
 
    0.36748E+07        -0.18430E+06         0.00000E+00
   -0.18430E+06         0.10223E+08         0.00000E+00
    0.00000E+00         0.00000E+00         0.27795E+07
 
    0.35690E+07        -0.72732E+05         0.00000E+00
   -0.72732E+05         0.10252E+08         0.00000E+00
    0.00000E+00         0.00000E+00         0.27642E+07
 
    0.34652E+07         0.44687E+05         0.00000E+00
    0.44687E+05         0.10282E+08         0.00000E+00
    0.00000E+00         0.00000E+00         0.27494E+07
 
    0.33639E+07         0.16825E+06         0.00000E+00
    0.16825E+06         0.10312E+08         0.00000E+00
    0.00000E+00         0.00000E+00         0.27352E+07
 
    0.32653E+07         0.29830E+06         0.00000E+00
    0.29830E+06         0.10343E+08         0.00000E+00
    0.00000E+00         0.00000E+00         0.27216E+07
 
    0.31699E+07         0.43519E+06         0.00000E+00
    0.43519E+06         0.10374E+08         0.00000E+00
    0.00000E+00         0.00000E+00         0.27088E+07
 
    0.30783E+07         0.57929E+06         0.00000E+00
    0.57929E+06         0.10406E+08         0.00000E+00
    0.00000E+00         0.00000E+00         0.26968E+07
 
    0.29912E+07         0.73100E+06         0.00000E+00
    0.73100E+06         0.10437E+08         0.00000E+00
    0.00000E+00         0.00000E+00         0.26856E+07
 
    0.29092E+07         0.89069E+06         0.00000E+00
    0.89069E+06         0.10468E+08         0.00000E+00
    0.00000E+00         0.00000E+00         0.26754E+07
 
    0.28334E+07         0.10587E+07         0.00000E+00
    0.10587E+07         0.10498E+08         0.00000E+00
    0.00000E+00         0.00000E+00         0.26662E+07
 
    0.27646E+07         0.12354E+07         0.00000E+00
    0.12354E+07         0.10526E+08         0.00000E+00
    0.00000E+00         0.00000E+00         0.26581E+07
 
    0.27041E+07         0.14209E+07         0.00000E+00
    0.14209E+07         0.10552E+08         0.00000E+00
    0.00000E+00         0.00000E+00         0.26513E+07
 
    0.26531E+07         0.16154E+07         0.00000E+00
    0.16154E+07         0.10576E+08         0.00000E+00
    0.00000E+00         0.00000E+00         0.26457E+07
 
    0.26129E+07         0.18189E+07         0.00000E+00
    0.18189E+07         0.10595E+08         0.00000E+00
    0.00000E+00         0.00000E+00         0.26416E+07
 
    0.25848E+07         0.20314E+07         0.00000E+00
    0.20314E+07         0.10610E+08         0.00000E+00
    0.00000E+00         0.00000E+00         0.26390E+07
 
    0.25704E+07         0.22527E+07         0.00000E+00
    0.22527E+07         0.10620E+08         0.00000E+00
    0.00000E+00         0.00000E+00         0.26380E+07
 
    0.25714E+07         0.24826E+07         0.00000E+00
    0.24826E+07         0.10623E+08         0.00000E+00
    0.00000E+00         0.00000E+00         0.26388E+07
 
    0.25894E+07         0.27207E+07         0.00000E+00
    0.27207E+07         0.10618E+08         0.00000E+00
    0.00000E+00         0.00000E+00         0.26415E+07
 
    0.26257E+07         0.29657E+07         0.00000E+00
    0.29657E+07         0.10604E+08         0.00000E+00
    0.00000E+00         0.00000E+00         0.26460E+07
 
    0.43675E+07        -0.76841E+05         0.00000E+00
   -0.76841E+05         0.77684E+07         0.00000E+00
    0.00000E+00         0.00000E+00         0.24272E+07
 
    0.44576E+07        -0.20927E+06         0.00000E+00
   -0.20927E+06         0.77777E+07         0.00000E+00
    0.00000E+00         0.00000E+00         0.24470E+07
 
    0.45260E+07        -0.33227E+06         0.00000E+00
   -0.33227E+06         0.77944E+07         0.00000E+00
    0.00000E+00         0.00000E+00         0.24641E+07
 
    0.45743E+07        -0.44546E+06         0.00000E+00
   -0.44546E+06         0.78179E+07         0.00000E+00
    0.00000E+00         0.00000E+00         0.24784E+07
 
    0.46042E+07        -0.54837E+06         0.00000E+00
   -0.54837E+06         0.78472E+07         0.00000E+00
    0.00000E+00         0.00000E+00         0.24903E+07
 
    0.46173E+07        -0.64078E+06         0.00000E+00
   -0.64078E+06         0.78814E+07         0.00000E+00
    0.00000E+00         0.00000E+00         0.24997E+07
 
    0.46153E+07        -0.72266E+06         0.00000E+00
   -0.72266E+06         0.79195E+07         0.00000E+00
    0.00000E+00         0.00000E+00         0.25070E+07
 
    0.45998E+07        -0.79402E+06         0.00000E+00
   -0.79402E+06         0.79611E+07         0.00000E+00
    0.00000E+00         0.00000E+00         0.25122E+07
 
    0.45722E+07        -0.85498E+06         0.00000E+00
   -0.85498E+06         0.80053E+07         0.00000E+00
    0.00000E+00         0.00000E+00         0.25155E+07
 
    0.45341E+07        -0.90574E+06         0.00000E+00
   -0.90574E+06         0.80516E+07         0.00000E+00
    0.00000E+00         0.00000E+00         0.25171E+07
 
    0.44865E+07        -0.94652E+06         0.00000E+00
   -0.94652E+06         0.80995E+07         0.00000E+00
    0.00000E+00         0.00000E+00         0.25172E+07
 
    0.44307E+07        -0.97753E+06         0.00000E+00
   -0.97753E+06         0.81486E+07         0.00000E+00
    0.00000E+00         0.00000E+00         0.25159E+07
 
    0.43678E+07        -0.99908E+06         0.00000E+00
   -0.99908E+06         0.81983E+07         0.00000E+00
    0.00000E+00         0.00000E+00         0.25132E+07
 
    0.42989E+07        -0.10115E+07         0.00000E+00
   -0.10115E+07         0.82483E+07         0.00000E+00
    0.00000E+00         0.00000E+00         0.25094E+07
 
    0.42248E+07        -0.10151E+07         0.00000E+00
   -0.10151E+07         0.82982E+07         0.00000E+00
    0.00000E+00         0.00000E+00         0.25046E+07
 
    0.41465E+07        -0.10102E+07         0.00000E+00
   -0.10102E+07         0.83479E+07         0.00000E+00
    0.00000E+00         0.00000E+00         0.24989E+07
 
    0.40646E+07        -0.99720E+06         0.00000E+00
   -0.99720E+06         0.83971E+07         0.00000E+00
    0.00000E+00         0.00000E+00         0.24923E+07
 
    0.39800E+07        -0.97647E+06         0.00000E+00
   -0.97647E+06         0.84456E+07         0.00000E+00
    0.00000E+00         0.00000E+00         0.24851E+07
 
    0.38932E+07        -0.94833E+06         0.00000E+00
   -0.94833E+06         0.84933E+07         0.00000E+00
    0.00000E+00         0.00000E+00         0.24773E+07
 
    0.38047E+07        -0.91311E+06         0.00000E+00
   -0.91311E+06         0.85401E+07         0.00000E+00
    0.00000E+00         0.00000E+00         0.24690E+07
 
    0.37150E+07        -0.87112E+06         0.00000E+00
   -0.87112E+06         0.85860E+07         0.00000E+00
    0.00000E+00         0.00000E+00         0.24602E+07
 
    0.36247E+07        -0.82264E+06         0.00000E+00
   -0.82264E+06         0.86309E+07         0.00000E+00
    0.00000E+00         0.00000E+00         0.24511E+07
 
    0.35340E+07        -0.76792E+06         0.00000E+00
   -0.76792E+06         0.86749E+07         0.00000E+00
    0.00000E+00         0.00000E+00         0.24418E+07
 
    0.34434E+07        -0.70718E+06         0.00000E+00
   -0.70718E+06         0.87179E+07         0.00000E+00
    0.00000E+00         0.00000E+00         0.24323E+07
 
    0.33530E+07        -0.64060E+06         0.00000E+00
   -0.64060E+06         0.87601E+07         0.00000E+00
    0.00000E+00         0.00000E+00         0.24226E+07
 
    0.32633E+07        -0.56834E+06         0.00000E+00
   -0.56834E+06         0.88013E+07         0.00000E+00
    0.00000E+00         0.00000E+00         0.24129E+07
 
    0.31745E+07        -0.49052E+06         0.00000E+00
   -0.49052E+06         0.88417E+07         0.00000E+00
    0.00000E+00         0.00000E+00         0.24032E+07
 
    0.30869E+07        -0.40722E+06         0.00000E+00
   -0.40722E+06         0.88812E+07         0.00000E+00
    0.00000E+00         0.00000E+00         0.23936E+07
 
    0.30007E+07        -0.31850E+06         0.00000E+00
   -0.31850E+06         0.89200E+07         0.00000E+00
    0.00000E+00         0.00000E+00         0.23841E+07
 
    0.29162E+07        -0.22437E+06         0.00000E+00
   -0.22437E+06         0.89580E+07         0.00000E+00
    0.00000E+00         0.00000E+00         0.23748E+07
 
    0.28336E+07        -0.12484E+06         0.00000E+00
   -0.12484E+06         0.89951E+07         0.00000E+00
    0.00000E+00         0.00000E+00         0.23658E+07
 
    0.27534E+07        -0.19871E+05         0.00000E+00
   -0.19871E+05         0.90315E+07         0.00000E+00
    0.00000E+00         0.00000E+00         0.23570E+07
 
    0.26758E+07         0.90593E+05         0.00000E+00
    0.90593E+05         0.90670E+07         0.00000E+00
    0.00000E+00         0.00000E+00         0.23486E+07
 
    0.26011E+07         0.20662E+06         0.00000E+00
    0.20662E+06         0.91016E+07         0.00000E+00
    0.00000E+00         0.00000E+00         0.23406E+07
 
    0.25299E+07         0.32830E+06         0.00000E+00
    0.32830E+06         0.91351E+07         0.00000E+00
    0.00000E+00         0.00000E+00         0.23330E+07
 
    0.24625E+07         0.45572E+06         0.00000E+00
    0.45572E+06         0.91674E+07         0.00000E+00
    0.00000E+00         0.00000E+00         0.23260E+07
 
    0.23994E+07         0.58897E+06         0.00000E+00
    0.58897E+06         0.91983E+07         0.00000E+00
    0.00000E+00         0.00000E+00         0.23195E+07
 
    0.23412E+07         0.72814E+06         0.00000E+00
    0.72814E+06         0.92276E+07         0.00000E+00
    0.00000E+00         0.00000E+00         0.23137E+07
 
    0.22884E+07         0.87330E+06         0.00000E+00
    0.87330E+06         0.92549E+07         0.00000E+00
    0.00000E+00         0.00000E+00         0.23087E+07
 
    0.22418E+07         0.10245E+07         0.00000E+00
    0.10245E+07         0.92800E+07         0.00000E+00
    0.00000E+00         0.00000E+00         0.23043E+07
 
    0.22020E+07         0.11817E+07         0.00000E+00
    0.11817E+07         0.93024E+07         0.00000E+00
    0.00000E+00         0.00000E+00         0.23009E+07
 
    0.21697E+07         0.13450E+07         0.00000E+00
    0.13450E+07         0.93218E+07         0.00000E+00
    0.00000E+00         0.00000E+00         0.22983E+07
 
    0.21459E+07         0.15141E+07         0.00000E+00
    0.15141E+07         0.93377E+07         0.00000E+00
    0.00000E+00         0.00000E+00         0.22967E+07
 
    0.21313E+07         0.16891E+07         0.00000E+00
    0.16891E+07         0.93495E+07         0.00000E+00
    0.00000E+00         0.00000E+00         0.22962E+07
 
    0.21267E+07         0.18696E+07         0.00000E+00
    0.18696E+07         0.93568E+07         0.00000E+00
    0.00000E+00         0.00000E+00         0.22967E+07
 
    0.21333E+07         0.20554E+07         0.00000E+00
    0.20554E+07         0.93590E+07         0.00000E+00
    0.00000E+00         0.00000E+00         0.22985E+07
 
    0.21518E+07         0.22462E+07         0.00000E+00
    0.22462E+07         0.93554E+07         0.00000E+00
    0.00000E+00         0.00000E+00         0.23014E+07
 
    0.21832E+07         0.24413E+07         0.00000E+00
    0.24413E+07         0.93454E+07         0.00000E+00
    0.00000E+00         0.00000E+00         0.23057E+07
 
    0.22285E+07         0.26403E+07         0.00000E+00
    0.26403E+07         0.93284E+07         0.00000E+00
    0.00000E+00         0.00000E+00         0.23114E+07
 
    0.22886E+07         0.28426E+07         0.00000E+00
    0.28426E+07         0.93040E+07         0.00000E+00
    0.00000E+00         0.00000E+00         0.23185E+07
 
    0.25511E+07        -0.53311E+05         0.00000E+00
   -0.53311E+05         0.65372E+07         0.00000E+00
    0.00000E+00         0.00000E+00         0.18177E+07
 
    0.26780E+07        -0.14835E+06         0.00000E+00
   -0.14835E+06         0.65455E+07         0.00000E+00
    0.00000E+00         0.00000E+00         0.18447E+07
 
    0.27854E+07        -0.23757E+06         0.00000E+00
   -0.23757E+06         0.65606E+07         0.00000E+00
    0.00000E+00         0.00000E+00         0.18692E+07
 
    0.28746E+07        -0.32051E+06         0.00000E+00
   -0.32051E+06         0.65818E+07         0.00000E+00
    0.00000E+00         0.00000E+00         0.18913E+07
 
    0.29470E+07        -0.39684E+06         0.00000E+00
   -0.39684E+06         0.66084E+07         0.00000E+00
    0.00000E+00         0.00000E+00         0.19111E+07
 
    0.30037E+07        -0.46622E+06         0.00000E+00
   -0.46622E+06         0.66400E+07         0.00000E+00
    0.00000E+00         0.00000E+00         0.19287E+07
 
    0.30460E+07        -0.52839E+06         0.00000E+00
   -0.52839E+06         0.66759E+07         0.00000E+00
    0.00000E+00         0.00000E+00         0.19444E+07
 
    0.30750E+07        -0.58317E+06         0.00000E+00
   -0.58317E+06         0.67156E+07         0.00000E+00
    0.00000E+00         0.00000E+00         0.19581E+07
 
    0.30919E+07        -0.63043E+06         0.00000E+00
   -0.63043E+06         0.67585E+07         0.00000E+00
    0.00000E+00         0.00000E+00         0.19701E+07
 
    0.30978E+07        -0.67010E+06         0.00000E+00
   -0.67010E+06         0.68040E+07         0.00000E+00
    0.00000E+00         0.00000E+00         0.19804E+07
 
    0.30937E+07        -0.70218E+06         0.00000E+00
   -0.70218E+06         0.68518E+07         0.00000E+00
    0.00000E+00         0.00000E+00         0.19891E+07
 
    0.30807E+07        -0.72669E+06         0.00000E+00
   -0.72669E+06         0.69014E+07         0.00000E+00
    0.00000E+00         0.00000E+00         0.19964E+07
 
    0.30596E+07        -0.74370E+06         0.00000E+00
   -0.74370E+06         0.69524E+07         0.00000E+00
    0.00000E+00         0.00000E+00         0.20024E+07
 
    0.30314E+07        -0.75331E+06         0.00000E+00
   -0.75331E+06         0.70044E+07         0.00000E+00
    0.00000E+00         0.00000E+00         0.20072E+07
 
    0.29969E+07        -0.75565E+06         0.00000E+00
   -0.75565E+06         0.70572E+07         0.00000E+00
    0.00000E+00         0.00000E+00         0.20108E+07
 
    0.29569E+07        -0.75084E+06         0.00000E+00
   -0.75084E+06         0.71103E+07         0.00000E+00
    0.00000E+00         0.00000E+00         0.20134E+07
 
    0.29121E+07        -0.73905E+06         0.00000E+00
   -0.73905E+06         0.71636E+07         0.00000E+00
    0.00000E+00         0.00000E+00         0.20152E+07
 
    0.28633E+07        -0.72045E+06         0.00000E+00
   -0.72045E+06         0.72169E+07         0.00000E+00
    0.00000E+00         0.00000E+00         0.20160E+07
 
    0.28110E+07        -0.69521E+06         0.00000E+00
   -0.69521E+06         0.72698E+07         0.00000E+00
    0.00000E+00         0.00000E+00         0.20162E+07
 
    0.27558E+07        -0.66351E+06         0.00000E+00
   -0.66351E+06         0.73223E+07         0.00000E+00
    0.00000E+00         0.00000E+00         0.20156E+07
 
    0.26984E+07        -0.62551E+06         0.00000E+00
   -0.62551E+06         0.73742E+07         0.00000E+00
    0.00000E+00         0.00000E+00         0.20145E+07
 
    0.26392E+07        -0.58139E+06         0.00000E+00
   -0.58139E+06         0.74253E+07         0.00000E+00
    0.00000E+00         0.00000E+00         0.20129E+07
 
    0.25786E+07        -0.53131E+06         0.00000E+00
   -0.53131E+06         0.74756E+07         0.00000E+00
    0.00000E+00         0.00000E+00         0.20109E+07
 
    0.25172E+07        -0.47542E+06         0.00000E+00
   -0.47542E+06         0.75250E+07         0.00000E+00
    0.00000E+00         0.00000E+00         0.20084E+07
 
    0.24554E+07        -0.41385E+06         0.00000E+00
   -0.41385E+06         0.75733E+07         0.00000E+00
    0.00000E+00         0.00000E+00         0.20058E+07
 
    0.23936E+07        -0.34674E+06         0.00000E+00
   -0.34674E+06         0.76206E+07         0.00000E+00
    0.00000E+00         0.00000E+00         0.20028E+07
 
    0.23322E+07        -0.27419E+06         0.00000E+00
   -0.27419E+06         0.76666E+07         0.00000E+00
    0.00000E+00         0.00000E+00         0.19998E+07
 
    0.22715E+07        -0.19632E+06         0.00000E+00
   -0.19632E+06         0.77114E+07         0.00000E+00
    0.00000E+00         0.00000E+00         0.19966E+07
 
    0.22119E+07        -0.11319E+06         0.00000E+00
   -0.11319E+06         0.77548E+07         0.00000E+00
    0.00000E+00         0.00000E+00         0.19933E+07
 
    0.21538E+07        -0.24900E+05         0.00000E+00
   -0.24900E+05         0.77969E+07         0.00000E+00
    0.00000E+00         0.00000E+00         0.19901E+07
 
    0.20976E+07         0.68499E+05         0.00000E+00
    0.68499E+05         0.78374E+07         0.00000E+00
    0.00000E+00         0.00000E+00         0.19870E+07
 
    0.20436E+07         0.16694E+06         0.00000E+00
    0.16694E+06         0.78763E+07         0.00000E+00
    0.00000E+00         0.00000E+00         0.19840E+07
 
    0.19923E+07         0.27039E+06         0.00000E+00
    0.27039E+06         0.79136E+07         0.00000E+00
    0.00000E+00         0.00000E+00         0.19812E+07
 
    0.19440E+07         0.37877E+06         0.00000E+00
    0.37877E+06         0.79489E+07         0.00000E+00
    0.00000E+00         0.00000E+00         0.19786E+07
 
    0.18992E+07         0.49205E+06         0.00000E+00
    0.49205E+06         0.79823E+07         0.00000E+00
    0.00000E+00         0.00000E+00         0.19763E+07
 
    0.18582E+07         0.61017E+06         0.00000E+00
    0.61017E+06         0.80135E+07         0.00000E+00
    0.00000E+00         0.00000E+00         0.19743E+07
 
    0.18216E+07         0.73306E+06         0.00000E+00
    0.73306E+06         0.80423E+07         0.00000E+00
    0.00000E+00         0.00000E+00         0.19728E+07
 
    0.17898E+07         0.86065E+06         0.00000E+00
    0.86065E+06         0.80686E+07         0.00000E+00
    0.00000E+00         0.00000E+00         0.19717E+07
 
    0.17632E+07         0.99283E+06         0.00000E+00
    0.99283E+06         0.80920E+07         0.00000E+00
    0.00000E+00         0.00000E+00         0.19711E+07
 
    0.17426E+07         0.11295E+07         0.00000E+00
    0.11295E+07         0.81124E+07         0.00000E+00
    0.00000E+00         0.00000E+00         0.19710E+07
 
    0.17282E+07         0.12705E+07         0.00000E+00
    0.12705E+07         0.81294E+07         0.00000E+00
    0.00000E+00         0.00000E+00         0.19715E+07
 
    0.17208E+07         0.14156E+07         0.00000E+00
    0.14156E+07         0.81427E+07         0.00000E+00
    0.00000E+00         0.00000E+00         0.19727E+07
 
    0.17208E+07         0.15646E+07         0.00000E+00
    0.15646E+07         0.81521E+07         0.00000E+00
    0.00000E+00         0.00000E+00         0.19746E+07
 
    0.17289E+07         0.17173E+07         0.00000E+00
    0.17173E+07         0.81571E+07         0.00000E+00
    0.00000E+00         0.00000E+00         0.19772E+07
 
    0.17456E+07         0.18734E+07         0.00000E+00
    0.18734E+07         0.81575E+07         0.00000E+00
    0.00000E+00         0.00000E+00         0.19806E+07
 
    0.17715E+07         0.20324E+07         0.00000E+00
    0.20324E+07         0.81528E+07         0.00000E+00
    0.00000E+00         0.00000E+00         0.19849E+07
 
    0.18072E+07         0.21939E+07         0.00000E+00
    0.21939E+07         0.81427E+07         0.00000E+00
    0.00000E+00         0.00000E+00         0.19900E+07
 
    0.18531E+07         0.23576E+07         0.00000E+00
    0.23576E+07         0.81269E+07         0.00000E+00
    0.00000E+00         0.00000E+00         0.19960E+07
 
    0.19100E+07         0.25227E+07         0.00000E+00
    0.25227E+07         0.81050E+07         0.00000E+00
    0.00000E+00         0.00000E+00         0.20030E+07
 
    0.19782E+07         0.26888E+07         0.00000E+00
    0.26888E+07         0.80766E+07         0.00000E+00
    0.00000E+00         0.00000E+00         0.20110E+07
 
    0.11156E+07        -0.33492E+05         0.00000E+00
   -0.33492E+05         0.55015E+07         0.00000E+00
    0.00000E+00         0.00000E+00         0.13234E+07
 
    0.12627E+07        -0.95187E+05         0.00000E+00
   -0.95187E+05         0.55085E+07         0.00000E+00
    0.00000E+00         0.00000E+00         0.13542E+07
 
    0.13930E+07        -0.15389E+06         0.00000E+00
   -0.15389E+06         0.55214E+07         0.00000E+00
    0.00000E+00         0.00000E+00         0.13829E+07
 
    0.15074E+07        -0.20908E+06         0.00000E+00
   -0.20908E+06         0.55398E+07         0.00000E+00
    0.00000E+00         0.00000E+00         0.14094E+07
 
    0.16069E+07        -0.26031E+06         0.00000E+00
   -0.26031E+06         0.55632E+07         0.00000E+00
    0.00000E+00         0.00000E+00         0.14340E+07
 
    0.16923E+07        -0.30719E+06         0.00000E+00
   -0.30719E+06         0.55912E+07         0.00000E+00
    0.00000E+00         0.00000E+00         0.14567E+07
 
    0.17647E+07        -0.34940E+06         0.00000E+00
   -0.34940E+06         0.56232E+07         0.00000E+00
    0.00000E+00         0.00000E+00         0.14776E+07
 
    0.18248E+07        -0.38667E+06         0.00000E+00
   -0.38667E+06         0.56590E+07         0.00000E+00
    0.00000E+00         0.00000E+00         0.14968E+07
 
    0.18736E+07        -0.41874E+06         0.00000E+00
   -0.41874E+06         0.56980E+07         0.00000E+00
    0.00000E+00         0.00000E+00         0.15143E+07
 
    0.19119E+07        -0.44546E+06         0.00000E+00
   -0.44546E+06         0.57398E+07         0.00000E+00
    0.00000E+00         0.00000E+00         0.15303E+07
 
    0.19405E+07        -0.46666E+06         0.00000E+00
   -0.46666E+06         0.57840E+07         0.00000E+00
    0.00000E+00         0.00000E+00         0.15449E+07
 
    0.19603E+07        -0.48223E+06         0.00000E+00
   -0.48223E+06         0.58303E+07         0.00000E+00
    0.00000E+00         0.00000E+00         0.15581E+07
 
    0.19721E+07        -0.49212E+06         0.00000E+00
   -0.49212E+06         0.58784E+07         0.00000E+00
    0.00000E+00         0.00000E+00         0.15701E+07
 
    0.19765E+07        -0.49628E+06         0.00000E+00
   -0.49628E+06         0.59278E+07         0.00000E+00
    0.00000E+00         0.00000E+00         0.15809E+07
 
    0.19743E+07        -0.49469E+06         0.00000E+00
   -0.49469E+06         0.59783E+07         0.00000E+00
    0.00000E+00         0.00000E+00         0.15905E+07
 
    0.19662E+07        -0.48737E+06         0.00000E+00
   -0.48737E+06         0.60297E+07         0.00000E+00
    0.00000E+00         0.00000E+00         0.15992E+07
 
    0.19528E+07        -0.47434E+06         0.00000E+00
   -0.47434E+06         0.60815E+07         0.00000E+00
    0.00000E+00         0.00000E+00         0.16069E+07
 
    0.19348E+07        -0.45566E+06         0.00000E+00
   -0.45566E+06         0.61336E+07         0.00000E+00
    0.00000E+00         0.00000E+00         0.16137E+07
 
    0.19128E+07        -0.43137E+06         0.00000E+00
   -0.43137E+06         0.61858E+07         0.00000E+00
    0.00000E+00         0.00000E+00         0.16197E+07
 
    0.18873E+07        -0.40156E+06         0.00000E+00
   -0.40156E+06         0.62378E+07         0.00000E+00
    0.00000E+00         0.00000E+00         0.16250E+07
 
    0.18589E+07        -0.36629E+06         0.00000E+00
   -0.36629E+06         0.62894E+07         0.00000E+00
    0.00000E+00         0.00000E+00         0.16297E+07
 
    0.18281E+07        -0.32567E+06         0.00000E+00
   -0.32567E+06         0.63406E+07         0.00000E+00
    0.00000E+00         0.00000E+00         0.16337E+07
 
    0.17954E+07        -0.27977E+06         0.00000E+00
   -0.27977E+06         0.63910E+07         0.00000E+00
    0.00000E+00         0.00000E+00         0.16373E+07
 
    0.17612E+07        -0.22870E+06         0.00000E+00
   -0.22870E+06         0.64405E+07         0.00000E+00
    0.00000E+00         0.00000E+00         0.16403E+07
 
    0.17261E+07        -0.17254E+06         0.00000E+00
   -0.17254E+06         0.64891E+07         0.00000E+00
    0.00000E+00         0.00000E+00         0.16430E+07
 
    0.16904E+07        -0.11139E+06         0.00000E+00
   -0.11139E+06         0.65365E+07         0.00000E+00
    0.00000E+00         0.00000E+00         0.16454E+07
 
    0.16545E+07        -0.45354E+05         0.00000E+00
   -0.45354E+05         0.65826E+07         0.00000E+00
    0.00000E+00         0.00000E+00         0.16474E+07
 
    0.16189E+07         0.25483E+05         0.00000E+00
    0.25483E+05         0.66273E+07         0.00000E+00
    0.00000E+00         0.00000E+00         0.16492E+07
 
    0.15841E+07         0.10102E+06         0.00000E+00
    0.10102E+06         0.66704E+07         0.00000E+00
    0.00000E+00         0.00000E+00         0.16509E+07
 
    0.15502E+07         0.18117E+06         0.00000E+00
    0.18117E+06         0.67119E+07         0.00000E+00
    0.00000E+00         0.00000E+00         0.16524E+07
 
    0.15179E+07         0.26582E+06         0.00000E+00
    0.26582E+06         0.67516E+07         0.00000E+00
    0.00000E+00         0.00000E+00         0.16539E+07
 
    0.14874E+07         0.35489E+06         0.00000E+00
    0.35489E+06         0.67893E+07         0.00000E+00
    0.00000E+00         0.00000E+00         0.16553E+07
 
    0.14591E+07         0.44826E+06         0.00000E+00
    0.44826E+06         0.68249E+07         0.00000E+00
    0.00000E+00         0.00000E+00         0.16568E+07
 
    0.14334E+07         0.54582E+06         0.00000E+00
    0.54582E+06         0.68583E+07         0.00000E+00
    0.00000E+00         0.00000E+00         0.16583E+07
 
    0.14107E+07         0.64747E+06         0.00000E+00
    0.64747E+06         0.68893E+07         0.00000E+00
    0.00000E+00         0.00000E+00         0.16600E+07
 
    0.13914E+07         0.75306E+06         0.00000E+00
    0.75306E+06         0.69178E+07         0.00000E+00
    0.00000E+00         0.00000E+00         0.16618E+07
 
    0.13759E+07         0.86247E+06         0.00000E+00
    0.86247E+06         0.69435E+07         0.00000E+00
    0.00000E+00         0.00000E+00         0.16639E+07
 
    0.13646E+07         0.97554E+06         0.00000E+00
    0.97554E+06         0.69662E+07         0.00000E+00
    0.00000E+00         0.00000E+00         0.16662E+07
 
    0.13578E+07         0.10921E+07         0.00000E+00
    0.10921E+07         0.69859E+07         0.00000E+00
    0.00000E+00         0.00000E+00         0.16687E+07
 
    0.13559E+07         0.12119E+07         0.00000E+00
    0.12119E+07         0.70023E+07         0.00000E+00
    0.00000E+00         0.00000E+00         0.16716E+07
 
    0.13595E+07         0.13349E+07         0.00000E+00
    0.13349E+07         0.70151E+07         0.00000E+00
    0.00000E+00         0.00000E+00         0.16749E+07
 
    0.13687E+07         0.14606E+07         0.00000E+00
    0.14606E+07         0.70242E+07         0.00000E+00
    0.00000E+00         0.00000E+00         0.16786E+07
 
    0.13842E+07         0.15890E+07         0.00000E+00
    0.15890E+07         0.70293E+07         0.00000E+00
    0.00000E+00         0.00000E+00         0.16827E+07
 
    0.14061E+07         0.17196E+07         0.00000E+00
    0.17196E+07         0.70303E+07         0.00000E+00
    0.00000E+00         0.00000E+00         0.16873E+07
 
    0.14349E+07         0.18522E+07         0.00000E+00
    0.18522E+07         0.70268E+07         0.00000E+00
    0.00000E+00         0.00000E+00         0.16924E+07
 
    0.14710E+07         0.19863E+07         0.00000E+00
    0.19863E+07         0.70188E+07         0.00000E+00
    0.00000E+00         0.00000E+00         0.16980E+07
 
    0.15146E+07         0.21216E+07         0.00000E+00
    0.21216E+07         0.70060E+07         0.00000E+00
    0.00000E+00         0.00000E+00         0.17041E+07
 
    0.15662E+07         0.22577E+07         0.00000E+00
    0.22577E+07         0.69881E+07         0.00000E+00
    0.00000E+00         0.00000E+00         0.17109E+07
 
    0.16259E+07         0.23940E+07         0.00000E+00
    0.23940E+07         0.69650E+07         0.00000E+00
    0.00000E+00         0.00000E+00         0.17182E+07
 
    0.16940E+07         0.25301E+07         0.00000E+00
    0.25301E+07         0.69366E+07         0.00000E+00
    0.00000E+00         0.00000E+00         0.17261E+07
 
    0.43340E+04        -0.17007E+05         0.00000E+00
   -0.17007E+05         0.46299E+07         0.00000E+00
    0.00000E+00         0.00000E+00         0.92685E+06
 
    0.15993E+06        -0.50295E+05         0.00000E+00
   -0.50295E+05         0.46357E+07         0.00000E+00
    0.00000E+00         0.00000E+00         0.95912E+06
 
    0.30137E+06        -0.82546E+05         0.00000E+00
   -0.82546E+05         0.46464E+07         0.00000E+00
    0.00000E+00         0.00000E+00         0.98956E+06
 
    0.42930E+06        -0.11327E+06         0.00000E+00
   -0.11327E+06         0.46619E+07         0.00000E+00
    0.00000E+00         0.00000E+00         0.10182E+07
 
    0.54439E+06        -0.14203E+06         0.00000E+00
   -0.14203E+06         0.46817E+07         0.00000E+00
    0.00000E+00         0.00000E+00         0.10452E+07
 
    0.64732E+06        -0.16842E+06         0.00000E+00
   -0.16842E+06         0.47056E+07         0.00000E+00
    0.00000E+00         0.00000E+00         0.10706E+07
 
    0.73876E+06        -0.19207E+06         0.00000E+00
   -0.19207E+06         0.47331E+07         0.00000E+00
    0.00000E+00         0.00000E+00         0.10944E+07
 
    0.81937E+06        -0.21266E+06         0.00000E+00
   -0.21266E+06         0.47639E+07         0.00000E+00
    0.00000E+00         0.00000E+00         0.11167E+07
 
    0.88983E+06        -0.22993E+06         0.00000E+00
   -0.22993E+06         0.47978E+07         0.00000E+00
    0.00000E+00         0.00000E+00         0.11375E+07
 
    0.95080E+06        -0.24361E+06         0.00000E+00
   -0.24361E+06         0.48344E+07         0.00000E+00
    0.00000E+00         0.00000E+00         0.11570E+07
 
    0.10029E+07        -0.25351E+06         0.00000E+00
   -0.25351E+06         0.48733E+07         0.00000E+00
    0.00000E+00         0.00000E+00         0.11752E+07
 
    0.10468E+07        -0.25944E+06         0.00000E+00
   -0.25944E+06         0.49142E+07         0.00000E+00
    0.00000E+00         0.00000E+00         0.11922E+07
 
    0.10832E+07        -0.26127E+06         0.00000E+00
   -0.26127E+06         0.49570E+07         0.00000E+00
    0.00000E+00         0.00000E+00         0.12080E+07
 
    0.11125E+07        -0.25886E+06         0.00000E+00
   -0.25886E+06         0.50012E+07         0.00000E+00
    0.00000E+00         0.00000E+00         0.12227E+07
 
    0.11355E+07        -0.25212E+06         0.00000E+00
   -0.25212E+06         0.50466E+07         0.00000E+00
    0.00000E+00         0.00000E+00         0.12364E+07
 
    0.11527E+07        -0.24100E+06         0.00000E+00
   -0.24100E+06         0.50930E+07         0.00000E+00
    0.00000E+00         0.00000E+00         0.12491E+07
 
    0.11646E+07        -0.22543E+06         0.00000E+00
   -0.22543E+06         0.51401E+07         0.00000E+00
    0.00000E+00         0.00000E+00         0.12609E+07
 
    0.11718E+07        -0.20538E+06         0.00000E+00
   -0.20538E+06         0.51876E+07         0.00000E+00
    0.00000E+00         0.00000E+00         0.12719E+07
 
    0.11749E+07        -0.18086E+06         0.00000E+00
   -0.18086E+06         0.52354E+07         0.00000E+00
    0.00000E+00         0.00000E+00         0.12821E+07
 
    0.11743E+07        -0.15185E+06         0.00000E+00
   -0.15185E+06         0.52832E+07         0.00000E+00
    0.00000E+00         0.00000E+00         0.12915E+07
 
    0.11705E+07        -0.11838E+06         0.00000E+00
   -0.11838E+06         0.53307E+07         0.00000E+00
    0.00000E+00         0.00000E+00         0.13002E+07
 
    0.11640E+07        -0.80472E+05         0.00000E+00
   -0.80472E+05         0.53779E+07         0.00000E+00
    0.00000E+00         0.00000E+00         0.13084E+07
 
    0.11552E+07        -0.38167E+05         0.00000E+00
   -0.38167E+05         0.54246E+07         0.00000E+00
    0.00000E+00         0.00000E+00         0.13160E+07
 
    0.11447E+07         0.84849E+04         0.00000E+00
    0.84849E+04         0.54704E+07         0.00000E+00
    0.00000E+00         0.00000E+00         0.13230E+07
 
    0.11328E+07         0.59427E+05         0.00000E+00
    0.59427E+05         0.55154E+07         0.00000E+00
    0.00000E+00         0.00000E+00         0.13296E+07
 
    0.11199E+07         0.11459E+06         0.00000E+00
    0.11459E+06         0.55592E+07         0.00000E+00
    0.00000E+00         0.00000E+00         0.13358E+07
 
    0.11064E+07         0.17391E+06         0.00000E+00
    0.17391E+06         0.56019E+07         0.00000E+00
    0.00000E+00         0.00000E+00         0.13417E+07
 
    0.10928E+07         0.23730E+06         0.00000E+00
    0.23730E+06         0.56431E+07         0.00000E+00
    0.00000E+00         0.00000E+00         0.13472E+07
 
    0.10793E+07         0.30467E+06         0.00000E+00
    0.30467E+06         0.56828E+07         0.00000E+00
    0.00000E+00         0.00000E+00         0.13524E+07
 
    0.10665E+07         0.37593E+06         0.00000E+00
    0.37593E+06         0.57207E+07         0.00000E+00
    0.00000E+00         0.00000E+00         0.13574E+07
 
    0.10546E+07         0.45098E+06         0.00000E+00
    0.45098E+06         0.57568E+07         0.00000E+00
    0.00000E+00         0.00000E+00         0.13623E+07
 
    0.10440E+07         0.52971E+06         0.00000E+00
    0.52971E+06         0.57910E+07         0.00000E+00
    0.00000E+00         0.00000E+00         0.13670E+07
 
    0.10351E+07         0.61200E+06         0.00000E+00
    0.61200E+06         0.58229E+07         0.00000E+00
    0.00000E+00         0.00000E+00         0.13716E+07
 
    0.10281E+07         0.69772E+06         0.00000E+00
    0.69772E+06         0.58526E+07         0.00000E+00
    0.00000E+00         0.00000E+00         0.13761E+07
 
    0.10235E+07         0.78674E+06         0.00000E+00
    0.78674E+06         0.58798E+07         0.00000E+00
    0.00000E+00         0.00000E+00         0.13807E+07
 
    0.10215E+07         0.87890E+06         0.00000E+00
    0.87890E+06         0.59045E+07         0.00000E+00
    0.00000E+00         0.00000E+00         0.13852E+07
 
    0.10225E+07         0.97405E+06         0.00000E+00
    0.97405E+06         0.59264E+07         0.00000E+00
    0.00000E+00         0.00000E+00         0.13898E+07
 
    0.10268E+07         0.10720E+07         0.00000E+00
    0.10720E+07         0.59453E+07         0.00000E+00
    0.00000E+00         0.00000E+00         0.13944E+07
 
    0.10347E+07         0.11726E+07         0.00000E+00
    0.11726E+07         0.59613E+07         0.00000E+00
    0.00000E+00         0.00000E+00         0.13992E+07
 
    0.10465E+07         0.12756E+07         0.00000E+00
    0.12756E+07         0.59740E+07         0.00000E+00
    0.00000E+00         0.00000E+00         0.14041E+07
 
    0.10625E+07         0.13808E+07         0.00000E+00
    0.13808E+07         0.59834E+07         0.00000E+00
    0.00000E+00         0.00000E+00         0.14092E+07
 
    0.10830E+07         0.14879E+07         0.00000E+00
    0.14879E+07         0.59893E+07         0.00000E+00
    0.00000E+00         0.00000E+00         0.14145E+07
 
    0.11083E+07         0.15967E+07         0.00000E+00
    0.15967E+07         0.59915E+07         0.00000E+00
    0.00000E+00         0.00000E+00         0.14199E+07
 
    0.11385E+07         0.17069E+07         0.00000E+00
    0.17069E+07         0.59899E+07         0.00000E+00
    0.00000E+00         0.00000E+00         0.14257E+07
 
    0.11739E+07         0.18183E+07         0.00000E+00
    0.18183E+07         0.59844E+07         0.00000E+00
    0.00000E+00         0.00000E+00         0.14317E+07
 
    0.12148E+07         0.19303E+07         0.00000E+00
    0.19303E+07         0.59749E+07         0.00000E+00
    0.00000E+00         0.00000E+00         0.14379E+07
 
    0.12613E+07         0.20429E+07         0.00000E+00
    0.20429E+07         0.59611E+07         0.00000E+00
    0.00000E+00         0.00000E+00         0.14445E+07
 
    0.13137E+07         0.21554E+07         0.00000E+00
    0.21554E+07         0.59432E+07         0.00000E+00
    0.00000E+00         0.00000E+00         0.14514E+07
 
    0.13719E+07         0.22676E+07         0.00000E+00
    0.22676E+07         0.59208E+07         0.00000E+00
    0.00000E+00         0.00000E+00         0.14585E+07
 
    0.14362E+07         0.23791E+07         0.00000E+00
    0.23791E+07         0.58940E+07         0.00000E+00
    0.00000E+00         0.00000E+00         0.14660E+07
 
   -0.83487E+06        -0.36808E+04         0.00000E+00
   -0.36808E+04         0.38964E+07         0.00000E+00
    0.00000E+00         0.00000E+00         0.61231E+06
 
   -0.67905E+06        -0.13439E+05         0.00000E+00
   -0.13439E+05         0.39010E+07         0.00000E+00
    0.00000E+00         0.00000E+00         0.64439E+06
 
   -0.53491E+06        -0.23562E+05         0.00000E+00
   -0.23562E+05         0.39098E+07         0.00000E+00
    0.00000E+00         0.00000E+00         0.67497E+06
 
   -0.40199E+06        -0.33586E+05         0.00000E+00
   -0.33586E+05         0.39224E+07         0.00000E+00
    0.00000E+00         0.00000E+00         0.70407E+06
 
   -0.27982E+06        -0.43087E+05         0.00000E+00
   -0.43087E+05         0.39386E+07         0.00000E+00
    0.00000E+00         0.00000E+00         0.73176E+06
 
   -0.16792E+06        -0.51673E+05         0.00000E+00
   -0.51673E+05         0.39582E+07         0.00000E+00
    0.00000E+00         0.00000E+00         0.75807E+06
 
   -0.65800E+05        -0.58988E+05         0.00000E+00
   -0.58988E+05         0.39810E+07         0.00000E+00
    0.00000E+00         0.00000E+00         0.78305E+06
 
    0.27031E+05        -0.64704E+05         0.00000E+00
   -0.64704E+05         0.40067E+07         0.00000E+00
    0.00000E+00         0.00000E+00         0.80675E+06
 
    0.11107E+06        -0.68528E+05         0.00000E+00
   -0.68528E+05         0.40350E+07         0.00000E+00
    0.00000E+00         0.00000E+00         0.82921E+06
 
    0.18681E+06        -0.70194E+05         0.00000E+00
   -0.70194E+05         0.40657E+07         0.00000E+00
    0.00000E+00         0.00000E+00         0.85050E+06
 
    0.25476E+06        -0.69466E+05         0.00000E+00
   -0.69466E+05         0.40985E+07         0.00000E+00
    0.00000E+00         0.00000E+00         0.87065E+06
 
    0.31540E+06        -0.66137E+05         0.00000E+00
   -0.66137E+05         0.41332E+07         0.00000E+00
    0.00000E+00         0.00000E+00         0.88972E+06
 
    0.36922E+06        -0.60022E+05         0.00000E+00
   -0.60022E+05         0.41696E+07         0.00000E+00
    0.00000E+00         0.00000E+00         0.90776E+06
 
    0.41671E+06        -0.50964E+05         0.00000E+00
   -0.50964E+05         0.42073E+07         0.00000E+00
    0.00000E+00         0.00000E+00         0.92481E+06
 
    0.45834E+06        -0.38828E+05         0.00000E+00
   -0.38828E+05         0.42463E+07         0.00000E+00
    0.00000E+00         0.00000E+00         0.94092E+06
 
    0.49458E+06        -0.23500E+05         0.00000E+00
   -0.23500E+05         0.42861E+07         0.00000E+00
    0.00000E+00         0.00000E+00         0.95615E+06
 
    0.52589E+06        -0.48874E+04         0.00000E+00
   -0.48874E+04         0.43267E+07         0.00000E+00
    0.00000E+00         0.00000E+00         0.97053E+06
 
    0.55273E+06         0.17084E+05         0.00000E+00
    0.17084E+05         0.43679E+07         0.00000E+00
    0.00000E+00         0.00000E+00         0.98412E+06
 
    0.57552E+06         0.42470E+05         0.00000E+00
    0.42470E+05         0.44093E+07         0.00000E+00
    0.00000E+00         0.00000E+00         0.99696E+06
 
    0.59471E+06         0.71310E+05         0.00000E+00
    0.71310E+05         0.44508E+07         0.00000E+00
    0.00000E+00         0.00000E+00         0.10091E+07
 
    0.61071E+06         0.10363E+06         0.00000E+00
    0.10363E+06         0.44922E+07         0.00000E+00
    0.00000E+00         0.00000E+00         0.10206E+07
 
    0.62393E+06         0.13944E+06         0.00000E+00
    0.13944E+06         0.45334E+07         0.00000E+00
    0.00000E+00         0.00000E+00         0.10315E+07
 
    0.63477E+06         0.17873E+06         0.00000E+00
    0.17873E+06         0.45741E+07         0.00000E+00
    0.00000E+00         0.00000E+00         0.10418E+07
 
    0.64362E+06         0.22149E+06         0.00000E+00
    0.22149E+06         0.46141E+07         0.00000E+00
    0.00000E+00         0.00000E+00         0.10515E+07
 
    0.65085E+06         0.26770E+06         0.00000E+00
    0.26770E+06         0.46533E+07         0.00000E+00
    0.00000E+00         0.00000E+00         0.10608E+07
 
    0.65683E+06         0.31730E+06         0.00000E+00
    0.31730E+06         0.46916E+07         0.00000E+00
    0.00000E+00         0.00000E+00         0.10697E+07
 
    0.66193E+06         0.37026E+06         0.00000E+00
    0.37026E+06         0.47287E+07         0.00000E+00
    0.00000E+00         0.00000E+00         0.10781E+07
 
    0.66648E+06         0.42651E+06         0.00000E+00
    0.42651E+06         0.47646E+07         0.00000E+00
    0.00000E+00         0.00000E+00         0.10862E+07
 
    0.67082E+06         0.48599E+06         0.00000E+00
    0.48599E+06         0.47990E+07         0.00000E+00
    0.00000E+00         0.00000E+00         0.10940E+07
 
    0.67529E+06         0.54860E+06         0.00000E+00
    0.54860E+06         0.48318E+07         0.00000E+00
    0.00000E+00         0.00000E+00         0.11014E+07
 
    0.68019E+06         0.61427E+06         0.00000E+00
    0.61427E+06         0.48628E+07         0.00000E+00
    0.00000E+00         0.00000E+00         0.11086E+07
 
    0.68585E+06         0.68288E+06         0.00000E+00
    0.68288E+06         0.48920E+07         0.00000E+00
    0.00000E+00         0.00000E+00         0.11156E+07
 
    0.69256E+06         0.75434E+06         0.00000E+00
    0.75434E+06         0.49192E+07         0.00000E+00
    0.00000E+00         0.00000E+00         0.11223E+07
 
    0.70060E+06         0.82852E+06         0.00000E+00
    0.82852E+06         0.49442E+07         0.00000E+00
    0.00000E+00         0.00000E+00         0.11290E+07
 
    0.71027E+06         0.90528E+06         0.00000E+00
    0.90528E+06         0.49669E+07         0.00000E+00
    0.00000E+00         0.00000E+00         0.11354E+07
 
    0.72184E+06         0.98450E+06         0.00000E+00
    0.98450E+06         0.49872E+07         0.00000E+00
    0.00000E+00         0.00000E+00         0.11418E+07
 
    0.73556E+06         0.10660E+07         0.00000E+00
    0.10660E+07         0.50049E+07         0.00000E+00
    0.00000E+00         0.00000E+00         0.11481E+07
 
    0.75169E+06         0.11496E+07         0.00000E+00
    0.11496E+07         0.50200E+07         0.00000E+00
    0.00000E+00         0.00000E+00         0.11543E+07
 
    0.77046E+06         0.12352E+07         0.00000E+00
    0.12352E+07         0.50322E+07         0.00000E+00
    0.00000E+00         0.00000E+00         0.11605E+07
 
    0.79210E+06         0.13225E+07         0.00000E+00
    0.13225E+07         0.50416E+07         0.00000E+00
    0.00000E+00         0.00000E+00         0.11667E+07
 
    0.81682E+06         0.14114E+07         0.00000E+00
    0.14114E+07         0.50479E+07         0.00000E+00
    0.00000E+00         0.00000E+00         0.11729E+07
 
    0.84482E+06         0.15016E+07         0.00000E+00
    0.15016E+07         0.50511E+07         0.00000E+00
    0.00000E+00         0.00000E+00         0.11792E+07
 
    0.87629E+06         0.15929E+07         0.00000E+00
    0.15929E+07         0.50511E+07         0.00000E+00
    0.00000E+00         0.00000E+00         0.11855E+07
 
    0.91139E+06         0.16851E+07         0.00000E+00
    0.16851E+07         0.50478E+07         0.00000E+00
    0.00000E+00         0.00000E+00         0.11918E+07
 
    0.95025E+06         0.17779E+07         0.00000E+00
    0.17779E+07         0.50410E+07         0.00000E+00
    0.00000E+00         0.00000E+00         0.11983E+07
 
    0.99302E+06         0.18710E+07         0.00000E+00
    0.18710E+07         0.50308E+07         0.00000E+00
    0.00000E+00         0.00000E+00         0.12048E+07
 
    0.10398E+07         0.19641E+07         0.00000E+00
    0.19641E+07         0.50171E+07         0.00000E+00
    0.00000E+00         0.00000E+00         0.12114E+07
 
    0.10906E+07         0.20570E+07         0.00000E+00
    0.20570E+07         0.49998E+07         0.00000E+00
    0.00000E+00         0.00000E+00         0.12181E+07
 
    0.11456E+07         0.21493E+07         0.00000E+00
    0.21493E+07         0.49789E+07         0.00000E+00
    0.00000E+00         0.00000E+00         0.12249E+07
 
    0.12047E+07         0.22407E+07         0.00000E+00
    0.22407E+07         0.49543E+07         0.00000E+00
    0.00000E+00         0.00000E+00         0.12318E+07
 
   -0.14492E+07         0.67745E+04         0.00000E+00
    0.67745E+04         0.32792E+07         0.00000E+00
    0.00000E+00         0.00000E+00         0.36599E+06
 
   -0.12989E+07         0.15870E+05         0.00000E+00
    0.15870E+05         0.32827E+07         0.00000E+00
    0.00000E+00         0.00000E+00         0.39678E+06
 
   -0.11579E+07         0.23655E+05         0.00000E+00
    0.23655E+05         0.32896E+07         0.00000E+00
    0.00000E+00         0.00000E+00         0.42633E+06
 
   -0.10261E+07         0.30544E+05         0.00000E+00
    0.30544E+05         0.32995E+07         0.00000E+00
    0.00000E+00         0.00000E+00         0.45468E+06
 
   -0.90307E+06         0.36929E+05         0.00000E+00
    0.36929E+05         0.33124E+07         0.00000E+00
    0.00000E+00         0.00000E+00         0.48186E+06
 
   -0.78848E+06         0.43172E+05         0.00000E+00
    0.43172E+05         0.33280E+07         0.00000E+00
    0.00000E+00         0.00000E+00         0.50790E+06
 
   -0.68201E+06         0.49609E+05         0.00000E+00
    0.49609E+05         0.33462E+07         0.00000E+00
    0.00000E+00         0.00000E+00         0.53284E+06
 
   -0.58330E+06         0.56553E+05         0.00000E+00
    0.56553E+05         0.33668E+07         0.00000E+00
    0.00000E+00         0.00000E+00         0.55670E+06
 
   -0.49199E+06         0.64289E+05         0.00000E+00
    0.64289E+05         0.33896E+07         0.00000E+00
    0.00000E+00         0.00000E+00         0.57952E+06
 
   -0.40773E+06         0.73080E+05         0.00000E+00
    0.73080E+05         0.34144E+07         0.00000E+00
    0.00000E+00         0.00000E+00         0.60134E+06
 
   -0.33013E+06         0.83165E+05         0.00000E+00
    0.83165E+05         0.34410E+07         0.00000E+00
    0.00000E+00         0.00000E+00         0.62218E+06
 
   -0.25883E+06         0.94759E+05         0.00000E+00
    0.94759E+05         0.34693E+07         0.00000E+00
    0.00000E+00         0.00000E+00         0.64210E+06
 
   -0.19346E+06         0.10806E+06         0.00000E+00
    0.10806E+06         0.34990E+07         0.00000E+00
    0.00000E+00         0.00000E+00         0.66111E+06
 
   -0.13364E+06         0.12323E+06         0.00000E+00
    0.12323E+06         0.35299E+07         0.00000E+00
    0.00000E+00         0.00000E+00         0.67926E+06
 
   -0.79008E+05         0.14043E+06         0.00000E+00
    0.14043E+06         0.35619E+07         0.00000E+00
    0.00000E+00         0.00000E+00         0.69658E+06
 
   -0.29192E+05         0.15980E+06         0.00000E+00
    0.15980E+06         0.35948E+07         0.00000E+00
    0.00000E+00         0.00000E+00         0.71311E+06
 
    0.16173E+05         0.18144E+06         0.00000E+00
    0.18144E+06         0.36283E+07         0.00000E+00
    0.00000E+00         0.00000E+00         0.72889E+06
 
    0.57449E+05         0.20546E+06         0.00000E+00
    0.20546E+06         0.36623E+07         0.00000E+00
    0.00000E+00         0.00000E+00         0.74394E+06
 
    0.94992E+05         0.23193E+06         0.00000E+00
    0.23193E+06         0.36966E+07         0.00000E+00
    0.00000E+00         0.00000E+00         0.75831E+06
 
    0.12915E+06         0.26092E+06         0.00000E+00
    0.26092E+06         0.37310E+07         0.00000E+00
    0.00000E+00         0.00000E+00         0.77203E+06
 
    0.16028E+06         0.29249E+06         0.00000E+00
    0.29249E+06         0.37654E+07         0.00000E+00
    0.00000E+00         0.00000E+00         0.78514E+06
 
    0.18871E+06         0.32666E+06         0.00000E+00
    0.32666E+06         0.37996E+07         0.00000E+00
    0.00000E+00         0.00000E+00         0.79766E+06
 
    0.21477E+06         0.36345E+06         0.00000E+00
    0.36345E+06         0.38334E+07         0.00000E+00
    0.00000E+00         0.00000E+00         0.80964E+06
 
    0.23879E+06         0.40288E+06         0.00000E+00
    0.40288E+06         0.38667E+07         0.00000E+00
    0.00000E+00         0.00000E+00         0.82110E+06
 
    0.26109E+06         0.44494E+06         0.00000E+00
    0.44494E+06         0.38993E+07         0.00000E+00
    0.00000E+00         0.00000E+00         0.83208E+06
 
    0.28198E+06         0.48961E+06         0.00000E+00
    0.48961E+06         0.39310E+07         0.00000E+00
    0.00000E+00         0.00000E+00         0.84260E+06
 
    0.30175E+06         0.53687E+06         0.00000E+00
    0.53687E+06         0.39618E+07         0.00000E+00
    0.00000E+00         0.00000E+00         0.85271E+06
 
    0.32071E+06         0.58667E+06         0.00000E+00
    0.58667E+06         0.39914E+07         0.00000E+00
    0.00000E+00         0.00000E+00         0.86242E+06
 
    0.33913E+06         0.63896E+06         0.00000E+00
    0.63896E+06         0.40197E+07         0.00000E+00
    0.00000E+00         0.00000E+00         0.87177E+06
 
    0.35729E+06         0.69370E+06         0.00000E+00
    0.69370E+06         0.40466E+07         0.00000E+00
    0.00000E+00         0.00000E+00         0.88078E+06
 
    0.37547E+06         0.75079E+06         0.00000E+00
    0.75079E+06         0.40720E+07         0.00000E+00
    0.00000E+00         0.00000E+00         0.88949E+06
 
    0.39391E+06         0.81016E+06         0.00000E+00
    0.81016E+06         0.40957E+07         0.00000E+00
    0.00000E+00         0.00000E+00         0.89792E+06
 
    0.41287E+06         0.87172E+06         0.00000E+00
    0.87172E+06         0.41176E+07         0.00000E+00
    0.00000E+00         0.00000E+00         0.90609E+06
 
    0.43259E+06         0.93537E+06         0.00000E+00
    0.93537E+06         0.41375E+07         0.00000E+00
    0.00000E+00         0.00000E+00         0.91402E+06
 
    0.45329E+06         0.10010E+07         0.00000E+00
    0.10010E+07         0.41554E+07         0.00000E+00
    0.00000E+00         0.00000E+00         0.92175E+06
 
    0.47520E+06         0.10685E+07         0.00000E+00
    0.10685E+07         0.41712E+07         0.00000E+00
    0.00000E+00         0.00000E+00         0.92928E+06
 
    0.49851E+06         0.11376E+07         0.00000E+00
    0.11376E+07         0.41847E+07         0.00000E+00
    0.00000E+00         0.00000E+00         0.93665E+06
 
    0.52344E+06         0.12084E+07         0.00000E+00
    0.12084E+07         0.41959E+07         0.00000E+00
    0.00000E+00         0.00000E+00         0.94387E+06
 
    0.55015E+06         0.12806E+07         0.00000E+00
    0.12806E+07         0.42046E+07         0.00000E+00
    0.00000E+00         0.00000E+00         0.95095E+06
 
    0.57882E+06         0.13541E+07         0.00000E+00
    0.13541E+07         0.42108E+07         0.00000E+00
    0.00000E+00         0.00000E+00         0.95792E+06
 
    0.60960E+06         0.14286E+07         0.00000E+00
    0.14286E+07         0.42143E+07         0.00000E+00
    0.00000E+00         0.00000E+00         0.96478E+06
 
    0.64263E+06         0.15040E+07         0.00000E+00
    0.15040E+07         0.42151E+07         0.00000E+00
    0.00000E+00         0.00000E+00         0.97156E+06
 
    0.67804E+06         0.15802E+07         0.00000E+00
    0.15802E+07         0.42132E+07         0.00000E+00
    0.00000E+00         0.00000E+00         0.97825E+06
 
    0.71593E+06         0.16569E+07         0.00000E+00
    0.16569E+07         0.42085E+07         0.00000E+00
    0.00000E+00         0.00000E+00         0.98488E+06
 
    0.75640E+06         0.17339E+07         0.00000E+00
    0.17339E+07         0.42009E+07         0.00000E+00
    0.00000E+00         0.00000E+00         0.99145E+06
 
    0.79951E+06         0.18110E+07         0.00000E+00
    0.18110E+07         0.41903E+07         0.00000E+00
    0.00000E+00         0.00000E+00         0.99797E+06
 
    0.84532E+06         0.18879E+07         0.00000E+00
    0.18879E+07         0.41769E+07         0.00000E+00
    0.00000E+00         0.00000E+00         0.10044E+07
 
    0.89385E+06         0.19645E+07         0.00000E+00
    0.19645E+07         0.41604E+07         0.00000E+00
    0.00000E+00         0.00000E+00         0.10109E+07
 
    0.94510E+06         0.20404E+07         0.00000E+00
    0.20404E+07         0.41410E+07         0.00000E+00
    0.00000E+00         0.00000E+00         0.10172E+07
 
    0.99906E+06         0.21155E+07         0.00000E+00
    0.21155E+07         0.41187E+07         0.00000E+00
    0.00000E+00         0.00000E+00         0.10236E+07
 
   -0.18805E+07         0.14685E+05         0.00000E+00
    0.14685E+05         0.27597E+07         0.00000E+00
    0.00000E+00         0.00000E+00         0.17585E+06
 
   -0.17394E+07         0.38362E+05         0.00000E+00
    0.38362E+05         0.27624E+07         0.00000E+00
    0.00000E+00         0.00000E+00         0.20461E+06
 
   -0.16056E+07         0.60123E+05         0.00000E+00
    0.60123E+05         0.27675E+07         0.00000E+00
    0.00000E+00         0.00000E+00         0.23239E+06
 
   -0.14791E+07         0.80333E+05         0.00000E+00
    0.80333E+05         0.27751E+07         0.00000E+00
    0.00000E+00         0.00000E+00         0.25920E+06
 
   -0.13595E+07         0.99339E+05         0.00000E+00
    0.99339E+05         0.27849E+07         0.00000E+00
    0.00000E+00         0.00000E+00         0.28507E+06
 
   -0.12468E+07         0.11747E+06         0.00000E+00
    0.11747E+06         0.27968E+07         0.00000E+00
    0.00000E+00         0.00000E+00         0.31001E+06
 
   -0.11406E+07         0.13502E+06         0.00000E+00
    0.13502E+06         0.28108E+07         0.00000E+00
    0.00000E+00         0.00000E+00         0.33404E+06
 
   -0.10407E+07         0.15228E+06         0.00000E+00
    0.15228E+06         0.28267E+07         0.00000E+00
    0.00000E+00         0.00000E+00         0.35719E+06
 
   -0.94697E+06         0.16952E+06         0.00000E+00
    0.16952E+06         0.28444E+07         0.00000E+00
    0.00000E+00         0.00000E+00         0.37948E+06
 
   -0.85900E+06         0.18698E+06         0.00000E+00
    0.18698E+06         0.28637E+07         0.00000E+00
    0.00000E+00         0.00000E+00         0.40093E+06
 
   -0.77660E+06         0.20489E+06         0.00000E+00
    0.20489E+06         0.28844E+07         0.00000E+00
    0.00000E+00         0.00000E+00         0.42157E+06
 
   -0.69948E+06         0.22346E+06         0.00000E+00
    0.22346E+06         0.29065E+07         0.00000E+00
    0.00000E+00         0.00000E+00         0.44141E+06
 
   -0.62737E+06         0.24287E+06         0.00000E+00
    0.24287E+06         0.29298E+07         0.00000E+00
    0.00000E+00         0.00000E+00         0.46049E+06
 
   -0.56000E+06         0.26331E+06         0.00000E+00
    0.26331E+06         0.29541E+07         0.00000E+00
    0.00000E+00         0.00000E+00         0.47883E+06
 
   -0.49709E+06         0.28492E+06         0.00000E+00
    0.28492E+06         0.29793E+07         0.00000E+00
    0.00000E+00         0.00000E+00         0.49645E+06
 
   -0.43835E+06         0.30784E+06         0.00000E+00
    0.30784E+06         0.30053E+07         0.00000E+00
    0.00000E+00         0.00000E+00         0.51338E+06
 
   -0.38351E+06         0.33220E+06         0.00000E+00
    0.33220E+06         0.30318E+07         0.00000E+00
    0.00000E+00         0.00000E+00         0.52965E+06
 
   -0.33228E+06         0.35810E+06         0.00000E+00
    0.35810E+06         0.30587E+07         0.00000E+00
    0.00000E+00         0.00000E+00         0.54528E+06
 
   -0.28438E+06         0.38564E+06         0.00000E+00
    0.38564E+06         0.30859E+07         0.00000E+00
    0.00000E+00         0.00000E+00         0.56030E+06
 
   -0.23955E+06         0.41489E+06         0.00000E+00
    0.41489E+06         0.31132E+07         0.00000E+00
    0.00000E+00         0.00000E+00         0.57473E+06
 
   -0.19750E+06         0.44592E+06         0.00000E+00
    0.44592E+06         0.31405E+07         0.00000E+00
    0.00000E+00         0.00000E+00         0.58860E+06
 
   -0.15797E+06         0.47878E+06         0.00000E+00
    0.47878E+06         0.31676E+07         0.00000E+00
    0.00000E+00         0.00000E+00         0.60193E+06
 
   -0.12068E+06         0.51350E+06         0.00000E+00
    0.51350E+06         0.31944E+07         0.00000E+00
    0.00000E+00         0.00000E+00         0.61475E+06
 
   -0.85380E+05         0.55011E+06         0.00000E+00
    0.55011E+06         0.32208E+07         0.00000E+00
    0.00000E+00         0.00000E+00         0.62709E+06
 
   -0.51810E+05         0.58863E+06         0.00000E+00
    0.58863E+06         0.32466E+07         0.00000E+00
    0.00000E+00         0.00000E+00         0.63896E+06
 
   -0.19718E+05         0.62905E+06         0.00000E+00
    0.62905E+06         0.32717E+07         0.00000E+00
    0.00000E+00         0.00000E+00         0.65039E+06
 
    0.11140E+05         0.67137E+06         0.00000E+00
    0.67137E+06         0.32959E+07         0.00000E+00
    0.00000E+00         0.00000E+00         0.66141E+06
 
    0.41004E+05         0.71556E+06         0.00000E+00
    0.71556E+06         0.33191E+07         0.00000E+00
    0.00000E+00         0.00000E+00         0.67203E+06
 
    0.70105E+05         0.76160E+06         0.00000E+00
    0.76160E+06         0.33413E+07         0.00000E+00
    0.00000E+00         0.00000E+00         0.68228E+06
 
    0.98669E+05         0.80944E+06         0.00000E+00
    0.80944E+06         0.33622E+07         0.00000E+00
    0.00000E+00         0.00000E+00         0.69218E+06
 
    0.12691E+06         0.85903E+06         0.00000E+00
    0.85903E+06         0.33818E+07         0.00000E+00
    0.00000E+00         0.00000E+00         0.70175E+06
 
    0.15504E+06         0.91031E+06         0.00000E+00
    0.91031E+06         0.34000E+07         0.00000E+00
    0.00000E+00         0.00000E+00         0.71101E+06
 
    0.18326E+06         0.96321E+06         0.00000E+00
    0.96321E+06         0.34166E+07         0.00000E+00
    0.00000E+00         0.00000E+00         0.71997E+06
 
    0.21176E+06         0.10177E+07         0.00000E+00
    0.10177E+07         0.34315E+07         0.00000E+00
    0.00000E+00         0.00000E+00         0.72866E+06
 
    0.24072E+06         0.10736E+07         0.00000E+00
    0.10736E+07         0.34447E+07         0.00000E+00
    0.00000E+00         0.00000E+00         0.73709E+06
 
    0.27031E+06         0.11308E+07         0.00000E+00
    0.11308E+07         0.34561E+07         0.00000E+00
    0.00000E+00         0.00000E+00         0.74528E+06
 
    0.30069E+06         0.11893E+07         0.00000E+00
    0.11893E+07         0.34655E+07         0.00000E+00
    0.00000E+00         0.00000E+00         0.75324E+06
 
    0.33203E+06         0.12489E+07         0.00000E+00
    0.12489E+07         0.34729E+07         0.00000E+00
    0.00000E+00         0.00000E+00         0.76099E+06
 
    0.36444E+06         0.13096E+07         0.00000E+00
    0.13096E+07         0.34783E+07         0.00000E+00
    0.00000E+00         0.00000E+00         0.76854E+06
 
    0.39806E+06         0.13711E+07         0.00000E+00
    0.13711E+07         0.34814E+07         0.00000E+00
    0.00000E+00         0.00000E+00         0.77590E+06
 
    0.43300E+06         0.14334E+07         0.00000E+00
    0.14334E+07         0.34824E+07         0.00000E+00
    0.00000E+00         0.00000E+00         0.78308E+06
 
    0.46937E+06         0.14963E+07         0.00000E+00
    0.14963E+07         0.34811E+07         0.00000E+00
    0.00000E+00         0.00000E+00         0.79008E+06
 
    0.50724E+06         0.15597E+07         0.00000E+00
    0.15597E+07         0.34774E+07         0.00000E+00
    0.00000E+00         0.00000E+00         0.79693E+06
 
    0.54670E+06         0.16234E+07         0.00000E+00
    0.16234E+07         0.34714E+07         0.00000E+00
    0.00000E+00         0.00000E+00         0.80362E+06
 
    0.58778E+06         0.16872E+07         0.00000E+00
    0.16872E+07         0.34630E+07         0.00000E+00
    0.00000E+00         0.00000E+00         0.81016E+06
 
    0.63053E+06         0.17509E+07         0.00000E+00
    0.17509E+07         0.34522E+07         0.00000E+00
    0.00000E+00         0.00000E+00         0.81655E+06
 
    0.67498E+06         0.18145E+07         0.00000E+00
    0.18145E+07         0.34390E+07         0.00000E+00
    0.00000E+00         0.00000E+00         0.82280E+06
 
    0.72112E+06         0.18777E+07         0.00000E+00
    0.18777E+07         0.34234E+07         0.00000E+00
    0.00000E+00         0.00000E+00         0.82890E+06
 
    0.76893E+06         0.19404E+07         0.00000E+00
    0.19404E+07         0.34053E+07         0.00000E+00
    0.00000E+00         0.00000E+00         0.83486E+06
 
    0.81840E+06         0.20024E+07         0.00000E+00
    0.20024E+07         0.33849E+07         0.00000E+00
    0.00000E+00         0.00000E+00         0.84066E+06
 
   -0.21651E+07         0.20402E+05         0.00000E+00
    0.20402E+05         0.23226E+07         0.00000E+00
    0.00000E+00         0.00000E+00         0.31498E+05
 
   -0.20354E+07         0.54887E+05         0.00000E+00
    0.54887E+05         0.23245E+07         0.00000E+00
    0.00000E+00         0.00000E+00         0.57819E+05
 
   -0.19113E+07         0.87110E+05         0.00000E+00
    0.87110E+05         0.23282E+07         0.00000E+00
    0.00000E+00         0.00000E+00         0.83372E+05
 
   -0.17928E+07         0.11739E+06         0.00000E+00
    0.11739E+06         0.23336E+07         0.00000E+00
    0.00000E+00         0.00000E+00         0.10816E+06
 
   -0.16797E+07         0.14601E+06         0.00000E+00
    0.14601E+06         0.23407E+07         0.00000E+00
    0.00000E+00         0.00000E+00         0.13221E+06
 
   -0.15719E+07         0.17328E+06         0.00000E+00
    0.17328E+06         0.23495E+07         0.00000E+00
    0.00000E+00         0.00000E+00         0.15551E+06
 
   -0.14693E+07         0.19944E+06         0.00000E+00
    0.19944E+06         0.23597E+07         0.00000E+00
    0.00000E+00         0.00000E+00         0.17809E+06
 
   -0.13717E+07         0.22476E+06         0.00000E+00
    0.22476E+06         0.23714E+07         0.00000E+00
    0.00000E+00         0.00000E+00         0.19995E+06
 
   -0.12790E+07         0.24948E+06         0.00000E+00
    0.24948E+06         0.23845E+07         0.00000E+00
    0.00000E+00         0.00000E+00         0.22110E+06
 
   -0.11910E+07         0.27381E+06         0.00000E+00
    0.27381E+06         0.23988E+07         0.00000E+00
    0.00000E+00         0.00000E+00         0.24157E+06
 
   -0.11074E+07         0.29796E+06         0.00000E+00
    0.29796E+06         0.24143E+07         0.00000E+00
    0.00000E+00         0.00000E+00         0.26137E+06
 
   -0.10283E+07         0.32212E+06         0.00000E+00
    0.32212E+06         0.24308E+07         0.00000E+00
    0.00000E+00         0.00000E+00         0.28051E+06
 
   -0.95319E+06         0.34648E+06         0.00000E+00
    0.34648E+06         0.24483E+07         0.00000E+00
    0.00000E+00         0.00000E+00         0.29901E+06
 
   -0.88207E+06         0.37119E+06         0.00000E+00
    0.37119E+06         0.24665E+07         0.00000E+00
    0.00000E+00         0.00000E+00         0.31689E+06
 
   -0.81468E+06         0.39640E+06         0.00000E+00
    0.39640E+06         0.24854E+07         0.00000E+00
    0.00000E+00         0.00000E+00         0.33415E+06
 
   -0.75082E+06         0.42224E+06         0.00000E+00
    0.42224E+06         0.25050E+07         0.00000E+00
    0.00000E+00         0.00000E+00         0.35083E+06
 
   -0.69027E+06         0.44885E+06         0.00000E+00
    0.44885E+06         0.25250E+07         0.00000E+00
    0.00000E+00         0.00000E+00         0.36694E+06
 
   -0.63283E+06         0.47632E+06         0.00000E+00
    0.47632E+06         0.25453E+07         0.00000E+00
    0.00000E+00         0.00000E+00         0.38249E+06
 
   -0.57830E+06         0.50476E+06         0.00000E+00
    0.50476E+06         0.25658E+07         0.00000E+00
    0.00000E+00         0.00000E+00         0.39750E+06
 
   -0.52645E+06         0.53424E+06         0.00000E+00
    0.53424E+06         0.25864E+07         0.00000E+00
    0.00000E+00         0.00000E+00         0.41200E+06
 
   -0.47708E+06         0.56483E+06         0.00000E+00
    0.56483E+06         0.26071E+07         0.00000E+00
    0.00000E+00         0.00000E+00         0.42600E+06
 
   -0.42998E+06         0.59660E+06         0.00000E+00
    0.59660E+06         0.26275E+07         0.00000E+00
    0.00000E+00         0.00000E+00         0.43951E+06
 
   -0.38494E+06         0.62959E+06         0.00000E+00
    0.62959E+06         0.26477E+07         0.00000E+00
    0.00000E+00         0.00000E+00         0.45256E+06
 
   -0.34176E+06         0.66384E+06         0.00000E+00
    0.66384E+06         0.26676E+07         0.00000E+00
    0.00000E+00         0.00000E+00         0.46516E+06
 
   -0.30024E+06         0.69937E+06         0.00000E+00
    0.69937E+06         0.26869E+07         0.00000E+00
    0.00000E+00         0.00000E+00         0.47733E+06
 
   -0.26019E+06         0.73620E+06         0.00000E+00
    0.73620E+06         0.27056E+07         0.00000E+00
    0.00000E+00         0.00000E+00         0.48909E+06
 
   -0.22140E+06         0.77434E+06         0.00000E+00
    0.77434E+06         0.27236E+07         0.00000E+00
    0.00000E+00         0.00000E+00         0.50045E+06
 
   -0.18369E+06         0.81377E+06         0.00000E+00
    0.81377E+06         0.27408E+07         0.00000E+00
    0.00000E+00         0.00000E+00         0.51143E+06
 
   -0.14688E+06         0.85450E+06         0.00000E+00
    0.85450E+06         0.27571E+07         0.00000E+00
    0.00000E+00         0.00000E+00         0.52205E+06
 
   -0.11079E+06         0.89648E+06         0.00000E+00
    0.89648E+06         0.27724E+07         0.00000E+00
    0.00000E+00         0.00000E+00         0.53232E+06
 
   -0.75258E+05         0.93970E+06         0.00000E+00
    0.93970E+06         0.27865E+07         0.00000E+00
    0.00000E+00         0.00000E+00         0.54225E+06
 
   -0.40106E+05         0.98410E+06         0.00000E+00
    0.98410E+06         0.27994E+07         0.00000E+00
    0.00000E+00         0.00000E+00         0.55187E+06
 
   -0.51840E+04         0.10296E+07         0.00000E+00
    0.10296E+07         0.28111E+07         0.00000E+00
    0.00000E+00         0.00000E+00         0.56118E+06
 
    0.29659E+05         0.10763E+07         0.00000E+00
    0.10763E+07         0.28213E+07         0.00000E+00
    0.00000E+00         0.00000E+00         0.57019E+06
 
    0.64564E+05         0.11239E+07         0.00000E+00
    0.11239E+07         0.28301E+07         0.00000E+00
    0.00000E+00         0.00000E+00         0.57893E+06
 
    0.99664E+05         0.11725E+07         0.00000E+00
    0.11725E+07         0.28373E+07         0.00000E+00
    0.00000E+00         0.00000E+00         0.58739E+06
 
    0.13508E+06         0.12220E+07         0.00000E+00
    0.12220E+07         0.28429E+07         0.00000E+00
    0.00000E+00         0.00000E+00         0.59560E+06
 
    0.17093E+06         0.12723E+07         0.00000E+00
    0.12723E+07         0.28468E+07         0.00000E+00
    0.00000E+00         0.00000E+00         0.60355E+06
 
    0.20732E+06         0.13232E+07         0.00000E+00
    0.13232E+07         0.28490E+07         0.00000E+00
    0.00000E+00         0.00000E+00         0.61127E+06
 
    0.24434E+06         0.13748E+07         0.00000E+00
    0.13748E+07         0.28494E+07         0.00000E+00
    0.00000E+00         0.00000E+00         0.61875E+06
 
    0.28207E+06         0.14269E+07         0.00000E+00
    0.14269E+07         0.28480E+07         0.00000E+00
    0.00000E+00         0.00000E+00         0.62601E+06
 
    0.32059E+06         0.14793E+07         0.00000E+00
    0.14793E+07         0.28447E+07         0.00000E+00
    0.00000E+00         0.00000E+00         0.63305E+06
 
    0.35995E+06         0.15321E+07         0.00000E+00
    0.15321E+07         0.28394E+07         0.00000E+00
    0.00000E+00         0.00000E+00         0.63987E+06
 
    0.40021E+06         0.15849E+07         0.00000E+00
    0.15849E+07         0.28322E+07         0.00000E+00
    0.00000E+00         0.00000E+00         0.64649E+06
 
    0.44139E+06         0.16379E+07         0.00000E+00
    0.16379E+07         0.28231E+07         0.00000E+00
    0.00000E+00         0.00000E+00         0.65290E+06
 
    0.48351E+06         0.16908E+07         0.00000E+00
    0.16908E+07         0.28120E+07         0.00000E+00
    0.00000E+00         0.00000E+00         0.65910E+06
 
    0.52659E+06         0.17434E+07         0.00000E+00
    0.17434E+07         0.27989E+07         0.00000E+00
    0.00000E+00         0.00000E+00         0.66510E+06
 
    0.57061E+06         0.17958E+07         0.00000E+00
    0.17958E+07         0.27839E+07         0.00000E+00
    0.00000E+00         0.00000E+00         0.67090E+06
 
    0.61555E+06         0.18477E+07         0.00000E+00
    0.18477E+07         0.27669E+07         0.00000E+00
    0.00000E+00         0.00000E+00         0.67649E+06
 
    0.66138E+06         0.18990E+07         0.00000E+00
    0.18990E+07         0.27480E+07         0.00000E+00
    0.00000E+00         0.00000E+00         0.68187E+06
 
   -0.23342E+07         0.24280E+05         0.00000E+00
    0.24280E+05         0.19547E+07         0.00000E+00
    0.00000E+00         0.00000E+00        -0.75896E+05
 
   -0.22170E+07         0.66342E+05         0.00000E+00
    0.66342E+05         0.19559E+07         0.00000E+00
    0.00000E+00         0.00000E+00        -0.52203E+05
 
   -0.21039E+07         0.10599E+06         0.00000E+00
    0.10599E+06         0.19584E+07         0.00000E+00
    0.00000E+00         0.00000E+00        -0.29097E+05
 
   -0.19950E+07         0.14349E+06         0.00000E+00
    0.14349E+06         0.19621E+07         0.00000E+00
    0.00000E+00         0.00000E+00        -0.65776E+04
 
   -0.18901E+07         0.17909E+06         0.00000E+00
    0.17909E+06         0.19669E+07         0.00000E+00
    0.00000E+00         0.00000E+00         0.15359E+05
 
   -0.17893E+07         0.21304E+06         0.00000E+00
    0.21304E+06         0.19729E+07         0.00000E+00
    0.00000E+00         0.00000E+00         0.36717E+05
 
   -0.16925E+07         0.24556E+06         0.00000E+00
    0.24556E+06         0.19800E+07         0.00000E+00
    0.00000E+00         0.00000E+00         0.57500E+05
 
   -0.15996E+07         0.27687E+06         0.00000E+00
    0.27687E+06         0.19881E+07         0.00000E+00
    0.00000E+00         0.00000E+00         0.77715E+05
 
   -0.15104E+07         0.30718E+06         0.00000E+00
    0.30718E+06         0.19972E+07         0.00000E+00
    0.00000E+00         0.00000E+00         0.97369E+05
 
   -0.14249E+07         0.33669E+06         0.00000E+00
    0.33669E+06         0.20072E+07         0.00000E+00
    0.00000E+00         0.00000E+00         0.11647E+06
 
   -0.13430E+07         0.36557E+06         0.00000E+00
    0.36557E+06         0.20181E+07         0.00000E+00
    0.00000E+00         0.00000E+00         0.13502E+06
 
   -0.12645E+07         0.39399E+06         0.00000E+00
    0.39399E+06         0.20297E+07         0.00000E+00
    0.00000E+00         0.00000E+00         0.15304E+06
 
   -0.11894E+07         0.42212E+06         0.00000E+00
    0.42212E+06         0.20421E+07         0.00000E+00
    0.00000E+00         0.00000E+00         0.17053E+06
 
   -0.11174E+07         0.45011E+06         0.00000E+00
    0.45011E+06         0.20550E+07         0.00000E+00
    0.00000E+00         0.00000E+00         0.18750E+06
 
   -0.10486E+07         0.47808E+06         0.00000E+00
    0.47808E+06         0.20684E+07         0.00000E+00
    0.00000E+00         0.00000E+00         0.20397E+06
 
   -0.98256E+06         0.50617E+06         0.00000E+00
    0.50617E+06         0.20823E+07         0.00000E+00
    0.00000E+00         0.00000E+00         0.21994E+06
 
   -0.91932E+06         0.53449E+06         0.00000E+00
    0.53449E+06         0.20965E+07         0.00000E+00
    0.00000E+00         0.00000E+00         0.23543E+06
 
   -0.85869E+06         0.56315E+06         0.00000E+00
    0.56315E+06         0.21109E+07         0.00000E+00
    0.00000E+00         0.00000E+00         0.25044E+06
 
   -0.80052E+06         0.59223E+06         0.00000E+00
    0.59223E+06         0.21255E+07         0.00000E+00
    0.00000E+00         0.00000E+00         0.26499E+06
 
   -0.74465E+06         0.62182E+06         0.00000E+00
    0.62182E+06         0.21401E+07         0.00000E+00
    0.00000E+00         0.00000E+00         0.27910E+06
 
   -0.69092E+06         0.65200E+06         0.00000E+00
    0.65200E+06         0.21547E+07         0.00000E+00
    0.00000E+00         0.00000E+00         0.29276E+06
 
   -0.63919E+06         0.68282E+06         0.00000E+00
    0.68282E+06         0.21692E+07         0.00000E+00
    0.00000E+00         0.00000E+00         0.30600E+06
 
   -0.58930E+06         0.71433E+06         0.00000E+00
    0.71433E+06         0.21834E+07         0.00000E+00
    0.00000E+00         0.00000E+00         0.31883E+06
 
   -0.54109E+06         0.74659E+06         0.00000E+00
    0.74659E+06         0.21974E+07         0.00000E+00
    0.00000E+00         0.00000E+00         0.33125E+06
 
   -0.49441E+06         0.77962E+06         0.00000E+00
    0.77962E+06         0.22109E+07         0.00000E+00
    0.00000E+00         0.00000E+00         0.34329E+06
 
   -0.44912E+06         0.81344E+06         0.00000E+00
    0.81344E+06         0.22239E+07         0.00000E+00
    0.00000E+00         0.00000E+00         0.35495E+06
 
   -0.40506E+06         0.84809E+06         0.00000E+00
    0.84809E+06         0.22363E+07         0.00000E+00
    0.00000E+00         0.00000E+00         0.36624E+06
 
   -0.36210E+06         0.88355E+06         0.00000E+00
    0.88355E+06         0.22480E+07         0.00000E+00
    0.00000E+00         0.00000E+00         0.37718E+06
 
   -0.32009E+06         0.91984E+06         0.00000E+00
    0.91984E+06         0.22590E+07         0.00000E+00
    0.00000E+00         0.00000E+00         0.38778E+06
 
   -0.27890E+06         0.95695E+06         0.00000E+00
    0.95695E+06         0.22691E+07         0.00000E+00
    0.00000E+00         0.00000E+00         0.39804E+06
 
   -0.23839E+06         0.99486E+06         0.00000E+00
    0.99486E+06         0.22783E+07         0.00000E+00
    0.00000E+00         0.00000E+00         0.40798E+06
 
   -0.19844E+06         0.10335E+07         0.00000E+00
    0.10335E+07         0.22865E+07         0.00000E+00
    0.00000E+00         0.00000E+00         0.41760E+06
 
   -0.15894E+06         0.10730E+07         0.00000E+00
    0.10730E+07         0.22936E+07         0.00000E+00
    0.00000E+00         0.00000E+00         0.42693E+06
 
   -0.11976E+06         0.11131E+07         0.00000E+00
    0.11131E+07         0.22995E+07         0.00000E+00
    0.00000E+00         0.00000E+00         0.43596E+06
 
   -0.80800E+05         0.11539E+07         0.00000E+00
    0.11539E+07         0.23043E+07         0.00000E+00
    0.00000E+00         0.00000E+00         0.44470E+06
 
   -0.41958E+05         0.11954E+07         0.00000E+00
    0.11954E+07         0.23078E+07         0.00000E+00
    0.00000E+00         0.00000E+00         0.45317E+06
 
   -0.31391E+04         0.12374E+07         0.00000E+00
    0.12374E+07         0.23100E+07         0.00000E+00
    0.00000E+00         0.00000E+00         0.46137E+06
 
    0.35741E+05         0.12799E+07         0.00000E+00
    0.12799E+07         0.23108E+07         0.00000E+00
    0.00000E+00         0.00000E+00         0.46930E+06
 
    0.74762E+05         0.13228E+07         0.00000E+00
    0.13228E+07         0.23101E+07         0.00000E+00
    0.00000E+00         0.00000E+00         0.47697E+06
 
    0.11399E+06         0.13662E+07         0.00000E+00
    0.13662E+07         0.23080E+07         0.00000E+00
    0.00000E+00         0.00000E+00         0.48440E+06
 
    0.15349E+06         0.14098E+07         0.00000E+00
    0.14098E+07         0.23044E+07         0.00000E+00
    0.00000E+00         0.00000E+00         0.49158E+06
 
    0.19331E+06         0.14537E+07         0.00000E+00
    0.14537E+07         0.22992E+07         0.00000E+00
    0.00000E+00         0.00000E+00         0.49851E+06
 
    0.23350E+06         0.14977E+07         0.00000E+00
    0.14977E+07         0.22925E+07         0.00000E+00
    0.00000E+00         0.00000E+00         0.50521E+06
 
    0.27408E+06         0.15418E+07         0.00000E+00
    0.15418E+07         0.22843E+07         0.00000E+00
    0.00000E+00         0.00000E+00         0.51167E+06
 
    0.31508E+06         0.15859E+07         0.00000E+00
    0.15859E+07         0.22744E+07         0.00000E+00
    0.00000E+00         0.00000E+00         0.51789E+06
 
    0.35650E+06         0.16299E+07         0.00000E+00
    0.16299E+07         0.22629E+07         0.00000E+00
    0.00000E+00         0.00000E+00         0.52388E+06
 
    0.39836E+06         0.16737E+07         0.00000E+00
    0.16737E+07         0.22498E+07         0.00000E+00
    0.00000E+00         0.00000E+00         0.52963E+06
 
    0.44064E+06         0.17172E+07         0.00000E+00
    0.17172E+07         0.22351E+07         0.00000E+00
    0.00000E+00         0.00000E+00         0.53516E+06
 
    0.48331E+06         0.17604E+07         0.00000E+00
    0.17604E+07         0.22189E+07         0.00000E+00
    0.00000E+00         0.00000E+00         0.54044E+06
 
    0.52635E+06         0.18031E+07         0.00000E+00
    0.18031E+07         0.22011E+07         0.00000E+00
    0.00000E+00         0.00000E+00         0.54549E+06
 
   -0.24139E+07         0.26659E+05         0.00000E+00
    0.26659E+05         0.16451E+07         0.00000E+00
    0.00000E+00         0.00000E+00        -0.15376E+06
 
   -0.23094E+07         0.73609E+05         0.00000E+00
    0.73609E+05         0.16458E+07         0.00000E+00
    0.00000E+00         0.00000E+00        -0.13272E+06
 
   -0.22079E+07         0.11813E+06         0.00000E+00
    0.11813E+06         0.16473E+07         0.00000E+00
    0.00000E+00         0.00000E+00        -0.11212E+06
 
   -0.21093E+07         0.16045E+06         0.00000E+00
    0.16045E+06         0.16495E+07         0.00000E+00
    0.00000E+00         0.00000E+00        -0.91963E+05
 
   -0.20137E+07         0.20077E+06         0.00000E+00
    0.20077E+06         0.16525E+07         0.00000E+00
    0.00000E+00         0.00000E+00        -0.72247E+05
 
   -0.19211E+07         0.23929E+06         0.00000E+00
    0.23929E+06         0.16562E+07         0.00000E+00
    0.00000E+00         0.00000E+00        -0.52973E+05
 
   -0.18314E+07         0.27621E+06         0.00000E+00
    0.27621E+06         0.16606E+07         0.00000E+00
    0.00000E+00         0.00000E+00        -0.34144E+05
 
   -0.17446E+07         0.31170E+06         0.00000E+00
    0.31170E+06         0.16658E+07         0.00000E+00
    0.00000E+00         0.00000E+00        -0.15756E+05
 
   -0.16606E+07         0.34594E+06         0.00000E+00
    0.34594E+06         0.16716E+07         0.00000E+00
    0.00000E+00         0.00000E+00         0.21909E+04
 
   -0.15795E+07         0.37910E+06         0.00000E+00
    0.37910E+06         0.16780E+07         0.00000E+00
    0.00000E+00         0.00000E+00         0.19700E+05
 
   -0.15011E+07         0.41133E+06         0.00000E+00
    0.41133E+06         0.16849E+07         0.00000E+00
    0.00000E+00         0.00000E+00         0.36775E+05
 
   -0.14253E+07         0.44280E+06         0.00000E+00
    0.44280E+06         0.16924E+07         0.00000E+00
    0.00000E+00         0.00000E+00         0.53419E+05
 
   -0.13522E+07         0.47362E+06         0.00000E+00
    0.47362E+06         0.17004E+07         0.00000E+00
    0.00000E+00         0.00000E+00         0.69637E+05
 
   -0.12816E+07         0.50394E+06         0.00000E+00
    0.50394E+06         0.17088E+07         0.00000E+00
    0.00000E+00         0.00000E+00         0.85434E+05
 
   -0.12134E+07         0.53388E+06         0.00000E+00
    0.53388E+06         0.17175E+07         0.00000E+00
    0.00000E+00         0.00000E+00         0.10081E+06
 
   -0.11476E+07         0.56355E+06         0.00000E+00
    0.56355E+06         0.17265E+07         0.00000E+00
    0.00000E+00         0.00000E+00         0.11579E+06
 
   -0.10840E+07         0.59305E+06         0.00000E+00
    0.59305E+06         0.17358E+07         0.00000E+00
    0.00000E+00         0.00000E+00         0.13036E+06
 
   -0.10225E+07         0.62248E+06         0.00000E+00
    0.62248E+06         0.17451E+07         0.00000E+00
    0.00000E+00         0.00000E+00         0.14453E+06
 
   -0.96305E+06         0.65193E+06         0.00000E+00
    0.65193E+06         0.17546E+07         0.00000E+00
    0.00000E+00         0.00000E+00         0.15831E+06
 
   -0.90553E+06         0.68148E+06         0.00000E+00
    0.68148E+06         0.17641E+07         0.00000E+00
    0.00000E+00         0.00000E+00         0.17171E+06
 
   -0.84981E+06         0.71119E+06         0.00000E+00
    0.71119E+06         0.17735E+07         0.00000E+00
    0.00000E+00         0.00000E+00         0.18474E+06
 
   -0.79580E+06         0.74113E+06         0.00000E+00
    0.74113E+06         0.17828E+07         0.00000E+00
    0.00000E+00         0.00000E+00         0.19739E+06
 
   -0.74338E+06         0.77136E+06         0.00000E+00
    0.77136E+06         0.17918E+07         0.00000E+00
    0.00000E+00         0.00000E+00         0.20969E+06
 
   -0.69244E+06         0.80191E+06         0.00000E+00
    0.80191E+06         0.18006E+07         0.00000E+00
    0.00000E+00         0.00000E+00         0.22164E+06
 
   -0.64287E+06         0.83283E+06         0.00000E+00
    0.83283E+06         0.18091E+07         0.00000E+00
    0.00000E+00         0.00000E+00         0.23324E+06
 
   -0.59456E+06         0.86415E+06         0.00000E+00
    0.86415E+06         0.18171E+07         0.00000E+00
    0.00000E+00         0.00000E+00         0.24450E+06
 
   -0.54741E+06         0.89589E+06         0.00000E+00
    0.89589E+06         0.18246E+07         0.00000E+00
    0.00000E+00         0.00000E+00         0.25543E+06
 
   -0.50130E+06         0.92807E+06         0.00000E+00
    0.92807E+06         0.18315E+07         0.00000E+00
    0.00000E+00         0.00000E+00         0.26605E+06
 
   -0.45613E+06         0.96070E+06         0.00000E+00
    0.96070E+06         0.18379E+07         0.00000E+00
    0.00000E+00         0.00000E+00         0.27634E+06
 
   -0.41181E+06         0.99379E+06         0.00000E+00
    0.99379E+06         0.18435E+07         0.00000E+00
    0.00000E+00         0.00000E+00         0.28633E+06
 
   -0.36824E+06         0.10273E+07         0.00000E+00
    0.10273E+07         0.18484E+07         0.00000E+00
    0.00000E+00         0.00000E+00         0.29602E+06
 
   -0.32531E+06         0.10613E+07         0.00000E+00
    0.10613E+07         0.18524E+07         0.00000E+00
    0.00000E+00         0.00000E+00         0.30542E+06
 
   -0.28295E+06         0.10957E+07         0.00000E+00
    0.10957E+07         0.18556E+07         0.00000E+00
    0.00000E+00         0.00000E+00         0.31452E+06
 
   -0.24107E+06         0.11306E+07         0.00000E+00
    0.11306E+07         0.18578E+07         0.00000E+00
    0.00000E+00         0.00000E+00         0.32335E+06
 
   -0.19958E+06         0.11658E+07         0.00000E+00
    0.11658E+07         0.18591E+07         0.00000E+00
    0.00000E+00         0.00000E+00         0.33190E+06
 
   -0.15841E+06         0.12014E+07         0.00000E+00
    0.12014E+07         0.18593E+07         0.00000E+00
    0.00000E+00         0.00000E+00         0.34018E+06
 
   -0.11749E+06         0.12373E+07         0.00000E+00
    0.12373E+07         0.18584E+07         0.00000E+00
    0.00000E+00         0.00000E+00         0.34819E+06
 
   -0.76762E+05         0.12735E+07         0.00000E+00
    0.12735E+07         0.18565E+07         0.00000E+00
    0.00000E+00         0.00000E+00         0.35594E+06
 
   -0.36162E+05         0.13099E+07         0.00000E+00
    0.13099E+07         0.18533E+07         0.00000E+00
    0.00000E+00         0.00000E+00         0.36343E+06
 
    0.43588E+04         0.13465E+07         0.00000E+00
    0.13465E+07         0.18490E+07         0.00000E+00
    0.00000E+00         0.00000E+00         0.37067E+06
 
    0.44846E+05         0.13833E+07         0.00000E+00
    0.13833E+07         0.18435E+07         0.00000E+00
    0.00000E+00         0.00000E+00         0.37766E+06
 
    0.85337E+05         0.14202E+07         0.00000E+00
    0.14202E+07         0.18367E+07         0.00000E+00
    0.00000E+00         0.00000E+00         0.38441E+06
 
    0.12586E+06         0.14572E+07         0.00000E+00
    0.14572E+07         0.18286E+07         0.00000E+00
    0.00000E+00         0.00000E+00         0.39090E+06
 
    0.16644E+06         0.14942E+07         0.00000E+00
    0.14942E+07         0.18193E+07         0.00000E+00
    0.00000E+00         0.00000E+00         0.39715E+06
 
    0.20710E+06         0.15311E+07         0.00000E+00
    0.15311E+07         0.18087E+07         0.00000E+00
    0.00000E+00         0.00000E+00         0.40316E+06
 
    0.24783E+06         0.15679E+07         0.00000E+00
    0.15679E+07         0.17968E+07         0.00000E+00
    0.00000E+00         0.00000E+00         0.40893E+06
 
    0.28864E+06         0.16045E+07         0.00000E+00
    0.16045E+07         0.17836E+07         0.00000E+00
    0.00000E+00         0.00000E+00         0.41445E+06
 
    0.32952E+06         0.16409E+07         0.00000E+00
    0.16409E+07         0.17692E+07         0.00000E+00
    0.00000E+00         0.00000E+00         0.41974E+06
 
    0.37045E+06         0.16770E+07         0.00000E+00
    0.16770E+07         0.17534E+07         0.00000E+00
    0.00000E+00         0.00000E+00         0.42477E+06
 
    0.41141E+06         0.17128E+07         0.00000E+00
    0.17128E+07         0.17364E+07         0.00000E+00
    0.00000E+00         0.00000E+00         0.42956E+06
 
   -0.24259E+07         0.27846E+05         0.00000E+00
    0.27846E+05         0.13846E+07         0.00000E+00
    0.00000E+00         0.00000E+00        -0.20828E+06
 
   -0.23339E+07         0.77510E+05         0.00000E+00
    0.77510E+05         0.13849E+07         0.00000E+00
    0.00000E+00         0.00000E+00        -0.18981E+06
 
   -0.22438E+07         0.12484E+06         0.00000E+00
    0.12484E+06         0.13855E+07         0.00000E+00
    0.00000E+00         0.00000E+00        -0.17166E+06
 
   -0.21557E+07         0.17000E+06         0.00000E+00
    0.17000E+06         0.13866E+07         0.00000E+00
    0.00000E+00         0.00000E+00        -0.15383E+06
 
   -0.20697E+07         0.21316E+06         0.00000E+00
    0.21316E+06         0.13881E+07         0.00000E+00
    0.00000E+00         0.00000E+00        -0.13632E+06
 
   -0.19857E+07         0.25449E+06         0.00000E+00
    0.25449E+06         0.13900E+07         0.00000E+00
    0.00000E+00         0.00000E+00        -0.11915E+06
 
   -0.19038E+07         0.29414E+06         0.00000E+00
    0.29414E+06         0.13923E+07         0.00000E+00
    0.00000E+00         0.00000E+00        -0.10231E+06
 
   -0.18240E+07         0.33227E+06         0.00000E+00
    0.33227E+06         0.13950E+07         0.00000E+00
    0.00000E+00         0.00000E+00        -0.85808E+05
 
   -0.17463E+07         0.36902E+06         0.00000E+00
    0.36902E+06         0.13980E+07         0.00000E+00
    0.00000E+00         0.00000E+00        -0.69644E+05
 
   -0.16706E+07         0.40453E+06         0.00000E+00
    0.40453E+06         0.14015E+07         0.00000E+00
    0.00000E+00         0.00000E+00        -0.53818E+05
 
   -0.15970E+07         0.43893E+06         0.00000E+00
    0.43893E+06         0.14053E+07         0.00000E+00
    0.00000E+00         0.00000E+00        -0.38333E+05
 
   -0.15253E+07         0.47235E+06         0.00000E+00
    0.47235E+06         0.14094E+07         0.00000E+00
    0.00000E+00         0.00000E+00        -0.23186E+05
 
   -0.14557E+07         0.50491E+06         0.00000E+00
    0.50491E+06         0.14138E+07         0.00000E+00
    0.00000E+00         0.00000E+00        -0.83769E+04
 
   -0.13879E+07         0.53673E+06         0.00000E+00
    0.53673E+06         0.14184E+07         0.00000E+00
    0.00000E+00         0.00000E+00         0.60953E+04
 
   -0.13221E+07         0.56790E+06         0.00000E+00
    0.56790E+06         0.14233E+07         0.00000E+00
    0.00000E+00         0.00000E+00         0.20233E+05
 
   -0.12581E+07         0.59853E+06         0.00000E+00
    0.59853E+06         0.14283E+07         0.00000E+00
    0.00000E+00         0.00000E+00         0.34038E+05
 
   -0.11958E+07         0.62871E+06         0.00000E+00
    0.62871E+06         0.14334E+07         0.00000E+00
    0.00000E+00         0.00000E+00         0.47513E+05
 
   -0.11352E+07         0.65852E+06         0.00000E+00
    0.65852E+06         0.14385E+07         0.00000E+00
    0.00000E+00         0.00000E+00         0.60662E+05
 
   -0.10763E+07         0.68806E+06         0.00000E+00
    0.68806E+06         0.14437E+07         0.00000E+00
    0.00000E+00         0.00000E+00         0.73487E+05
 
   -0.10189E+07         0.71738E+06         0.00000E+00
    0.71738E+06         0.14489E+07         0.00000E+00
    0.00000E+00         0.00000E+00         0.85992E+05
 
   -0.96302E+06         0.74655E+06         0.00000E+00
    0.74655E+06         0.14539E+07         0.00000E+00
    0.00000E+00         0.00000E+00         0.98182E+05
 
   -0.90855E+06         0.77564E+06         0.00000E+00
    0.77564E+06         0.14588E+07         0.00000E+00
    0.00000E+00         0.00000E+00         0.11006E+06
 
   -0.85542E+06         0.80469E+06         0.00000E+00
    0.80469E+06         0.14636E+07         0.00000E+00
    0.00000E+00         0.00000E+00         0.12163E+06
 
   -0.80355E+06         0.83375E+06         0.00000E+00
    0.83375E+06         0.14680E+07         0.00000E+00
    0.00000E+00         0.00000E+00         0.13290E+06
 
   -0.75287E+06         0.86287E+06         0.00000E+00
    0.86287E+06         0.14722E+07         0.00000E+00
    0.00000E+00         0.00000E+00         0.14386E+06
 
   -0.70330E+06         0.89208E+06         0.00000E+00
    0.89208E+06         0.14760E+07         0.00000E+00
    0.00000E+00         0.00000E+00         0.15454E+06
 
   -0.65477E+06         0.92141E+06         0.00000E+00
    0.92141E+06         0.14794E+07         0.00000E+00
    0.00000E+00         0.00000E+00         0.16492E+06
 
   -0.60719E+06         0.95088E+06         0.00000E+00
    0.95088E+06         0.14823E+07         0.00000E+00
    0.00000E+00         0.00000E+00         0.17502E+06
 
   -0.56051E+06         0.98050E+06         0.00000E+00
    0.98050E+06         0.14847E+07         0.00000E+00
    0.00000E+00         0.00000E+00         0.18483E+06
 
   -0.51463E+06         0.10103E+07         0.00000E+00
    0.10103E+07         0.14865E+07         0.00000E+00
    0.00000E+00         0.00000E+00         0.19437E+06
 
   -0.46950E+06         0.10403E+07         0.00000E+00
    0.10403E+07         0.14877E+07         0.00000E+00
    0.00000E+00         0.00000E+00         0.20364E+06
 
   -0.42505E+06         0.10704E+07         0.00000E+00
    0.10704E+07         0.14882E+07         0.00000E+00
    0.00000E+00         0.00000E+00         0.21264E+06
 
   -0.38121E+06         0.11008E+07         0.00000E+00
    0.11008E+07         0.14881E+07         0.00000E+00
    0.00000E+00         0.00000E+00         0.22137E+06
 
   -0.33791E+06         0.11313E+07         0.00000E+00
    0.11313E+07         0.14871E+07         0.00000E+00
    0.00000E+00         0.00000E+00         0.22984E+06
 
   -0.29511E+06         0.11620E+07         0.00000E+00
    0.11620E+07         0.14854E+07         0.00000E+00
    0.00000E+00         0.00000E+00         0.23806E+06
 
   -0.25274E+06         0.11928E+07         0.00000E+00
    0.11928E+07         0.14828E+07         0.00000E+00
    0.00000E+00         0.00000E+00         0.24602E+06
 
   -0.21076E+06         0.12238E+07         0.00000E+00
    0.12238E+07         0.14794E+07         0.00000E+00
    0.00000E+00         0.00000E+00         0.25373E+06
 
   -0.16912E+06         0.12549E+07         0.00000E+00
    0.12549E+07         0.14751E+07         0.00000E+00
    0.00000E+00         0.00000E+00         0.26119E+06
 
   -0.12777E+06         0.12860E+07         0.00000E+00
    0.12860E+07         0.14698E+07         0.00000E+00
    0.00000E+00         0.00000E+00         0.26841E+06
 
   -0.86677E+05         0.13173E+07         0.00000E+00
    0.13173E+07         0.14636E+07         0.00000E+00
    0.00000E+00         0.00000E+00         0.27538E+06
 
   -0.45812E+05         0.13485E+07         0.00000E+00
    0.13485E+07         0.14564E+07         0.00000E+00
    0.00000E+00         0.00000E+00         0.28212E+06
 
   -0.51453E+04         0.13798E+07         0.00000E+00
    0.13798E+07         0.14482E+07         0.00000E+00
    0.00000E+00         0.00000E+00         0.28861E+06
 
    0.35346E+05         0.14111E+07         0.00000E+00
    0.14111E+07         0.14390E+07         0.00000E+00
    0.00000E+00         0.00000E+00         0.29486E+06
 
    0.75678E+05         0.14423E+07         0.00000E+00
    0.14423E+07         0.14287E+07         0.00000E+00
    0.00000E+00         0.00000E+00         0.30088E+06
 
    0.11586E+06         0.14734E+07         0.00000E+00
    0.14734E+07         0.14175E+07         0.00000E+00
    0.00000E+00         0.00000E+00         0.30666E+06
 
    0.15591E+06         0.15044E+07         0.00000E+00
    0.15044E+07         0.14051E+07         0.00000E+00
    0.00000E+00         0.00000E+00         0.31221E+06
 
    0.19581E+06         0.15352E+07         0.00000E+00
    0.15352E+07         0.13918E+07         0.00000E+00
    0.00000E+00         0.00000E+00         0.31751E+06
 
    0.23556E+06         0.15659E+07         0.00000E+00
    0.15659E+07         0.13774E+07         0.00000E+00
    0.00000E+00         0.00000E+00         0.32259E+06
 
    0.27516E+06         0.15963E+07         0.00000E+00
    0.15963E+07         0.13619E+07         0.00000E+00
    0.00000E+00         0.00000E+00         0.32742E+06
 
    0.31458E+06         0.16265E+07         0.00000E+00
    0.16265E+07         0.13455E+07         0.00000E+00
    0.00000E+00         0.00000E+00         0.33201E+06
 
   -0.23879E+07         0.28115E+05         0.00000E+00
    0.28115E+05         0.11653E+07         0.00000E+00
    0.00000E+00         0.00000E+00        -0.24453E+06
 
   -0.23076E+07         0.78783E+05         0.00000E+00
    0.78783E+05         0.11653E+07         0.00000E+00
    0.00000E+00         0.00000E+00        -0.22847E+06
 
   -0.22285E+07         0.12726E+06         0.00000E+00
    0.12726E+06         0.11653E+07         0.00000E+00
    0.00000E+00         0.00000E+00        -0.21263E+06
 
   -0.21506E+07         0.17368E+06         0.00000E+00
    0.17368E+06         0.11655E+07         0.00000E+00
    0.00000E+00         0.00000E+00        -0.19702E+06
 
   -0.20740E+07         0.21818E+06         0.00000E+00
    0.21818E+06         0.11658E+07         0.00000E+00
    0.00000E+00         0.00000E+00        -0.18164E+06
 
   -0.19987E+07         0.26088E+06         0.00000E+00
    0.26088E+06         0.11663E+07         0.00000E+00
    0.00000E+00         0.00000E+00        -0.16650E+06
 
   -0.19249E+07         0.30192E+06         0.00000E+00
    0.30192E+06         0.11669E+07         0.00000E+00
    0.00000E+00         0.00000E+00        -0.15160E+06
 
   -0.18524E+07         0.34142E+06         0.00000E+00
    0.34142E+06         0.11677E+07         0.00000E+00
    0.00000E+00         0.00000E+00        -0.13695E+06
 
   -0.17814E+07         0.37950E+06         0.00000E+00
    0.37950E+06         0.11686E+07         0.00000E+00
    0.00000E+00         0.00000E+00        -0.12256E+06
 
   -0.17118E+07         0.41626E+06         0.00000E+00
    0.41626E+06         0.11697E+07         0.00000E+00
    0.00000E+00         0.00000E+00        -0.10842E+06
 
   -0.16437E+07         0.45183E+06         0.00000E+00
    0.45183E+06         0.11710E+07         0.00000E+00
    0.00000E+00         0.00000E+00        -0.94540E+05
 
   -0.15770E+07         0.48630E+06         0.00000E+00
    0.48630E+06         0.11724E+07         0.00000E+00
    0.00000E+00         0.00000E+00        -0.80921E+05
 
   -0.15117E+07         0.51977E+06         0.00000E+00
    0.51977E+06         0.11739E+07         0.00000E+00
    0.00000E+00         0.00000E+00        -0.67565E+05
 
   -0.14479E+07         0.55235E+06         0.00000E+00
    0.55235E+06         0.11756E+07         0.00000E+00
    0.00000E+00         0.00000E+00        -0.54472E+05
 
   -0.13855E+07         0.58412E+06         0.00000E+00
    0.58412E+06         0.11773E+07         0.00000E+00
    0.00000E+00         0.00000E+00        -0.41645E+05
 
   -0.13244E+07         0.61516E+06         0.00000E+00
    0.61516E+06         0.11790E+07         0.00000E+00
    0.00000E+00         0.00000E+00        -0.29082E+05
 
   -0.12647E+07         0.64557E+06         0.00000E+00
    0.64557E+06         0.11808E+07         0.00000E+00
    0.00000E+00         0.00000E+00        -0.16783E+05
 
   -0.12063E+07         0.67541E+06         0.00000E+00
    0.67541E+06         0.11825E+07         0.00000E+00
    0.00000E+00         0.00000E+00        -0.47497E+04
 
   -0.11492E+07         0.70475E+06         0.00000E+00
    0.70475E+06         0.11843E+07         0.00000E+00
    0.00000E+00         0.00000E+00         0.70206E+04
 
   -0.10933E+07         0.73366E+06         0.00000E+00
    0.73366E+06         0.11859E+07         0.00000E+00
    0.00000E+00         0.00000E+00         0.18528E+05
 
   -0.10385E+07         0.76219E+06         0.00000E+00
    0.76219E+06         0.11874E+07         0.00000E+00
    0.00000E+00         0.00000E+00         0.29774E+05
 
   -0.98497E+06         0.79042E+06         0.00000E+00
    0.79042E+06         0.11888E+07         0.00000E+00
    0.00000E+00         0.00000E+00         0.40761E+05
 
   -0.93249E+06         0.81837E+06         0.00000E+00
    0.81837E+06         0.11899E+07         0.00000E+00
    0.00000E+00         0.00000E+00         0.51489E+05
 
   -0.88107E+06         0.84611E+06         0.00000E+00
    0.84611E+06         0.11909E+07         0.00000E+00
    0.00000E+00         0.00000E+00         0.61961E+05
 
   -0.83063E+06         0.87366E+06         0.00000E+00
    0.87366E+06         0.11915E+07         0.00000E+00
    0.00000E+00         0.00000E+00         0.72178E+05
 
   -0.78115E+06         0.90107E+06         0.00000E+00
    0.90107E+06         0.11919E+07         0.00000E+00
    0.00000E+00         0.00000E+00         0.82144E+05
 
   -0.73256E+06         0.92837E+06         0.00000E+00
    0.92837E+06         0.11919E+07         0.00000E+00
    0.00000E+00         0.00000E+00         0.91859E+05
 
   -0.68482E+06         0.95558E+06         0.00000E+00
    0.95558E+06         0.11915E+07         0.00000E+00
    0.00000E+00         0.00000E+00         0.10133E+06
 
   -0.63787E+06         0.98272E+06         0.00000E+00
    0.98272E+06         0.11906E+07         0.00000E+00
    0.00000E+00         0.00000E+00         0.11055E+06
 
   -0.59167E+06         0.10098E+07         0.00000E+00
    0.10098E+07         0.11893E+07         0.00000E+00
    0.00000E+00         0.00000E+00         0.11953E+06
 
   -0.54617E+06         0.10369E+07         0.00000E+00
    0.10369E+07         0.11875E+07         0.00000E+00
    0.00000E+00         0.00000E+00         0.12826E+06
 
   -0.50132E+06         0.10639E+07         0.00000E+00
    0.10639E+07         0.11851E+07         0.00000E+00
    0.00000E+00         0.00000E+00         0.13676E+06
 
   -0.45708E+06         0.10910E+07         0.00000E+00
    0.10910E+07         0.11822E+07         0.00000E+00
    0.00000E+00         0.00000E+00         0.14502E+06
 
   -0.41339E+06         0.11180E+07         0.00000E+00
    0.11180E+07         0.11786E+07         0.00000E+00
    0.00000E+00         0.00000E+00         0.15305E+06
 
   -0.37023E+06         0.11450E+07         0.00000E+00
    0.11450E+07         0.11744E+07         0.00000E+00
    0.00000E+00         0.00000E+00         0.16084E+06
 
   -0.32755E+06         0.11720E+07         0.00000E+00
    0.11720E+07         0.11696E+07         0.00000E+00
    0.00000E+00         0.00000E+00         0.16841E+06
 
   -0.28532E+06         0.11990E+07         0.00000E+00
    0.11990E+07         0.11640E+07         0.00000E+00
    0.00000E+00         0.00000E+00         0.17574E+06
 
   -0.24349E+06         0.12260E+07         0.00000E+00
    0.12260E+07         0.11577E+07         0.00000E+00
    0.00000E+00         0.00000E+00         0.18285E+06
 
   -0.20205E+06         0.12529E+07         0.00000E+00
    0.12529E+07         0.11507E+07         0.00000E+00
    0.00000E+00         0.00000E+00         0.18973E+06
 
   -0.16097E+06         0.12798E+07         0.00000E+00
    0.12798E+07         0.11429E+07         0.00000E+00
    0.00000E+00         0.00000E+00         0.19638E+06
 
   -0.12021E+06         0.13067E+07         0.00000E+00
    0.13067E+07         0.11343E+07         0.00000E+00
    0.00000E+00         0.00000E+00         0.20282E+06
 
   -0.79767E+05         0.13334E+07         0.00000E+00
    0.13334E+07         0.11249E+07         0.00000E+00
    0.00000E+00         0.00000E+00         0.20903E+06
 
   -0.39616E+05         0.13601E+07         0.00000E+00
    0.13601E+07         0.11147E+07         0.00000E+00
    0.00000E+00         0.00000E+00         0.21502E+06
 
    0.25433E+03         0.13867E+07         0.00000E+00
    0.13867E+07         0.11037E+07         0.00000E+00
    0.00000E+00         0.00000E+00         0.22078E+06
 
    0.39854E+05         0.14131E+07         0.00000E+00
    0.14131E+07         0.10918E+07         0.00000E+00
    0.00000E+00         0.00000E+00         0.22633E+06
 
    0.79188E+05         0.14395E+07         0.00000E+00
    0.14395E+07         0.10791E+07         0.00000E+00
    0.00000E+00         0.00000E+00         0.23165E+06
 
    0.11826E+06         0.14656E+07         0.00000E+00
    0.14656E+07         0.10655E+07         0.00000E+00
    0.00000E+00         0.00000E+00         0.23675E+06
 
    0.15706E+06         0.14916E+07         0.00000E+00
    0.14916E+07         0.10511E+07         0.00000E+00
    0.00000E+00         0.00000E+00         0.24164E+06
 
    0.19559E+06         0.15174E+07         0.00000E+00
    0.15174E+07         0.10359E+07         0.00000E+00
    0.00000E+00         0.00000E+00         0.24630E+06
 
    0.23384E+06         0.15430E+07         0.00000E+00
    0.15430E+07         0.10198E+07         0.00000E+00
    0.00000E+00         0.00000E+00         0.25073E+06
 
   -0.23140E+07         0.27698E+05         0.00000E+00
    0.27698E+05         0.98072E+06         0.00000E+00
    0.00000E+00         0.00000E+00        -0.26666E+06
 
   -0.22445E+07         0.78065E+05         0.00000E+00
    0.78065E+05         0.98047E+06         0.00000E+00
    0.00000E+00         0.00000E+00        -0.25281E+06
 
   -0.21756E+07         0.12642E+06         0.00000E+00
    0.12642E+06         0.98008E+06         0.00000E+00
    0.00000E+00         0.00000E+00        -0.23910E+06
 
   -0.21073E+07         0.17288E+06         0.00000E+00
    0.17288E+06         0.97959E+06         0.00000E+00
    0.00000E+00         0.00000E+00        -0.22555E+06
 
   -0.20398E+07         0.21753E+06         0.00000E+00
    0.21753E+06         0.97901E+06         0.00000E+00
    0.00000E+00         0.00000E+00        -0.21215E+06
 
   -0.19730E+07         0.26049E+06         0.00000E+00
    0.26049E+06         0.97839E+06         0.00000E+00
    0.00000E+00         0.00000E+00        -0.19892E+06
 
   -0.19070E+07         0.30184E+06         0.00000E+00
    0.30184E+06         0.97773E+06         0.00000E+00
    0.00000E+00         0.00000E+00        -0.18585E+06
 
   -0.18419E+07         0.34169E+06         0.00000E+00
    0.34169E+06         0.97705E+06         0.00000E+00
    0.00000E+00         0.00000E+00        -0.17297E+06
 
   -0.17777E+07         0.38014E+06         0.00000E+00
    0.38014E+06         0.97636E+06         0.00000E+00
    0.00000E+00         0.00000E+00        -0.16027E+06
 
   -0.17145E+07         0.41727E+06         0.00000E+00
    0.41727E+06         0.97567E+06         0.00000E+00
    0.00000E+00         0.00000E+00        -0.14776E+06
 
   -0.16522E+07         0.45318E+06         0.00000E+00
    0.45318E+06         0.97498E+06         0.00000E+00
    0.00000E+00         0.00000E+00        -0.13544E+06
 
   -0.15909E+07         0.48794E+06         0.00000E+00
    0.48794E+06         0.97429E+06         0.00000E+00
    0.00000E+00         0.00000E+00        -0.12331E+06
 
   -0.15305E+07         0.52165E+06         0.00000E+00
    0.52165E+06         0.97359E+06         0.00000E+00
    0.00000E+00         0.00000E+00        -0.11139E+06
 
   -0.14712E+07         0.55438E+06         0.00000E+00
    0.55438E+06         0.97288E+06         0.00000E+00
    0.00000E+00         0.00000E+00        -0.99664E+05
 
   -0.14129E+07         0.58621E+06         0.00000E+00
    0.58621E+06         0.97214E+06         0.00000E+00
    0.00000E+00         0.00000E+00        -0.88144E+05
 
   -0.13555E+07         0.61720E+06         0.00000E+00
    0.61720E+06         0.97135E+06         0.00000E+00
    0.00000E+00         0.00000E+00        -0.76832E+05
 
   -0.12991E+07         0.64744E+06         0.00000E+00
    0.64744E+06         0.97051E+06         0.00000E+00
    0.00000E+00         0.00000E+00        -0.65728E+05
 
   -0.12438E+07         0.67697E+06         0.00000E+00
    0.67697E+06         0.96959E+06         0.00000E+00
    0.00000E+00         0.00000E+00        -0.54833E+05
 
   -0.11893E+07         0.70588E+06         0.00000E+00
    0.70588E+06         0.96857E+06         0.00000E+00
    0.00000E+00         0.00000E+00        -0.44149E+05
 
   -0.11358E+07         0.73420E+06         0.00000E+00
    0.73420E+06         0.96743E+06         0.00000E+00
    0.00000E+00         0.00000E+00        -0.33677E+05
 
   -0.10832E+07         0.76200E+06         0.00000E+00
    0.76200E+06         0.96614E+06         0.00000E+00
    0.00000E+00         0.00000E+00        -0.23417E+05
 
   -0.10315E+07         0.78932E+06         0.00000E+00
    0.78932E+06         0.96469E+06         0.00000E+00
    0.00000E+00         0.00000E+00        -0.13369E+05
 
   -0.98070E+06         0.81621E+06         0.00000E+00
    0.81621E+06         0.96303E+06         0.00000E+00
    0.00000E+00         0.00000E+00        -0.35341E+04
 
   -0.93071E+06         0.84272E+06         0.00000E+00
    0.84272E+06         0.96115E+06         0.00000E+00
    0.00000E+00         0.00000E+00         0.60884E+04
 
   -0.88153E+06         0.86888E+06         0.00000E+00
    0.86888E+06         0.95902E+06         0.00000E+00
    0.00000E+00         0.00000E+00         0.15499E+05
 
   -0.83313E+06         0.89472E+06         0.00000E+00
    0.89472E+06         0.95661E+06         0.00000E+00
    0.00000E+00         0.00000E+00         0.24697E+05
 
   -0.78548E+06         0.92028E+06         0.00000E+00
    0.92028E+06         0.95390E+06         0.00000E+00
    0.00000E+00         0.00000E+00         0.33684E+05
 
   -0.73854E+06         0.94559E+06         0.00000E+00
    0.94559E+06         0.95084E+06         0.00000E+00
    0.00000E+00         0.00000E+00         0.42460E+05
 
   -0.69229E+06         0.97067E+06         0.00000E+00
    0.97067E+06         0.94742E+06         0.00000E+00
    0.00000E+00         0.00000E+00         0.51026E+05
 
   -0.64669E+06         0.99554E+06         0.00000E+00
    0.99554E+06         0.94361E+06         0.00000E+00
    0.00000E+00         0.00000E+00         0.59383E+05
 
   -0.60172E+06         0.10202E+07         0.00000E+00
    0.10202E+07         0.93937E+06         0.00000E+00
    0.00000E+00         0.00000E+00         0.67531E+05
 
   -0.55734E+06         0.10447E+07         0.00000E+00
    0.10447E+07         0.93469E+06         0.00000E+00
    0.00000E+00         0.00000E+00         0.75472E+05
 
   -0.51351E+06         0.10691E+07         0.00000E+00
    0.10691E+07         0.92954E+06         0.00000E+00
    0.00000E+00         0.00000E+00         0.83206E+05
 
   -0.47023E+06         0.10933E+07         0.00000E+00
    0.10933E+07         0.92389E+06         0.00000E+00
    0.00000E+00         0.00000E+00         0.90734E+05
 
   -0.42744E+06         0.11174E+07         0.00000E+00
    0.11174E+07         0.91773E+06         0.00000E+00
    0.00000E+00         0.00000E+00         0.98057E+05
 
   -0.38514E+06         0.11413E+07         0.00000E+00
    0.11413E+07         0.91101E+06         0.00000E+00
    0.00000E+00         0.00000E+00         0.10518E+06
 
   -0.34329E+06         0.11651E+07         0.00000E+00
    0.11651E+07         0.90374E+06         0.00000E+00
    0.00000E+00         0.00000E+00         0.11209E+06
 
   -0.30187E+06         0.11888E+07         0.00000E+00
    0.11888E+07         0.89588E+06         0.00000E+00
    0.00000E+00         0.00000E+00         0.11880E+06
 
   -0.26085E+06         0.12123E+07         0.00000E+00
    0.12123E+07         0.88742E+06         0.00000E+00
    0.00000E+00         0.00000E+00         0.12531E+06
 
   -0.22023E+06         0.12357E+07         0.00000E+00
    0.12357E+07         0.87834E+06         0.00000E+00
    0.00000E+00         0.00000E+00         0.13162E+06
 
   -0.17998E+06         0.12590E+07         0.00000E+00
    0.12590E+07         0.86863E+06         0.00000E+00
    0.00000E+00         0.00000E+00         0.13773E+06
 
   -0.14009E+06         0.12821E+07         0.00000E+00
    0.12821E+07         0.85827E+06         0.00000E+00
    0.00000E+00         0.00000E+00         0.14364E+06
 
   -0.10054E+06         0.13051E+07         0.00000E+00
    0.13051E+07         0.84725E+06         0.00000E+00
    0.00000E+00         0.00000E+00         0.14934E+06
 
   -0.61325E+05         0.13279E+07         0.00000E+00
    0.13279E+07         0.83557E+06         0.00000E+00
    0.00000E+00         0.00000E+00         0.15485E+06
 
   -0.22437E+05         0.13506E+07         0.00000E+00
    0.13506E+07         0.82322E+06         0.00000E+00
    0.00000E+00         0.00000E+00         0.16016E+06
 
    0.16131E+05         0.13732E+07         0.00000E+00
    0.13732E+07         0.81019E+06         0.00000E+00
    0.00000E+00         0.00000E+00         0.16526E+06
 
    0.54382E+05         0.13955E+07         0.00000E+00
    0.13955E+07         0.79648E+06         0.00000E+00
    0.00000E+00         0.00000E+00         0.17017E+06
 
    0.92317E+05         0.14177E+07         0.00000E+00
    0.14177E+07         0.78208E+06         0.00000E+00
    0.00000E+00         0.00000E+00         0.17488E+06
 
    0.12993E+06         0.14398E+07         0.00000E+00
    0.14398E+07         0.76700E+06         0.00000E+00
    0.00000E+00         0.00000E+00         0.17939E+06
 
    0.16723E+06         0.14616E+07         0.00000E+00
    0.14616E+07         0.75124E+06         0.00000E+00
    0.00000E+00         0.00000E+00         0.18369E+06
 
   -0.22154E+07         0.26790E+05         0.00000E+00
    0.26790E+05         0.82539E+06         0.00000E+00
    0.00000E+00         0.00000E+00        -0.27801E+06
 
   -0.21557E+07         0.75894E+05         0.00000E+00
    0.75894E+05         0.82499E+06         0.00000E+00
    0.00000E+00         0.00000E+00        -0.26615E+06
 
   -0.20961E+07         0.12319E+06         0.00000E+00
    0.12319E+06         0.82427E+06         0.00000E+00
    0.00000E+00         0.00000E+00        -0.25437E+06
 
   -0.20367E+07         0.16875E+06         0.00000E+00
    0.16875E+06         0.82329E+06         0.00000E+00
    0.00000E+00         0.00000E+00        -0.24268E+06
 
   -0.19775E+07         0.21267E+06         0.00000E+00
    0.21267E+06         0.82208E+06         0.00000E+00
    0.00000E+00         0.00000E+00        -0.23109E+06
 
   -0.19187E+07         0.25501E+06         0.00000E+00
    0.25501E+06         0.82066E+06         0.00000E+00
    0.00000E+00         0.00000E+00        -0.21961E+06
 
   -0.18603E+07         0.29585E+06         0.00000E+00
    0.29585E+06         0.81906E+06         0.00000E+00
    0.00000E+00         0.00000E+00        -0.20825E+06
 
   -0.18023E+07         0.33527E+06         0.00000E+00
    0.33527E+06         0.81730E+06         0.00000E+00
    0.00000E+00         0.00000E+00        -0.19700E+06
 
   -0.17448E+07         0.37334E+06         0.00000E+00
    0.37334E+06         0.81540E+06         0.00000E+00
    0.00000E+00         0.00000E+00        -0.18588E+06
 
   -0.16878E+07         0.41014E+06         0.00000E+00
    0.41014E+06         0.81337E+06         0.00000E+00
    0.00000E+00         0.00000E+00        -0.17489E+06
 
   -0.16314E+07         0.44573E+06         0.00000E+00
    0.44573E+06         0.81122E+06         0.00000E+00
    0.00000E+00         0.00000E+00        -0.16404E+06
 
   -0.15756E+07         0.48019E+06         0.00000E+00
    0.48019E+06         0.80896E+06         0.00000E+00
    0.00000E+00         0.00000E+00        -0.15333E+06
 
   -0.15205E+07         0.51358E+06         0.00000E+00
    0.51358E+06         0.80659E+06         0.00000E+00
    0.00000E+00         0.00000E+00        -0.14277E+06
 
   -0.14659E+07         0.54596E+06         0.00000E+00
    0.54596E+06         0.80411E+06         0.00000E+00
    0.00000E+00         0.00000E+00        -0.13236E+06
 
   -0.14120E+07         0.57740E+06         0.00000E+00
    0.57740E+06         0.80152E+06         0.00000E+00
    0.00000E+00         0.00000E+00        -0.12210E+06
 
   -0.13588E+07         0.60796E+06         0.00000E+00
    0.60796E+06         0.79881E+06         0.00000E+00
    0.00000E+00         0.00000E+00        -0.11200E+06
 
   -0.13063E+07         0.63770E+06         0.00000E+00
    0.63770E+06         0.79597E+06         0.00000E+00
    0.00000E+00         0.00000E+00        -0.10206E+06
 
   -0.12544E+07         0.66666E+06         0.00000E+00
    0.66666E+06         0.79301E+06         0.00000E+00
    0.00000E+00         0.00000E+00        -0.92286E+05
 
   -0.12033E+07         0.69491E+06         0.00000E+00
    0.69491E+06         0.78990E+06         0.00000E+00
    0.00000E+00         0.00000E+00        -0.82673E+05
 
   -0.11528E+07         0.72249E+06         0.00000E+00
    0.72249E+06         0.78664E+06         0.00000E+00
    0.00000E+00         0.00000E+00        -0.73227E+05
 
   -0.11029E+07         0.74944E+06         0.00000E+00
    0.74944E+06         0.78320E+06         0.00000E+00
    0.00000E+00         0.00000E+00        -0.63950E+05
 
   -0.10538E+07         0.77582E+06         0.00000E+00
    0.77582E+06         0.77958E+06         0.00000E+00
    0.00000E+00         0.00000E+00        -0.54842E+05
 
   -0.10053E+07         0.80166E+06         0.00000E+00
    0.80166E+06         0.77576E+06         0.00000E+00
    0.00000E+00         0.00000E+00        -0.45907E+05
 
   -0.95744E+06         0.82700E+06         0.00000E+00
    0.82700E+06         0.77172E+06         0.00000E+00
    0.00000E+00         0.00000E+00        -0.37144E+05
 
   -0.91021E+06         0.85188E+06         0.00000E+00
    0.85188E+06         0.76744E+06         0.00000E+00
    0.00000E+00         0.00000E+00        -0.28555E+05
 
   -0.86360E+06         0.87633E+06         0.00000E+00
    0.87633E+06         0.76290E+06         0.00000E+00
    0.00000E+00         0.00000E+00        -0.20140E+05
 
   -0.81760E+06         0.90038E+06         0.00000E+00
    0.90038E+06         0.75809E+06         0.00000E+00
    0.00000E+00         0.00000E+00        -0.11900E+05
 
   -0.77217E+06         0.92406E+06         0.00000E+00
    0.92406E+06         0.75299E+06         0.00000E+00
    0.00000E+00         0.00000E+00        -0.38364E+04
 
   -0.72731E+06         0.94739E+06         0.00000E+00
    0.94739E+06         0.74757E+06         0.00000E+00
    0.00000E+00         0.00000E+00         0.40517E+04
 
   -0.68300E+06         0.97040E+06         0.00000E+00
    0.97040E+06         0.74182E+06         0.00000E+00
    0.00000E+00         0.00000E+00         0.11763E+05
 
   -0.63922E+06         0.99310E+06         0.00000E+00
    0.99310E+06         0.73571E+06         0.00000E+00
    0.00000E+00         0.00000E+00         0.19299E+05
 
   -0.59595E+06         0.10155E+07         0.00000E+00
    0.10155E+07         0.72924E+06         0.00000E+00
    0.00000E+00         0.00000E+00         0.26657E+05
 
   -0.55318E+06         0.10377E+07         0.00000E+00
    0.10377E+07         0.72237E+06         0.00000E+00
    0.00000E+00         0.00000E+00         0.33839E+05
 
   -0.51087E+06         0.10596E+07         0.00000E+00
    0.10596E+07         0.71510E+06         0.00000E+00
    0.00000E+00         0.00000E+00         0.40845E+05
 
   -0.46903E+06         0.10812E+07         0.00000E+00
    0.10812E+07         0.70740E+06         0.00000E+00
    0.00000E+00         0.00000E+00         0.47673E+05
 
   -0.42763E+06         0.11027E+07         0.00000E+00
    0.11027E+07         0.69926E+06         0.00000E+00
    0.00000E+00         0.00000E+00         0.54325E+05
 
   -0.38665E+06         0.11239E+07         0.00000E+00
    0.11239E+07         0.69066E+06         0.00000E+00
    0.00000E+00         0.00000E+00         0.60801E+05
 
   -0.34608E+06         0.11449E+07         0.00000E+00
    0.11449E+07         0.68158E+06         0.00000E+00
    0.00000E+00         0.00000E+00         0.67100E+05
 
   -0.30591E+06         0.11657E+07         0.00000E+00
    0.11657E+07         0.67202E+06         0.00000E+00
    0.00000E+00         0.00000E+00         0.73223E+05
 
   -0.26612E+06         0.11863E+07         0.00000E+00
    0.11863E+07         0.66197E+06         0.00000E+00
    0.00000E+00         0.00000E+00         0.79170E+05
 
   -0.22669E+06         0.12067E+07         0.00000E+00
    0.12067E+07         0.65140E+06         0.00000E+00
    0.00000E+00         0.00000E+00         0.84941E+05
 
   -0.18763E+06         0.12269E+07         0.00000E+00
    0.12269E+07         0.64031E+06         0.00000E+00
    0.00000E+00         0.00000E+00         0.90536E+05
 
   -0.14891E+06         0.12469E+07         0.00000E+00
    0.12469E+07         0.62869E+06         0.00000E+00
    0.00000E+00         0.00000E+00         0.95955E+05
 
   -0.11054E+06         0.12667E+07         0.00000E+00
    0.12667E+07         0.61653E+06         0.00000E+00
    0.00000E+00         0.00000E+00         0.10120E+06
 
   -0.72495E+05         0.12864E+07         0.00000E+00
    0.12864E+07         0.60382E+06         0.00000E+00
    0.00000E+00         0.00000E+00         0.10627E+06
 
   -0.34779E+05         0.13058E+07         0.00000E+00
    0.13058E+07         0.59056E+06         0.00000E+00
    0.00000E+00         0.00000E+00         0.11116E+06
 
    0.26133E+04         0.13251E+07         0.00000E+00
    0.13251E+07         0.57675E+06         0.00000E+00
    0.00000E+00         0.00000E+00         0.11587E+06
 
    0.39686E+05         0.13442E+07         0.00000E+00
    0.13442E+07         0.56238E+06         0.00000E+00
    0.00000E+00         0.00000E+00         0.12041E+06
 
    0.76441E+05         0.13632E+07         0.00000E+00
    0.13632E+07         0.54745E+06         0.00000E+00
    0.00000E+00         0.00000E+00         0.12478E+06
 
    0.11288E+06         0.13819E+07         0.00000E+00
    0.13819E+07         0.53196E+06         0.00000E+00
    0.00000E+00         0.00000E+00         0.12897E+06
 
   -0.21009E+07         0.25547E+05         0.00000E+00
    0.25547E+05         0.69467E+06         0.00000E+00
    0.00000E+00         0.00000E+00        -0.28125E+06
 
   -0.20499E+07         0.72710E+05         0.00000E+00
    0.72710E+05         0.69415E+06         0.00000E+00
    0.00000E+00         0.00000E+00        -0.27115E+06
 
   -0.19987E+07         0.11827E+06         0.00000E+00
    0.11827E+06         0.69322E+06         0.00000E+00
    0.00000E+00         0.00000E+00        -0.26109E+06
 
   -0.19473E+07         0.16228E+06         0.00000E+00
    0.16228E+06         0.69190E+06         0.00000E+00
    0.00000E+00         0.00000E+00        -0.25107E+06
 
   -0.18958E+07         0.20480E+06         0.00000E+00
    0.20480E+06         0.69025E+06         0.00000E+00
    0.00000E+00         0.00000E+00        -0.24111E+06
 
   -0.18443E+07         0.24588E+06         0.00000E+00
    0.24588E+06         0.68828E+06         0.00000E+00
    0.00000E+00         0.00000E+00        -0.23121E+06
 
   -0.17929E+07         0.28560E+06         0.00000E+00
    0.28560E+06         0.68602E+06         0.00000E+00
    0.00000E+00         0.00000E+00        -0.22138E+06
 
   -0.17416E+07         0.32399E+06         0.00000E+00
    0.32399E+06         0.68350E+06         0.00000E+00
    0.00000E+00         0.00000E+00        -0.21162E+06
 
   -0.16905E+07         0.36112E+06         0.00000E+00
    0.36112E+06         0.68074E+06         0.00000E+00
    0.00000E+00         0.00000E+00        -0.20195E+06
 
   -0.16396E+07         0.39705E+06         0.00000E+00
    0.39705E+06         0.67775E+06         0.00000E+00
    0.00000E+00         0.00000E+00        -0.19236E+06
 
   -0.15889E+07         0.43182E+06         0.00000E+00
    0.43182E+06         0.67456E+06         0.00000E+00
    0.00000E+00         0.00000E+00        -0.18287E+06
 
   -0.15385E+07         0.46551E+06         0.00000E+00
    0.46551E+06         0.67117E+06         0.00000E+00
    0.00000E+00         0.00000E+00        -0.17347E+06
 
   -0.14885E+07         0.49814E+06         0.00000E+00
    0.49814E+06         0.66759E+06         0.00000E+00
    0.00000E+00         0.00000E+00        -0.16418E+06
 
   -0.14388E+07         0.52979E+06         0.00000E+00
    0.52979E+06         0.66383E+06         0.00000E+00
    0.00000E+00         0.00000E+00        -0.15500E+06
 
   -0.13895E+07         0.56050E+06         0.00000E+00
    0.56050E+06         0.65989E+06         0.00000E+00
    0.00000E+00         0.00000E+00        -0.14593E+06
 
   -0.13406E+07         0.59031E+06         0.00000E+00
    0.59031E+06         0.65578E+06         0.00000E+00
    0.00000E+00         0.00000E+00        -0.13697E+06
 
   -0.12921E+07         0.61928E+06         0.00000E+00
    0.61928E+06         0.65149E+06         0.00000E+00
    0.00000E+00         0.00000E+00        -0.12813E+06
 
   -0.12441E+07         0.64744E+06         0.00000E+00
    0.64744E+06         0.64702E+06         0.00000E+00
    0.00000E+00         0.00000E+00        -0.11942E+06
 
   -0.11965E+07         0.67485E+06         0.00000E+00
    0.67485E+06         0.64238E+06         0.00000E+00
    0.00000E+00         0.00000E+00        -0.11083E+06
 
   -0.11494E+07         0.70155E+06         0.00000E+00
    0.70155E+06         0.63755E+06         0.00000E+00
    0.00000E+00         0.00000E+00        -0.10237E+06
 
   -0.11027E+07         0.72757E+06         0.00000E+00
    0.72757E+06         0.63252E+06         0.00000E+00
    0.00000E+00         0.00000E+00        -0.94038E+05
 
   -0.10565E+07         0.75295E+06         0.00000E+00
    0.75295E+06         0.62730E+06         0.00000E+00
    0.00000E+00         0.00000E+00        -0.85841E+05
 
   -0.10108E+07         0.77773E+06         0.00000E+00
    0.77773E+06         0.62187E+06         0.00000E+00
    0.00000E+00         0.00000E+00        -0.77780E+05
 
   -0.96551E+06         0.80195E+06         0.00000E+00
    0.80195E+06         0.61623E+06         0.00000E+00
    0.00000E+00         0.00000E+00        -0.69857E+05
 
   -0.92071E+06         0.82563E+06         0.00000E+00
    0.82563E+06         0.61035E+06         0.00000E+00
    0.00000E+00         0.00000E+00        -0.62072E+05
 
   -0.87638E+06         0.84880E+06         0.00000E+00
    0.84880E+06         0.60424E+06         0.00000E+00
    0.00000E+00         0.00000E+00        -0.54428E+05
 
   -0.83250E+06         0.87150E+06         0.00000E+00
    0.87150E+06         0.59787E+06         0.00000E+00
    0.00000E+00         0.00000E+00        -0.46926E+05
 
   -0.78907E+06         0.89374E+06         0.00000E+00
    0.89374E+06         0.59124E+06         0.00000E+00
    0.00000E+00         0.00000E+00        -0.39567E+05
 
   -0.74610E+06         0.91556E+06         0.00000E+00
    0.91556E+06         0.58433E+06         0.00000E+00
    0.00000E+00         0.00000E+00        -0.32353E+05
 
   -0.70356E+06         0.93698E+06         0.00000E+00
    0.93698E+06         0.57714E+06         0.00000E+00
    0.00000E+00         0.00000E+00        -0.25284E+05
 
   -0.66144E+06         0.95802E+06         0.00000E+00
    0.95802E+06         0.56964E+06         0.00000E+00
    0.00000E+00         0.00000E+00        -0.18361E+05
 
   -0.61975E+06         0.97869E+06         0.00000E+00
    0.97869E+06         0.56183E+06         0.00000E+00
    0.00000E+00         0.00000E+00        -0.11585E+05
 
   -0.57847E+06         0.99902E+06         0.00000E+00
    0.99902E+06         0.55369E+06         0.00000E+00
    0.00000E+00         0.00000E+00        -0.49571E+04
 
   -0.53759E+06         0.10190E+07         0.00000E+00
    0.10190E+07         0.54521E+06         0.00000E+00
    0.00000E+00         0.00000E+00         0.15226E+04
 
   -0.49711E+06         0.10387E+07         0.00000E+00
    0.10387E+07         0.53637E+06         0.00000E+00
    0.00000E+00         0.00000E+00         0.78535E+04
 
   -0.45700E+06         0.10581E+07         0.00000E+00
    0.10581E+07         0.52718E+06         0.00000E+00
    0.00000E+00         0.00000E+00         0.14035E+05
 
   -0.41727E+06         0.10772E+07         0.00000E+00
    0.10772E+07         0.51760E+06         0.00000E+00
    0.00000E+00         0.00000E+00         0.20067E+05
 
   -0.37790E+06         0.10961E+07         0.00000E+00
    0.10961E+07         0.50765E+06         0.00000E+00
    0.00000E+00         0.00000E+00         0.25949E+05
 
   -0.33888E+06         0.11146E+07         0.00000E+00
    0.11146E+07         0.49729E+06         0.00000E+00
    0.00000E+00         0.00000E+00         0.31681E+05
 
   -0.30021E+06         0.11329E+07         0.00000E+00
    0.11329E+07         0.48652E+06         0.00000E+00
    0.00000E+00         0.00000E+00         0.37262E+05
 
   -0.26188E+06         0.11510E+07         0.00000E+00
    0.11510E+07         0.47534E+06         0.00000E+00
    0.00000E+00         0.00000E+00         0.42693E+05
 
   -0.22388E+06         0.11688E+07         0.00000E+00
    0.11688E+07         0.46374E+06         0.00000E+00
    0.00000E+00         0.00000E+00         0.47973E+05
 
   -0.18620E+06         0.11864E+07         0.00000E+00
    0.11864E+07         0.45170E+06         0.00000E+00
    0.00000E+00         0.00000E+00         0.53102E+05
 
   -0.14883E+06         0.12038E+07         0.00000E+00
    0.12038E+07         0.43923E+06         0.00000E+00
    0.00000E+00         0.00000E+00         0.58080E+05
 
   -0.11177E+06         0.12210E+07         0.00000E+00
    0.12210E+07         0.42631E+06         0.00000E+00
    0.00000E+00         0.00000E+00         0.62907E+05
 
   -0.75016E+05         0.12380E+07         0.00000E+00
    0.12380E+07         0.41293E+06         0.00000E+00
    0.00000E+00         0.00000E+00         0.67583E+05
 
   -0.38561E+05         0.12547E+07         0.00000E+00
    0.12547E+07         0.39910E+06         0.00000E+00
    0.00000E+00         0.00000E+00         0.72109E+05
 
   -0.23991E+04         0.12713E+07         0.00000E+00
    0.12713E+07         0.38482E+06         0.00000E+00
    0.00000E+00         0.00000E+00         0.76483E+05
 
    0.33473E+05         0.12877E+07         0.00000E+00
    0.12877E+07         0.37006E+06         0.00000E+00
    0.00000E+00         0.00000E+00         0.80707E+05
 
    0.69058E+05         0.13039E+07         0.00000E+00
    0.13039E+07         0.35484E+06         0.00000E+00
    0.00000E+00         0.00000E+00         0.84781E+05
 
   -0.19771E+07         0.24094E+05         0.00000E+00
    0.24094E+05         0.58465E+06         0.00000E+00
    0.00000E+00         0.00000E+00        -0.27849E+06
 
   -0.19337E+07         0.68866E+05         0.00000E+00
    0.68866E+05         0.58406E+06         0.00000E+00
    0.00000E+00         0.00000E+00        -0.26994E+06
 
   -0.18899E+07         0.11223E+06         0.00000E+00
    0.11223E+06         0.58299E+06         0.00000E+00
    0.00000E+00         0.00000E+00        -0.26138E+06
 
   -0.18457E+07         0.15423E+06         0.00000E+00
    0.15423E+06         0.58147E+06         0.00000E+00
    0.00000E+00         0.00000E+00        -0.25284E+06
 
   -0.18011E+07         0.19490E+06         0.00000E+00
    0.19490E+06         0.57953E+06         0.00000E+00
    0.00000E+00         0.00000E+00        -0.24432E+06
 
   -0.17563E+07         0.23428E+06         0.00000E+00
    0.23428E+06         0.57720E+06         0.00000E+00
    0.00000E+00         0.00000E+00        -0.23583E+06
 
   -0.17113E+07         0.27242E+06         0.00000E+00
    0.27242E+06         0.57451E+06         0.00000E+00
    0.00000E+00         0.00000E+00        -0.22737E+06
 
   -0.16662E+07         0.30936E+06         0.00000E+00
    0.30936E+06         0.57148E+06         0.00000E+00
    0.00000E+00         0.00000E+00        -0.21895E+06
 
   -0.16210E+07         0.34514E+06         0.00000E+00
    0.34514E+06         0.56815E+06         0.00000E+00
    0.00000E+00         0.00000E+00        -0.21057E+06
 
   -0.15758E+07         0.37981E+06         0.00000E+00
    0.37981E+06         0.56452E+06         0.00000E+00
    0.00000E+00         0.00000E+00        -0.20225E+06
 
   -0.15306E+07         0.41339E+06         0.00000E+00
    0.41339E+06         0.56062E+06         0.00000E+00
    0.00000E+00         0.00000E+00        -0.19399E+06
 
   -0.14854E+07         0.44595E+06         0.00000E+00
    0.44595E+06         0.55646E+06         0.00000E+00
    0.00000E+00         0.00000E+00        -0.18579E+06
 
   -0.14404E+07         0.47751E+06         0.00000E+00
    0.47751E+06         0.55205E+06         0.00000E+00
    0.00000E+00         0.00000E+00        -0.17766E+06
 
   -0.13954E+07         0.50812E+06         0.00000E+00
    0.50812E+06         0.54741E+06         0.00000E+00
    0.00000E+00         0.00000E+00        -0.16960E+06
 
   -0.13507E+07         0.53782E+06         0.00000E+00
    0.53782E+06         0.54254E+06         0.00000E+00
    0.00000E+00         0.00000E+00        -0.16162E+06
 
   -0.13061E+07         0.56665E+06         0.00000E+00
    0.56665E+06         0.53746E+06         0.00000E+00
    0.00000E+00         0.00000E+00        -0.15372E+06
 
   -0.12617E+07         0.59464E+06         0.00000E+00
    0.59464E+06         0.53215E+06         0.00000E+00
    0.00000E+00         0.00000E+00        -0.14591E+06
 
   -0.12176E+07         0.62183E+06         0.00000E+00
    0.62183E+06         0.52664E+06         0.00000E+00
    0.00000E+00         0.00000E+00        -0.13819E+06
 
   -0.11737E+07         0.64825E+06         0.00000E+00
    0.64825E+06         0.52092E+06         0.00000E+00
    0.00000E+00         0.00000E+00        -0.13055E+06
 
   -0.11301E+07         0.67395E+06         0.00000E+00
    0.67395E+06         0.51499E+06         0.00000E+00
    0.00000E+00         0.00000E+00        -0.12302E+06
 
   -0.10868E+07         0.69895E+06         0.00000E+00
    0.69895E+06         0.50885E+06         0.00000E+00
    0.00000E+00         0.00000E+00        -0.11558E+06
 
   -0.10437E+07         0.72329E+06         0.00000E+00
    0.72329E+06         0.50250E+06         0.00000E+00
    0.00000E+00         0.00000E+00        -0.10825E+06
 
   -0.10010E+07         0.74700E+06         0.00000E+00
    0.74700E+06         0.49594E+06         0.00000E+00
    0.00000E+00         0.00000E+00        -0.10101E+06
 
   -0.95860E+06         0.77011E+06         0.00000E+00
    0.77011E+06         0.48916E+06         0.00000E+00
    0.00000E+00         0.00000E+00        -0.93889E+05
 
   -0.91651E+06         0.79264E+06         0.00000E+00
    0.79264E+06         0.48215E+06         0.00000E+00
    0.00000E+00         0.00000E+00        -0.86872E+05
 
   -0.87475E+06         0.81462E+06         0.00000E+00
    0.81462E+06         0.47492E+06         0.00000E+00
    0.00000E+00         0.00000E+00        -0.79966E+05
 
   -0.83331E+06         0.83608E+06         0.00000E+00
    0.83608E+06         0.46745E+06         0.00000E+00
    0.00000E+00         0.00000E+00        -0.73172E+05
 
   -0.79221E+06         0.85704E+06         0.00000E+00
    0.85704E+06         0.45974E+06         0.00000E+00
    0.00000E+00         0.00000E+00        -0.66493E+05
 
   -0.75143E+06         0.87753E+06         0.00000E+00
    0.87753E+06         0.45178E+06         0.00000E+00
    0.00000E+00         0.00000E+00        -0.59929E+05
 
   -0.71098E+06         0.89756E+06         0.00000E+00
    0.89756E+06         0.44357E+06         0.00000E+00
    0.00000E+00         0.00000E+00        -0.53483E+05
 
   -0.67086E+06         0.91716E+06         0.00000E+00
    0.91716E+06         0.43509E+06         0.00000E+00
    0.00000E+00         0.00000E+00        -0.47155E+05
 
   -0.63107E+06         0.93634E+06         0.00000E+00
    0.93634E+06         0.42634E+06         0.00000E+00
    0.00000E+00         0.00000E+00        -0.40947E+05
 
   -0.59160E+06         0.95514E+06         0.00000E+00
    0.95514E+06         0.41730E+06         0.00000E+00
    0.00000E+00         0.00000E+00        -0.34860E+05
 
   -0.55246E+06         0.97355E+06         0.00000E+00
    0.97355E+06         0.40798E+06         0.00000E+00
    0.00000E+00         0.00000E+00        -0.28895E+05
 
   -0.51362E+06         0.99160E+06         0.00000E+00
    0.99160E+06         0.39836E+06         0.00000E+00
    0.00000E+00         0.00000E+00        -0.23052E+05
 
   -0.47510E+06         0.10093E+07         0.00000E+00
    0.10093E+07         0.38844E+06         0.00000E+00
    0.00000E+00         0.00000E+00        -0.17333E+05
 
   -0.43689E+06         0.10267E+07         0.00000E+00
    0.10267E+07         0.37820E+06         0.00000E+00
    0.00000E+00         0.00000E+00        -0.11738E+05
 
   -0.39898E+06         0.10437E+07         0.00000E+00
    0.10437E+07         0.36764E+06         0.00000E+00
    0.00000E+00         0.00000E+00        -0.62676E+04
 
   -0.36137E+06         0.10605E+07         0.00000E+00
    0.10605E+07         0.35676E+06         0.00000E+00
    0.00000E+00         0.00000E+00        -0.92258E+03
 
   -0.32405E+06         0.10769E+07         0.00000E+00
    0.10769E+07         0.34553E+06         0.00000E+00
    0.00000E+00         0.00000E+00         0.42968E+04
 
   -0.28702E+06         0.10931E+07         0.00000E+00
    0.10931E+07         0.33397E+06         0.00000E+00
    0.00000E+00         0.00000E+00         0.93900E+04
 
   -0.25027E+06         0.11090E+07         0.00000E+00
    0.11090E+07         0.32205E+06         0.00000E+00
    0.00000E+00         0.00000E+00         0.14357E+05
 
   -0.21379E+06         0.11246E+07         0.00000E+00
    0.11246E+07         0.30978E+06         0.00000E+00
    0.00000E+00         0.00000E+00         0.19197E+05
 
   -0.17759E+06         0.11400E+07         0.00000E+00
    0.11400E+07         0.29715E+06         0.00000E+00
    0.00000E+00         0.00000E+00         0.23911E+05
 
   -0.14166E+06         0.11551E+07         0.00000E+00
    0.11551E+07         0.28415E+06         0.00000E+00
    0.00000E+00         0.00000E+00         0.28498E+05
 
   -0.10599E+06         0.11700E+07         0.00000E+00
    0.11700E+07         0.27077E+06         0.00000E+00
    0.00000E+00         0.00000E+00         0.32958E+05
 
   -0.70568E+05         0.11847E+07         0.00000E+00
    0.11847E+07         0.25702E+06         0.00000E+00
    0.00000E+00         0.00000E+00         0.37291E+05
 
   -0.35402E+05         0.11991E+07         0.00000E+00
    0.11991E+07         0.24289E+06         0.00000E+00
    0.00000E+00         0.00000E+00         0.41498E+05
 
   -0.48193E+03         0.12134E+07         0.00000E+00
    0.12134E+07         0.22837E+06         0.00000E+00
    0.00000E+00         0.00000E+00         0.45578E+05
 
    0.34197E+05         0.12274E+07         0.00000E+00
    0.12274E+07         0.21346E+06         0.00000E+00
    0.00000E+00         0.00000E+00         0.49532E+05
 
   -0.18491E+07         0.22526E+05         0.00000E+00
    0.22526E+05         0.49205E+06         0.00000E+00
    0.00000E+00         0.00000E+00        -0.27141E+06
 
   -0.18124E+07         0.64639E+05         0.00000E+00
    0.64639E+05         0.49143E+06         0.00000E+00
    0.00000E+00         0.00000E+00        -0.26418E+06
 
   -0.17750E+07         0.10553E+06         0.00000E+00
    0.10553E+06         0.49029E+06         0.00000E+00
    0.00000E+00         0.00000E+00        -0.25694E+06
 
   -0.17371E+07         0.14522E+06         0.00000E+00
    0.14522E+06         0.48865E+06         0.00000E+00
    0.00000E+00         0.00000E+00        -0.24969E+06
 
   -0.16987E+07         0.18375E+06         0.00000E+00
    0.18375E+06         0.48654E+06         0.00000E+00
    0.00000E+00         0.00000E+00        -0.24243E+06
 
   -0.16599E+07         0.22113E+06         0.00000E+00
    0.22113E+06         0.48401E+06         0.00000E+00
    0.00000E+00         0.00000E+00        -0.23517E+06
 
   -0.16207E+07         0.25741E+06         0.00000E+00
    0.25741E+06         0.48106E+06         0.00000E+00
    0.00000E+00         0.00000E+00        -0.22792E+06
 
   -0.15812E+07         0.29260E+06         0.00000E+00
    0.29260E+06         0.47774E+06         0.00000E+00
    0.00000E+00         0.00000E+00        -0.22069E+06
 
   -0.15414E+07         0.32675E+06         0.00000E+00
    0.32675E+06         0.47405E+06         0.00000E+00
    0.00000E+00         0.00000E+00        -0.21347E+06
 
   -0.15014E+07         0.35987E+06         0.00000E+00
    0.35987E+06         0.47003E+06         0.00000E+00
    0.00000E+00         0.00000E+00        -0.20628E+06
 
   -0.14613E+07         0.39201E+06         0.00000E+00
    0.39201E+06         0.46570E+06         0.00000E+00
    0.00000E+00         0.00000E+00        -0.19912E+06
 
   -0.14210E+07         0.42318E+06         0.00000E+00
    0.42318E+06         0.46106E+06         0.00000E+00
    0.00000E+00         0.00000E+00        -0.19199E+06
 
   -0.13807E+07         0.45344E+06         0.00000E+00
    0.45344E+06         0.45613E+06         0.00000E+00
    0.00000E+00         0.00000E+00        -0.18491E+06
 
   -0.13403E+07         0.48279E+06         0.00000E+00
    0.48279E+06         0.45093E+06         0.00000E+00
    0.00000E+00         0.00000E+00        -0.17787E+06
 
   -0.12998E+07         0.51129E+06         0.00000E+00
    0.51129E+06         0.44547E+06         0.00000E+00
    0.00000E+00         0.00000E+00        -0.17088E+06
 
   -0.12595E+07         0.53894E+06         0.00000E+00
    0.53894E+06         0.43976E+06         0.00000E+00
    0.00000E+00         0.00000E+00        -0.16394E+06
 
   -0.12191E+07         0.56580E+06         0.00000E+00
    0.56580E+06         0.43380E+06         0.00000E+00
    0.00000E+00         0.00000E+00        -0.15706E+06
 
   -0.11788E+07         0.59187E+06         0.00000E+00
    0.59187E+06         0.42761E+06         0.00000E+00
    0.00000E+00         0.00000E+00        -0.15024E+06
 
   -0.11387E+07         0.61721E+06         0.00000E+00
    0.61721E+06         0.42119E+06         0.00000E+00
    0.00000E+00         0.00000E+00        -0.14349E+06
 
   -0.10986E+07         0.64182E+06         0.00000E+00
    0.64182E+06         0.41454E+06         0.00000E+00
    0.00000E+00         0.00000E+00        -0.13681E+06
 
   -0.10587E+07         0.66574E+06         0.00000E+00
    0.66574E+06         0.40767E+06         0.00000E+00
    0.00000E+00         0.00000E+00        -0.13020E+06
 
   -0.10189E+07         0.68900E+06         0.00000E+00
    0.68900E+06         0.40058E+06         0.00000E+00
    0.00000E+00         0.00000E+00        -0.12366E+06
 
   -0.97928E+06         0.71161E+06         0.00000E+00
    0.71161E+06         0.39327E+06         0.00000E+00
    0.00000E+00         0.00000E+00        -0.11720E+06
 
   -0.93985E+06         0.73362E+06         0.00000E+00
    0.73362E+06         0.38575E+06         0.00000E+00
    0.00000E+00         0.00000E+00        -0.11082E+06
 
   -0.90062E+06         0.75503E+06         0.00000E+00
    0.75503E+06         0.37800E+06         0.00000E+00
    0.00000E+00         0.00000E+00        -0.10452E+06
 
   -0.86158E+06         0.77588E+06         0.00000E+00
    0.77588E+06         0.37003E+06         0.00000E+00
    0.00000E+00         0.00000E+00        -0.98311E+05
 
   -0.82276E+06         0.79619E+06         0.00000E+00
    0.79619E+06         0.36184E+06         0.00000E+00
    0.00000E+00         0.00000E+00        -0.92184E+05
 
   -0.78416E+06         0.81597E+06         0.00000E+00
    0.81597E+06         0.35342E+06         0.00000E+00
    0.00000E+00         0.00000E+00        -0.86147E+05
 
   -0.74578E+06         0.83525E+06         0.00000E+00
    0.83525E+06         0.34478E+06         0.00000E+00
    0.00000E+00         0.00000E+00        -0.80200E+05
 
   -0.70762E+06         0.85405E+06         0.00000E+00
    0.85405E+06         0.33590E+06         0.00000E+00
    0.00000E+00         0.00000E+00        -0.74345E+05
 
   -0.66970E+06         0.87238E+06         0.00000E+00
    0.87238E+06         0.32678E+06         0.00000E+00
    0.00000E+00         0.00000E+00        -0.68584E+05
 
   -0.63202E+06         0.89027E+06         0.00000E+00
    0.89027E+06         0.31743E+06         0.00000E+00
    0.00000E+00         0.00000E+00        -0.62918E+05
 
   -0.59457E+06         0.90773E+06         0.00000E+00
    0.90773E+06         0.30783E+06         0.00000E+00
    0.00000E+00         0.00000E+00        -0.57348E+05
 
   -0.55736E+06         0.92479E+06         0.00000E+00
    0.92479E+06         0.29797E+06         0.00000E+00
    0.00000E+00         0.00000E+00        -0.51877E+05
 
   -0.52038E+06         0.94144E+06         0.00000E+00
    0.94144E+06         0.28786E+06         0.00000E+00
    0.00000E+00         0.00000E+00        -0.46504E+05
 
   -0.48365E+06         0.95772E+06         0.00000E+00
    0.95772E+06         0.27750E+06         0.00000E+00
    0.00000E+00         0.00000E+00        -0.41231E+05
 
   -0.44715E+06         0.97363E+06         0.00000E+00
    0.97363E+06         0.26686E+06         0.00000E+00
    0.00000E+00         0.00000E+00        -0.36059E+05
 
   -0.41089E+06         0.98919E+06         0.00000E+00
    0.98919E+06         0.25595E+06         0.00000E+00
    0.00000E+00         0.00000E+00        -0.30988E+05
 
   -0.37487E+06         0.10044E+07         0.00000E+00
    0.10044E+07         0.24477E+06         0.00000E+00
    0.00000E+00         0.00000E+00        -0.26019E+05
 
   -0.33907E+06         0.10193E+07         0.00000E+00
    0.10193E+07         0.23331E+06         0.00000E+00
    0.00000E+00         0.00000E+00        -0.21154E+05
 
   -0.30351E+06         0.10339E+07         0.00000E+00
    0.10339E+07         0.22155E+06         0.00000E+00
    0.00000E+00         0.00000E+00        -0.16391E+05
 
   -0.26817E+06         0.10482E+07         0.00000E+00
    0.10482E+07         0.20951E+06         0.00000E+00
    0.00000E+00         0.00000E+00        -0.11732E+05
 
   -0.23305E+06         0.10622E+07         0.00000E+00
    0.10622E+07         0.19717E+06         0.00000E+00
    0.00000E+00         0.00000E+00        -0.71765E+04
 
   -0.19816E+06         0.10759E+07         0.00000E+00
    0.10759E+07         0.18453E+06         0.00000E+00
    0.00000E+00         0.00000E+00        -0.27254E+04
 
   -0.16347E+06         0.10893E+07         0.00000E+00
    0.10893E+07         0.17158E+06         0.00000E+00
    0.00000E+00         0.00000E+00         0.16214E+04
 
   -0.12900E+06         0.11025E+07         0.00000E+00
    0.11025E+07         0.15832E+06         0.00000E+00
    0.00000E+00         0.00000E+00         0.58640E+04
 
   -0.94734E+05         0.11154E+07         0.00000E+00
    0.11154E+07         0.14475E+06         0.00000E+00
    0.00000E+00         0.00000E+00         0.10002E+05
 
   -0.60668E+05         0.11281E+07         0.00000E+00
    0.11281E+07         0.13085E+06         0.00000E+00
    0.00000E+00         0.00000E+00         0.14037E+05
 
   -0.26796E+05         0.11406E+07         0.00000E+00
    0.11406E+07         0.11663E+06         0.00000E+00
    0.00000E+00         0.00000E+00         0.17967E+05
 
    0.68864E+04         0.11529E+07         0.00000E+00
    0.11529E+07         0.10208E+06         0.00000E+00
    0.00000E+00         0.00000E+00         0.21794E+05
 
   -0.17205E+07         0.20916E+05         0.00000E+00
    0.20916E+05         0.41411E+06         0.00000E+00
    0.00000E+00         0.00000E+00        -0.26128E+06
 
   -0.16895E+07         0.60239E+05         0.00000E+00
    0.60239E+05         0.41349E+06         0.00000E+00
    0.00000E+00         0.00000E+00        -0.25521E+06
 
   -0.16578E+07         0.98508E+05         0.00000E+00
    0.98508E+05         0.41232E+06         0.00000E+00
    0.00000E+00         0.00000E+00        -0.24910E+06
 
   -0.16254E+07         0.13574E+06         0.00000E+00
    0.13574E+06         0.41063E+06         0.00000E+00
    0.00000E+00         0.00000E+00        -0.24296E+06
 
   -0.15924E+07         0.17195E+06         0.00000E+00
    0.17195E+06         0.40846E+06         0.00000E+00
    0.00000E+00         0.00000E+00        -0.23679E+06
 
   -0.15589E+07         0.20716E+06         0.00000E+00
    0.20716E+06         0.40583E+06         0.00000E+00
    0.00000E+00         0.00000E+00        -0.23061E+06
 
   -0.15249E+07         0.24139E+06         0.00000E+00
    0.24139E+06         0.40277E+06         0.00000E+00
    0.00000E+00         0.00000E+00        -0.22442E+06
 
   -0.14904E+07         0.27466E+06         0.00000E+00
    0.27466E+06         0.39930E+06         0.00000E+00
    0.00000E+00         0.00000E+00        -0.21822E+06
 
   -0.14555E+07         0.30698E+06         0.00000E+00
    0.30698E+06         0.39545E+06         0.00000E+00
    0.00000E+00         0.00000E+00        -0.21202E+06
 
   -0.14203E+07         0.33839E+06         0.00000E+00
    0.33839E+06         0.39123E+06         0.00000E+00
    0.00000E+00         0.00000E+00        -0.20582E+06
 
   -0.13848E+07         0.36890E+06         0.00000E+00
    0.36890E+06         0.38666E+06         0.00000E+00
    0.00000E+00         0.00000E+00        -0.19963E+06
 
   -0.13491E+07         0.39853E+06         0.00000E+00
    0.39853E+06         0.38177E+06         0.00000E+00
    0.00000E+00         0.00000E+00        -0.19346E+06
 
   -0.13131E+07         0.42732E+06         0.00000E+00
    0.42732E+06         0.37656E+06         0.00000E+00
    0.00000E+00         0.00000E+00        -0.18731E+06
 
   -0.12770E+07         0.45527E+06         0.00000E+00
    0.45527E+06         0.37106E+06         0.00000E+00
    0.00000E+00         0.00000E+00        -0.18118E+06
 
   -0.12407E+07         0.48242E+06         0.00000E+00
    0.48242E+06         0.36527E+06         0.00000E+00
    0.00000E+00         0.00000E+00        -0.17508E+06
 
   -0.12042E+07         0.50878E+06         0.00000E+00
    0.50878E+06         0.35921E+06         0.00000E+00
    0.00000E+00         0.00000E+00        -0.16901E+06
 
   -0.11677E+07         0.53439E+06         0.00000E+00
    0.53439E+06         0.35289E+06         0.00000E+00
    0.00000E+00         0.00000E+00        -0.16297E+06
 
   -0.11312E+07         0.55926E+06         0.00000E+00
    0.55926E+06         0.34631E+06         0.00000E+00
    0.00000E+00         0.00000E+00        -0.15697E+06
 
   -0.10946E+07         0.58341E+06         0.00000E+00
    0.58341E+06         0.33949E+06         0.00000E+00
    0.00000E+00         0.00000E+00        -0.15102E+06
 
   -0.10580E+07         0.60687E+06         0.00000E+00
    0.60687E+06         0.33244E+06         0.00000E+00
    0.00000E+00         0.00000E+00        -0.14511E+06
 
   -0.10214E+07         0.62966E+06         0.00000E+00
    0.62966E+06         0.32515E+06         0.00000E+00
    0.00000E+00         0.00000E+00        -0.13925E+06
 
   -0.98487E+06         0.65181E+06         0.00000E+00
    0.65181E+06         0.31763E+06         0.00000E+00
    0.00000E+00         0.00000E+00        -0.13345E+06
 
   -0.94838E+06         0.67332E+06         0.00000E+00
    0.67332E+06         0.30989E+06         0.00000E+00
    0.00000E+00         0.00000E+00        -0.12770E+06
 
   -0.91195E+06         0.69423E+06         0.00000E+00
    0.69423E+06         0.30193E+06         0.00000E+00
    0.00000E+00         0.00000E+00        -0.12200E+06
 
   -0.87560E+06         0.71455E+06         0.00000E+00
    0.71455E+06         0.29376E+06         0.00000E+00
    0.00000E+00         0.00000E+00        -0.11637E+06
 
   -0.83935E+06         0.73431E+06         0.00000E+00
    0.73431E+06         0.28537E+06         0.00000E+00
    0.00000E+00         0.00000E+00        -0.11080E+06
 
   -0.80321E+06         0.75352E+06         0.00000E+00
    0.75352E+06         0.27676E+06         0.00000E+00
    0.00000E+00         0.00000E+00        -0.10529E+06
 
   -0.76719E+06         0.77220E+06         0.00000E+00
    0.77220E+06         0.26794E+06         0.00000E+00
    0.00000E+00         0.00000E+00        -0.99850E+05
 
   -0.73130E+06         0.79036E+06         0.00000E+00
    0.79036E+06         0.25891E+06         0.00000E+00
    0.00000E+00         0.00000E+00        -0.94478E+05
 
   -0.69554E+06         0.80804E+06         0.00000E+00
    0.80804E+06         0.24966E+06         0.00000E+00
    0.00000E+00         0.00000E+00        -0.89177E+05
 
   -0.65993E+06         0.82524E+06         0.00000E+00
    0.82524E+06         0.24019E+06         0.00000E+00
    0.00000E+00         0.00000E+00        -0.83947E+05
 
   -0.62447E+06         0.84197E+06         0.00000E+00
    0.84197E+06         0.23051E+06         0.00000E+00
    0.00000E+00         0.00000E+00        -0.78792E+05
 
   -0.58916E+06         0.85827E+06         0.00000E+00
    0.85827E+06         0.22060E+06         0.00000E+00
    0.00000E+00         0.00000E+00        -0.73711E+05
 
   -0.55401E+06         0.87413E+06         0.00000E+00
    0.87413E+06         0.21048E+06         0.00000E+00
    0.00000E+00         0.00000E+00        -0.68707E+05
 
   -0.51903E+06         0.88958E+06         0.00000E+00
    0.88958E+06         0.20013E+06         0.00000E+00
    0.00000E+00         0.00000E+00        -0.63781E+05
 
   -0.48421E+06         0.90463E+06         0.00000E+00
    0.90463E+06         0.18955E+06         0.00000E+00
    0.00000E+00         0.00000E+00        -0.58933E+05
 
   -0.44957E+06         0.91929E+06         0.00000E+00
    0.91929E+06         0.17874E+06         0.00000E+00
    0.00000E+00         0.00000E+00        -0.54165E+05
 
   -0.41509E+06         0.93359E+06         0.00000E+00
    0.93359E+06         0.16770E+06         0.00000E+00
    0.00000E+00         0.00000E+00        -0.49477E+05
 
   -0.38078E+06         0.94752E+06         0.00000E+00
    0.94752E+06         0.15642E+06         0.00000E+00
    0.00000E+00         0.00000E+00        -0.44871E+05
 
   -0.34664E+06         0.96110E+06         0.00000E+00
    0.96110E+06         0.14490E+06         0.00000E+00
    0.00000E+00         0.00000E+00        -0.40347E+05
 
   -0.31267E+06         0.97435E+06         0.00000E+00
    0.97435E+06         0.13314E+06         0.00000E+00
    0.00000E+00         0.00000E+00        -0.35905E+05
 
   -0.27886E+06         0.98727E+06         0.00000E+00
    0.98727E+06         0.12113E+06         0.00000E+00
    0.00000E+00         0.00000E+00        -0.31546E+05
 
   -0.24522E+06         0.99989E+06         0.00000E+00
    0.99989E+06         0.10887E+06         0.00000E+00
    0.00000E+00         0.00000E+00        -0.27271E+05
 
   -0.21175E+06         0.10122E+07         0.00000E+00
    0.10122E+07         0.96354E+05         0.00000E+00
    0.00000E+00         0.00000E+00        -0.23079E+05
 
   -0.17843E+06         0.10242E+07         0.00000E+00
    0.10242E+07         0.83579E+05         0.00000E+00
    0.00000E+00         0.00000E+00        -0.18971E+05
 
   -0.14528E+06         0.10360E+07         0.00000E+00
    0.10360E+07         0.70541E+05         0.00000E+00
    0.00000E+00         0.00000E+00        -0.14947E+05
 
   -0.11227E+06         0.10474E+07         0.00000E+00
    0.10474E+07         0.57236E+05         0.00000E+00
    0.00000E+00         0.00000E+00        -0.11007E+05
 
   -0.79414E+05         0.10587E+07         0.00000E+00
    0.10587E+07         0.43661E+05         0.00000E+00
    0.00000E+00         0.00000E+00        -0.71506E+04
 
   -0.46699E+05         0.10696E+07         0.00000E+00
    0.10696E+07         0.29810E+05         0.00000E+00
    0.00000E+00         0.00000E+00        -0.33777E+04
 
   -0.14120E+05         0.10804E+07         0.00000E+00
    0.10804E+07         0.15680E+05         0.00000E+00
    0.00000E+00         0.00000E+00         0.31200E+03
 
   -0.15941E+07         0.19317E+05         0.00000E+00
    0.19317E+05         0.34851E+06         0.00000E+00
    0.00000E+00         0.00000E+00        -0.24911E+06
 
   -0.15680E+07         0.55821E+05         0.00000E+00
    0.55821E+05         0.34790E+06         0.00000E+00
    0.00000E+00         0.00000E+00        -0.24402E+06
 
   -0.15411E+07         0.91424E+05         0.00000E+00
    0.91424E+05         0.34674E+06         0.00000E+00
    0.00000E+00         0.00000E+00        -0.23887E+06
 
   -0.15135E+07         0.12613E+06         0.00000E+00
    0.12613E+06         0.34507E+06         0.00000E+00
    0.00000E+00         0.00000E+00        -0.23369E+06
 
   -0.14852E+07         0.15996E+06         0.00000E+00
    0.15996E+06         0.34290E+06         0.00000E+00
    0.00000E+00         0.00000E+00        -0.22847E+06
 
   -0.14564E+07         0.19292E+06         0.00000E+00
    0.19292E+06         0.34026E+06         0.00000E+00
    0.00000E+00         0.00000E+00        -0.22322E+06
 
   -0.14269E+07         0.22501E+06         0.00000E+00
    0.22501E+06         0.33719E+06         0.00000E+00
    0.00000E+00         0.00000E+00        -0.21794E+06
 
   -0.13969E+07         0.25625E+06         0.00000E+00
    0.25625E+06         0.33369E+06         0.00000E+00
    0.00000E+00         0.00000E+00        -0.21264E+06
 
   -0.13664E+07         0.28666E+06         0.00000E+00
    0.28666E+06         0.32980E+06         0.00000E+00
    0.00000E+00         0.00000E+00        -0.20733E+06
 
   -0.13355E+07         0.31625E+06         0.00000E+00
    0.31625E+06         0.32553E+06         0.00000E+00
    0.00000E+00         0.00000E+00        -0.20200E+06
 
   -0.13042E+07         0.34503E+06         0.00000E+00
    0.34503E+06         0.32090E+06         0.00000E+00
    0.00000E+00         0.00000E+00        -0.19667E+06
 
   -0.12726E+07         0.37302E+06         0.00000E+00
    0.37302E+06         0.31592E+06         0.00000E+00
    0.00000E+00         0.00000E+00        -0.19134E+06
 
   -0.12406E+07         0.40024E+06         0.00000E+00
    0.40024E+06         0.31062E+06         0.00000E+00
    0.00000E+00         0.00000E+00        -0.18601E+06
 
   -0.12084E+07         0.42670E+06         0.00000E+00
    0.42670E+06         0.30501E+06         0.00000E+00
    0.00000E+00         0.00000E+00        -0.18068E+06
 
   -0.11759E+07         0.45241E+06         0.00000E+00
    0.45241E+06         0.29910E+06         0.00000E+00
    0.00000E+00         0.00000E+00        -0.17537E+06
 
   -0.11432E+07         0.47741E+06         0.00000E+00
    0.47741E+06         0.29291E+06         0.00000E+00
    0.00000E+00         0.00000E+00        -0.17007E+06
 
   -0.11104E+07         0.50169E+06         0.00000E+00
    0.50169E+06         0.28644E+06         0.00000E+00
    0.00000E+00         0.00000E+00        -0.16478E+06
 
   -0.10773E+07         0.52529E+06         0.00000E+00
    0.52529E+06         0.27971E+06         0.00000E+00
    0.00000E+00         0.00000E+00        -0.15952E+06
 
   -0.10441E+07         0.54822E+06         0.00000E+00
    0.54822E+06         0.27272E+06         0.00000E+00
    0.00000E+00         0.00000E+00        -0.15428E+06
 
   -0.10109E+07         0.57049E+06         0.00000E+00
    0.57049E+06         0.26550E+06         0.00000E+00
    0.00000E+00         0.00000E+00        -0.14908E+06
 
   -0.97751E+06         0.59212E+06         0.00000E+00
    0.59212E+06         0.25803E+06         0.00000E+00
    0.00000E+00         0.00000E+00        -0.14390E+06
 
   -0.94409E+06         0.61313E+06         0.00000E+00
    0.61313E+06         0.25033E+06         0.00000E+00
    0.00000E+00         0.00000E+00        -0.13875E+06
 
   -0.91063E+06         0.63353E+06         0.00000E+00
    0.63353E+06         0.24241E+06         0.00000E+00
    0.00000E+00         0.00000E+00        -0.13364E+06
 
   -0.87714E+06         0.65335E+06         0.00000E+00
    0.65335E+06         0.23427E+06         0.00000E+00
    0.00000E+00         0.00000E+00        -0.12857E+06
 
   -0.84364E+06         0.67260E+06         0.00000E+00
    0.67260E+06         0.22592E+06         0.00000E+00
    0.00000E+00         0.00000E+00        -0.12355E+06
 
   -0.81016E+06         0.69129E+06         0.00000E+00
    0.69129E+06         0.21735E+06         0.00000E+00
    0.00000E+00         0.00000E+00        -0.11856E+06
 
   -0.77669E+06         0.70945E+06         0.00000E+00
    0.70945E+06         0.20858E+06         0.00000E+00
    0.00000E+00         0.00000E+00        -0.11362E+06
 
   -0.74326E+06         0.72708E+06         0.00000E+00
    0.72708E+06         0.19960E+06         0.00000E+00
    0.00000E+00         0.00000E+00        -0.10873E+06
 
   -0.70987E+06         0.74421E+06         0.00000E+00
    0.74421E+06         0.19042E+06         0.00000E+00
    0.00000E+00         0.00000E+00        -0.10389E+06
 
   -0.67654E+06         0.76084E+06         0.00000E+00
    0.76084E+06         0.18103E+06         0.00000E+00
    0.00000E+00         0.00000E+00        -0.99102E+05
 
   -0.64328E+06         0.77699E+06         0.00000E+00
    0.77699E+06         0.17145E+06         0.00000E+00
    0.00000E+00         0.00000E+00        -0.94367E+05
 
   -0.61009E+06         0.79268E+06         0.00000E+00
    0.79268E+06         0.16166E+06         0.00000E+00
    0.00000E+00         0.00000E+00        -0.89686E+05
 
   -0.57699E+06         0.80793E+06         0.00000E+00
    0.80793E+06         0.15168E+06         0.00000E+00
    0.00000E+00         0.00000E+00        -0.85062E+05
 
   -0.54397E+06         0.82273E+06         0.00000E+00
    0.82273E+06         0.14149E+06         0.00000E+00
    0.00000E+00         0.00000E+00        -0.80496E+05
 
   -0.51105E+06         0.83711E+06         0.00000E+00
    0.83711E+06         0.13110E+06         0.00000E+00
    0.00000E+00         0.00000E+00        -0.75989E+05
 
   -0.47823E+06         0.85109E+06         0.00000E+00
    0.85109E+06         0.12051E+06         0.00000E+00
    0.00000E+00         0.00000E+00        -0.71543E+05
 
   -0.44550E+06         0.86466E+06         0.00000E+00
    0.86466E+06         0.10972E+06         0.00000E+00
    0.00000E+00         0.00000E+00        -0.67157E+05
 
   -0.41289E+06         0.87786E+06         0.00000E+00
    0.87786E+06         0.98719E+05         0.00000E+00
    0.00000E+00         0.00000E+00        -0.62834E+05
 
   -0.38038E+06         0.89067E+06         0.00000E+00
    0.89067E+06         0.87513E+05         0.00000E+00
    0.00000E+00         0.00000E+00        -0.58574E+05
 
   -0.34799E+06         0.90313E+06         0.00000E+00
    0.90313E+06         0.76099E+05         0.00000E+00
    0.00000E+00         0.00000E+00        -0.54377E+05
 
   -0.31570E+06         0.91524E+06         0.00000E+00
    0.91524E+06         0.64474E+05         0.00000E+00
    0.00000E+00         0.00000E+00        -0.50245E+05
 
   -0.28352E+06         0.92701E+06         0.00000E+00
    0.92701E+06         0.52636E+05         0.00000E+00
    0.00000E+00         0.00000E+00        -0.46178E+05
 
   -0.25146E+06         0.93845E+06         0.00000E+00
    0.93845E+06         0.40581E+05         0.00000E+00
    0.00000E+00         0.00000E+00        -0.42176E+05
 
   -0.21950E+06         0.94957E+06         0.00000E+00
    0.94957E+06         0.28308E+05         0.00000E+00
    0.00000E+00         0.00000E+00        -0.38239E+05
 
   -0.18766E+06         0.96039E+06         0.00000E+00
    0.96039E+06         0.15814E+05         0.00000E+00
    0.00000E+00         0.00000E+00        -0.34368E+05
 
   -0.15591E+06         0.97091E+06         0.00000E+00
    0.97091E+06         0.30942E+04         0.00000E+00
    0.00000E+00         0.00000E+00        -0.30564E+05
 
   -0.12427E+06         0.98114E+06         0.00000E+00
    0.98114E+06        -0.98532E+04         0.00000E+00
    0.00000E+00         0.00000E+00        -0.26825E+05
 
   -0.92725E+05         0.99110E+06         0.00000E+00
    0.99110E+06        -0.23032E+05         0.00000E+00
    0.00000E+00         0.00000E+00        -0.23151E+05
 
   -0.61272E+05         0.10008E+07         0.00000E+00
    0.10008E+07        -0.36446E+05         0.00000E+00
    0.00000E+00         0.00000E+00        -0.19544E+05
 
   -0.29908E+05         0.10102E+07         0.00000E+00
    0.10102E+07        -0.50099E+05         0.00000E+00
    0.00000E+00         0.00000E+00        -0.16001E+05
 
   -0.14716E+07         0.17765E+05         0.00000E+00
    0.17765E+05         0.29330E+06         0.00000E+00
    0.00000E+00         0.00000E+00        -0.23566E+06
 
   -0.14497E+07         0.51499E+05         0.00000E+00
    0.51499E+05         0.29271E+06         0.00000E+00
    0.00000E+00         0.00000E+00        -0.23140E+06
 
   -0.14270E+07         0.84466E+05         0.00000E+00
    0.84466E+05         0.29159E+06         0.00000E+00
    0.00000E+00         0.00000E+00        -0.22708E+06
 
   -0.14035E+07         0.11667E+06         0.00000E+00
    0.11667E+06         0.28996E+06         0.00000E+00
    0.00000E+00         0.00000E+00        -0.22271E+06
 
   -0.13793E+07         0.14811E+06         0.00000E+00
    0.14811E+06         0.28784E+06         0.00000E+00
    0.00000E+00         0.00000E+00        -0.21829E+06
 
   -0.13545E+07         0.17880E+06         0.00000E+00
    0.17880E+06         0.28527E+06         0.00000E+00
    0.00000E+00         0.00000E+00        -0.21384E+06
 
   -0.13290E+07         0.20873E+06         0.00000E+00
    0.20873E+06         0.28225E+06         0.00000E+00
    0.00000E+00         0.00000E+00        -0.20935E+06
 
   -0.13030E+07         0.23793E+06         0.00000E+00
    0.23793E+06         0.27882E+06         0.00000E+00
    0.00000E+00         0.00000E+00        -0.20483E+06
 
   -0.12764E+07         0.26638E+06         0.00000E+00
    0.26638E+06         0.27498E+06         0.00000E+00
    0.00000E+00         0.00000E+00        -0.20028E+06
 
   -0.12493E+07         0.29411E+06         0.00000E+00
    0.29411E+06         0.27077E+06         0.00000E+00
    0.00000E+00         0.00000E+00        -0.19572E+06
 
   -0.12218E+07         0.32112E+06         0.00000E+00
    0.32112E+06         0.26619E+06         0.00000E+00
    0.00000E+00         0.00000E+00        -0.19113E+06
 
   -0.11939E+07         0.34742E+06         0.00000E+00
    0.34742E+06         0.26126E+06         0.00000E+00
    0.00000E+00         0.00000E+00        -0.18653E+06
 
   -0.11656E+07         0.37303E+06         0.00000E+00
    0.37303E+06         0.25601E+06         0.00000E+00
    0.00000E+00         0.00000E+00        -0.18192E+06
 
   -0.11369E+07         0.39795E+06         0.00000E+00
    0.39795E+06         0.25043E+06         0.00000E+00
    0.00000E+00         0.00000E+00        -0.17730E+06
 
   -0.11079E+07         0.42219E+06         0.00000E+00
    0.42219E+06         0.24456E+06         0.00000E+00
    0.00000E+00         0.00000E+00        -0.17268E+06
 
   -0.10787E+07         0.44577E+06         0.00000E+00
    0.44577E+06         0.23839E+06         0.00000E+00
    0.00000E+00         0.00000E+00        -0.16806E+06
 
   -0.10492E+07         0.46870E+06         0.00000E+00
    0.46870E+06         0.23195E+06         0.00000E+00
    0.00000E+00         0.00000E+00        -0.16344E+06
 
   -0.10194E+07         0.49100E+06         0.00000E+00
    0.49100E+06         0.22524E+06         0.00000E+00
    0.00000E+00         0.00000E+00        -0.15883E+06
 
   -0.98943E+06         0.51266E+06         0.00000E+00
    0.51266E+06         0.21827E+06         0.00000E+00
    0.00000E+00         0.00000E+00        -0.15423E+06
 
   -0.95929E+06         0.53372E+06         0.00000E+00
    0.53372E+06         0.21105E+06         0.00000E+00
    0.00000E+00         0.00000E+00        -0.14965E+06
 
   -0.92898E+06         0.55418E+06         0.00000E+00
    0.55418E+06         0.20360E+06         0.00000E+00
    0.00000E+00         0.00000E+00        -0.14508E+06
 
   -0.89854E+06         0.57405E+06         0.00000E+00
    0.57405E+06         0.19591E+06         0.00000E+00
    0.00000E+00         0.00000E+00        -0.14053E+06
 
   -0.86799E+06         0.59334E+06         0.00000E+00
    0.59334E+06         0.18800E+06         0.00000E+00
    0.00000E+00         0.00000E+00        -0.13600E+06
 
   -0.83733E+06         0.61208E+06         0.00000E+00
    0.61208E+06         0.17988E+06         0.00000E+00
    0.00000E+00         0.00000E+00        -0.13149E+06
 
   -0.80659E+06         0.63027E+06         0.00000E+00
    0.63027E+06         0.17154E+06         0.00000E+00
    0.00000E+00         0.00000E+00        -0.12701E+06
 
   -0.77579E+06         0.64793E+06         0.00000E+00
    0.64793E+06         0.16299E+06         0.00000E+00
    0.00000E+00         0.00000E+00        -0.12256E+06
 
   -0.74493E+06         0.66507E+06         0.00000E+00
    0.66507E+06         0.15424E+06         0.00000E+00
    0.00000E+00         0.00000E+00        -0.11814E+06
 
   -0.71404E+06         0.68170E+06         0.00000E+00
    0.68170E+06         0.14530E+06         0.00000E+00
    0.00000E+00         0.00000E+00        -0.11375E+06
 
   -0.68313E+06         0.69784E+06         0.00000E+00
    0.69784E+06         0.13616E+06         0.00000E+00
    0.00000E+00         0.00000E+00        -0.10939E+06
 
   -0.65221E+06         0.71349E+06         0.00000E+00
    0.71349E+06         0.12682E+06         0.00000E+00
    0.00000E+00         0.00000E+00        -0.10508E+06
 
   -0.62128E+06         0.72867E+06         0.00000E+00
    0.72867E+06         0.11730E+06         0.00000E+00
    0.00000E+00         0.00000E+00        -0.10080E+06
 
   -0.59037E+06         0.74340E+06         0.00000E+00
    0.74340E+06         0.10759E+06         0.00000E+00
    0.00000E+00         0.00000E+00        -0.96555E+05
 
   -0.55947E+06         0.75768E+06         0.00000E+00
    0.75768E+06         0.97700E+05         0.00000E+00
    0.00000E+00         0.00000E+00        -0.92354E+05
 
   -0.52860E+06         0.77152E+06         0.00000E+00
    0.77152E+06         0.87621E+05         0.00000E+00
    0.00000E+00         0.00000E+00        -0.88195E+05
 
   -0.49776E+06         0.78494E+06         0.00000E+00
    0.78494E+06         0.77359E+05         0.00000E+00
    0.00000E+00         0.00000E+00        -0.84080E+05
 
   -0.46696E+06         0.79795E+06         0.00000E+00
    0.79795E+06         0.66914E+05         0.00000E+00
    0.00000E+00         0.00000E+00        -0.80009E+05
 
   -0.43621E+06         0.81056E+06         0.00000E+00
    0.81056E+06         0.56286E+05         0.00000E+00
    0.00000E+00         0.00000E+00        -0.75984E+05
 
   -0.40550E+06         0.82278E+06         0.00000E+00
    0.82278E+06         0.45474E+05         0.00000E+00
    0.00000E+00         0.00000E+00        -0.72005E+05
 
   -0.37485E+06         0.83463E+06         0.00000E+00
    0.83463E+06         0.34479E+05         0.00000E+00
    0.00000E+00         0.00000E+00        -0.68073E+05
 
   -0.34425E+06         0.84610E+06         0.00000E+00
    0.84610E+06         0.23300E+05         0.00000E+00
    0.00000E+00         0.00000E+00        -0.64190E+05
 
   -0.31371E+06         0.85721E+06         0.00000E+00
    0.85721E+06         0.11935E+05         0.00000E+00
    0.00000E+00         0.00000E+00        -0.60354E+05
 
   -0.28323E+06         0.86798E+06         0.00000E+00
    0.86798E+06         0.38352E+03         0.00000E+00
    0.00000E+00         0.00000E+00        -0.56568E+05
 
   -0.25280E+06         0.87841E+06         0.00000E+00
    0.87841E+06        -0.11356E+05         0.00000E+00
    0.00000E+00         0.00000E+00        -0.52832E+05
 
   -0.22244E+06         0.88851E+06         0.00000E+00
    0.88851E+06        -0.23286E+05         0.00000E+00
    0.00000E+00         0.00000E+00        -0.49145E+05
 
   -0.19214E+06         0.89828E+06         0.00000E+00
    0.89828E+06        -0.35408E+05         0.00000E+00
    0.00000E+00         0.00000E+00        -0.45509E+05
 
   -0.16189E+06         0.90775E+06         0.00000E+00
    0.90775E+06        -0.47725E+05         0.00000E+00
    0.00000E+00         0.00000E+00        -0.41923E+05
 
   -0.13170E+06         0.91692E+06         0.00000E+00
    0.91692E+06        -0.60238E+05         0.00000E+00
    0.00000E+00         0.00000E+00        -0.38387E+05
 
   -0.10156E+06         0.92579E+06         0.00000E+00
    0.92579E+06        -0.72952E+05         0.00000E+00
    0.00000E+00         0.00000E+00        -0.34901E+05
 
   -0.71463E+05         0.93438E+06         0.00000E+00
    0.93438E+06        -0.85868E+05         0.00000E+00
    0.00000E+00         0.00000E+00        -0.31466E+05
 
   -0.41415E+05         0.94269E+06         0.00000E+00
    0.94269E+06        -0.98989E+05         0.00000E+00
    0.00000E+00         0.00000E+00        -0.28081E+05
 
   -0.13543E+07         0.16286E+05         0.00000E+00
    0.16286E+05         0.24683E+06         0.00000E+00
    0.00000E+00         0.00000E+00        -0.22150E+06
 
   -0.13360E+07         0.47350E+05         0.00000E+00
    0.47350E+05         0.24627E+06         0.00000E+00
    0.00000E+00         0.00000E+00        -0.21794E+06
 
   -0.13168E+07         0.77764E+05         0.00000E+00
    0.77764E+05         0.24520E+06         0.00000E+00
    0.00000E+00         0.00000E+00        -0.21432E+06
 
   -0.12968E+07         0.10753E+06         0.00000E+00
    0.10753E+06         0.24364E+06         0.00000E+00
    0.00000E+00         0.00000E+00        -0.21064E+06
 
   -0.12762E+07         0.13664E+06         0.00000E+00
    0.13664E+06         0.24161E+06         0.00000E+00
    0.00000E+00         0.00000E+00        -0.20691E+06
 
   -0.12548E+07         0.16510E+06         0.00000E+00
    0.16510E+06         0.23914E+06         0.00000E+00
    0.00000E+00         0.00000E+00        -0.20314E+06
 
   -0.12329E+07         0.19291E+06         0.00000E+00
    0.19291E+06         0.23624E+06         0.00000E+00
    0.00000E+00         0.00000E+00        -0.19932E+06
 
   -0.12103E+07         0.22007E+06         0.00000E+00
    0.22007E+06         0.23292E+06         0.00000E+00
    0.00000E+00         0.00000E+00        -0.19547E+06
 
   -0.11871E+07         0.24659E+06         0.00000E+00
    0.24659E+06         0.22922E+06         0.00000E+00
    0.00000E+00         0.00000E+00        -0.19159E+06
 
   -0.11635E+07         0.27246E+06         0.00000E+00
    0.27246E+06         0.22514E+06         0.00000E+00
    0.00000E+00         0.00000E+00        -0.18767E+06
 
   -0.11393E+07         0.29770E+06         0.00000E+00
    0.29770E+06         0.22070E+06         0.00000E+00
    0.00000E+00         0.00000E+00        -0.18373E+06
 
   -0.11147E+07         0.32231E+06         0.00000E+00
    0.32231E+06         0.21591E+06         0.00000E+00
    0.00000E+00         0.00000E+00        -0.17976E+06
 
   -0.10897E+07         0.34630E+06         0.00000E+00
    0.34630E+06         0.21080E+06         0.00000E+00
    0.00000E+00         0.00000E+00        -0.17578E+06
 
   -0.10643E+07         0.36967E+06         0.00000E+00
    0.36967E+06         0.20537E+06         0.00000E+00
    0.00000E+00         0.00000E+00        -0.17178E+06
 
   -0.10385E+07         0.39243E+06         0.00000E+00
    0.39243E+06         0.19965E+06         0.00000E+00
    0.00000E+00         0.00000E+00        -0.16776E+06
 
   -0.10123E+07         0.41459E+06         0.00000E+00
    0.41459E+06         0.19363E+06         0.00000E+00
    0.00000E+00         0.00000E+00        -0.16374E+06
 
   -0.98589E+06         0.43616E+06         0.00000E+00
    0.43616E+06         0.18733E+06         0.00000E+00
    0.00000E+00         0.00000E+00        -0.15971E+06
 
   -0.95916E+06         0.45714E+06         0.00000E+00
    0.45714E+06         0.18077E+06         0.00000E+00
    0.00000E+00         0.00000E+00        -0.15568E+06
 
   -0.93217E+06         0.47754E+06         0.00000E+00
    0.47754E+06         0.17395E+06         0.00000E+00
    0.00000E+00         0.00000E+00        -0.15164E+06
 
   -0.90494E+06         0.49738E+06         0.00000E+00
    0.49738E+06         0.16689E+06         0.00000E+00
    0.00000E+00         0.00000E+00        -0.14761E+06
 
   -0.87750E+06         0.51667E+06         0.00000E+00
    0.51667E+06         0.15958E+06         0.00000E+00
    0.00000E+00         0.00000E+00        -0.14358E+06
 
   -0.84986E+06         0.53540E+06         0.00000E+00
    0.53540E+06         0.15205E+06         0.00000E+00
    0.00000E+00         0.00000E+00        -0.13956E+06
 
   -0.82205E+06         0.55360E+06         0.00000E+00
    0.55360E+06         0.14430E+06         0.00000E+00
    0.00000E+00         0.00000E+00        -0.13555E+06
 
   -0.79408E+06         0.57127E+06         0.00000E+00
    0.57127E+06         0.13633E+06         0.00000E+00
    0.00000E+00         0.00000E+00        -0.13155E+06
 
   -0.76597E+06         0.58843E+06         0.00000E+00
    0.58843E+06         0.12815E+06         0.00000E+00
    0.00000E+00         0.00000E+00        -0.12756E+06
 
   -0.73774E+06         0.60508E+06         0.00000E+00
    0.60508E+06         0.11978E+06         0.00000E+00
    0.00000E+00         0.00000E+00        -0.12359E+06
 
   -0.70940E+06         0.62123E+06         0.00000E+00
    0.62123E+06         0.11120E+06         0.00000E+00
    0.00000E+00         0.00000E+00        -0.11964E+06
 
   -0.68097E+06         0.63689E+06         0.00000E+00
    0.63689E+06         0.10244E+06         0.00000E+00
    0.00000E+00         0.00000E+00        -0.11571E+06
 
   -0.65246E+06         0.65208E+06         0.00000E+00
    0.65208E+06         0.93483E+05         0.00000E+00
    0.00000E+00         0.00000E+00        -0.11179E+06
 
   -0.62388E+06         0.66681E+06         0.00000E+00
    0.66681E+06         0.84347E+05         0.00000E+00
    0.00000E+00         0.00000E+00        -0.10791E+06
 
   -0.59524E+06         0.68107E+06         0.00000E+00
    0.68107E+06         0.75031E+05         0.00000E+00
    0.00000E+00         0.00000E+00        -0.10404E+06
 
   -0.56656E+06         0.69489E+06         0.00000E+00
    0.69489E+06         0.65539E+05         0.00000E+00
    0.00000E+00         0.00000E+00        -0.10020E+06
 
   -0.53784E+06         0.70828E+06         0.00000E+00
    0.70828E+06         0.55873E+05         0.00000E+00
    0.00000E+00         0.00000E+00        -0.96393E+05
 
   -0.50909E+06         0.72124E+06         0.00000E+00
    0.72124E+06         0.46035E+05         0.00000E+00
    0.00000E+00         0.00000E+00        -0.92612E+05
 
   -0.48033E+06         0.73378E+06         0.00000E+00
    0.73378E+06         0.36027E+05         0.00000E+00
    0.00000E+00         0.00000E+00        -0.88860E+05
 
   -0.45155E+06         0.74592E+06         0.00000E+00
    0.74592E+06         0.25852E+05         0.00000E+00
    0.00000E+00         0.00000E+00        -0.85140E+05
 
   -0.42277E+06         0.75765E+06         0.00000E+00
    0.75765E+06         0.15509E+05         0.00000E+00
    0.00000E+00         0.00000E+00        -0.81452E+05
 
   -0.39398E+06         0.76900E+06         0.00000E+00
    0.76900E+06         0.50003E+04         0.00000E+00
    0.00000E+00         0.00000E+00        -0.77796E+05
 
   -0.36520E+06         0.77997E+06         0.00000E+00
    0.77997E+06        -0.56740E+04         0.00000E+00
    0.00000E+00         0.00000E+00        -0.74175E+05
 
   -0.33643E+06         0.79057E+06         0.00000E+00
    0.79057E+06        -0.16514E+05         0.00000E+00
    0.00000E+00         0.00000E+00        -0.70588E+05
 
   -0.30766E+06         0.80081E+06         0.00000E+00
    0.80081E+06        -0.27519E+05         0.00000E+00
    0.00000E+00         0.00000E+00        -0.67037E+05
 
   -0.27892E+06         0.81069E+06         0.00000E+00
    0.81069E+06        -0.38690E+05         0.00000E+00
    0.00000E+00         0.00000E+00        -0.63521E+05
 
   -0.25018E+06         0.82023E+06         0.00000E+00
    0.82023E+06        -0.50027E+05         0.00000E+00
    0.00000E+00         0.00000E+00        -0.60042E+05
 
   -0.22146E+06         0.82943E+06         0.00000E+00
    0.82943E+06        -0.61532E+05         0.00000E+00
    0.00000E+00         0.00000E+00        -0.56599E+05
 
   -0.19276E+06         0.83831E+06         0.00000E+00
    0.83831E+06        -0.73206E+05         0.00000E+00
    0.00000E+00         0.00000E+00        -0.53193E+05
 
   -0.16407E+06         0.84686E+06         0.00000E+00
    0.84686E+06        -0.85049E+05         0.00000E+00
    0.00000E+00         0.00000E+00        -0.49824E+05
 
   -0.13540E+06         0.85510E+06         0.00000E+00
    0.85510E+06        -0.97064E+05         0.00000E+00
    0.00000E+00         0.00000E+00        -0.46493E+05
 
   -0.10674E+06         0.86303E+06         0.00000E+00
    0.86303E+06        -0.10925E+06         0.00000E+00
    0.00000E+00         0.00000E+00        -0.43198E+05
 
   -0.78086E+05         0.87067E+06         0.00000E+00
    0.87067E+06        -0.12162E+06         0.00000E+00
    0.00000E+00         0.00000E+00        -0.39941E+05
 
   -0.49441E+05         0.87801E+06         0.00000E+00
    0.87801E+06        -0.13416E+06         0.00000E+00
    0.00000E+00         0.00000E+00        -0.36721E+05
 
   -0.12430E+07         0.14895E+05         0.00000E+00
    0.14895E+05         0.20772E+06         0.00000E+00
    0.00000E+00         0.00000E+00        -0.20706E+06
 
   -0.12276E+07         0.43423E+05         0.00000E+00
    0.43423E+05         0.20719E+06         0.00000E+00
    0.00000E+00         0.00000E+00        -0.20409E+06
 
   -0.12114E+07         0.71404E+05         0.00000E+00
    0.71404E+05         0.20618E+06         0.00000E+00
    0.00000E+00         0.00000E+00        -0.20105E+06
 
   -0.11945E+07         0.98832E+05         0.00000E+00
    0.98832E+05         0.20471E+06         0.00000E+00
    0.00000E+00         0.00000E+00        -0.19796E+06
 
   -0.11769E+07         0.12570E+06         0.00000E+00
    0.12570E+06         0.20279E+06         0.00000E+00
    0.00000E+00         0.00000E+00        -0.19481E+06
 
   -0.11585E+07         0.15202E+06         0.00000E+00
    0.15202E+06         0.20045E+06         0.00000E+00
    0.00000E+00         0.00000E+00        -0.19162E+06
 
   -0.11396E+07         0.17777E+06         0.00000E+00
    0.17777E+06         0.19769E+06         0.00000E+00
    0.00000E+00         0.00000E+00        -0.18838E+06
 
   -0.11200E+07         0.20296E+06         0.00000E+00
    0.20296E+06         0.19454E+06         0.00000E+00
    0.00000E+00         0.00000E+00        -0.18510E+06
 
   -0.10999E+07         0.22758E+06         0.00000E+00
    0.22758E+06         0.19101E+06         0.00000E+00
    0.00000E+00         0.00000E+00        -0.18178E+06
 
   -0.10792E+07         0.25165E+06         0.00000E+00
    0.25165E+06         0.18712E+06         0.00000E+00
    0.00000E+00         0.00000E+00        -0.17842E+06
 
   -0.10581E+07         0.27515E+06         0.00000E+00
    0.27515E+06         0.18288E+06         0.00000E+00
    0.00000E+00         0.00000E+00        -0.17504E+06
 
   -0.10364E+07         0.29810E+06         0.00000E+00
    0.29810E+06         0.17830E+06         0.00000E+00
    0.00000E+00         0.00000E+00        -0.17162E+06
 
   -0.10143E+07         0.32049E+06         0.00000E+00
    0.32049E+06         0.17340E+06         0.00000E+00
    0.00000E+00         0.00000E+00        -0.16818E+06
 
   -0.99178E+06         0.34233E+06         0.00000E+00
    0.34233E+06         0.16820E+06         0.00000E+00
    0.00000E+00         0.00000E+00        -0.16472E+06
 
   -0.96886E+06         0.36363E+06         0.00000E+00
    0.36363E+06         0.16270E+06         0.00000E+00
    0.00000E+00         0.00000E+00        -0.16123E+06
 
   -0.94557E+06         0.38438E+06         0.00000E+00
    0.38438E+06         0.15691E+06         0.00000E+00
    0.00000E+00         0.00000E+00        -0.15773E+06
 
   -0.92194E+06         0.40459E+06         0.00000E+00
    0.40459E+06         0.15085E+06         0.00000E+00
    0.00000E+00         0.00000E+00        -0.15422E+06
 
   -0.89798E+06         0.42428E+06         0.00000E+00
    0.42428E+06         0.14453E+06         0.00000E+00
    0.00000E+00         0.00000E+00        -0.15069E+06
 
   -0.87372E+06         0.44343E+06         0.00000E+00
    0.44343E+06         0.13796E+06         0.00000E+00
    0.00000E+00         0.00000E+00        -0.14715E+06
 
   -0.84919E+06         0.46207E+06         0.00000E+00
    0.46207E+06         0.13115E+06         0.00000E+00
    0.00000E+00         0.00000E+00        -0.14361E+06
 
   -0.82440E+06         0.48019E+06         0.00000E+00
    0.48019E+06         0.12410E+06         0.00000E+00
    0.00000E+00         0.00000E+00        -0.14006E+06
 
   -0.79937E+06         0.49781E+06         0.00000E+00
    0.49781E+06         0.11682E+06         0.00000E+00
    0.00000E+00         0.00000E+00        -0.13651E+06
 
   -0.77413E+06         0.51493E+06         0.00000E+00
    0.51493E+06         0.10933E+06         0.00000E+00
    0.00000E+00         0.00000E+00        -0.13296E+06
 
   -0.74868E+06         0.53156E+06         0.00000E+00
    0.53156E+06         0.10163E+06         0.00000E+00
    0.00000E+00         0.00000E+00        -0.12941E+06
 
   -0.72306E+06         0.54770E+06         0.00000E+00
    0.54770E+06         0.93729E+05         0.00000E+00
    0.00000E+00         0.00000E+00        -0.12587E+06
 
   -0.69726E+06         0.56336E+06         0.00000E+00
    0.56336E+06         0.85629E+05         0.00000E+00
    0.00000E+00         0.00000E+00        -0.12233E+06
 
   -0.67131E+06         0.57856E+06         0.00000E+00
    0.57856E+06         0.77338E+05         0.00000E+00
    0.00000E+00         0.00000E+00        -0.11879E+06
 
   -0.64523E+06         0.59329E+06         0.00000E+00
    0.59329E+06         0.68862E+05         0.00000E+00
    0.00000E+00         0.00000E+00        -0.11527E+06
 
   -0.61902E+06         0.60758E+06         0.00000E+00
    0.60758E+06         0.60206E+05         0.00000E+00
    0.00000E+00         0.00000E+00        -0.11176E+06
 
   -0.59269E+06         0.62141E+06         0.00000E+00
    0.62141E+06         0.51374E+05         0.00000E+00
    0.00000E+00         0.00000E+00        -0.10826E+06
 
   -0.56627E+06         0.63481E+06         0.00000E+00
    0.63481E+06         0.42371E+05         0.00000E+00
    0.00000E+00         0.00000E+00        -0.10478E+06
 
   -0.53975E+06         0.64778E+06         0.00000E+00
    0.64778E+06         0.33201E+05         0.00000E+00
    0.00000E+00         0.00000E+00        -0.10131E+06
 
   -0.51316E+06         0.66033E+06         0.00000E+00
    0.66033E+06         0.23866E+05         0.00000E+00
    0.00000E+00         0.00000E+00        -0.97858E+05
 
   -0.48649E+06         0.67246E+06         0.00000E+00
    0.67246E+06         0.14370E+05         0.00000E+00
    0.00000E+00         0.00000E+00        -0.94424E+05
 
   -0.45976E+06         0.68419E+06         0.00000E+00
    0.68419E+06         0.47162E+04         0.00000E+00
    0.00000E+00         0.00000E+00        -0.91009E+05
 
   -0.43298E+06         0.69551E+06         0.00000E+00
    0.69551E+06        -0.50941E+04         0.00000E+00
    0.00000E+00         0.00000E+00        -0.87614E+05
 
   -0.40614E+06         0.70645E+06         0.00000E+00
    0.70645E+06        -0.15059E+05         0.00000E+00
    0.00000E+00         0.00000E+00        -0.84240E+05
 
   -0.37927E+06         0.71701E+06         0.00000E+00
    0.71701E+06        -0.25175E+05         0.00000E+00
    0.00000E+00         0.00000E+00        -0.80888E+05
 
   -0.35235E+06         0.72719E+06         0.00000E+00
    0.72719E+06        -0.35444E+05         0.00000E+00
    0.00000E+00         0.00000E+00        -0.77559E+05
 
   -0.32541E+06         0.73700E+06         0.00000E+00
    0.73700E+06        -0.45862E+05         0.00000E+00
    0.00000E+00         0.00000E+00        -0.74254E+05
 
   -0.29843E+06         0.74645E+06         0.00000E+00
    0.74645E+06        -0.56430E+05         0.00000E+00
    0.00000E+00         0.00000E+00        -0.70972E+05
 
   -0.27143E+06         0.75555E+06         0.00000E+00
    0.75555E+06        -0.67147E+05         0.00000E+00
    0.00000E+00         0.00000E+00        -0.67716E+05
 
   -0.24441E+06         0.76430E+06         0.00000E+00
    0.76430E+06        -0.78012E+05         0.00000E+00
    0.00000E+00         0.00000E+00        -0.64484E+05
 
   -0.21736E+06         0.77271E+06         0.00000E+00
    0.77271E+06        -0.89027E+05         0.00000E+00
    0.00000E+00         0.00000E+00        -0.61278E+05
 
   -0.19030E+06         0.78079E+06         0.00000E+00
    0.78079E+06        -0.10019E+06         0.00000E+00
    0.00000E+00         0.00000E+00        -0.58098E+05
 
   -0.16321E+06         0.78854E+06         0.00000E+00
    0.78854E+06        -0.11151E+06         0.00000E+00
    0.00000E+00         0.00000E+00        -0.54944E+05
 
   -0.13611E+06         0.79597E+06         0.00000E+00
    0.79597E+06        -0.12297E+06         0.00000E+00
    0.00000E+00         0.00000E+00        -0.51816E+05
 
   -0.10898E+06         0.80308E+06         0.00000E+00
    0.80308E+06        -0.13459E+06         0.00000E+00
    0.00000E+00         0.00000E+00        -0.48715E+05
 
   -0.81837E+05         0.80989E+06         0.00000E+00
    0.80989E+06        -0.14636E+06         0.00000E+00
    0.00000E+00         0.00000E+00        -0.45640E+05
 
   -0.54665E+05         0.81639E+06         0.00000E+00
    0.81639E+06        -0.15829E+06         0.00000E+00
    0.00000E+00         0.00000E+00        -0.42591E+05
 
   -0.11381E+07         0.13601E+05         0.00000E+00
    0.13601E+05         0.17479E+06         0.00000E+00
    0.00000E+00         0.00000E+00        -0.19266E+06
 
   -0.11252E+07         0.39750E+05         0.00000E+00
    0.39750E+05         0.17430E+06         0.00000E+00
    0.00000E+00         0.00000E+00        -0.19017E+06
 
   -0.11115E+07         0.65439E+05         0.00000E+00
    0.65439E+05         0.17336E+06         0.00000E+00
    0.00000E+00         0.00000E+00        -0.18763E+06
 
   -0.10971E+07         0.90660E+05         0.00000E+00
    0.90660E+05         0.17199E+06         0.00000E+00
    0.00000E+00         0.00000E+00        -0.18503E+06
 
   -0.10821E+07         0.11541E+06         0.00000E+00
    0.11541E+06         0.17020E+06         0.00000E+00
    0.00000E+00         0.00000E+00        -0.18237E+06
 
   -0.10663E+07         0.13968E+06         0.00000E+00
    0.13968E+06         0.16800E+06         0.00000E+00
    0.00000E+00         0.00000E+00        -0.17967E+06
 
   -0.10500E+07         0.16346E+06         0.00000E+00
    0.16346E+06         0.16541E+06         0.00000E+00
    0.00000E+00         0.00000E+00        -0.17692E+06
 
   -0.10331E+07         0.18676E+06         0.00000E+00
    0.18676E+06         0.16245E+06         0.00000E+00
    0.00000E+00         0.00000E+00        -0.17412E+06
 
   -0.10156E+07         0.20957E+06         0.00000E+00
    0.20957E+06         0.15912E+06         0.00000E+00
    0.00000E+00         0.00000E+00        -0.17129E+06
 
   -0.99753E+06         0.23189E+06         0.00000E+00
    0.23189E+06         0.15545E+06         0.00000E+00
    0.00000E+00         0.00000E+00        -0.16842E+06
 
   -0.97898E+06         0.25372E+06         0.00000E+00
    0.25372E+06         0.15144E+06         0.00000E+00
    0.00000E+00         0.00000E+00        -0.16551E+06
 
   -0.95994E+06         0.27506E+06         0.00000E+00
    0.27506E+06         0.14712E+06         0.00000E+00
    0.00000E+00         0.00000E+00        -0.16256E+06
 
   -0.94044E+06         0.29590E+06         0.00000E+00
    0.29590E+06         0.14248E+06         0.00000E+00
    0.00000E+00         0.00000E+00        -0.15959E+06
 
   -0.92051E+06         0.31626E+06         0.00000E+00
    0.31626E+06         0.13755E+06         0.00000E+00
    0.00000E+00         0.00000E+00        -0.15659E+06
 
   -0.90017E+06         0.33612E+06         0.00000E+00
    0.33612E+06         0.13233E+06         0.00000E+00
    0.00000E+00         0.00000E+00        -0.15357E+06
 
   -0.87944E+06         0.35550E+06         0.00000E+00
    0.35550E+06         0.12683E+06         0.00000E+00
    0.00000E+00         0.00000E+00        -0.15052E+06
 
   -0.85835E+06         0.37440E+06         0.00000E+00
    0.37440E+06         0.12107E+06         0.00000E+00
    0.00000E+00         0.00000E+00        -0.14746E+06
 
   -0.83691E+06         0.39281E+06         0.00000E+00
    0.39281E+06         0.11506E+06         0.00000E+00
    0.00000E+00         0.00000E+00        -0.14437E+06
 
   -0.81515E+06         0.41075E+06         0.00000E+00
    0.41075E+06         0.10880E+06         0.00000E+00
    0.00000E+00         0.00000E+00        -0.14127E+06
 
   -0.79309E+06         0.42821E+06         0.00000E+00
    0.42821E+06         0.10230E+06         0.00000E+00
    0.00000E+00         0.00000E+00        -0.13816E+06
 
   -0.77074E+06         0.44520E+06         0.00000E+00
    0.44520E+06         0.95579E+05         0.00000E+00
    0.00000E+00         0.00000E+00        -0.13503E+06
 
   -0.74813E+06         0.46172E+06         0.00000E+00
    0.46172E+06         0.88638E+05         0.00000E+00
    0.00000E+00         0.00000E+00        -0.13190E+06
 
   -0.72527E+06         0.47779E+06         0.00000E+00
    0.47779E+06         0.81485E+05         0.00000E+00
    0.00000E+00         0.00000E+00        -0.12876E+06
 
   -0.70218E+06         0.49339E+06         0.00000E+00
    0.49339E+06         0.74128E+05         0.00000E+00
    0.00000E+00         0.00000E+00        -0.12561E+06
 
   -0.67887E+06         0.50855E+06         0.00000E+00
    0.50855E+06         0.66575E+05         0.00000E+00
    0.00000E+00         0.00000E+00        -0.12246E+06
 
   -0.65536E+06         0.52326E+06         0.00000E+00
    0.52326E+06         0.58831E+05         0.00000E+00
    0.00000E+00         0.00000E+00        -0.11931E+06
 
   -0.63167E+06         0.53754E+06         0.00000E+00
    0.53754E+06         0.50903E+05         0.00000E+00
    0.00000E+00         0.00000E+00        -0.11615E+06
 
   -0.60781E+06         0.55137E+06         0.00000E+00
    0.55137E+06         0.42796E+05         0.00000E+00
    0.00000E+00         0.00000E+00        -0.11300E+06
 
   -0.58378E+06         0.56478E+06         0.00000E+00
    0.56478E+06         0.34516E+05         0.00000E+00
    0.00000E+00         0.00000E+00        -0.10985E+06
 
   -0.55961E+06         0.57777E+06         0.00000E+00
    0.57777E+06         0.26068E+05         0.00000E+00
    0.00000E+00         0.00000E+00        -0.10671E+06
 
   -0.53531E+06         0.59034E+06         0.00000E+00
    0.59034E+06         0.17456E+05         0.00000E+00
    0.00000E+00         0.00000E+00        -0.10357E+06
 
   -0.51087E+06         0.60250E+06         0.00000E+00
    0.60250E+06         0.86847E+04         0.00000E+00
    0.00000E+00         0.00000E+00        -0.10044E+06
 
   -0.48633E+06         0.61426E+06         0.00000E+00
    0.61426E+06        -0.24222E+03         0.00000E+00
    0.00000E+00         0.00000E+00        -0.97314E+05
 
   -0.46167E+06         0.62561E+06         0.00000E+00
    0.62561E+06        -0.93212E+04         0.00000E+00
    0.00000E+00         0.00000E+00        -0.94199E+05
 
   -0.43692E+06         0.63658E+06         0.00000E+00
    0.63658E+06        -0.18549E+05         0.00000E+00
    0.00000E+00         0.00000E+00        -0.91094E+05
 
   -0.41208E+06         0.64716E+06         0.00000E+00
    0.64716E+06        -0.27923E+05         0.00000E+00
    0.00000E+00         0.00000E+00        -0.88001E+05
 
   -0.38716E+06         0.65736E+06         0.00000E+00
    0.65736E+06        -0.37440E+05         0.00000E+00
    0.00000E+00         0.00000E+00        -0.84919E+05
 
   -0.36216E+06         0.66718E+06         0.00000E+00
    0.66718E+06        -0.47099E+05         0.00000E+00
    0.00000E+00         0.00000E+00        -0.81851E+05
 
   -0.33709E+06         0.67664E+06         0.00000E+00
    0.67664E+06        -0.56897E+05         0.00000E+00
    0.00000E+00         0.00000E+00        -0.78796E+05
 
   -0.31195E+06         0.68574E+06         0.00000E+00
    0.68574E+06        -0.66832E+05         0.00000E+00
    0.00000E+00         0.00000E+00        -0.75756E+05
 
   -0.28675E+06         0.69448E+06         0.00000E+00
    0.69448E+06        -0.76904E+05         0.00000E+00
    0.00000E+00         0.00000E+00        -0.72731E+05
 
   -0.26150E+06         0.70286E+06         0.00000E+00
    0.70286E+06        -0.87112E+05         0.00000E+00
    0.00000E+00         0.00000E+00        -0.69722E+05
 
   -0.23619E+06         0.71091E+06         0.00000E+00
    0.71091E+06        -0.97453E+05         0.00000E+00
    0.00000E+00         0.00000E+00        -0.66728E+05
 
   -0.21083E+06         0.71861E+06         0.00000E+00
    0.71861E+06        -0.10793E+06         0.00000E+00
    0.00000E+00         0.00000E+00        -0.63751E+05
 
   -0.18542E+06         0.72598E+06         0.00000E+00
    0.72598E+06        -0.11854E+06         0.00000E+00
    0.00000E+00         0.00000E+00        -0.60791E+05
 
   -0.15996E+06         0.73302E+06         0.00000E+00
    0.73302E+06        -0.12928E+06         0.00000E+00
    0.00000E+00         0.00000E+00        -0.57849E+05
 
   -0.13446E+06         0.73974E+06         0.00000E+00
    0.73974E+06        -0.14016E+06         0.00000E+00
    0.00000E+00         0.00000E+00        -0.54923E+05
 
   -0.10890E+06         0.74613E+06         0.00000E+00
    0.74613E+06        -0.15117E+06         0.00000E+00
    0.00000E+00         0.00000E+00        -0.52015E+05
 
   -0.83304E+05         0.75222E+06         0.00000E+00
    0.75222E+06        -0.16232E+06         0.00000E+00
    0.00000E+00         0.00000E+00        -0.49124E+05
 
   -0.57655E+05         0.75799E+06         0.00000E+00
    0.75799E+06        -0.17360E+06         0.00000E+00
    0.00000E+00         0.00000E+00        -0.46250E+05
 
   -0.10396E+07         0.12407E+05         0.00000E+00
    0.12407E+05         0.14707E+06         0.00000E+00
    0.00000E+00         0.00000E+00        -0.17850E+06
 
   -0.10288E+07         0.36344E+05         0.00000E+00
    0.36344E+05         0.14662E+06         0.00000E+00
    0.00000E+00         0.00000E+00        -0.17643E+06
 
   -0.10172E+07         0.59895E+05         0.00000E+00
    0.59895E+05         0.14575E+06         0.00000E+00
    0.00000E+00         0.00000E+00        -0.17429E+06
 
   -0.10050E+07         0.83051E+05         0.00000E+00
    0.83051E+05         0.14448E+06         0.00000E+00
    0.00000E+00         0.00000E+00        -0.17211E+06
 
   -0.99216E+06         0.10580E+06         0.00000E+00
    0.10580E+06         0.14282E+06         0.00000E+00
    0.00000E+00         0.00000E+00        -0.16987E+06
 
   -0.97867E+06         0.12815E+06         0.00000E+00
    0.12815E+06         0.14078E+06         0.00000E+00
    0.00000E+00         0.00000E+00        -0.16758E+06
 
   -0.96459E+06         0.15008E+06         0.00000E+00
    0.15008E+06         0.13837E+06         0.00000E+00
    0.00000E+00         0.00000E+00        -0.16524E+06
 
   -0.94992E+06         0.17159E+06         0.00000E+00
    0.17159E+06         0.13561E+06         0.00000E+00
    0.00000E+00         0.00000E+00        -0.16286E+06
 
   -0.93470E+06         0.19268E+06         0.00000E+00
    0.19268E+06         0.13251E+06         0.00000E+00
    0.00000E+00         0.00000E+00        -0.16044E+06
 
   -0.91896E+06         0.21334E+06         0.00000E+00
    0.21334E+06         0.12908E+06         0.00000E+00
    0.00000E+00         0.00000E+00        -0.15798E+06
 
   -0.90272E+06         0.23356E+06         0.00000E+00
    0.23356E+06         0.12533E+06         0.00000E+00
    0.00000E+00         0.00000E+00        -0.15548E+06
 
   -0.88599E+06         0.25336E+06         0.00000E+00
    0.25336E+06         0.12127E+06         0.00000E+00
    0.00000E+00         0.00000E+00        -0.15294E+06
 
   -0.86881E+06         0.27272E+06         0.00000E+00
    0.27272E+06         0.11693E+06         0.00000E+00
    0.00000E+00         0.00000E+00        -0.15038E+06
 
   -0.85119E+06         0.29165E+06         0.00000E+00
    0.29165E+06         0.11229E+06         0.00000E+00
    0.00000E+00         0.00000E+00        -0.14778E+06
 
   -0.83315E+06         0.31014E+06         0.00000E+00
    0.31014E+06         0.10739E+06         0.00000E+00
    0.00000E+00         0.00000E+00        -0.14515E+06
 
   -0.81472E+06         0.32820E+06         0.00000E+00
    0.32820E+06         0.10222E+06         0.00000E+00
    0.00000E+00         0.00000E+00        -0.14250E+06
 
   -0.79592E+06         0.34582E+06         0.00000E+00
    0.34582E+06         0.96797E+05         0.00000E+00
    0.00000E+00         0.00000E+00        -0.13983E+06
 
   -0.77677E+06         0.36300E+06         0.00000E+00
    0.36300E+06         0.91129E+05         0.00000E+00
    0.00000E+00         0.00000E+00        -0.13713E+06
 
   -0.75727E+06         0.37976E+06         0.00000E+00
    0.37976E+06         0.85225E+05         0.00000E+00
    0.00000E+00         0.00000E+00        -0.13441E+06
 
   -0.73747E+06         0.39608E+06         0.00000E+00
    0.39608E+06         0.79095E+05         0.00000E+00
    0.00000E+00         0.00000E+00        -0.13167E+06
 
   -0.71736E+06         0.41197E+06         0.00000E+00
    0.41197E+06         0.72745E+05         0.00000E+00
    0.00000E+00         0.00000E+00        -0.12892E+06
 
   -0.69696E+06         0.42744E+06         0.00000E+00
    0.42744E+06         0.66184E+05         0.00000E+00
    0.00000E+00         0.00000E+00        -0.12616E+06
 
   -0.67630E+06         0.44249E+06         0.00000E+00
    0.44249E+06         0.59419E+05         0.00000E+00
    0.00000E+00         0.00000E+00        -0.12338E+06
 
   -0.65539E+06         0.45711E+06         0.00000E+00
    0.45711E+06         0.52458E+05         0.00000E+00
    0.00000E+00         0.00000E+00        -0.12059E+06
 
   -0.63425E+06         0.47132E+06         0.00000E+00
    0.47132E+06         0.45307E+05         0.00000E+00
    0.00000E+00         0.00000E+00        -0.11779E+06
 
   -0.61287E+06         0.48511E+06         0.00000E+00
    0.48511E+06         0.37973E+05         0.00000E+00
    0.00000E+00         0.00000E+00        -0.11498E+06
 
   -0.59129E+06         0.49849E+06         0.00000E+00
    0.49849E+06         0.30462E+05         0.00000E+00
    0.00000E+00         0.00000E+00        -0.11217E+06
 
   -0.56952E+06         0.51146E+06         0.00000E+00
    0.51146E+06         0.22779E+05         0.00000E+00
    0.00000E+00         0.00000E+00        -0.10935E+06
 
   -0.54756E+06         0.52404E+06         0.00000E+00
    0.52404E+06         0.14930E+05         0.00000E+00
    0.00000E+00         0.00000E+00        -0.10653E+06
 
   -0.52543E+06         0.53621E+06         0.00000E+00
    0.53621E+06         0.69199E+04         0.00000E+00
    0.00000E+00         0.00000E+00        -0.10370E+06
 
   -0.50313E+06         0.54799E+06         0.00000E+00
    0.54799E+06        -0.12464E+04         0.00000E+00
    0.00000E+00         0.00000E+00        -0.10088E+06
 
   -0.48069E+06         0.55938E+06         0.00000E+00
    0.55938E+06        -0.95645E+04         0.00000E+00
    0.00000E+00         0.00000E+00        -0.98050E+05
 
   -0.45810E+06         0.57039E+06         0.00000E+00
    0.57039E+06        -0.18030E+05         0.00000E+00
    0.00000E+00         0.00000E+00        -0.95226E+05
 
   -0.43538E+06         0.58102E+06         0.00000E+00
    0.58102E+06        -0.26640E+05         0.00000E+00
    0.00000E+00         0.00000E+00        -0.92404E+05
 
   -0.41254E+06         0.59127E+06         0.00000E+00
    0.59127E+06        -0.35390E+05         0.00000E+00
    0.00000E+00         0.00000E+00        -0.89585E+05
 
   -0.38957E+06         0.60115E+06         0.00000E+00
    0.60115E+06        -0.44277E+05         0.00000E+00
    0.00000E+00         0.00000E+00        -0.86770E+05
 
   -0.36651E+06         0.61066E+06         0.00000E+00
    0.61066E+06        -0.53299E+05         0.00000E+00
    0.00000E+00         0.00000E+00        -0.83961E+05
 
   -0.34333E+06         0.61981E+06         0.00000E+00
    0.61981E+06        -0.62452E+05         0.00000E+00
    0.00000E+00         0.00000E+00        -0.81157E+05
 
   -0.32006E+06         0.62860E+06         0.00000E+00
    0.62860E+06        -0.71734E+05         0.00000E+00
    0.00000E+00         0.00000E+00        -0.78360E+05
 
   -0.29670E+06         0.63703E+06         0.00000E+00
    0.63703E+06        -0.81143E+05         0.00000E+00
    0.00000E+00         0.00000E+00        -0.75569E+05
 
   -0.27326E+06         0.64512E+06         0.00000E+00
    0.64512E+06        -0.90677E+05         0.00000E+00
    0.00000E+00         0.00000E+00        -0.72787E+05
 
   -0.24973E+06         0.65287E+06         0.00000E+00
    0.65287E+06        -0.10033E+06         0.00000E+00
    0.00000E+00         0.00000E+00        -0.70013E+05
 
   -0.22612E+06         0.66027E+06         0.00000E+00
    0.66027E+06        -0.11012E+06         0.00000E+00
    0.00000E+00         0.00000E+00        -0.67248E+05
 
   -0.20244E+06         0.66734E+06         0.00000E+00
    0.66734E+06        -0.12002E+06         0.00000E+00
    0.00000E+00         0.00000E+00        -0.64492E+05
 
   -0.17869E+06         0.67408E+06         0.00000E+00
    0.67408E+06        -0.13004E+06         0.00000E+00
    0.00000E+00         0.00000E+00        -0.61745E+05
 
   -0.15486E+06         0.68048E+06         0.00000E+00
    0.68048E+06        -0.14018E+06         0.00000E+00
    0.00000E+00         0.00000E+00        -0.59008E+05
 
   -0.13097E+06         0.68657E+06         0.00000E+00
    0.68657E+06        -0.15044E+06         0.00000E+00
    0.00000E+00         0.00000E+00        -0.56282E+05
 
   -0.10701E+06         0.69233E+06         0.00000E+00
    0.69233E+06        -0.16082E+06         0.00000E+00
    0.00000E+00         0.00000E+00        -0.53566E+05
 
   -0.82980E+05         0.69777E+06         0.00000E+00
    0.69777E+06        -0.17132E+06         0.00000E+00
    0.00000E+00         0.00000E+00        -0.50860E+05
 
   -0.58884E+05         0.70291E+06         0.00000E+00
    0.70291E+06        -0.18194E+06         0.00000E+00
    0.00000E+00         0.00000E+00        -0.48164E+05
 
   -0.94751E+06         0.11313E+05         0.00000E+00
    0.11313E+05         0.12374E+06         0.00000E+00
    0.00000E+00         0.00000E+00        -0.16475E+06
 
   -0.93843E+06         0.33210E+05         0.00000E+00
    0.33210E+05         0.12332E+06         0.00000E+00
    0.00000E+00         0.00000E+00        -0.16302E+06
 
   -0.92870E+06         0.54782E+05         0.00000E+00
    0.54782E+05         0.12253E+06         0.00000E+00
    0.00000E+00         0.00000E+00        -0.16123E+06
 
   -0.91833E+06         0.76022E+05         0.00000E+00
    0.76022E+05         0.12136E+06         0.00000E+00
    0.00000E+00         0.00000E+00        -0.15939E+06
 
   -0.90734E+06         0.96920E+05         0.00000E+00
    0.96920E+05         0.11983E+06         0.00000E+00
    0.00000E+00         0.00000E+00        -0.15750E+06
 
   -0.89576E+06         0.11747E+06         0.00000E+00
    0.11747E+06         0.11794E+06         0.00000E+00
    0.00000E+00         0.00000E+00        -0.15556E+06
 
   -0.88361E+06         0.13766E+06         0.00000E+00
    0.13766E+06         0.11572E+06         0.00000E+00
    0.00000E+00         0.00000E+00        -0.15358E+06
 
   -0.87091E+06         0.15750E+06         0.00000E+00
    0.15750E+06         0.11316E+06         0.00000E+00
    0.00000E+00         0.00000E+00        -0.15155E+06
 
   -0.85768E+06         0.17696E+06         0.00000E+00
    0.17696E+06         0.11029E+06         0.00000E+00
    0.00000E+00         0.00000E+00        -0.14948E+06
 
   -0.84394E+06         0.19605E+06         0.00000E+00
    0.19605E+06         0.10711E+06         0.00000E+00
    0.00000E+00         0.00000E+00        -0.14737E+06
 
   -0.82972E+06         0.21477E+06         0.00000E+00
    0.21477E+06         0.10363E+06         0.00000E+00
    0.00000E+00         0.00000E+00        -0.14522E+06
 
   -0.81503E+06         0.23311E+06         0.00000E+00
    0.23311E+06         0.99865E+05         0.00000E+00
    0.00000E+00         0.00000E+00        -0.14303E+06
 
   -0.79989E+06         0.25106E+06         0.00000E+00
    0.25106E+06         0.95821E+05         0.00000E+00
    0.00000E+00         0.00000E+00        -0.14081E+06
 
   -0.78432E+06         0.26863E+06         0.00000E+00
    0.26863E+06         0.91507E+05         0.00000E+00
    0.00000E+00         0.00000E+00        -0.13856E+06
 
   -0.76834E+06         0.28581E+06         0.00000E+00
    0.28581E+06         0.86934E+05         0.00000E+00
    0.00000E+00         0.00000E+00        -0.13628E+06
 
   -0.75197E+06         0.30260E+06         0.00000E+00
    0.30260E+06         0.82111E+05         0.00000E+00
    0.00000E+00         0.00000E+00        -0.13397E+06
 
   -0.73523E+06         0.31901E+06         0.00000E+00
    0.31901E+06         0.77047E+05         0.00000E+00
    0.00000E+00         0.00000E+00        -0.13164E+06
 
   -0.71813E+06         0.33502E+06         0.00000E+00
    0.33502E+06         0.71749E+05         0.00000E+00
    0.00000E+00         0.00000E+00        -0.12928E+06
 
   -0.70070E+06         0.35064E+06         0.00000E+00
    0.35064E+06         0.66227E+05         0.00000E+00
    0.00000E+00         0.00000E+00        -0.12689E+06
 
   -0.68294E+06         0.36587E+06         0.00000E+00
    0.36587E+06         0.60487E+05         0.00000E+00
    0.00000E+00         0.00000E+00        -0.12449E+06
 
   -0.66487E+06         0.38071E+06         0.00000E+00
    0.38071E+06         0.54538E+05         0.00000E+00
    0.00000E+00         0.00000E+00        -0.12207E+06
 
   -0.64651E+06         0.39517E+06         0.00000E+00
    0.39517E+06         0.48388E+05         0.00000E+00
    0.00000E+00         0.00000E+00        -0.11962E+06
 
   -0.62787E+06         0.40923E+06         0.00000E+00
    0.40923E+06         0.42042E+05         0.00000E+00
    0.00000E+00         0.00000E+00        -0.11717E+06
 
   -0.60897E+06         0.42291E+06         0.00000E+00
    0.42291E+06         0.35509E+05         0.00000E+00
    0.00000E+00         0.00000E+00        -0.11469E+06
 
   -0.58982E+06         0.43620E+06         0.00000E+00
    0.43620E+06         0.28793E+05         0.00000E+00
    0.00000E+00         0.00000E+00        -0.11221E+06
 
   -0.57044E+06         0.44911E+06         0.00000E+00
    0.44911E+06         0.21902E+05         0.00000E+00
    0.00000E+00         0.00000E+00        -0.10971E+06
 
   -0.55083E+06         0.46164E+06         0.00000E+00
    0.46164E+06         0.14842E+05         0.00000E+00
    0.00000E+00         0.00000E+00        -0.10720E+06
 
   -0.53101E+06         0.47379E+06         0.00000E+00
    0.47379E+06         0.76178E+04         0.00000E+00
    0.00000E+00         0.00000E+00        -0.10468E+06
 
   -0.51098E+06         0.48556E+06         0.00000E+00
    0.48556E+06         0.23484E+03         0.00000E+00
    0.00000E+00         0.00000E+00        -0.10215E+06
 
   -0.49077E+06         0.49696E+06         0.00000E+00
    0.49696E+06        -0.73017E+04         0.00000E+00
    0.00000E+00         0.00000E+00        -0.99615E+05
 
   -0.47038E+06         0.50799E+06         0.00000E+00
    0.50799E+06        -0.14987E+05         0.00000E+00
    0.00000E+00         0.00000E+00        -0.97073E+05
 
   -0.44982E+06         0.51865E+06         0.00000E+00
    0.51865E+06        -0.22817E+05         0.00000E+00
    0.00000E+00         0.00000E+00        -0.94527E+05
 
   -0.42910E+06         0.52895E+06         0.00000E+00
    0.52895E+06        -0.30786E+05         0.00000E+00
    0.00000E+00         0.00000E+00        -0.91976E+05
 
   -0.40822E+06         0.53888E+06         0.00000E+00
    0.53888E+06        -0.38892E+05         0.00000E+00
    0.00000E+00         0.00000E+00        -0.89423E+05
 
   -0.38721E+06         0.54846E+06         0.00000E+00
    0.54846E+06        -0.47131E+05         0.00000E+00
    0.00000E+00         0.00000E+00        -0.86867E+05
 
   -0.36605E+06         0.55768E+06         0.00000E+00
    0.55768E+06        -0.55498E+05         0.00000E+00
    0.00000E+00         0.00000E+00        -0.84310E+05
 
   -0.34477E+06         0.56655E+06         0.00000E+00
    0.56655E+06        -0.63991E+05         0.00000E+00
    0.00000E+00         0.00000E+00        -0.81752E+05
 
   -0.32337E+06         0.57507E+06         0.00000E+00
    0.57507E+06        -0.72607E+05         0.00000E+00
    0.00000E+00         0.00000E+00        -0.79195E+05
 
   -0.30185E+06         0.58324E+06         0.00000E+00
    0.58324E+06        -0.81343E+05         0.00000E+00
    0.00000E+00         0.00000E+00        -0.76638E+05
 
   -0.28022E+06         0.59107E+06         0.00000E+00
    0.59107E+06        -0.90197E+05         0.00000E+00
    0.00000E+00         0.00000E+00        -0.74083E+05
 
   -0.25848E+06         0.59856E+06         0.00000E+00
    0.59856E+06        -0.99166E+05         0.00000E+00
    0.00000E+00         0.00000E+00        -0.71530E+05
 
   -0.23665E+06         0.60572E+06         0.00000E+00
    0.60572E+06        -0.10825E+06         0.00000E+00
    0.00000E+00         0.00000E+00        -0.68979E+05
 
   -0.21472E+06         0.61254E+06         0.00000E+00
    0.61254E+06        -0.11744E+06         0.00000E+00
    0.00000E+00         0.00000E+00        -0.66432E+05
 
   -0.19269E+06         0.61903E+06         0.00000E+00
    0.61903E+06        -0.12675E+06         0.00000E+00
    0.00000E+00         0.00000E+00        -0.63888E+05
 
   -0.17058E+06         0.62520E+06         0.00000E+00
    0.62520E+06        -0.13616E+06         0.00000E+00
    0.00000E+00         0.00000E+00        -0.61348E+05
 
   -0.14838E+06         0.63104E+06         0.00000E+00
    0.63104E+06        -0.14568E+06         0.00000E+00
    0.00000E+00         0.00000E+00        -0.58812E+05
 
   -0.12609E+06         0.63656E+06         0.00000E+00
    0.63656E+06        -0.15531E+06         0.00000E+00
    0.00000E+00         0.00000E+00        -0.56280E+05
 
   -0.10372E+06         0.64176E+06         0.00000E+00
    0.64176E+06        -0.16504E+06         0.00000E+00
    0.00000E+00         0.00000E+00        -0.53753E+05
 
   -0.81272E+05         0.64665E+06         0.00000E+00
    0.64665E+06        -0.17488E+06         0.00000E+00
    0.00000E+00         0.00000E+00        -0.51231E+05
 
   -0.58742E+05         0.65122E+06         0.00000E+00
    0.65122E+06        -0.18483E+06         0.00000E+00
    0.00000E+00         0.00000E+00        -0.48714E+05
 
   -0.86167E+06         0.10316E+05         0.00000E+00
    0.10316E+05         0.10409E+06         0.00000E+00
    0.00000E+00         0.00000E+00        -0.15152E+06
 
   -0.85406E+06         0.30342E+05         0.00000E+00
    0.30342E+05         0.10371E+06         0.00000E+00
    0.00000E+00         0.00000E+00        -0.15007E+06
 
   -0.84584E+06         0.50097E+05         0.00000E+00
    0.50097E+05         0.10299E+06         0.00000E+00
    0.00000E+00         0.00000E+00        -0.14857E+06
 
   -0.83702E+06         0.69570E+05         0.00000E+00
    0.69570E+05         0.10192E+06         0.00000E+00
    0.00000E+00         0.00000E+00        -0.14702E+06
 
   -0.82762E+06         0.88754E+05         0.00000E+00
    0.88754E+05         0.10051E+06         0.00000E+00
    0.00000E+00         0.00000E+00        -0.14542E+06
 
   -0.81768E+06         0.10764E+06         0.00000E+00
    0.10764E+06         0.98785E+05         0.00000E+00
    0.00000E+00         0.00000E+00        -0.14378E+06
 
   -0.80719E+06         0.12622E+06         0.00000E+00
    0.12622E+06         0.96743E+05         0.00000E+00
    0.00000E+00         0.00000E+00        -0.14209E+06
 
   -0.79618E+06         0.14449E+06         0.00000E+00
    0.14449E+06         0.94396E+05         0.00000E+00
    0.00000E+00         0.00000E+00        -0.14036E+06
 
   -0.78468E+06         0.16244E+06         0.00000E+00
    0.16244E+06         0.91753E+05         0.00000E+00
    0.00000E+00         0.00000E+00        -0.13858E+06
 
   -0.77269E+06         0.18007E+06         0.00000E+00
    0.18007E+06         0.88823E+05         0.00000E+00
    0.00000E+00         0.00000E+00        -0.13677E+06
 
   -0.76023E+06         0.19737E+06         0.00000E+00
    0.19737E+06         0.85615E+05         0.00000E+00
    0.00000E+00         0.00000E+00        -0.13492E+06
 
   -0.74733E+06         0.21434E+06         0.00000E+00
    0.21434E+06         0.82138E+05         0.00000E+00
    0.00000E+00         0.00000E+00        -0.13304E+06
 
   -0.73400E+06         0.23097E+06         0.00000E+00
    0.23097E+06         0.78401E+05         0.00000E+00
    0.00000E+00         0.00000E+00        -0.13112E+06
 
   -0.72025E+06         0.24726E+06         0.00000E+00
    0.24726E+06         0.74411E+05         0.00000E+00
    0.00000E+00         0.00000E+00        -0.12917E+06
 
   -0.70610E+06         0.26320E+06         0.00000E+00
    0.26320E+06         0.70178E+05         0.00000E+00
    0.00000E+00         0.00000E+00        -0.12719E+06
 
   -0.69158E+06         0.27880E+06         0.00000E+00
    0.27880E+06         0.65709E+05         0.00000E+00
    0.00000E+00         0.00000E+00        -0.12517E+06
 
   -0.67668E+06         0.29405E+06         0.00000E+00
    0.29405E+06         0.61012E+05         0.00000E+00
    0.00000E+00         0.00000E+00        -0.12313E+06
 
   -0.66144E+06         0.30895E+06         0.00000E+00
    0.30895E+06         0.56095E+05         0.00000E+00
    0.00000E+00         0.00000E+00        -0.12107E+06
 
   -0.64586E+06         0.32349E+06         0.00000E+00
    0.32349E+06         0.50965E+05         0.00000E+00
    0.00000E+00         0.00000E+00        -0.11898E+06
 
   -0.62996E+06         0.33768E+06         0.00000E+00
    0.33768E+06         0.45629E+05         0.00000E+00
    0.00000E+00         0.00000E+00        -0.11687E+06
 
   -0.61375E+06         0.35152E+06         0.00000E+00
    0.35152E+06         0.40096E+05         0.00000E+00
    0.00000E+00         0.00000E+00        -0.11473E+06
 
   -0.59725E+06         0.36501E+06         0.00000E+00
    0.36501E+06         0.34370E+05         0.00000E+00
    0.00000E+00         0.00000E+00        -0.11258E+06
 
   -0.58046E+06         0.37814E+06         0.00000E+00
    0.37814E+06         0.28459E+05         0.00000E+00
    0.00000E+00         0.00000E+00        -0.11040E+06
 
   -0.56341E+06         0.39091E+06         0.00000E+00
    0.39091E+06         0.22370E+05         0.00000E+00
    0.00000E+00         0.00000E+00        -0.10821E+06
 
   -0.54611E+06         0.40333E+06         0.00000E+00
    0.40333E+06         0.16108E+05         0.00000E+00
    0.00000E+00         0.00000E+00        -0.10600E+06
 
   -0.52856E+06         0.41540E+06         0.00000E+00
    0.41540E+06         0.96784E+04         0.00000E+00
    0.00000E+00         0.00000E+00        -0.10378E+06
 
   -0.51078E+06         0.42711E+06         0.00000E+00
    0.42711E+06         0.30880E+04         0.00000E+00
    0.00000E+00         0.00000E+00        -0.10154E+06
 
   -0.49278E+06         0.43848E+06         0.00000E+00
    0.43848E+06        -0.36583E+04         0.00000E+00
    0.00000E+00         0.00000E+00        -0.99287E+05
 
   -0.47457E+06         0.44949E+06         0.00000E+00
    0.44949E+06        -0.10555E+05         0.00000E+00
    0.00000E+00         0.00000E+00        -0.97025E+05
 
   -0.45616E+06         0.46015E+06         0.00000E+00
    0.46015E+06        -0.17598E+05         0.00000E+00
    0.00000E+00         0.00000E+00        -0.94751E+05
 
   -0.43755E+06         0.47046E+06         0.00000E+00
    0.47046E+06        -0.24783E+05         0.00000E+00
    0.00000E+00         0.00000E+00        -0.92467E+05
 
   -0.41877E+06         0.48043E+06         0.00000E+00
    0.48043E+06        -0.32103E+05         0.00000E+00
    0.00000E+00         0.00000E+00        -0.90175E+05
 
   -0.39982E+06         0.49006E+06         0.00000E+00
    0.49006E+06        -0.39557E+05         0.00000E+00
    0.00000E+00         0.00000E+00        -0.87875E+05
 
   -0.38070E+06         0.49934E+06         0.00000E+00
    0.49934E+06        -0.47139E+05         0.00000E+00
    0.00000E+00         0.00000E+00        -0.85567E+05
 
   -0.36142E+06         0.50828E+06         0.00000E+00
    0.50828E+06        -0.54846E+05         0.00000E+00
    0.00000E+00         0.00000E+00        -0.83253E+05
 
   -0.34200E+06         0.51688E+06         0.00000E+00
    0.51688E+06        -0.62674E+05         0.00000E+00
    0.00000E+00         0.00000E+00        -0.80934E+05
 
   -0.32243E+06         0.52515E+06         0.00000E+00
    0.52515E+06        -0.70619E+05         0.00000E+00
    0.00000E+00         0.00000E+00        -0.78610E+05
 
   -0.30273E+06         0.53308E+06         0.00000E+00
    0.53308E+06        -0.78680E+05         0.00000E+00
    0.00000E+00         0.00000E+00        -0.76281E+05
 
   -0.28290E+06         0.54068E+06         0.00000E+00
    0.54068E+06        -0.86853E+05         0.00000E+00
    0.00000E+00         0.00000E+00        -0.73950E+05
 
   -0.26294E+06         0.54795E+06         0.00000E+00
    0.54795E+06        -0.95134E+05         0.00000E+00
    0.00000E+00         0.00000E+00        -0.71615E+05
 
   -0.24287E+06         0.55489E+06         0.00000E+00
    0.55489E+06        -0.10352E+06         0.00000E+00
    0.00000E+00         0.00000E+00        -0.69278E+05
 
   -0.22268E+06         0.56151E+06         0.00000E+00
    0.56151E+06        -0.11202E+06         0.00000E+00
    0.00000E+00         0.00000E+00        -0.66939E+05
 
   -0.20239E+06         0.56780E+06         0.00000E+00
    0.56780E+06        -0.12061E+06         0.00000E+00
    0.00000E+00         0.00000E+00        -0.64599E+05
 
   -0.18198E+06         0.57377E+06         0.00000E+00
    0.57377E+06        -0.12931E+06         0.00000E+00
    0.00000E+00         0.00000E+00        -0.62258E+05
 
   -0.16148E+06         0.57942E+06         0.00000E+00
    0.57942E+06        -0.13810E+06         0.00000E+00
    0.00000E+00         0.00000E+00        -0.59917E+05
 
   -0.14088E+06         0.58476E+06         0.00000E+00
    0.58476E+06        -0.14699E+06         0.00000E+00
    0.00000E+00         0.00000E+00        -0.57575E+05
 
   -0.12019E+06         0.58977E+06         0.00000E+00
    0.58977E+06        -0.15598E+06         0.00000E+00
    0.00000E+00         0.00000E+00        -0.55233E+05
 
   -0.99397E+05         0.59447E+06         0.00000E+00
    0.59447E+06        -0.16506E+06         0.00000E+00
    0.00000E+00         0.00000E+00        -0.52892E+05
 
   -0.78517E+05         0.59886E+06         0.00000E+00
    0.59886E+06        -0.17424E+06         0.00000E+00
    0.00000E+00         0.00000E+00        -0.50551E+05
 
   -0.57547E+05         0.60294E+06         0.00000E+00
    0.60294E+06        -0.18350E+06         0.00000E+00
    0.00000E+00         0.00000E+00        -0.48210E+05
 
   -0.78179E+06         0.94115E+04         0.00000E+00
    0.94115E+04         0.87539E+05         0.00000E+00
    0.00000E+00         0.00000E+00        -0.13885E+06
 
   -0.77540E+06         0.27732E+05         0.00000E+00
    0.27732E+05         0.87200E+05         0.00000E+00
    0.00000E+00         0.00000E+00        -0.13764E+06
 
   -0.76845E+06         0.45824E+05         0.00000E+00
    0.45824E+05         0.86540E+05         0.00000E+00
    0.00000E+00         0.00000E+00        -0.13638E+06
 
   -0.76094E+06         0.63680E+05         0.00000E+00
    0.63680E+05         0.85566E+05         0.00000E+00
    0.00000E+00         0.00000E+00        -0.13508E+06
 
   -0.75291E+06         0.81290E+05         0.00000E+00
    0.81290E+05         0.84288E+05         0.00000E+00
    0.00000E+00         0.00000E+00        -0.13372E+06
 
   -0.74435E+06         0.98646E+05         0.00000E+00
    0.98646E+05         0.82713E+05         0.00000E+00
    0.00000E+00         0.00000E+00        -0.13233E+06
 
   -0.73530E+06         0.11574E+06         0.00000E+00
    0.11574E+06         0.80848E+05         0.00000E+00
    0.00000E+00         0.00000E+00        -0.13089E+06
 
   -0.72576E+06         0.13257E+06         0.00000E+00
    0.13257E+06         0.78703E+05         0.00000E+00
    0.00000E+00         0.00000E+00        -0.12941E+06
 
   -0.71575E+06         0.14912E+06         0.00000E+00
    0.14912E+06         0.76284E+05         0.00000E+00
    0.00000E+00         0.00000E+00        -0.12789E+06
 
   -0.70528E+06         0.16539E+06         0.00000E+00
    0.16539E+06         0.73601E+05         0.00000E+00
    0.00000E+00         0.00000E+00        -0.12634E+06
 
   -0.69438E+06         0.18137E+06         0.00000E+00
    0.18137E+06         0.70660E+05         0.00000E+00
    0.00000E+00         0.00000E+00        -0.12474E+06
 
   -0.68305E+06         0.19706E+06         0.00000E+00
    0.19706E+06         0.67468E+05         0.00000E+00
    0.00000E+00         0.00000E+00        -0.12312E+06
 
   -0.67131E+06         0.21245E+06         0.00000E+00
    0.21245E+06         0.64035E+05         0.00000E+00
    0.00000E+00         0.00000E+00        -0.12145E+06
 
   -0.65917E+06         0.22754E+06         0.00000E+00
    0.22754E+06         0.60367E+05         0.00000E+00
    0.00000E+00         0.00000E+00        -0.11976E+06
 
   -0.64666E+06         0.24232E+06         0.00000E+00
    0.24232E+06         0.56471E+05         0.00000E+00
    0.00000E+00         0.00000E+00        -0.11804E+06
 
   -0.63378E+06         0.25680E+06         0.00000E+00
    0.25680E+06         0.52355E+05         0.00000E+00
    0.00000E+00         0.00000E+00        -0.11628E+06
 
   -0.62054E+06         0.27096E+06         0.00000E+00
    0.27096E+06         0.48026E+05         0.00000E+00
    0.00000E+00         0.00000E+00        -0.11450E+06
 
   -0.60696E+06         0.28481E+06         0.00000E+00
    0.28481E+06         0.43490E+05         0.00000E+00
    0.00000E+00         0.00000E+00        -0.11269E+06
 
   -0.59306E+06         0.29834E+06         0.00000E+00
    0.29834E+06         0.38754E+05         0.00000E+00
    0.00000E+00         0.00000E+00        -0.11086E+06
 
   -0.57884E+06         0.31155E+06         0.00000E+00
    0.31155E+06         0.33825E+05         0.00000E+00
    0.00000E+00         0.00000E+00        -0.10900E+06
 
   -0.56432E+06         0.32444E+06         0.00000E+00
    0.32444E+06         0.28709E+05         0.00000E+00
    0.00000E+00         0.00000E+00        -0.10712E+06
 
   -0.54951E+06         0.33701E+06         0.00000E+00
    0.33701E+06         0.23413E+05         0.00000E+00
    0.00000E+00         0.00000E+00        -0.10522E+06
 
   -0.53443E+06         0.34926E+06         0.00000E+00
    0.34926E+06         0.17942E+05         0.00000E+00
    0.00000E+00         0.00000E+00        -0.10330E+06
 
   -0.51908E+06         0.36118E+06         0.00000E+00
    0.36118E+06         0.12302E+05         0.00000E+00
    0.00000E+00         0.00000E+00        -0.10135E+06
 
   -0.50347E+06         0.37277E+06         0.00000E+00
    0.37277E+06         0.64985E+04         0.00000E+00
    0.00000E+00         0.00000E+00        -0.99394E+05
 
   -0.48762E+06         0.38404E+06         0.00000E+00
    0.38404E+06         0.53765E+03         0.00000E+00
    0.00000E+00         0.00000E+00        -0.97416E+05
 
   -0.47153E+06         0.39498E+06         0.00000E+00
    0.39498E+06        -0.55757E+04         0.00000E+00
    0.00000E+00         0.00000E+00        -0.95422E+05
 
   -0.45522E+06         0.40560E+06         0.00000E+00
    0.40560E+06        -0.11836E+05         0.00000E+00
    0.00000E+00         0.00000E+00        -0.93412E+05
 
   -0.43870E+06         0.41589E+06         0.00000E+00
    0.41589E+06        -0.18240E+05         0.00000E+00
    0.00000E+00         0.00000E+00        -0.91388E+05
 
   -0.42197E+06         0.42585E+06         0.00000E+00
    0.42585E+06        -0.24781E+05         0.00000E+00
    0.00000E+00         0.00000E+00        -0.89351E+05
 
   -0.40505E+06         0.43549E+06         0.00000E+00
    0.43549E+06        -0.31455E+05         0.00000E+00
    0.00000E+00         0.00000E+00        -0.87301E+05
 
   -0.38794E+06         0.44481E+06         0.00000E+00
    0.44481E+06        -0.38259E+05         0.00000E+00
    0.00000E+00         0.00000E+00        -0.85240E+05
 
   -0.37065E+06         0.45380E+06         0.00000E+00
    0.45380E+06        -0.45187E+05         0.00000E+00
    0.00000E+00         0.00000E+00        -0.83168E+05
 
   -0.35319E+06         0.46246E+06         0.00000E+00
    0.46246E+06        -0.52236E+05         0.00000E+00
    0.00000E+00         0.00000E+00        -0.81086E+05
 
   -0.33557E+06         0.47081E+06         0.00000E+00
    0.47081E+06        -0.59403E+05         0.00000E+00
    0.00000E+00         0.00000E+00        -0.78995E+05
 
   -0.31779E+06         0.47883E+06         0.00000E+00
    0.47883E+06        -0.66683E+05         0.00000E+00
    0.00000E+00         0.00000E+00        -0.76895E+05
 
   -0.29986E+06         0.48654E+06         0.00000E+00
    0.48654E+06        -0.74074E+05         0.00000E+00
    0.00000E+00         0.00000E+00        -0.74787E+05
 
   -0.28179E+06         0.49392E+06         0.00000E+00
    0.49392E+06        -0.81572E+05         0.00000E+00
    0.00000E+00         0.00000E+00        -0.72672E+05
 
   -0.26358E+06         0.50099E+06         0.00000E+00
    0.50099E+06        -0.89174E+05         0.00000E+00
    0.00000E+00         0.00000E+00        -0.70551E+05
 
   -0.24524E+06         0.50774E+06         0.00000E+00
    0.50774E+06        -0.96877E+05         0.00000E+00
    0.00000E+00         0.00000E+00        -0.68423E+05
 
   -0.22677E+06         0.51417E+06         0.00000E+00
    0.51417E+06        -0.10468E+06         0.00000E+00
    0.00000E+00         0.00000E+00        -0.66289E+05
 
   -0.20818E+06         0.52029E+06         0.00000E+00
    0.52029E+06        -0.11258E+06         0.00000E+00
    0.00000E+00         0.00000E+00        -0.64151E+05
 
   -0.18947E+06         0.52610E+06         0.00000E+00
    0.52610E+06        -0.12057E+06         0.00000E+00
    0.00000E+00         0.00000E+00        -0.62008E+05
 
   -0.17065E+06         0.53159E+06         0.00000E+00
    0.53159E+06        -0.12865E+06         0.00000E+00
    0.00000E+00         0.00000E+00        -0.59861E+05
 
   -0.15172E+06         0.53678E+06         0.00000E+00
    0.53678E+06        -0.13682E+06         0.00000E+00
    0.00000E+00         0.00000E+00        -0.57710E+05
 
   -0.13269E+06         0.54165E+06         0.00000E+00
    0.54165E+06        -0.14509E+06         0.00000E+00
    0.00000E+00         0.00000E+00        -0.55555E+05
 
   -0.11355E+06         0.54622E+06         0.00000E+00
    0.54622E+06        -0.15343E+06         0.00000E+00
    0.00000E+00         0.00000E+00        -0.53397E+05
 
   -0.94318E+05         0.55047E+06         0.00000E+00
    0.55047E+06        -0.16186E+06         0.00000E+00
    0.00000E+00         0.00000E+00        -0.51237E+05
 
   -0.74986E+05         0.55442E+06         0.00000E+00
    0.55442E+06        -0.17038E+06         0.00000E+00
    0.00000E+00         0.00000E+00        -0.49073E+05
 
   -0.55560E+05         0.55807E+06         0.00000E+00
    0.55807E+06        -0.17897E+06         0.00000E+00
    0.00000E+00         0.00000E+00        -0.46907E+05
 
   -0.70754E+06         0.85948E+04         0.00000E+00
    0.85948E+04         0.73600E+05         0.00000E+00
    0.00000E+00         0.00000E+00        -0.12679E+06
 
   -0.70217E+06         0.25367E+05         0.00000E+00
    0.25367E+05         0.73294E+05         0.00000E+00
    0.00000E+00         0.00000E+00        -0.12578E+06
 
   -0.69628E+06         0.41948E+05         0.00000E+00
    0.41948E+05         0.72697E+05         0.00000E+00
    0.00000E+00         0.00000E+00        -0.12472E+06
 
   -0.68989E+06         0.58329E+05         0.00000E+00
    0.58329E+05         0.71815E+05         0.00000E+00
    0.00000E+00         0.00000E+00        -0.12362E+06
 
   -0.68301E+06         0.74501E+05         0.00000E+00
    0.74501E+05         0.70656E+05         0.00000E+00
    0.00000E+00         0.00000E+00        -0.12247E+06
 
   -0.67565E+06         0.90457E+05         0.00000E+00
    0.90457E+05         0.69226E+05         0.00000E+00
    0.00000E+00         0.00000E+00        -0.12128E+06
 
   -0.66783E+06         0.10619E+06         0.00000E+00
    0.10619E+06         0.67532E+05         0.00000E+00
    0.00000E+00         0.00000E+00        -0.12006E+06
 
   -0.65956E+06         0.12169E+06         0.00000E+00
    0.12169E+06         0.65580E+05         0.00000E+00
    0.00000E+00         0.00000E+00        -0.11879E+06
 
   -0.65084E+06         0.13694E+06         0.00000E+00
    0.13694E+06         0.63378E+05         0.00000E+00
    0.00000E+00         0.00000E+00        -0.11749E+06
 
   -0.64171E+06         0.15196E+06         0.00000E+00
    0.15196E+06         0.60933E+05         0.00000E+00
    0.00000E+00         0.00000E+00        -0.11616E+06
 
   -0.63216E+06         0.16672E+06         0.00000E+00
    0.16672E+06         0.58250E+05         0.00000E+00
    0.00000E+00         0.00000E+00        -0.11478E+06
 
   -0.62222E+06         0.18123E+06         0.00000E+00
    0.18123E+06         0.55337E+05         0.00000E+00
    0.00000E+00         0.00000E+00        -0.11338E+06
 
   -0.61189E+06         0.19547E+06         0.00000E+00
    0.19547E+06         0.52200E+05         0.00000E+00
    0.00000E+00         0.00000E+00        -0.11194E+06
 
   -0.60118E+06         0.20945E+06         0.00000E+00
    0.20945E+06         0.48845E+05         0.00000E+00
    0.00000E+00         0.00000E+00        -0.11047E+06
 
   -0.59012E+06         0.22315E+06         0.00000E+00
    0.22315E+06         0.45280E+05         0.00000E+00
    0.00000E+00         0.00000E+00        -0.10897E+06
 
   -0.57870E+06         0.23658E+06         0.00000E+00
    0.23658E+06         0.41510E+05         0.00000E+00
    0.00000E+00         0.00000E+00        -0.10744E+06
 
   -0.56695E+06         0.24973E+06         0.00000E+00
    0.24973E+06         0.37541E+05         0.00000E+00
    0.00000E+00         0.00000E+00        -0.10588E+06
 
   -0.55488E+06         0.26260E+06         0.00000E+00
    0.26260E+06         0.33380E+05         0.00000E+00
    0.00000E+00         0.00000E+00        -0.10430E+06
 
   -0.54248E+06         0.27518E+06         0.00000E+00
    0.27518E+06         0.29033E+05         0.00000E+00
    0.00000E+00         0.00000E+00        -0.10269E+06
 
   -0.52979E+06         0.28747E+06         0.00000E+00
    0.28747E+06         0.24506E+05         0.00000E+00
    0.00000E+00         0.00000E+00        -0.10106E+06
 
   -0.51681E+06         0.29947E+06         0.00000E+00
    0.29947E+06         0.19803E+05         0.00000E+00
    0.00000E+00         0.00000E+00        -0.99401E+05
 
   -0.50354E+06         0.31118E+06         0.00000E+00
    0.31118E+06         0.14932E+05         0.00000E+00
    0.00000E+00         0.00000E+00        -0.97722E+05
 
   -0.49001E+06         0.32259E+06         0.00000E+00
    0.32259E+06         0.98966E+04         0.00000E+00
    0.00000E+00         0.00000E+00        -0.96022E+05
 
   -0.47621E+06         0.33371E+06         0.00000E+00
    0.33371E+06         0.47032E+04         0.00000E+00
    0.00000E+00         0.00000E+00        -0.94302E+05
 
   -0.46217E+06         0.34452E+06         0.00000E+00
    0.34452E+06        -0.64340E+03         0.00000E+00
    0.00000E+00         0.00000E+00        -0.92562E+05
 
   -0.44788E+06         0.35504E+06         0.00000E+00
    0.35504E+06        -0.61381E+04         0.00000E+00
    0.00000E+00         0.00000E+00        -0.90804E+05
 
   -0.43336E+06         0.36526E+06         0.00000E+00
    0.36526E+06        -0.11776E+05         0.00000E+00
    0.00000E+00         0.00000E+00        -0.89028E+05
 
   -0.41863E+06         0.37517E+06         0.00000E+00
    0.37517E+06        -0.17552E+05         0.00000E+00
    0.00000E+00         0.00000E+00        -0.87236E+05
 
   -0.40368E+06         0.38478E+06         0.00000E+00
    0.38478E+06        -0.23463E+05         0.00000E+00
    0.00000E+00         0.00000E+00        -0.85428E+05
 
   -0.38852E+06         0.39409E+06         0.00000E+00
    0.39409E+06        -0.29503E+05         0.00000E+00
    0.00000E+00         0.00000E+00        -0.83605E+05
 
   -0.37317E+06         0.40309E+06         0.00000E+00
    0.40309E+06        -0.35668E+05         0.00000E+00
    0.00000E+00         0.00000E+00        -0.81768E+05
 
   -0.35763E+06         0.41179E+06         0.00000E+00
    0.41179E+06        -0.41954E+05         0.00000E+00
    0.00000E+00         0.00000E+00        -0.79917E+05
 
   -0.34191E+06         0.42018E+06         0.00000E+00
    0.42018E+06        -0.48357E+05         0.00000E+00
    0.00000E+00         0.00000E+00        -0.78054E+05
 
   -0.32602E+06         0.42827E+06         0.00000E+00
    0.42827E+06        -0.54874E+05         0.00000E+00
    0.00000E+00         0.00000E+00        -0.76179E+05
 
   -0.30996E+06         0.43606E+06         0.00000E+00
    0.43606E+06        -0.61501E+05         0.00000E+00
    0.00000E+00         0.00000E+00        -0.74292E+05
 
   -0.29374E+06         0.44354E+06         0.00000E+00
    0.44354E+06        -0.68233E+05         0.00000E+00
    0.00000E+00         0.00000E+00        -0.72395E+05
 
   -0.27737E+06         0.45072E+06         0.00000E+00
    0.45072E+06        -0.75069E+05         0.00000E+00
    0.00000E+00         0.00000E+00        -0.70488E+05
 
   -0.26085E+06         0.45759E+06         0.00000E+00
    0.45759E+06        -0.82005E+05         0.00000E+00
    0.00000E+00         0.00000E+00        -0.68571E+05
 
   -0.24419E+06         0.46416E+06         0.00000E+00
    0.46416E+06        -0.89037E+05         0.00000E+00
    0.00000E+00         0.00000E+00        -0.66646E+05
 
   -0.22740E+06         0.47043E+06         0.00000E+00
    0.47043E+06        -0.96163E+05         0.00000E+00
    0.00000E+00         0.00000E+00        -0.64712E+05
 
   -0.21047E+06         0.47640E+06         0.00000E+00
    0.47640E+06        -0.10338E+06         0.00000E+00
    0.00000E+00         0.00000E+00        -0.62770E+05
 
   -0.19342E+06         0.48206E+06         0.00000E+00
    0.48206E+06        -0.11069E+06         0.00000E+00
    0.00000E+00         0.00000E+00        -0.60821E+05
 
   -0.17625E+06         0.48743E+06         0.00000E+00
    0.48743E+06        -0.11808E+06         0.00000E+00
    0.00000E+00         0.00000E+00        -0.58865E+05
 
   -0.15896E+06         0.49249E+06         0.00000E+00
    0.49249E+06        -0.12555E+06         0.00000E+00
    0.00000E+00         0.00000E+00        -0.56902E+05
 
   -0.14156E+06         0.49725E+06         0.00000E+00
    0.49725E+06        -0.13311E+06         0.00000E+00
    0.00000E+00         0.00000E+00        -0.54933E+05
 
   -0.12405E+06         0.50171E+06         0.00000E+00
    0.50171E+06        -0.14074E+06         0.00000E+00
    0.00000E+00         0.00000E+00        -0.52958E+05
 
   -0.10643E+06         0.50587E+06         0.00000E+00
    0.50587E+06        -0.14846E+06         0.00000E+00
    0.00000E+00         0.00000E+00        -0.50978E+05
 
   -0.88716E+05         0.50974E+06         0.00000E+00
    0.50974E+06        -0.15625E+06         0.00000E+00
    0.00000E+00         0.00000E+00        -0.48992E+05
 
   -0.70900E+05         0.51330E+06         0.00000E+00
    0.51330E+06        -0.16411E+06         0.00000E+00
    0.00000E+00         0.00000E+00        -0.47002E+05
 
   -0.52987E+05         0.51656E+06         0.00000E+00
    0.51656E+06        -0.17204E+06         0.00000E+00
    0.00000E+00         0.00000E+00        -0.45006E+05
 
   -0.63855E+06         0.78601E+04         0.00000E+00
    0.78601E+04         0.61853E+05         0.00000E+00
    0.00000E+00         0.00000E+00        -0.11534E+06
 
   -0.63403E+06         0.23233E+05         0.00000E+00
    0.23233E+05         0.61578E+05         0.00000E+00
    0.00000E+00         0.00000E+00        -0.11449E+06
 
   -0.62904E+06         0.38446E+05         0.00000E+00
    0.38446E+05         0.61040E+05         0.00000E+00
    0.00000E+00         0.00000E+00        -0.11360E+06
 
   -0.62359E+06         0.53489E+05         0.00000E+00
    0.53489E+05         0.60245E+05         0.00000E+00
    0.00000E+00         0.00000E+00        -0.11267E+06
 
   -0.61769E+06         0.68354E+05         0.00000E+00
    0.68354E+05         0.59199E+05         0.00000E+00
    0.00000E+00         0.00000E+00        -0.11170E+06
 
   -0.61136E+06         0.83034E+05         0.00000E+00
    0.83034E+05         0.57907E+05         0.00000E+00
    0.00000E+00         0.00000E+00        -0.11069E+06
 
   -0.60460E+06         0.97520E+05         0.00000E+00
    0.97520E+05         0.56374E+05         0.00000E+00
    0.00000E+00         0.00000E+00        -0.10965E+06
 
   -0.59742E+06         0.11181E+06         0.00000E+00
    0.11181E+06         0.54607E+05         0.00000E+00
    0.00000E+00         0.00000E+00        -0.10856E+06
 
   -0.58985E+06         0.12588E+06         0.00000E+00
    0.12588E+06         0.52612E+05         0.00000E+00
    0.00000E+00         0.00000E+00        -0.10745E+06
 
   -0.58187E+06         0.13975E+06         0.00000E+00
    0.13975E+06         0.50394E+05         0.00000E+00
    0.00000E+00         0.00000E+00        -0.10630E+06
 
   -0.57352E+06         0.15339E+06         0.00000E+00
    0.15339E+06         0.47959E+05         0.00000E+00
    0.00000E+00         0.00000E+00        -0.10511E+06
 
   -0.56479E+06         0.16681E+06         0.00000E+00
    0.16681E+06         0.45312E+05         0.00000E+00
    0.00000E+00         0.00000E+00        -0.10390E+06
 
   -0.55571E+06         0.17999E+06         0.00000E+00
    0.17999E+06         0.42460E+05         0.00000E+00
    0.00000E+00         0.00000E+00        -0.10265E+06
 
   -0.54628E+06         0.19294E+06         0.00000E+00
    0.19294E+06         0.39408E+05         0.00000E+00
    0.00000E+00         0.00000E+00        -0.10137E+06
 
   -0.53650E+06         0.20565E+06         0.00000E+00
    0.20565E+06         0.36162E+05         0.00000E+00
    0.00000E+00         0.00000E+00        -0.10007E+06
 
   -0.52640E+06         0.21811E+06         0.00000E+00
    0.21811E+06         0.32727E+05         0.00000E+00
    0.00000E+00         0.00000E+00        -0.98735E+05
 
   -0.51598E+06         0.23032E+06         0.00000E+00
    0.23032E+06         0.29108E+05         0.00000E+00
    0.00000E+00         0.00000E+00        -0.97375E+05
 
   -0.50526E+06         0.24227E+06         0.00000E+00
    0.24227E+06         0.25312E+05         0.00000E+00
    0.00000E+00         0.00000E+00        -0.95989E+05
 
   -0.49423E+06         0.25397E+06         0.00000E+00
    0.25397E+06         0.21343E+05         0.00000E+00
    0.00000E+00         0.00000E+00        -0.94578E+05
 
   -0.48292E+06         0.26541E+06         0.00000E+00
    0.26541E+06         0.17206E+05         0.00000E+00
    0.00000E+00         0.00000E+00        -0.93143E+05
 
   -0.47133E+06         0.27658E+06         0.00000E+00
    0.27658E+06         0.12907E+05         0.00000E+00
    0.00000E+00         0.00000E+00        -0.91684E+05
 
   -0.45947E+06         0.28748E+06         0.00000E+00
    0.28748E+06         0.84514E+04         0.00000E+00
    0.00000E+00         0.00000E+00        -0.90204E+05
 
   -0.44735E+06         0.29812E+06         0.00000E+00
    0.29812E+06         0.38431E+04         0.00000E+00
    0.00000E+00         0.00000E+00        -0.88702E+05
 
   -0.43499E+06         0.30848E+06         0.00000E+00
    0.30848E+06        -0.91269E+03         0.00000E+00
    0.00000E+00         0.00000E+00        -0.87180E+05
 
   -0.42238E+06         0.31857E+06         0.00000E+00
    0.31857E+06        -0.58112E+04         0.00000E+00
    0.00000E+00         0.00000E+00        -0.85638E+05
 
   -0.40954E+06         0.32838E+06         0.00000E+00
    0.32838E+06        -0.10848E+05         0.00000E+00
    0.00000E+00         0.00000E+00        -0.84077E+05
 
   -0.39647E+06         0.33791E+06         0.00000E+00
    0.33791E+06        -0.16018E+05         0.00000E+00
    0.00000E+00         0.00000E+00        -0.82498E+05
 
   -0.38319E+06         0.34717E+06         0.00000E+00
    0.34717E+06        -0.21318E+05         0.00000E+00
    0.00000E+00         0.00000E+00        -0.80901E+05
 
   -0.36970E+06         0.35614E+06         0.00000E+00
    0.35614E+06        -0.26743E+05         0.00000E+00
    0.00000E+00         0.00000E+00        -0.79289E+05
 
   -0.35601E+06         0.36483E+06         0.00000E+00
    0.36483E+06        -0.32289E+05         0.00000E+00
    0.00000E+00         0.00000E+00        -0.77660E+05
 
   -0.34213E+06         0.37324E+06         0.00000E+00
    0.37324E+06        -0.37951E+05         0.00000E+00
    0.00000E+00         0.00000E+00        -0.76016E+05
 
   -0.32806E+06         0.38136E+06         0.00000E+00
    0.38136E+06        -0.43727E+05         0.00000E+00
    0.00000E+00         0.00000E+00        -0.74358E+05
 
   -0.31382E+06         0.38920E+06         0.00000E+00
    0.38920E+06        -0.49612E+05         0.00000E+00
    0.00000E+00         0.00000E+00        -0.72686E+05
 
   -0.29940E+06         0.39675E+06         0.00000E+00
    0.39675E+06        -0.55603E+05         0.00000E+00
    0.00000E+00         0.00000E+00        -0.71001E+05
 
   -0.28482E+06         0.40401E+06         0.00000E+00
    0.40401E+06        -0.61696E+05         0.00000E+00
    0.00000E+00         0.00000E+00        -0.69303E+05
 
   -0.27008E+06         0.41099E+06         0.00000E+00
    0.41099E+06        -0.67888E+05         0.00000E+00
    0.00000E+00         0.00000E+00        -0.67593E+05
 
   -0.25519E+06         0.41768E+06         0.00000E+00
    0.41768E+06        -0.74175E+05         0.00000E+00
    0.00000E+00         0.00000E+00        -0.65872E+05
 
   -0.24015E+06         0.42408E+06         0.00000E+00
    0.42408E+06        -0.80555E+05         0.00000E+00
    0.00000E+00         0.00000E+00        -0.64140E+05
 
   -0.22496E+06         0.43019E+06         0.00000E+00
    0.43019E+06        -0.87025E+05         0.00000E+00
    0.00000E+00         0.00000E+00        -0.62398E+05
 
   -0.20965E+06         0.43602E+06         0.00000E+00
    0.43602E+06        -0.93581E+05         0.00000E+00
    0.00000E+00         0.00000E+00        -0.60646E+05
 
   -0.19420E+06         0.44155E+06         0.00000E+00
    0.44155E+06        -0.10022E+06         0.00000E+00
    0.00000E+00         0.00000E+00        -0.58884E+05
 
   -0.17862E+06         0.44680E+06         0.00000E+00
    0.44680E+06        -0.10694E+06         0.00000E+00
    0.00000E+00         0.00000E+00        -0.57113E+05
 
   -0.16293E+06         0.45176E+06         0.00000E+00
    0.45176E+06        -0.11374E+06         0.00000E+00
    0.00000E+00         0.00000E+00        -0.55334E+05
 
   -0.14712E+06         0.45643E+06         0.00000E+00
    0.45643E+06        -0.12062E+06         0.00000E+00
    0.00000E+00         0.00000E+00        -0.53547E+05
 
   -0.13119E+06         0.46081E+06         0.00000E+00
    0.46081E+06        -0.12757E+06         0.00000E+00
    0.00000E+00         0.00000E+00        -0.51751E+05
 
   -0.11515E+06         0.46490E+06         0.00000E+00
    0.46490E+06        -0.13459E+06         0.00000E+00
    0.00000E+00         0.00000E+00        -0.49949E+05
 
   -0.99014E+05         0.46869E+06         0.00000E+00
    0.46869E+06        -0.14168E+06         0.00000E+00
    0.00000E+00         0.00000E+00        -0.48139E+05
 
   -0.82772E+05         0.47220E+06         0.00000E+00
    0.47220E+06        -0.14884E+06         0.00000E+00
    0.00000E+00         0.00000E+00        -0.46322E+05
 
   -0.66431E+05         0.47542E+06         0.00000E+00
    0.47542E+06        -0.15606E+06         0.00000E+00
    0.00000E+00         0.00000E+00        -0.44498E+05
 
   -0.49994E+05         0.47835E+06         0.00000E+00
    0.47835E+06        -0.16335E+06         0.00000E+00
    0.00000E+00         0.00000E+00        -0.42669E+05
 
   -0.57442E+06         0.72016E+04         0.00000E+00
    0.72016E+04         0.51950E+05         0.00000E+00
    0.00000E+00         0.00000E+00        -0.10449E+06
 
   -0.57062E+06         0.21315E+05         0.00000E+00
    0.21315E+05         0.51704E+05         0.00000E+00
    0.00000E+00         0.00000E+00        -0.10378E+06
 
   -0.56639E+06         0.35294E+05         0.00000E+00
    0.35294E+05         0.51221E+05         0.00000E+00
    0.00000E+00         0.00000E+00        -0.10303E+06
 
   -0.56174E+06         0.49129E+05         0.00000E+00
    0.49129E+05         0.50507E+05         0.00000E+00
    0.00000E+00         0.00000E+00        -0.10225E+06
 
   -0.55668E+06         0.62813E+05         0.00000E+00
    0.62813E+05         0.49566E+05         0.00000E+00
    0.00000E+00         0.00000E+00        -0.10142E+06
 
   -0.55123E+06         0.76337E+05         0.00000E+00
    0.76337E+05         0.48404E+05         0.00000E+00
    0.00000E+00         0.00000E+00        -0.10057E+06
 
   -0.54539E+06         0.89694E+05         0.00000E+00
    0.89694E+05         0.47024E+05         0.00000E+00
    0.00000E+00         0.00000E+00        -0.99673E+05
 
   -0.53917E+06         0.10288E+06         0.00000E+00
    0.10288E+06         0.45431E+05         0.00000E+00
    0.00000E+00         0.00000E+00        -0.98747E+05
 
   -0.53258E+06         0.11588E+06         0.00000E+00
    0.11588E+06         0.43632E+05         0.00000E+00
    0.00000E+00         0.00000E+00        -0.97789E+05
 
   -0.52562E+06         0.12869E+06         0.00000E+00
    0.12869E+06         0.41630E+05         0.00000E+00
    0.00000E+00         0.00000E+00        -0.96799E+05
 
   -0.51832E+06         0.14131E+06         0.00000E+00
    0.14131E+06         0.39430E+05         0.00000E+00
    0.00000E+00         0.00000E+00        -0.95778E+05
 
   -0.51067E+06         0.15373E+06         0.00000E+00
    0.15373E+06         0.37038E+05         0.00000E+00
    0.00000E+00         0.00000E+00        -0.94727E+05
 
   -0.50269E+06         0.16595E+06         0.00000E+00
    0.16595E+06         0.34458E+05         0.00000E+00
    0.00000E+00         0.00000E+00        -0.93646E+05
 
   -0.49439E+06         0.17795E+06         0.00000E+00
    0.17795E+06         0.31695E+05         0.00000E+00
    0.00000E+00         0.00000E+00        -0.92538E+05
 
   -0.48577E+06         0.18974E+06         0.00000E+00
    0.18974E+06         0.28754E+05         0.00000E+00
    0.00000E+00         0.00000E+00        -0.91403E+05
 
   -0.47684E+06         0.20131E+06         0.00000E+00
    0.20131E+06         0.25640E+05         0.00000E+00
    0.00000E+00         0.00000E+00        -0.90240E+05
 
   -0.46762E+06         0.21265E+06         0.00000E+00
    0.21265E+06         0.22358E+05         0.00000E+00
    0.00000E+00         0.00000E+00        -0.89053E+05
 
   -0.45811E+06         0.22377E+06         0.00000E+00
    0.22377E+06         0.18912E+05         0.00000E+00
    0.00000E+00         0.00000E+00        -0.87840E+05
 
   -0.44832E+06         0.23465E+06         0.00000E+00
    0.23465E+06         0.15307E+05         0.00000E+00
    0.00000E+00         0.00000E+00        -0.86603E+05
 
   -0.43826E+06         0.24529E+06         0.00000E+00
    0.24529E+06         0.11548E+05         0.00000E+00
    0.00000E+00         0.00000E+00        -0.85343E+05
 
   -0.42794E+06         0.25569E+06         0.00000E+00
    0.25569E+06         0.76399E+04         0.00000E+00
    0.00000E+00         0.00000E+00        -0.84060E+05
 
   -0.41737E+06         0.26585E+06         0.00000E+00
    0.26585E+06         0.35860E+04         0.00000E+00
    0.00000E+00         0.00000E+00        -0.82756E+05
 
   -0.40655E+06         0.27577E+06         0.00000E+00
    0.27577E+06        -0.60856E+03         0.00000E+00
    0.00000E+00         0.00000E+00        -0.81431E+05
 
   -0.39549E+06         0.28543E+06         0.00000E+00
    0.28543E+06        -0.49396E+04         0.00000E+00
    0.00000E+00         0.00000E+00        -0.80086E+05
 
   -0.38420E+06         0.29484E+06         0.00000E+00
    0.29484E+06        -0.94028E+04         0.00000E+00
    0.00000E+00         0.00000E+00        -0.78721E+05
 
   -0.37269E+06         0.30400E+06         0.00000E+00
    0.30400E+06        -0.13994E+05         0.00000E+00
    0.00000E+00         0.00000E+00        -0.77337E+05
 
   -0.36097E+06         0.31290E+06         0.00000E+00
    0.31290E+06        -0.18709E+05         0.00000E+00
    0.00000E+00         0.00000E+00        -0.75935E+05
 
   -0.34904E+06         0.32154E+06         0.00000E+00
    0.32154E+06        -0.23544E+05         0.00000E+00
    0.00000E+00         0.00000E+00        -0.74516E+05
 
   -0.33691E+06         0.32992E+06         0.00000E+00
    0.32992E+06        -0.28495E+05         0.00000E+00
    0.00000E+00         0.00000E+00        -0.73080E+05
 
   -0.32458E+06         0.33804E+06         0.00000E+00
    0.33804E+06        -0.33559E+05         0.00000E+00
    0.00000E+00         0.00000E+00        -0.71628E+05
 
   -0.31207E+06         0.34589E+06         0.00000E+00
    0.34589E+06        -0.38730E+05         0.00000E+00
    0.00000E+00         0.00000E+00        -0.70161E+05
 
   -0.29939E+06         0.35348E+06         0.00000E+00
    0.35348E+06        -0.44007E+05         0.00000E+00
    0.00000E+00         0.00000E+00        -0.68679E+05
 
   -0.28652E+06         0.36079E+06         0.00000E+00
    0.36079E+06        -0.49385E+05         0.00000E+00
    0.00000E+00         0.00000E+00        -0.67182E+05
 
   -0.27350E+06         0.36784E+06         0.00000E+00
    0.36784E+06        -0.54861E+05         0.00000E+00
    0.00000E+00         0.00000E+00        -0.65672E+05
 
   -0.26031E+06         0.37462E+06         0.00000E+00
    0.37462E+06        -0.60432E+05         0.00000E+00
    0.00000E+00         0.00000E+00        -0.64148E+05
 
   -0.24696E+06         0.38113E+06         0.00000E+00
    0.38113E+06        -0.66095E+05         0.00000E+00
    0.00000E+00         0.00000E+00        -0.62612E+05
 
   -0.23347E+06         0.38737E+06         0.00000E+00
    0.38737E+06        -0.71845E+05         0.00000E+00
    0.00000E+00         0.00000E+00        -0.61063E+05
 
   -0.21984E+06         0.39334E+06         0.00000E+00
    0.39334E+06        -0.77681E+05         0.00000E+00
    0.00000E+00         0.00000E+00        -0.59503E+05
 
   -0.20606E+06         0.39903E+06         0.00000E+00
    0.39903E+06        -0.83600E+05         0.00000E+00
    0.00000E+00         0.00000E+00        -0.57932E+05
 
   -0.19215E+06         0.40444E+06         0.00000E+00
    0.40444E+06        -0.89598E+05         0.00000E+00
    0.00000E+00         0.00000E+00        -0.56350E+05
 
   -0.17812E+06         0.40958E+06         0.00000E+00
    0.40958E+06        -0.95672E+05         0.00000E+00
    0.00000E+00         0.00000E+00        -0.54758E+05
 
   -0.16396E+06         0.41445E+06         0.00000E+00
    0.41445E+06        -0.10182E+06         0.00000E+00
    0.00000E+00         0.00000E+00        -0.53155E+05
 
   -0.14968E+06         0.41904E+06         0.00000E+00
    0.41904E+06        -0.10804E+06         0.00000E+00
    0.00000E+00         0.00000E+00        -0.51544E+05
 
   -0.13528E+06         0.42335E+06         0.00000E+00
    0.42335E+06        -0.11433E+06         0.00000E+00
    0.00000E+00         0.00000E+00        -0.49923E+05
 
   -0.12077E+06         0.42738E+06         0.00000E+00
    0.42738E+06        -0.12069E+06         0.00000E+00
    0.00000E+00         0.00000E+00        -0.48293E+05
 
   -0.10616E+06         0.43113E+06         0.00000E+00
    0.43113E+06        -0.12711E+06         0.00000E+00
    0.00000E+00         0.00000E+00        -0.46654E+05
 
   -0.91445E+05         0.43461E+06         0.00000E+00
    0.43461E+06        -0.13359E+06         0.00000E+00
    0.00000E+00         0.00000E+00        -0.45008E+05
 
   -0.76629E+05         0.43780E+06         0.00000E+00
    0.43780E+06        -0.14014E+06         0.00000E+00
    0.00000E+00         0.00000E+00        -0.43353E+05
 
   -0.61716E+05         0.44072E+06         0.00000E+00
    0.44072E+06        -0.14674E+06         0.00000E+00
    0.00000E+00         0.00000E+00        -0.41691E+05
 
   -0.46711E+05         0.44335E+06         0.00000E+00
    0.44335E+06        -0.15340E+06         0.00000E+00
    0.00000E+00         0.00000E+00        -0.40022E+05
 
   -0.51477E+06         0.66137E+04         0.00000E+00
    0.66137E+04         0.43594E+05         0.00000E+00
    0.00000E+00         0.00000E+00        -0.94235E+05
 
   -0.51157E+06         0.19599E+05         0.00000E+00
    0.19599E+05         0.43374E+05         0.00000E+00
    0.00000E+00         0.00000E+00        -0.93638E+05
 
   -0.50798E+06         0.32471E+05         0.00000E+00
    0.32471E+05         0.42943E+05         0.00000E+00
    0.00000E+00         0.00000E+00        -0.93007E+05
 
   -0.50401E+06         0.45220E+05         0.00000E+00
    0.45220E+05         0.42305E+05         0.00000E+00
    0.00000E+00         0.00000E+00        -0.92342E+05
 
   -0.49968E+06         0.57840E+05         0.00000E+00
    0.57840E+05         0.41463E+05         0.00000E+00
    0.00000E+00         0.00000E+00        -0.91644E+05
 
   -0.49499E+06         0.70322E+05         0.00000E+00
    0.70322E+05         0.40422E+05         0.00000E+00
    0.00000E+00         0.00000E+00        -0.90913E+05
 
   -0.48994E+06         0.82659E+05         0.00000E+00
    0.82659E+05         0.39185E+05         0.00000E+00
    0.00000E+00         0.00000E+00        -0.90151E+05
 
   -0.48455E+06         0.94844E+05         0.00000E+00
    0.94844E+05         0.37757E+05         0.00000E+00
    0.00000E+00         0.00000E+00        -0.89359E+05
 
   -0.47882E+06         0.10687E+06         0.00000E+00
    0.10687E+06         0.36142E+05         0.00000E+00
    0.00000E+00         0.00000E+00        -0.88536E+05
 
   -0.47277E+06         0.11873E+06         0.00000E+00
    0.11873E+06         0.34344E+05         0.00000E+00
    0.00000E+00         0.00000E+00        -0.87684E+05
 
   -0.46639E+06         0.13042E+06         0.00000E+00
    0.13042E+06         0.32367E+05         0.00000E+00
    0.00000E+00         0.00000E+00        -0.86804E+05
 
   -0.45969E+06         0.14194E+06         0.00000E+00
    0.14194E+06         0.30215E+05         0.00000E+00
    0.00000E+00         0.00000E+00        -0.85896E+05
 
   -0.45270E+06         0.15327E+06         0.00000E+00
    0.15327E+06         0.27893E+05         0.00000E+00
    0.00000E+00         0.00000E+00        -0.84960E+05
 
   -0.44540E+06         0.16441E+06         0.00000E+00
    0.16441E+06         0.25405E+05         0.00000E+00
    0.00000E+00         0.00000E+00        -0.83999E+05
 
   -0.43781E+06         0.17536E+06         0.00000E+00
    0.17536E+06         0.22755E+05         0.00000E+00
    0.00000E+00         0.00000E+00        -0.83012E+05
 
   -0.42995E+06         0.18612E+06         0.00000E+00
    0.18612E+06         0.19948E+05         0.00000E+00
    0.00000E+00         0.00000E+00        -0.81999E+05
 
   -0.42180E+06         0.19667E+06         0.00000E+00
    0.19667E+06         0.16987E+05         0.00000E+00
    0.00000E+00         0.00000E+00        -0.80963E+05
 
   -0.41339E+06         0.20701E+06         0.00000E+00
    0.20701E+06         0.13876E+05         0.00000E+00
    0.00000E+00         0.00000E+00        -0.79903E+05
 
   -0.40472E+06         0.21714E+06         0.00000E+00
    0.21714E+06         0.10621E+05         0.00000E+00
    0.00000E+00         0.00000E+00        -0.78821E+05
 
   -0.39580E+06         0.22706E+06         0.00000E+00
    0.22706E+06         0.72237E+04         0.00000E+00
    0.00000E+00         0.00000E+00        -0.77716E+05
 
   -0.38664E+06         0.23675E+06         0.00000E+00
    0.23675E+06         0.36898E+04         0.00000E+00
    0.00000E+00         0.00000E+00        -0.76590E+05
 
   -0.37724E+06         0.24623E+06         0.00000E+00
    0.24623E+06         0.22666E+02         0.00000E+00
    0.00000E+00         0.00000E+00        -0.75443E+05
 
   -0.36761E+06         0.25548E+06         0.00000E+00
    0.25548E+06        -0.37736E+04         0.00000E+00
    0.00000E+00         0.00000E+00        -0.74276E+05
 
   -0.35775E+06         0.26450E+06         0.00000E+00
    0.26450E+06        -0.76952E+04         0.00000E+00
    0.00000E+00         0.00000E+00        -0.73089E+05
 
   -0.34768E+06         0.27328E+06         0.00000E+00
    0.27328E+06        -0.11738E+05         0.00000E+00
    0.00000E+00         0.00000E+00        -0.71884E+05
 
   -0.33740E+06         0.28184E+06         0.00000E+00
    0.28184E+06        -0.15899E+05         0.00000E+00
    0.00000E+00         0.00000E+00        -0.70660E+05
 
   -0.32692E+06         0.29015E+06         0.00000E+00
    0.29015E+06        -0.20174E+05         0.00000E+00
    0.00000E+00         0.00000E+00        -0.69419E+05
 
   -0.31624E+06         0.29822E+06         0.00000E+00
    0.29822E+06        -0.24559E+05         0.00000E+00
    0.00000E+00         0.00000E+00        -0.68160E+05
 
   -0.30537E+06         0.30605E+06         0.00000E+00
    0.30605E+06        -0.29052E+05         0.00000E+00
    0.00000E+00         0.00000E+00        -0.66885E+05
 
   -0.29432E+06         0.31364E+06         0.00000E+00
    0.31364E+06        -0.33647E+05         0.00000E+00
    0.00000E+00         0.00000E+00        -0.65594E+05
 
   -0.28310E+06         0.32098E+06         0.00000E+00
    0.32098E+06        -0.38343E+05         0.00000E+00
    0.00000E+00         0.00000E+00        -0.64288E+05
 
   -0.27170E+06         0.32807E+06         0.00000E+00
    0.32807E+06        -0.43135E+05         0.00000E+00
    0.00000E+00         0.00000E+00        -0.62967E+05
 
   -0.26014E+06         0.33491E+06         0.00000E+00
    0.33491E+06        -0.48021E+05         0.00000E+00
    0.00000E+00         0.00000E+00        -0.61632E+05
 
   -0.24842E+06         0.34150E+06         0.00000E+00
    0.34150E+06        -0.52997E+05         0.00000E+00
    0.00000E+00         0.00000E+00        -0.60282E+05
 
   -0.23654E+06         0.34783E+06         0.00000E+00
    0.34783E+06        -0.58060E+05         0.00000E+00
    0.00000E+00         0.00000E+00        -0.58920E+05
 
   -0.22452E+06         0.35391E+06         0.00000E+00
    0.35391E+06        -0.63207E+05         0.00000E+00
    0.00000E+00         0.00000E+00        -0.57545E+05
 
   -0.21235E+06         0.35973E+06         0.00000E+00
    0.35973E+06        -0.68435E+05         0.00000E+00
    0.00000E+00         0.00000E+00        -0.56157E+05
 
   -0.20004E+06         0.36529E+06         0.00000E+00
    0.36529E+06        -0.73742E+05         0.00000E+00
    0.00000E+00         0.00000E+00        -0.54757E+05
 
   -0.18760E+06         0.37060E+06         0.00000E+00
    0.37060E+06        -0.79124E+05         0.00000E+00
    0.00000E+00         0.00000E+00        -0.53346E+05
 
   -0.17504E+06         0.37564E+06         0.00000E+00
    0.37564E+06        -0.84579E+05         0.00000E+00
    0.00000E+00         0.00000E+00        -0.51923E+05
 
   -0.16235E+06         0.38042E+06         0.00000E+00
    0.38042E+06        -0.90104E+05         0.00000E+00
    0.00000E+00         0.00000E+00        -0.50490E+05
 
   -0.14953E+06         0.38493E+06         0.00000E+00
    0.38493E+06        -0.95697E+05         0.00000E+00
    0.00000E+00         0.00000E+00        -0.49046E+05
 
   -0.13661E+06         0.38919E+06         0.00000E+00
    0.38919E+06        -0.10135E+06         0.00000E+00
    0.00000E+00         0.00000E+00        -0.47593E+05
 
   -0.12357E+06         0.39317E+06         0.00000E+00
    0.39317E+06        -0.10707E+06         0.00000E+00
    0.00000E+00         0.00000E+00        -0.46129E+05
 
   -0.11043E+06         0.39690E+06         0.00000E+00
    0.39690E+06        -0.11286E+06         0.00000E+00
    0.00000E+00         0.00000E+00        -0.44657E+05
 
   -0.97182E+05         0.40035E+06         0.00000E+00
    0.40035E+06        -0.11869E+06         0.00000E+00
    0.00000E+00         0.00000E+00        -0.43175E+05
 
   -0.83836E+05         0.40353E+06         0.00000E+00
    0.40353E+06        -0.12459E+06         0.00000E+00
    0.00000E+00         0.00000E+00        -0.41685E+05
 
   -0.70395E+05         0.40645E+06         0.00000E+00
    0.40645E+06        -0.13054E+06         0.00000E+00
    0.00000E+00         0.00000E+00        -0.40186E+05
 
   -0.56861E+05         0.40910E+06         0.00000E+00
    0.40910E+06        -0.13654E+06         0.00000E+00
    0.00000E+00         0.00000E+00        -0.38679E+05
 
   -0.43238E+05         0.41147E+06         0.00000E+00
    0.41147E+06        -0.14258E+06         0.00000E+00
    0.00000E+00         0.00000E+00        -0.37164E+05
 
   -0.45920E+06         0.60909E+04         0.00000E+00
    0.60909E+04         0.36537E+05         0.00000E+00
    0.00000E+00         0.00000E+00        -0.84533E+05
 
   -0.45650E+06         0.18070E+05         0.00000E+00
    0.18070E+05         0.36342E+05         0.00000E+00
    0.00000E+00         0.00000E+00        -0.84032E+05
 
   -0.45346E+06         0.29953E+05         0.00000E+00
    0.29953E+05         0.35959E+05         0.00000E+00
    0.00000E+00         0.00000E+00        -0.83500E+05
 
   -0.45008E+06         0.41731E+05         0.00000E+00
    0.41731E+05         0.35391E+05         0.00000E+00
    0.00000E+00         0.00000E+00        -0.82938E+05
 
   -0.44637E+06         0.53398E+05         0.00000E+00
    0.53398E+05         0.34642E+05         0.00000E+00
    0.00000E+00         0.00000E+00        -0.82346E+05
 
   -0.44233E+06         0.64945E+05         0.00000E+00
    0.64945E+05         0.33714E+05         0.00000E+00
    0.00000E+00         0.00000E+00        -0.81724E+05
 
   -0.43798E+06         0.76367E+05         0.00000E+00
    0.76367E+05         0.32611E+05         0.00000E+00
    0.00000E+00         0.00000E+00        -0.81074E+05
 
   -0.43332E+06         0.87656E+05         0.00000E+00
    0.87656E+05         0.31337E+05         0.00000E+00
    0.00000E+00         0.00000E+00        -0.80396E+05
 
   -0.42835E+06         0.98805E+05         0.00000E+00
    0.98805E+05         0.29895E+05         0.00000E+00
    0.00000E+00         0.00000E+00        -0.79691E+05
 
   -0.42308E+06         0.10981E+06         0.00000E+00
    0.10981E+06         0.28289E+05         0.00000E+00
    0.00000E+00         0.00000E+00        -0.78958E+05
 
   -0.41752E+06         0.12066E+06         0.00000E+00
    0.12066E+06         0.26522E+05         0.00000E+00
    0.00000E+00         0.00000E+00        -0.78200E+05
 
   -0.41168E+06         0.13136E+06         0.00000E+00
    0.13136E+06         0.24597E+05         0.00000E+00
    0.00000E+00         0.00000E+00        -0.77416E+05
 
   -0.40556E+06         0.14189E+06         0.00000E+00
    0.14189E+06         0.22519E+05         0.00000E+00
    0.00000E+00         0.00000E+00        -0.76607E+05
 
   -0.39916E+06         0.15225E+06         0.00000E+00
    0.15225E+06         0.20292E+05         0.00000E+00
    0.00000E+00         0.00000E+00        -0.75774E+05
 
   -0.39251E+06         0.16244E+06         0.00000E+00
    0.16244E+06         0.17918E+05         0.00000E+00
    0.00000E+00         0.00000E+00        -0.74917E+05
 
   -0.38559E+06         0.17245E+06         0.00000E+00
    0.17245E+06         0.15401E+05         0.00000E+00
    0.00000E+00         0.00000E+00        -0.74038E+05
 
   -0.37842E+06         0.18228E+06         0.00000E+00
    0.18228E+06         0.12745E+05         0.00000E+00
    0.00000E+00         0.00000E+00        -0.73135E+05
 
   -0.37101E+06         0.19192E+06         0.00000E+00
    0.19192E+06         0.99544E+04         0.00000E+00
    0.00000E+00         0.00000E+00        -0.72211E+05
 
   -0.36336E+06         0.20137E+06         0.00000E+00
    0.20137E+06         0.70316E+04         0.00000E+00
    0.00000E+00         0.00000E+00        -0.71265E+05
 
   -0.35548E+06         0.21062E+06         0.00000E+00
    0.21062E+06         0.39805E+04         0.00000E+00
    0.00000E+00         0.00000E+00        -0.70299E+05
 
   -0.34737E+06         0.21968E+06         0.00000E+00
    0.21968E+06         0.80477E+03         0.00000E+00
    0.00000E+00         0.00000E+00        -0.69312E+05
 
   -0.33904E+06         0.22852E+06         0.00000E+00
    0.22852E+06        -0.24921E+04         0.00000E+00
    0.00000E+00         0.00000E+00        -0.68306E+05
 
   -0.33050E+06         0.23716E+06         0.00000E+00
    0.23716E+06        -0.59067E+04         0.00000E+00
    0.00000E+00         0.00000E+00        -0.67281E+05
 
   -0.32175E+06         0.24559E+06         0.00000E+00
    0.24559E+06        -0.94356E+04         0.00000E+00
    0.00000E+00         0.00000E+00        -0.66238E+05
 
   -0.31281E+06         0.25381E+06         0.00000E+00
    0.25381E+06        -0.13075E+05         0.00000E+00
    0.00000E+00         0.00000E+00        -0.65176E+05
 
   -0.30366E+06         0.26181E+06         0.00000E+00
    0.26181E+06        -0.16822E+05         0.00000E+00
    0.00000E+00         0.00000E+00        -0.64097E+05
 
   -0.29433E+06         0.26958E+06         0.00000E+00
    0.26958E+06        -0.20674E+05         0.00000E+00
    0.00000E+00         0.00000E+00        -0.63001E+05
 
   -0.28482E+06         0.27714E+06         0.00000E+00
    0.27714E+06        -0.24626E+05         0.00000E+00
    0.00000E+00         0.00000E+00        -0.61889E+05
 
   -0.27513E+06         0.28447E+06         0.00000E+00
    0.28447E+06        -0.28676E+05         0.00000E+00
    0.00000E+00         0.00000E+00        -0.60761E+05
 
   -0.26527E+06         0.29156E+06         0.00000E+00
    0.29156E+06        -0.32820E+05         0.00000E+00
    0.00000E+00         0.00000E+00        -0.59618E+05
 
   -0.25524E+06         0.29843E+06         0.00000E+00
    0.29843E+06        -0.37056E+05         0.00000E+00
    0.00000E+00         0.00000E+00        -0.58459E+05
 
   -0.24505E+06         0.30507E+06         0.00000E+00
    0.30507E+06        -0.41380E+05         0.00000E+00
    0.00000E+00         0.00000E+00        -0.57287E+05
 
   -0.23471E+06         0.31147E+06         0.00000E+00
    0.31147E+06        -0.45790E+05         0.00000E+00
    0.00000E+00         0.00000E+00        -0.56100E+05
 
   -0.22422E+06         0.31763E+06         0.00000E+00
    0.31763E+06        -0.50282E+05         0.00000E+00
    0.00000E+00         0.00000E+00        -0.54900E+05
 
   -0.21358E+06         0.32356E+06         0.00000E+00
    0.32356E+06        -0.54854E+05         0.00000E+00
    0.00000E+00         0.00000E+00        -0.53686E+05
 
   -0.20280E+06         0.32924E+06         0.00000E+00
    0.32924E+06        -0.59502E+05         0.00000E+00
    0.00000E+00         0.00000E+00        -0.52460E+05
 
   -0.19189E+06         0.33468E+06         0.00000E+00
    0.33468E+06        -0.64225E+05         0.00000E+00
    0.00000E+00         0.00000E+00        -0.51222E+05
 
   -0.18084E+06         0.33987E+06         0.00000E+00
    0.33987E+06        -0.69019E+05         0.00000E+00
    0.00000E+00         0.00000E+00        -0.49972E+05
 
   -0.16967E+06         0.34482E+06         0.00000E+00
    0.34482E+06        -0.73881E+05         0.00000E+00
    0.00000E+00         0.00000E+00        -0.48710E+05
 
   -0.15838E+06         0.34952E+06         0.00000E+00
    0.34952E+06        -0.78810E+05         0.00000E+00
    0.00000E+00         0.00000E+00        -0.47438E+05
 
   -0.14697E+06         0.35398E+06         0.00000E+00
    0.35398E+06        -0.83803E+05         0.00000E+00
    0.00000E+00         0.00000E+00        -0.46154E+05
 
   -0.13544E+06         0.35818E+06         0.00000E+00
    0.35818E+06        -0.88856E+05         0.00000E+00
    0.00000E+00         0.00000E+00        -0.44860E+05
 
   -0.12381E+06         0.36213E+06         0.00000E+00
    0.36213E+06        -0.93969E+05         0.00000E+00
    0.00000E+00         0.00000E+00        -0.43556E+05
 
   -0.11208E+06         0.36582E+06         0.00000E+00
    0.36582E+06        -0.99137E+05         0.00000E+00
    0.00000E+00         0.00000E+00        -0.42243E+05
 
   -0.10024E+06         0.36926E+06         0.00000E+00
    0.36926E+06        -0.10436E+06         0.00000E+00
    0.00000E+00         0.00000E+00        -0.40919E+05
 
   -0.88301E+05         0.37245E+06         0.00000E+00
    0.37245E+06        -0.10963E+06         0.00000E+00
    0.00000E+00         0.00000E+00        -0.39587E+05
 
   -0.76271E+05         0.37537E+06         0.00000E+00
    0.37537E+06        -0.11496E+06         0.00000E+00
    0.00000E+00         0.00000E+00        -0.38246E+05
 
   -0.64151E+05         0.37804E+06         0.00000E+00
    0.37804E+06        -0.12033E+06         0.00000E+00
    0.00000E+00         0.00000E+00        -0.36896E+05
 
   -0.51944E+05         0.38045E+06         0.00000E+00
    0.38045E+06        -0.12575E+06         0.00000E+00
    0.00000E+00         0.00000E+00        -0.35538E+05
 
   -0.39653E+05         0.38260E+06         0.00000E+00
    0.38260E+06        -0.13121E+06         0.00000E+00
    0.00000E+00         0.00000E+00        -0.34172E+05
 
   -0.40733E+06         0.56285E+04         0.00000E+00
    0.56285E+04         0.30568E+05         0.00000E+00
    0.00000E+00         0.00000E+00        -0.75352E+05
 
   -0.40506E+06         0.16715E+05         0.00000E+00
    0.16715E+05         0.30396E+05         0.00000E+00
    0.00000E+00         0.00000E+00        -0.74932E+05
 
   -0.40248E+06         0.27720E+05         0.00000E+00
    0.27720E+05         0.30058E+05         0.00000E+00
    0.00000E+00         0.00000E+00        -0.74484E+05
 
   -0.39960E+06         0.38634E+05         0.00000E+00
    0.38634E+05         0.29555E+05         0.00000E+00
    0.00000E+00         0.00000E+00        -0.74009E+05
 
   -0.39643E+06         0.49453E+05         0.00000E+00
    0.49453E+05         0.28892E+05         0.00000E+00
    0.00000E+00         0.00000E+00        -0.73507E+05
 
   -0.39297E+06         0.60167E+05         0.00000E+00
    0.60167E+05         0.28070E+05         0.00000E+00
    0.00000E+00         0.00000E+00        -0.72979E+05
 
   -0.38922E+06         0.70771E+05         0.00000E+00
    0.70771E+05         0.27093E+05         0.00000E+00
    0.00000E+00         0.00000E+00        -0.72425E+05
 
   -0.38519E+06         0.81259E+05         0.00000E+00
    0.81259E+05         0.25963E+05         0.00000E+00
    0.00000E+00         0.00000E+00        -0.71846E+05
 
   -0.38090E+06         0.91623E+05         0.00000E+00
    0.91623E+05         0.24684E+05         0.00000E+00
    0.00000E+00         0.00000E+00        -0.71242E+05
 
   -0.37633E+06         0.10186E+06         0.00000E+00
    0.10186E+06         0.23258E+05         0.00000E+00
    0.00000E+00         0.00000E+00        -0.70614E+05
 
   -0.37150E+06         0.11196E+06         0.00000E+00
    0.11196E+06         0.21688E+05         0.00000E+00
    0.00000E+00         0.00000E+00        -0.69962E+05
 
   -0.36642E+06         0.12192E+06         0.00000E+00
    0.12192E+06         0.19978E+05         0.00000E+00
    0.00000E+00         0.00000E+00        -0.69287E+05
 
   -0.36108E+06         0.13173E+06         0.00000E+00
    0.13173E+06         0.18131E+05         0.00000E+00
    0.00000E+00         0.00000E+00        -0.68590E+05
 
   -0.35550E+06         0.14139E+06         0.00000E+00
    0.14139E+06         0.16149E+05         0.00000E+00
    0.00000E+00         0.00000E+00        -0.67870E+05
 
   -0.34968E+06         0.15090E+06         0.00000E+00
    0.15090E+06         0.14036E+05         0.00000E+00
    0.00000E+00         0.00000E+00        -0.67128E+05
 
   -0.34362E+06         0.16024E+06         0.00000E+00
    0.16024E+06         0.11796E+05         0.00000E+00
    0.00000E+00         0.00000E+00        -0.66365E+05
 
   -0.33734E+06         0.16942E+06         0.00000E+00
    0.16942E+06         0.94298E+04         0.00000E+00
    0.00000E+00         0.00000E+00        -0.65582E+05
 
   -0.33083E+06         0.17843E+06         0.00000E+00
    0.17843E+06         0.69422E+04         0.00000E+00
    0.00000E+00         0.00000E+00        -0.64778E+05
 
   -0.32411E+06         0.18726E+06         0.00000E+00
    0.18726E+06         0.43360E+04         0.00000E+00
    0.00000E+00         0.00000E+00        -0.63955E+05
 
   -0.31718E+06         0.19591E+06         0.00000E+00
    0.19591E+06         0.16142E+04         0.00000E+00
    0.00000E+00         0.00000E+00        -0.63113E+05
 
   -0.31004E+06         0.20437E+06         0.00000E+00
    0.20437E+06        -0.12200E+04         0.00000E+00
    0.00000E+00         0.00000E+00        -0.62252E+05
 
   -0.30270E+06         0.21265E+06         0.00000E+00
    0.21265E+06        -0.41635E+04         0.00000E+00
    0.00000E+00         0.00000E+00        -0.61372E+05
 
   -0.29516E+06         0.22074E+06         0.00000E+00
    0.22074E+06        -0.72133E+04         0.00000E+00
    0.00000E+00         0.00000E+00        -0.60475E+05
 
   -0.28744E+06         0.22864E+06         0.00000E+00
    0.22864E+06        -0.10366E+05         0.00000E+00
    0.00000E+00         0.00000E+00        -0.59561E+05
 
   -0.27953E+06         0.23633E+06         0.00000E+00
    0.23633E+06        -0.13620E+05         0.00000E+00
    0.00000E+00         0.00000E+00        -0.58630E+05
 
   -0.27144E+06         0.24383E+06         0.00000E+00
    0.24383E+06        -0.16970E+05         0.00000E+00
    0.00000E+00         0.00000E+00        -0.57683E+05
 
   -0.26318E+06         0.25111E+06         0.00000E+00
    0.25111E+06        -0.20415E+05         0.00000E+00
    0.00000E+00         0.00000E+00        -0.56720E+05
 
   -0.25476E+06         0.25820E+06         0.00000E+00
    0.25820E+06        -0.23951E+05         0.00000E+00
    0.00000E+00         0.00000E+00        -0.55741E+05
 
   -0.24616E+06         0.26507E+06         0.00000E+00
    0.26507E+06        -0.27576E+05         0.00000E+00
    0.00000E+00         0.00000E+00        -0.54748E+05
 
   -0.23741E+06         0.27172E+06         0.00000E+00
    0.27172E+06        -0.31287E+05         0.00000E+00
    0.00000E+00         0.00000E+00        -0.53740E+05
 
   -0.22851E+06         0.27816E+06         0.00000E+00
    0.27816E+06        -0.35080E+05         0.00000E+00
    0.00000E+00         0.00000E+00        -0.52718E+05
 
   -0.21945E+06         0.28438E+06         0.00000E+00
    0.28438E+06        -0.38954E+05         0.00000E+00
    0.00000E+00         0.00000E+00        -0.51682E+05
 
   -0.21026E+06         0.29038E+06         0.00000E+00
    0.29038E+06        -0.42905E+05         0.00000E+00
    0.00000E+00         0.00000E+00        -0.50632E+05
 
   -0.20092E+06         0.29616E+06         0.00000E+00
    0.29616E+06        -0.46930E+05         0.00000E+00
    0.00000E+00         0.00000E+00        -0.49570E+05
 
   -0.19145E+06         0.30171E+06         0.00000E+00
    0.30171E+06        -0.51028E+05         0.00000E+00
    0.00000E+00         0.00000E+00        -0.48496E+05
 
   -0.18185E+06         0.30704E+06         0.00000E+00
    0.30704E+06        -0.55195E+05         0.00000E+00
    0.00000E+00         0.00000E+00        -0.47409E+05
 
   -0.17212E+06         0.31213E+06         0.00000E+00
    0.31213E+06        -0.59430E+05         0.00000E+00
    0.00000E+00         0.00000E+00        -0.46310E+05
 
   -0.16227E+06         0.31699E+06         0.00000E+00
    0.31699E+06        -0.63729E+05         0.00000E+00
    0.00000E+00         0.00000E+00        -0.45200E+05
 
   -0.15230E+06         0.32162E+06         0.00000E+00
    0.32162E+06        -0.68090E+05         0.00000E+00
    0.00000E+00         0.00000E+00        -0.44079E+05
 
   -0.14222E+06         0.32601E+06         0.00000E+00
    0.32601E+06        -0.72510E+05         0.00000E+00
    0.00000E+00         0.00000E+00        -0.42947E+05
 
   -0.13203E+06         0.33017E+06         0.00000E+00
    0.33017E+06        -0.76988E+05         0.00000E+00
    0.00000E+00         0.00000E+00        -0.41804E+05
 
   -0.12174E+06         0.33408E+06         0.00000E+00
    0.33408E+06        -0.81521E+05         0.00000E+00
    0.00000E+00         0.00000E+00        -0.40652E+05
 
   -0.11134E+06         0.33776E+06         0.00000E+00
    0.33776E+06        -0.86107E+05         0.00000E+00
    0.00000E+00         0.00000E+00        -0.39490E+05
 
   -0.10085E+06         0.34119E+06         0.00000E+00
    0.34119E+06        -0.90743E+05         0.00000E+00
    0.00000E+00         0.00000E+00        -0.38318E+05
 
   -0.90256E+05         0.34438E+06         0.00000E+00
    0.34438E+06        -0.95427E+05         0.00000E+00
    0.00000E+00         0.00000E+00        -0.37137E+05
 
   -0.79575E+05         0.34733E+06         0.00000E+00
    0.34733E+06        -0.10016E+06         0.00000E+00
    0.00000E+00         0.00000E+00        -0.35947E+05
 
   -0.68807E+05         0.35003E+06         0.00000E+00
    0.35003E+06        -0.10493E+06         0.00000E+00
    0.00000E+00         0.00000E+00        -0.34748E+05
 
   -0.57955E+05         0.35248E+06         0.00000E+00
    0.35248E+06        -0.10975E+06         0.00000E+00
    0.00000E+00         0.00000E+00        -0.33541E+05
 
   -0.47023E+05         0.35468E+06         0.00000E+00
    0.35468E+06        -0.11460E+06         0.00000E+00
    0.00000E+00         0.00000E+00        -0.32325E+05
 
   -0.36013E+05         0.35663E+06         0.00000E+00
    0.35663E+06        -0.11950E+06         0.00000E+00
    0.00000E+00         0.00000E+00        -0.31102E+05
 
   -0.35877E+06         0.52219E+04         0.00000E+00
    0.52219E+04         0.25510E+05         0.00000E+00
    0.00000E+00         0.00000E+00        -0.66652E+05
 
   -0.35686E+06         0.15522E+05         0.00000E+00
    0.15522E+05         0.25359E+05         0.00000E+00
    0.00000E+00         0.00000E+00        -0.66301E+05
 
   -0.35468E+06         0.25751E+05         0.00000E+00
    0.25751E+05         0.25062E+05         0.00000E+00
    0.00000E+00         0.00000E+00        -0.65925E+05
 
   -0.35224E+06         0.35903E+05         0.00000E+00
    0.35903E+05         0.24621E+05         0.00000E+00
    0.00000E+00         0.00000E+00        -0.65524E+05
 
   -0.34954E+06         0.45971E+05         0.00000E+00
    0.45971E+05         0.24038E+05         0.00000E+00
    0.00000E+00         0.00000E+00        -0.65100E+05
 
   -0.34658E+06         0.55948E+05         0.00000E+00
    0.55948E+05         0.23315E+05         0.00000E+00
    0.00000E+00         0.00000E+00        -0.64652E+05
 
   -0.34336E+06         0.65828E+05         0.00000E+00
    0.65828E+05         0.22456E+05         0.00000E+00
    0.00000E+00         0.00000E+00        -0.64182E+05
 
   -0.33990E+06         0.75604E+05         0.00000E+00
    0.75604E+05         0.21461E+05         0.00000E+00
    0.00000E+00         0.00000E+00        -0.63689E+05
 
   -0.33620E+06         0.85272E+05         0.00000E+00
    0.85272E+05         0.20335E+05         0.00000E+00
    0.00000E+00         0.00000E+00        -0.63173E+05
 
   -0.33226E+06         0.94824E+05         0.00000E+00
    0.94824E+05         0.19078E+05         0.00000E+00
    0.00000E+00         0.00000E+00        -0.62636E+05
 
   -0.32808E+06         0.10425E+06         0.00000E+00
    0.10425E+06         0.17695E+05         0.00000E+00
    0.00000E+00         0.00000E+00        -0.62078E+05
 
   -0.32368E+06         0.11356E+06         0.00000E+00
    0.11356E+06         0.16187E+05         0.00000E+00
    0.00000E+00         0.00000E+00        -0.61498E+05
 
   -0.31905E+06         0.12273E+06         0.00000E+00
    0.12273E+06         0.14557E+05         0.00000E+00
    0.00000E+00         0.00000E+00        -0.60899E+05
 
   -0.31420E+06         0.13177E+06         0.00000E+00
    0.13177E+06         0.12808E+05         0.00000E+00
    0.00000E+00         0.00000E+00        -0.60279E+05
 
   -0.30914E+06         0.14066E+06         0.00000E+00
    0.14066E+06         0.10942E+05         0.00000E+00
    0.00000E+00         0.00000E+00        -0.59640E+05
 
   -0.30387E+06         0.14941E+06         0.00000E+00
    0.14941E+06         0.89622E+04         0.00000E+00
    0.00000E+00         0.00000E+00        -0.58981E+05
 
   -0.29839E+06         0.15800E+06         0.00000E+00
    0.15800E+06         0.68713E+04         0.00000E+00
    0.00000E+00         0.00000E+00        -0.58304E+05
 
   -0.29272E+06         0.16644E+06         0.00000E+00
    0.16644E+06         0.46718E+04         0.00000E+00
    0.00000E+00         0.00000E+00        -0.57609E+05
 
   -0.28684E+06         0.17472E+06         0.00000E+00
    0.17472E+06         0.23666E+04         0.00000E+00
    0.00000E+00         0.00000E+00        -0.56895E+05
 
   -0.28078E+06         0.18283E+06         0.00000E+00
    0.18283E+06        -0.41800E+02         0.00000E+00
    0.00000E+00         0.00000E+00        -0.56165E+05
 
   -0.27453E+06         0.19077E+06         0.00000E+00
    0.19077E+06        -0.25506E+04         0.00000E+00
    0.00000E+00         0.00000E+00        -0.55417E+05
 
   -0.26810E+06         0.19854E+06         0.00000E+00
    0.19854E+06        -0.51572E+04         0.00000E+00
    0.00000E+00         0.00000E+00        -0.54652E+05
 
   -0.26150E+06         0.20613E+06         0.00000E+00
    0.20613E+06        -0.78589E+04         0.00000E+00
    0.00000E+00         0.00000E+00        -0.53872E+05
 
   -0.25472E+06         0.21354E+06         0.00000E+00
    0.21354E+06        -0.10653E+05         0.00000E+00
    0.00000E+00         0.00000E+00        -0.53075E+05
 
   -0.24778E+06         0.22077E+06         0.00000E+00
    0.22077E+06        -0.13537E+05         0.00000E+00
    0.00000E+00         0.00000E+00        -0.52263E+05
 
   -0.24067E+06         0.22781E+06         0.00000E+00
    0.22781E+06        -0.16508E+05         0.00000E+00
    0.00000E+00         0.00000E+00        -0.51436E+05
 
   -0.23341E+06         0.23466E+06         0.00000E+00
    0.23466E+06        -0.19563E+05         0.00000E+00
    0.00000E+00         0.00000E+00        -0.50595E+05
 
   -0.22599E+06         0.24131E+06         0.00000E+00
    0.24131E+06        -0.22701E+05         0.00000E+00
    0.00000E+00         0.00000E+00        -0.49739E+05
 
   -0.21843E+06         0.24777E+06         0.00000E+00
    0.24777E+06        -0.25918E+05         0.00000E+00
    0.00000E+00         0.00000E+00        -0.48869E+05
 
   -0.21072E+06         0.25403E+06         0.00000E+00
    0.25403E+06        -0.29212E+05         0.00000E+00
    0.00000E+00         0.00000E+00        -0.47986E+05
 
   -0.20287E+06         0.26008E+06         0.00000E+00
    0.26008E+06        -0.32580E+05         0.00000E+00
    0.00000E+00         0.00000E+00        -0.47090E+05
 
   -0.19488E+06         0.26593E+06         0.00000E+00
    0.26593E+06        -0.36020E+05         0.00000E+00
    0.00000E+00         0.00000E+00        -0.46181E+05
 
   -0.18676E+06         0.27157E+06         0.00000E+00
    0.27157E+06        -0.39530E+05         0.00000E+00
    0.00000E+00         0.00000E+00        -0.45259E+05
 
   -0.17852E+06         0.27700E+06         0.00000E+00
    0.27700E+06        -0.43107E+05         0.00000E+00
    0.00000E+00         0.00000E+00        -0.44325E+05
 
   -0.17015E+06         0.28221E+06         0.00000E+00
    0.28221E+06        -0.46748E+05         0.00000E+00
    0.00000E+00         0.00000E+00        -0.43380E+05
 
   -0.16166E+06         0.28721E+06         0.00000E+00
    0.28721E+06        -0.50452E+05         0.00000E+00
    0.00000E+00         0.00000E+00        -0.42423E+05
 
   -0.15306E+06         0.29199E+06         0.00000E+00
    0.29199E+06        -0.54216E+05         0.00000E+00
    0.00000E+00         0.00000E+00        -0.41455E+05
 
   -0.14434E+06         0.29655E+06         0.00000E+00
    0.29655E+06        -0.58038E+05         0.00000E+00
    0.00000E+00         0.00000E+00        -0.40476E+05
 
   -0.13552E+06         0.30089E+06         0.00000E+00
    0.30089E+06        -0.61915E+05         0.00000E+00
    0.00000E+00         0.00000E+00        -0.39487E+05
 
   -0.12659E+06         0.30501E+06         0.00000E+00
    0.30501E+06        -0.65845E+05         0.00000E+00
    0.00000E+00         0.00000E+00        -0.38488E+05
 
   -0.11757E+06         0.30890E+06         0.00000E+00
    0.30890E+06        -0.69827E+05         0.00000E+00
    0.00000E+00         0.00000E+00        -0.37479E+05
 
   -0.10844E+06         0.31256E+06         0.00000E+00
    0.31256E+06        -0.73858E+05         0.00000E+00
    0.00000E+00         0.00000E+00        -0.36460E+05
 
   -0.99223E+05         0.31599E+06         0.00000E+00
    0.31599E+06        -0.77936E+05         0.00000E+00
    0.00000E+00         0.00000E+00        -0.35432E+05
 
   -0.89914E+05         0.31919E+06         0.00000E+00
    0.31919E+06        -0.82058E+05         0.00000E+00
    0.00000E+00         0.00000E+00        -0.34394E+05
 
   -0.80519E+05         0.32216E+06         0.00000E+00
    0.32216E+06        -0.86223E+05         0.00000E+00
    0.00000E+00         0.00000E+00        -0.33349E+05
 
   -0.71041E+05         0.32490E+06         0.00000E+00
    0.32490E+06        -0.90429E+05         0.00000E+00
    0.00000E+00         0.00000E+00        -0.32294E+05
 
   -0.61482E+05         0.32739E+06         0.00000E+00
    0.32739E+06        -0.94674E+05         0.00000E+00
    0.00000E+00         0.00000E+00        -0.31231E+05
 
   -0.51847E+05         0.32965E+06         0.00000E+00
    0.32965E+06        -0.98955E+05         0.00000E+00
    0.00000E+00         0.00000E+00        -0.30160E+05
 
   -0.42138E+05         0.33167E+06         0.00000E+00
    0.33167E+06        -0.10327E+06         0.00000E+00
    0.00000E+00         0.00000E+00        -0.29082E+05
 
   -0.32358E+05         0.33346E+06         0.00000E+00
    0.33346E+06        -0.10762E+06         0.00000E+00
    0.00000E+00         0.00000E+00        -0.27996E+05
 
   -0.31317E+06         0.48669E+04         0.00000E+00
    0.48669E+04         0.21212E+05         0.00000E+00
    0.00000E+00         0.00000E+00        -0.58391E+05
 
   -0.31157E+06         0.14479E+05         0.00000E+00
    0.14479E+05         0.21081E+05         0.00000E+00
    0.00000E+00         0.00000E+00        -0.58098E+05
 
   -0.30974E+06         0.24029E+05         0.00000E+00
    0.24029E+05         0.20822E+05         0.00000E+00
    0.00000E+00         0.00000E+00        -0.57783E+05
 
   -0.30767E+06         0.33513E+05         0.00000E+00
    0.33513E+05         0.20438E+05         0.00000E+00
    0.00000E+00         0.00000E+00        -0.57447E+05
 
   -0.30538E+06         0.42923E+05         0.00000E+00
    0.42923E+05         0.19930E+05         0.00000E+00
    0.00000E+00         0.00000E+00        -0.57089E+05
 
   -0.30286E+06         0.52252E+05         0.00000E+00
    0.52252E+05         0.19301E+05         0.00000E+00
    0.00000E+00         0.00000E+00        -0.56712E+05
 
   -0.30012E+06         0.61496E+05         0.00000E+00
    0.61496E+05         0.18551E+05         0.00000E+00
    0.00000E+00         0.00000E+00        -0.56313E+05
 
   -0.29716E+06         0.70647E+05         0.00000E+00
    0.70647E+05         0.17684E+05         0.00000E+00
    0.00000E+00         0.00000E+00        -0.55895E+05
 
   -0.29399E+06         0.79701E+05         0.00000E+00
    0.79701E+05         0.16701E+05         0.00000E+00
    0.00000E+00         0.00000E+00        -0.55458E+05
 
   -0.29061E+06         0.88651E+05         0.00000E+00
    0.88651E+05         0.15604E+05         0.00000E+00
    0.00000E+00         0.00000E+00        -0.55001E+05
 
   -0.28702E+06         0.97492E+05         0.00000E+00
    0.97492E+05         0.14396E+05         0.00000E+00
    0.00000E+00         0.00000E+00        -0.54525E+05
 
   -0.28323E+06         0.10622E+06         0.00000E+00
    0.10622E+06         0.13079E+05         0.00000E+00
    0.00000E+00         0.00000E+00        -0.54031E+05
 
   -0.27924E+06         0.11482E+06         0.00000E+00
    0.11482E+06         0.11655E+05         0.00000E+00
    0.00000E+00         0.00000E+00        -0.53518E+05
 
   -0.27506E+06         0.12331E+06         0.00000E+00
    0.12331E+06         0.10125E+05         0.00000E+00
    0.00000E+00         0.00000E+00        -0.52988E+05
 
   -0.27069E+06         0.13166E+06         0.00000E+00
    0.13166E+06         0.84935E+04         0.00000E+00
    0.00000E+00         0.00000E+00        -0.52440E+05
 
   -0.26614E+06         0.13988E+06         0.00000E+00
    0.13988E+06         0.67615E+04         0.00000E+00
    0.00000E+00         0.00000E+00        -0.51875E+05
 
   -0.26140E+06         0.14795E+06         0.00000E+00
    0.14795E+06         0.49315E+04         0.00000E+00
    0.00000E+00         0.00000E+00        -0.51294E+05
 
   -0.25648E+06         0.15589E+06         0.00000E+00
    0.15589E+06         0.30058E+04         0.00000E+00
    0.00000E+00         0.00000E+00        -0.50696E+05
 
   -0.25140E+06         0.16367E+06         0.00000E+00
    0.16367E+06         0.98676E+03         0.00000E+00
    0.00000E+00         0.00000E+00        -0.50082E+05
 
   -0.24614E+06         0.17131E+06         0.00000E+00
    0.17131E+06        -0.11233E+04         0.00000E+00
    0.00000E+00         0.00000E+00        -0.49452E+05
 
   -0.24071E+06         0.17878E+06         0.00000E+00
    0.17878E+06        -0.33221E+04         0.00000E+00
    0.00000E+00         0.00000E+00        -0.48807E+05
 
   -0.23513E+06         0.18610E+06         0.00000E+00
    0.18610E+06        -0.56072E+04         0.00000E+00
    0.00000E+00         0.00000E+00        -0.48147E+05
 
   -0.22939E+06         0.19325E+06         0.00000E+00
    0.19325E+06        -0.79765E+04         0.00000E+00
    0.00000E+00         0.00000E+00        -0.47473E+05
 
   -0.22349E+06         0.20023E+06         0.00000E+00
    0.20023E+06        -0.10428E+05         0.00000E+00
    0.00000E+00         0.00000E+00        -0.46784E+05
 
   -0.21745E+06         0.20704E+06         0.00000E+00
    0.20704E+06        -0.12958E+05         0.00000E+00
    0.00000E+00         0.00000E+00        -0.46081E+05
 
   -0.21126E+06         0.21368E+06         0.00000E+00
    0.21368E+06        -0.15566E+05         0.00000E+00
    0.00000E+00         0.00000E+00        -0.45365E+05
 
   -0.20493E+06         0.22013E+06         0.00000E+00
    0.22013E+06        -0.18248E+05         0.00000E+00
    0.00000E+00         0.00000E+00        -0.44635E+05
 
   -0.19846E+06         0.22640E+06         0.00000E+00
    0.22640E+06        -0.21004E+05         0.00000E+00
    0.00000E+00         0.00000E+00        -0.43893E+05
 
   -0.19186E+06         0.23249E+06         0.00000E+00
    0.23249E+06        -0.23829E+05         0.00000E+00
    0.00000E+00         0.00000E+00        -0.43137E+05
 
   -0.18513E+06         0.23839E+06         0.00000E+00
    0.23839E+06        -0.26723E+05         0.00000E+00
    0.00000E+00         0.00000E+00        -0.42370E+05
 
   -0.17827E+06         0.24410E+06         0.00000E+00
    0.24410E+06        -0.29683E+05         0.00000E+00
    0.00000E+00         0.00000E+00        -0.41590E+05
 
   -0.17129E+06         0.24962E+06         0.00000E+00
    0.24962E+06        -0.32707E+05         0.00000E+00
    0.00000E+00         0.00000E+00        -0.40799E+05
 
   -0.16419E+06         0.25493E+06         0.00000E+00
    0.25493E+06        -0.35792E+05         0.00000E+00
    0.00000E+00         0.00000E+00        -0.39997E+05
 
   -0.15698E+06         0.26005E+06         0.00000E+00
    0.26005E+06        -0.38937E+05         0.00000E+00
    0.00000E+00         0.00000E+00        -0.39183E+05
 
   -0.14965E+06         0.26497E+06         0.00000E+00
    0.26497E+06        -0.42140E+05         0.00000E+00
    0.00000E+00         0.00000E+00        -0.38359E+05
 
   -0.14222E+06         0.26968E+06         0.00000E+00
    0.26968E+06        -0.45397E+05         0.00000E+00
    0.00000E+00         0.00000E+00        -0.37524E+05
 
   -0.13469E+06         0.27418E+06         0.00000E+00
    0.27418E+06        -0.48708E+05         0.00000E+00
    0.00000E+00         0.00000E+00        -0.36679E+05
 
   -0.12705E+06         0.27847E+06         0.00000E+00
    0.27847E+06        -0.52070E+05         0.00000E+00
    0.00000E+00         0.00000E+00        -0.35824E+05
 
   -0.11931E+06         0.28256E+06         0.00000E+00
    0.28256E+06        -0.55481E+05         0.00000E+00
    0.00000E+00         0.00000E+00        -0.34959E+05
 
   -0.11149E+06         0.28643E+06         0.00000E+00
    0.28643E+06        -0.58940E+05         0.00000E+00
    0.00000E+00         0.00000E+00        -0.34085E+05
 
   -0.10357E+06         0.29008E+06         0.00000E+00
    0.29008E+06        -0.62443E+05         0.00000E+00
    0.00000E+00         0.00000E+00        -0.33202E+05
 
   -0.95558E+05         0.29352E+06         0.00000E+00
    0.29352E+06        -0.65990E+05         0.00000E+00
    0.00000E+00         0.00000E+00        -0.32310E+05
 
   -0.87466E+05         0.29673E+06         0.00000E+00
    0.29673E+06        -0.69578E+05         0.00000E+00
    0.00000E+00         0.00000E+00        -0.31409E+05
 
   -0.79293E+05         0.29973E+06         0.00000E+00
    0.29973E+06        -0.73206E+05         0.00000E+00
    0.00000E+00         0.00000E+00        -0.30500E+05
 
   -0.71042E+05         0.30250E+06         0.00000E+00
    0.30250E+06        -0.76871E+05         0.00000E+00
    0.00000E+00         0.00000E+00        -0.29583E+05
 
   -0.62716E+05         0.30505E+06         0.00000E+00
    0.30505E+06        -0.80571E+05         0.00000E+00
    0.00000E+00         0.00000E+00        -0.28657E+05
 
   -0.54317E+05         0.30737E+06         0.00000E+00
    0.30737E+06        -0.84306E+05         0.00000E+00
    0.00000E+00         0.00000E+00        -0.27725E+05
 
   -0.45849E+05         0.30947E+06         0.00000E+00
    0.30947E+06        -0.88072E+05         0.00000E+00
    0.00000E+00         0.00000E+00        -0.26784E+05
 
   -0.37315E+05         0.31133E+06         0.00000E+00
    0.31133E+06        -0.91868E+05         0.00000E+00
    0.00000E+00         0.00000E+00        -0.25837E+05
 
   -0.28717E+05         0.31296E+06         0.00000E+00
    0.31296E+06        -0.95693E+05         0.00000E+00
    0.00000E+00         0.00000E+00        -0.24882E+05
 
   -0.27016E+06         0.45602E+04         0.00000E+00
    0.45602E+04         0.17546E+05         0.00000E+00
    0.00000E+00         0.00000E+00        -0.50523E+05
 
   -0.26883E+06         0.13576E+05         0.00000E+00
    0.13576E+05         0.17433E+05         0.00000E+00
    0.00000E+00         0.00000E+00        -0.50280E+05
 
   -0.26730E+06         0.22539E+05         0.00000E+00
    0.22539E+05         0.17211E+05         0.00000E+00
    0.00000E+00         0.00000E+00        -0.50017E+05
 
   -0.26556E+06         0.31443E+05         0.00000E+00
    0.31443E+05         0.16880E+05         0.00000E+00
    0.00000E+00         0.00000E+00        -0.49737E+05
 
   -0.26363E+06         0.40281E+05         0.00000E+00
    0.40281E+05         0.16443E+05         0.00000E+00
    0.00000E+00         0.00000E+00        -0.49438E+05
 
   -0.26151E+06         0.49049E+05         0.00000E+00
    0.49049E+05         0.15901E+05         0.00000E+00
    0.00000E+00         0.00000E+00        -0.49121E+05
 
   -0.25919E+06         0.57739E+05         0.00000E+00
    0.57739E+05         0.15255E+05         0.00000E+00
    0.00000E+00         0.00000E+00        -0.48786E+05
 
   -0.25668E+06         0.66347E+05         0.00000E+00
    0.66347E+05         0.14507E+05         0.00000E+00
    0.00000E+00         0.00000E+00        -0.48435E+05
 
   -0.25399E+06         0.74866E+05         0.00000E+00
    0.74866E+05         0.13660E+05         0.00000E+00
    0.00000E+00         0.00000E+00        -0.48066E+05
 
   -0.25111E+06         0.83292E+05         0.00000E+00
    0.83292E+05         0.12714E+05         0.00000E+00
    0.00000E+00         0.00000E+00        -0.47680E+05
 
   -0.24806E+06         0.91618E+05         0.00000E+00
    0.91618E+05         0.11672E+05         0.00000E+00
    0.00000E+00         0.00000E+00        -0.47278E+05
 
   -0.24483E+06         0.99840E+05         0.00000E+00
    0.99840E+05         0.10535E+05         0.00000E+00
    0.00000E+00         0.00000E+00        -0.46859E+05
 
   -0.24143E+06         0.10795E+06         0.00000E+00
    0.10795E+06         0.93051E+04         0.00000E+00
    0.00000E+00         0.00000E+00        -0.46425E+05
 
   -0.23786E+06         0.11595E+06         0.00000E+00
    0.11595E+06         0.79844E+04         0.00000E+00
    0.00000E+00         0.00000E+00        -0.45975E+05
 
   -0.23412E+06         0.12383E+06         0.00000E+00
    0.12383E+06         0.65747E+04         0.00000E+00
    0.00000E+00         0.00000E+00        -0.45510E+05
 
   -0.23022E+06         0.13158E+06         0.00000E+00
    0.13158E+06         0.50780E+04         0.00000E+00
    0.00000E+00         0.00000E+00        -0.45029E+05
 
   -0.22617E+06         0.13921E+06         0.00000E+00
    0.13921E+06         0.34961E+04         0.00000E+00
    0.00000E+00         0.00000E+00        -0.44534E+05
 
   -0.22196E+06         0.14670E+06         0.00000E+00
    0.14670E+06         0.18310E+04         0.00000E+00
    0.00000E+00         0.00000E+00        -0.44025E+05
 
   -0.21759E+06         0.15406E+06         0.00000E+00
    0.15406E+06         0.84739E+02         0.00000E+00
    0.00000E+00         0.00000E+00        -0.43502E+05
 
   -0.21308E+06         0.16127E+06         0.00000E+00
    0.16127E+06        -0.17408E+04         0.00000E+00
    0.00000E+00         0.00000E+00        -0.42964E+05
 
   -0.20842E+06         0.16833E+06         0.00000E+00
    0.16833E+06        -0.36437E+04         0.00000E+00
    0.00000E+00         0.00000E+00        -0.42413E+05
 
   -0.20362E+06         0.17525E+06         0.00000E+00
    0.17525E+06        -0.56218E+04         0.00000E+00
    0.00000E+00         0.00000E+00        -0.41849E+05
 
   -0.19869E+06         0.18201E+06         0.00000E+00
    0.18201E+06        -0.76733E+04         0.00000E+00
    0.00000E+00         0.00000E+00        -0.41272E+05
 
   -0.19362E+06         0.18862E+06         0.00000E+00
    0.18862E+06        -0.97961E+04         0.00000E+00
    0.00000E+00         0.00000E+00        -0.40683E+05
 
   -0.18841E+06         0.19506E+06         0.00000E+00
    0.19506E+06        -0.11988E+05         0.00000E+00
    0.00000E+00         0.00000E+00        -0.40081E+05
 
   -0.18308E+06         0.20134E+06         0.00000E+00
    0.20134E+06        -0.14248E+05         0.00000E+00
    0.00000E+00         0.00000E+00        -0.39467E+05
 
   -0.17763E+06         0.20745E+06         0.00000E+00
    0.20745E+06        -0.16573E+05         0.00000E+00
    0.00000E+00         0.00000E+00        -0.38841E+05
 
   -0.17205E+06         0.21339E+06         0.00000E+00
    0.21339E+06        -0.18961E+05         0.00000E+00
    0.00000E+00         0.00000E+00        -0.38203E+05
 
   -0.16636E+06         0.21915E+06         0.00000E+00
    0.21915E+06        -0.21412E+05         0.00000E+00
    0.00000E+00         0.00000E+00        -0.37555E+05
 
   -0.16055E+06         0.22474E+06         0.00000E+00
    0.22474E+06        -0.23921E+05         0.00000E+00
    0.00000E+00         0.00000E+00        -0.36895E+05
 
   -0.15463E+06         0.23014E+06         0.00000E+00
    0.23014E+06        -0.26489E+05         0.00000E+00
    0.00000E+00         0.00000E+00        -0.36224E+05
 
   -0.14861E+06         0.23536E+06         0.00000E+00
    0.23536E+06        -0.29112E+05         0.00000E+00
    0.00000E+00         0.00000E+00        -0.35544E+05
 
   -0.14247E+06         0.24040E+06         0.00000E+00
    0.24040E+06        -0.31789E+05         0.00000E+00
    0.00000E+00         0.00000E+00        -0.34853E+05
 
   -0.13624E+06         0.24524E+06         0.00000E+00
    0.24524E+06        -0.34518E+05         0.00000E+00
    0.00000E+00         0.00000E+00        -0.34152E+05
 
   -0.12991E+06         0.24989E+06         0.00000E+00
    0.24989E+06        -0.37297E+05         0.00000E+00
    0.00000E+00         0.00000E+00        -0.33441E+05
 
   -0.12348E+06         0.25435E+06         0.00000E+00
    0.25435E+06        -0.40125E+05         0.00000E+00
    0.00000E+00         0.00000E+00        -0.32721E+05
 
   -0.11696E+06         0.25861E+06         0.00000E+00
    0.25861E+06        -0.42999E+05         0.00000E+00
    0.00000E+00         0.00000E+00        -0.31992E+05
 
   -0.11035E+06         0.26267E+06         0.00000E+00
    0.26267E+06        -0.45918E+05         0.00000E+00
    0.00000E+00         0.00000E+00        -0.31254E+05
 
   -0.10365E+06         0.26653E+06         0.00000E+00
    0.26653E+06        -0.48880E+05         0.00000E+00
    0.00000E+00         0.00000E+00        -0.30507E+05
 
   -0.96875E+05         0.27018E+06         0.00000E+00
    0.27018E+06        -0.51883E+05         0.00000E+00
    0.00000E+00         0.00000E+00        -0.29752E+05
 
   -0.90015E+05         0.27363E+06         0.00000E+00
    0.27363E+06        -0.54925E+05         0.00000E+00
    0.00000E+00         0.00000E+00        -0.28988E+05
 
   -0.83077E+05         0.27687E+06         0.00000E+00
    0.27687E+06        -0.58005E+05         0.00000E+00
    0.00000E+00         0.00000E+00        -0.28216E+05
 
   -0.76065E+05         0.27989E+06         0.00000E+00
    0.27989E+06        -0.61121E+05         0.00000E+00
    0.00000E+00         0.00000E+00        -0.27437E+05
 
   -0.68980E+05         0.28271E+06         0.00000E+00
    0.28271E+06        -0.64271E+05         0.00000E+00
    0.00000E+00         0.00000E+00        -0.26650E+05
 
   -0.61826E+05         0.28531E+06         0.00000E+00
    0.28531E+06        -0.67453E+05         0.00000E+00
    0.00000E+00         0.00000E+00        -0.25856E+05
 
   -0.54605E+05         0.28770E+06         0.00000E+00
    0.28770E+06        -0.70667E+05         0.00000E+00
    0.00000E+00         0.00000E+00        -0.25054E+05
 
   -0.47320E+05         0.28987E+06         0.00000E+00
    0.28987E+06        -0.73909E+05         0.00000E+00
    0.00000E+00         0.00000E+00        -0.24246E+05
 
   -0.39974E+05         0.29182E+06         0.00000E+00
    0.29182E+06        -0.77179E+05         0.00000E+00
    0.00000E+00         0.00000E+00        -0.23431E+05
 
   -0.32570E+05         0.29354E+06         0.00000E+00
    0.29354E+06        -0.80475E+05         0.00000E+00
    0.00000E+00         0.00000E+00        -0.22609E+05
 
   -0.25109E+05         0.29505E+06         0.00000E+00
    0.29505E+06        -0.83794E+05         0.00000E+00
    0.00000E+00         0.00000E+00        -0.21781E+05
 
   -0.22941E+06         0.42985E+04         0.00000E+00
    0.42985E+04         0.14402E+05         0.00000E+00
    0.00000E+00         0.00000E+00        -0.43002E+05
 
   -0.22831E+06         0.12805E+05         0.00000E+00
    0.12805E+05         0.14307E+05         0.00000E+00
    0.00000E+00         0.00000E+00        -0.42802E+05
 
   -0.22704E+06         0.21265E+05         0.00000E+00
    0.21265E+05         0.14118E+05         0.00000E+00
    0.00000E+00         0.00000E+00        -0.42585E+05
 
   -0.22560E+06         0.29673E+05         0.00000E+00
    0.29673E+05         0.13838E+05         0.00000E+00
    0.00000E+00         0.00000E+00        -0.42353E+05
 
   -0.22399E+06         0.38023E+05         0.00000E+00
    0.38023E+05         0.13468E+05         0.00000E+00
    0.00000E+00         0.00000E+00        -0.42105E+05
 
   -0.22222E+06         0.46309E+05         0.00000E+00
    0.46309E+05         0.13008E+05         0.00000E+00
    0.00000E+00         0.00000E+00        -0.41842E+05
 
   -0.22028E+06         0.54525E+05         0.00000E+00
    0.54525E+05         0.12460E+05         0.00000E+00
    0.00000E+00         0.00000E+00        -0.41564E+05
 
   -0.21818E+06         0.62667E+05         0.00000E+00
    0.62667E+05         0.11826E+05         0.00000E+00
    0.00000E+00         0.00000E+00        -0.41271E+05
 
   -0.21592E+06         0.70728E+05         0.00000E+00
    0.70728E+05         0.11107E+05         0.00000E+00
    0.00000E+00         0.00000E+00        -0.40963E+05
 
   -0.21351E+06         0.78703E+05         0.00000E+00
    0.78703E+05         0.10304E+05         0.00000E+00
    0.00000E+00         0.00000E+00        -0.40641E+05
 
   -0.21094E+06         0.86587E+05         0.00000E+00
    0.86587E+05         0.94190E+04         0.00000E+00
    0.00000E+00         0.00000E+00        -0.40305E+05
 
   -0.20823E+06         0.94376E+05         0.00000E+00
    0.94376E+05         0.84534E+04         0.00000E+00
    0.00000E+00         0.00000E+00        -0.39955E+05
 
   -0.20536E+06         0.10206E+06         0.00000E+00
    0.10206E+06         0.74088E+04         0.00000E+00
    0.00000E+00         0.00000E+00        -0.39591E+05
 
   -0.20236E+06         0.10964E+06         0.00000E+00
    0.10964E+06         0.62866E+04         0.00000E+00
    0.00000E+00         0.00000E+00        -0.39214E+05
 
   -0.19921E+06         0.11712E+06         0.00000E+00
    0.11712E+06         0.50885E+04         0.00000E+00
    0.00000E+00         0.00000E+00        -0.38824E+05
 
   -0.19592E+06         0.12447E+06         0.00000E+00
    0.12447E+06         0.38160E+04         0.00000E+00
    0.00000E+00         0.00000E+00        -0.38421E+05
 
   -0.19250E+06         0.13171E+06         0.00000E+00
    0.13171E+06         0.24708E+04         0.00000E+00
    0.00000E+00         0.00000E+00        -0.38005E+05
 
   -0.18894E+06         0.13882E+06         0.00000E+00
    0.13882E+06         0.10546E+04         0.00000E+00
    0.00000E+00         0.00000E+00        -0.37577E+05
 
   -0.18525E+06         0.14580E+06         0.00000E+00
    0.14580E+06        -0.43109E+03         0.00000E+00
    0.00000E+00         0.00000E+00        -0.37136E+05
 
   -0.18143E+06         0.15265E+06         0.00000E+00
    0.15265E+06        -0.19846E+04         0.00000E+00
    0.00000E+00         0.00000E+00        -0.36684E+05
 
   -0.17749E+06         0.15936E+06         0.00000E+00
    0.15936E+06        -0.36041E+04         0.00000E+00
    0.00000E+00         0.00000E+00        -0.36220E+05
 
   -0.17343E+06         0.16593E+06         0.00000E+00
    0.16593E+06        -0.52882E+04         0.00000E+00
    0.00000E+00         0.00000E+00        -0.35744E+05
 
   -0.16925E+06         0.17236E+06         0.00000E+00
    0.17236E+06        -0.70350E+04         0.00000E+00
    0.00000E+00         0.00000E+00        -0.35257E+05
 
   -0.16496E+06         0.17864E+06         0.00000E+00
    0.17864E+06        -0.88430E+04         0.00000E+00
    0.00000E+00         0.00000E+00        -0.34760E+05
 
   -0.16055E+06         0.18477E+06         0.00000E+00
    0.18477E+06        -0.10710E+05         0.00000E+00
    0.00000E+00         0.00000E+00        -0.34251E+05
 
   -0.15603E+06         0.19074E+06         0.00000E+00
    0.19074E+06        -0.12636E+05         0.00000E+00
    0.00000E+00         0.00000E+00        -0.33732E+05
 
   -0.15140E+06         0.19655E+06         0.00000E+00
    0.19655E+06        -0.14617E+05         0.00000E+00
    0.00000E+00         0.00000E+00        -0.33203E+05
 
   -0.14667E+06         0.20220E+06         0.00000E+00
    0.20220E+06        -0.16653E+05         0.00000E+00
    0.00000E+00         0.00000E+00        -0.32664E+05
 
   -0.14183E+06         0.20768E+06         0.00000E+00
    0.20768E+06        -0.18741E+05         0.00000E+00
    0.00000E+00         0.00000E+00        -0.32115E+05
 
   -0.13690E+06         0.21299E+06         0.00000E+00
    0.21299E+06        -0.20881E+05         0.00000E+00
    0.00000E+00         0.00000E+00        -0.31556E+05
 
   -0.13187E+06         0.21813E+06         0.00000E+00
    0.21813E+06        -0.23070E+05         0.00000E+00
    0.00000E+00         0.00000E+00        -0.30989E+05
 
   -0.12675E+06         0.22310E+06         0.00000E+00
    0.22310E+06        -0.25308E+05         0.00000E+00
    0.00000E+00         0.00000E+00        -0.30412E+05
 
   -0.12154E+06         0.22788E+06         0.00000E+00
    0.22788E+06        -0.27591E+05         0.00000E+00
    0.00000E+00         0.00000E+00        -0.29826E+05
 
   -0.11624E+06         0.23249E+06         0.00000E+00
    0.23249E+06        -0.29919E+05         0.00000E+00
    0.00000E+00         0.00000E+00        -0.29231E+05
 
   -0.11085E+06         0.23691E+06         0.00000E+00
    0.23691E+06        -0.32290E+05         0.00000E+00
    0.00000E+00         0.00000E+00        -0.28628E+05
 
   -0.10538E+06         0.24115E+06         0.00000E+00
    0.24115E+06        -0.34703E+05         0.00000E+00
    0.00000E+00         0.00000E+00        -0.28017E+05
 
   -0.99831E+05         0.24520E+06         0.00000E+00
    0.24520E+06        -0.37156E+05         0.00000E+00
    0.00000E+00         0.00000E+00        -0.27397E+05
 
   -0.94204E+05         0.24905E+06         0.00000E+00
    0.24905E+06        -0.39646E+05         0.00000E+00
    0.00000E+00         0.00000E+00        -0.26770E+05
 
   -0.88503E+05         0.25272E+06         0.00000E+00
    0.25272E+06        -0.42174E+05         0.00000E+00
    0.00000E+00         0.00000E+00        -0.26135E+05
 
   -0.82728E+05         0.25618E+06         0.00000E+00
    0.25618E+06        -0.44737E+05         0.00000E+00
    0.00000E+00         0.00000E+00        -0.25493E+05
 
   -0.76884E+05         0.25945E+06         0.00000E+00
    0.25945E+06        -0.47334E+05         0.00000E+00
    0.00000E+00         0.00000E+00        -0.24844E+05
 
   -0.70973E+05         0.26252E+06         0.00000E+00
    0.26252E+06        -0.49962E+05         0.00000E+00
    0.00000E+00         0.00000E+00        -0.24187E+05
 
   -0.64996E+05         0.26539E+06         0.00000E+00
    0.26539E+06        -0.52622E+05         0.00000E+00
    0.00000E+00         0.00000E+00        -0.23524E+05
 
   -0.58957E+05         0.26805E+06         0.00000E+00
    0.26805E+06        -0.55311E+05         0.00000E+00
    0.00000E+00         0.00000E+00        -0.22854E+05
 
   -0.52858E+05         0.27050E+06         0.00000E+00
    0.27050E+06        -0.58027E+05         0.00000E+00
    0.00000E+00         0.00000E+00        -0.22177E+05
 
   -0.46701E+05         0.27275E+06         0.00000E+00
    0.27275E+06        -0.60770E+05         0.00000E+00
    0.00000E+00         0.00000E+00        -0.21494E+05
 
   -0.40489E+05         0.27479E+06         0.00000E+00
    0.27479E+06        -0.63537E+05         0.00000E+00
    0.00000E+00         0.00000E+00        -0.20805E+05
 
   -0.34223E+05         0.27662E+06         0.00000E+00
    0.27662E+06        -0.66327E+05         0.00000E+00
    0.00000E+00         0.00000E+00        -0.20110E+05
 
   -0.27907E+05         0.27823E+06         0.00000E+00
    0.27823E+06        -0.69140E+05         0.00000E+00
    0.00000E+00         0.00000E+00        -0.19409E+05
 
   -0.21543E+05         0.27963E+06         0.00000E+00
    0.27963E+06        -0.71973E+05         0.00000E+00
    0.00000E+00         0.00000E+00        -0.18703E+05
 
   -0.19059E+06         0.40791E+04         0.00000E+00
    0.40791E+04         0.11687E+05         0.00000E+00
    0.00000E+00         0.00000E+00        -0.35780E+05
 
   -0.18969E+06         0.12159E+05         0.00000E+00
    0.12159E+05         0.11608E+05         0.00000E+00
    0.00000E+00         0.00000E+00        -0.35617E+05
 
   -0.18866E+06         0.20197E+05         0.00000E+00
    0.20197E+05         0.11452E+05         0.00000E+00
    0.00000E+00         0.00000E+00        -0.35441E+05
 
   -0.18748E+06         0.28188E+05         0.00000E+00
    0.28188E+05         0.11220E+05         0.00000E+00
    0.00000E+00         0.00000E+00        -0.35251E+05
 
   -0.18616E+06         0.36127E+05         0.00000E+00
    0.36127E+05         0.10912E+05         0.00000E+00
    0.00000E+00         0.00000E+00        -0.35049E+05
 
   -0.18470E+06         0.44009E+05         0.00000E+00
    0.44009E+05         0.10531E+05         0.00000E+00
    0.00000E+00         0.00000E+00        -0.34834E+05
 
   -0.18311E+06         0.51826E+05         0.00000E+00
    0.51826E+05         0.10076E+05         0.00000E+00
    0.00000E+00         0.00000E+00        -0.34606E+05
 
   -0.18138E+06         0.59575E+05         0.00000E+00
    0.59575E+05         0.95501E+04         0.00000E+00
    0.00000E+00         0.00000E+00        -0.34366E+05
 
   -0.17952E+06         0.67250E+05         0.00000E+00
    0.67250E+05         0.89531E+04         0.00000E+00
    0.00000E+00         0.00000E+00        -0.34113E+05
 
   -0.17753E+06         0.74846E+05         0.00000E+00
    0.74846E+05         0.82865E+04         0.00000E+00
    0.00000E+00         0.00000E+00        -0.33849E+05
 
   -0.17542E+06         0.82358E+05         0.00000E+00
    0.82358E+05         0.75516E+04         0.00000E+00
    0.00000E+00         0.00000E+00        -0.33573E+05
 
   -0.17317E+06         0.89781E+05         0.00000E+00
    0.89781E+05         0.67496E+04         0.00000E+00
    0.00000E+00         0.00000E+00        -0.33285E+05
 
   -0.17081E+06         0.97110E+05         0.00000E+00
    0.97110E+05         0.58817E+04         0.00000E+00
    0.00000E+00         0.00000E+00        -0.32986E+05
 
   -0.16833E+06         0.10434E+06         0.00000E+00
    0.10434E+06         0.49492E+04         0.00000E+00
    0.00000E+00         0.00000E+00        -0.32675E+05
 
   -0.16572E+06         0.11147E+06         0.00000E+00
    0.11147E+06         0.39534E+04         0.00000E+00
    0.00000E+00         0.00000E+00        -0.32354E+05
 
   -0.16300E+06         0.11848E+06         0.00000E+00
    0.11848E+06         0.28957E+04         0.00000E+00
    0.00000E+00         0.00000E+00        -0.32022E+05
 
   -0.16017E+06         0.12539E+06         0.00000E+00
    0.12539E+06         0.17773E+04         0.00000E+00
    0.00000E+00         0.00000E+00        -0.31679E+05
 
   -0.15723E+06         0.13218E+06         0.00000E+00
    0.13218E+06         0.59965E+03         0.00000E+00
    0.00000E+00         0.00000E+00        -0.31325E+05
 
   -0.15417E+06         0.13885E+06         0.00000E+00
    0.13885E+06        -0.63598E+03         0.00000E+00
    0.00000E+00         0.00000E+00        -0.30962E+05
 
   -0.15101E+06         0.14539E+06         0.00000E+00
    0.14539E+06        -0.19282E+04         0.00000E+00
    0.00000E+00         0.00000E+00        -0.30588E+05
 
   -0.14775E+06         0.15180E+06         0.00000E+00
    0.15180E+06        -0.32757E+04         0.00000E+00
    0.00000E+00         0.00000E+00        -0.30205E+05
 
   -0.14438E+06         0.15808E+06         0.00000E+00
    0.15808E+06        -0.46770E+04         0.00000E+00
    0.00000E+00         0.00000E+00        -0.29812E+05
 
   -0.14092E+06         0.16423E+06         0.00000E+00
    0.16423E+06        -0.61308E+04         0.00000E+00
    0.00000E+00         0.00000E+00        -0.29409E+05
 
   -0.13735E+06         0.17023E+06         0.00000E+00
    0.17023E+06        -0.76356E+04         0.00000E+00
    0.00000E+00         0.00000E+00        -0.28997E+05
 
   -0.13369E+06         0.17609E+06         0.00000E+00
    0.17609E+06        -0.91902E+04         0.00000E+00
    0.00000E+00         0.00000E+00        -0.28577E+05
 
   -0.12994E+06         0.18179E+06         0.00000E+00
    0.18179E+06        -0.10793E+05         0.00000E+00
    0.00000E+00         0.00000E+00        -0.28147E+05
 
   -0.12610E+06         0.18735E+06         0.00000E+00
    0.18735E+06        -0.12443E+05         0.00000E+00
    0.00000E+00         0.00000E+00        -0.27709E+05
 
   -0.12217E+06         0.19275E+06         0.00000E+00
    0.19275E+06        -0.14138E+05         0.00000E+00
    0.00000E+00         0.00000E+00        -0.27262E+05
 
   -0.11816E+06         0.19800E+06         0.00000E+00
    0.19800E+06        -0.15878E+05         0.00000E+00
    0.00000E+00         0.00000E+00        -0.26807E+05
 
   -0.11406E+06         0.20308E+06         0.00000E+00
    0.20308E+06        -0.17661E+05         0.00000E+00
    0.00000E+00         0.00000E+00        -0.26344E+05
 
   -0.10988E+06         0.20800E+06         0.00000E+00
    0.20800E+06        -0.19485E+05         0.00000E+00
    0.00000E+00         0.00000E+00        -0.25873E+05
 
   -0.10562E+06         0.21274E+06         0.00000E+00
    0.21274E+06        -0.21349E+05         0.00000E+00
    0.00000E+00         0.00000E+00        -0.25394E+05
 
   -0.10129E+06         0.21732E+06         0.00000E+00
    0.21732E+06        -0.23251E+05         0.00000E+00
    0.00000E+00         0.00000E+00        -0.24908E+05
 
   -0.96880E+05         0.22173E+06         0.00000E+00
    0.22173E+06        -0.25192E+05         0.00000E+00
    0.00000E+00         0.00000E+00        -0.24414E+05
 
   -0.92400E+05         0.22596E+06         0.00000E+00
    0.22596E+06        -0.27168E+05         0.00000E+00
    0.00000E+00         0.00000E+00        -0.23913E+05
 
   -0.87850E+05         0.23001E+06         0.00000E+00
    0.23001E+06        -0.29179E+05         0.00000E+00
    0.00000E+00         0.00000E+00        -0.23406E+05
 
   -0.83232E+05         0.23387E+06         0.00000E+00
    0.23387E+06        -0.31223E+05         0.00000E+00
    0.00000E+00         0.00000E+00        -0.22891E+05
 
   -0.78549E+05         0.23756E+06         0.00000E+00
    0.23756E+06        -0.33299E+05         0.00000E+00
    0.00000E+00         0.00000E+00        -0.22370E+05
 
   -0.73803E+05         0.24106E+06         0.00000E+00
    0.24106E+06        -0.35407E+05         0.00000E+00
    0.00000E+00         0.00000E+00        -0.21842E+05
 
   -0.68996E+05         0.24436E+06         0.00000E+00
    0.24436E+06        -0.37543E+05         0.00000E+00
    0.00000E+00         0.00000E+00        -0.21308E+05
 
   -0.64130E+05         0.24748E+06         0.00000E+00
    0.24748E+06        -0.39708E+05         0.00000E+00
    0.00000E+00         0.00000E+00        -0.20768E+05
 
   -0.59207E+05         0.25041E+06         0.00000E+00
    0.25041E+06        -0.41900E+05         0.00000E+00
    0.00000E+00         0.00000E+00        -0.20221E+05
 
   -0.54229E+05         0.25313E+06         0.00000E+00
    0.25313E+06        -0.44117E+05         0.00000E+00
    0.00000E+00         0.00000E+00        -0.19669E+05
 
   -0.49199E+05         0.25567E+06         0.00000E+00
    0.25567E+06        -0.46359E+05         0.00000E+00
    0.00000E+00         0.00000E+00        -0.19112E+05
 
   -0.44118E+05         0.25800E+06         0.00000E+00
    0.25800E+06        -0.48624E+05         0.00000E+00
    0.00000E+00         0.00000E+00        -0.18548E+05
 
   -0.38988E+05         0.26013E+06         0.00000E+00
    0.26013E+06        -0.50911E+05         0.00000E+00
    0.00000E+00         0.00000E+00        -0.17980E+05
 
   -0.33811E+05         0.26206E+06         0.00000E+00
    0.26206E+06        -0.53218E+05         0.00000E+00
    0.00000E+00         0.00000E+00        -0.17406E+05
 
   -0.28590E+05         0.26378E+06         0.00000E+00
    0.26378E+06        -0.55544E+05         0.00000E+00
    0.00000E+00         0.00000E+00        -0.16827E+05
 
   -0.23326E+05         0.26530E+06         0.00000E+00
    0.26530E+06        -0.57889E+05         0.00000E+00
    0.00000E+00         0.00000E+00        -0.16243E+05
 
   -0.18021E+05         0.26661E+06         0.00000E+00
    0.26661E+06        -0.60250E+05         0.00000E+00
    0.00000E+00         0.00000E+00        -0.15654E+05
 
   -0.15337E+06         0.39000E+04         0.00000E+00
    0.39000E+04         0.93204E+04         0.00000E+00
    0.00000E+00         0.00000E+00        -0.28809E+05
 
   -0.15265E+06         0.11630E+05         0.00000E+00
    0.11630E+05         0.92569E+04         0.00000E+00
    0.00000E+00         0.00000E+00        -0.28679E+05
 
   -0.15182E+06         0.19323E+05         0.00000E+00
    0.19323E+05         0.91314E+04         0.00000E+00
    0.00000E+00         0.00000E+00        -0.28538E+05
 
   -0.15088E+06         0.26974E+05         0.00000E+00
    0.26974E+05         0.89448E+04         0.00000E+00
    0.00000E+00         0.00000E+00        -0.28387E+05
 
   -0.14982E+06         0.34577E+05         0.00000E+00
    0.34577E+05         0.86978E+04         0.00000E+00
    0.00000E+00         0.00000E+00        -0.28225E+05
 
   -0.14866E+06         0.42127E+05         0.00000E+00
    0.42127E+05         0.83912E+04         0.00000E+00
    0.00000E+00         0.00000E+00        -0.28053E+05
 
   -0.14738E+06         0.49618E+05         0.00000E+00
    0.49618E+05         0.80259E+04         0.00000E+00
    0.00000E+00         0.00000E+00        -0.27871E+05
 
   -0.14600E+06         0.57046E+05         0.00000E+00
    0.57046E+05         0.76028E+04         0.00000E+00
    0.00000E+00         0.00000E+00        -0.27679E+05
 
   -0.14451E+06         0.64405E+05         0.00000E+00
    0.64405E+05         0.71228E+04         0.00000E+00
    0.00000E+00         0.00000E+00        -0.27477E+05
 
   -0.14292E+06         0.71690E+05         0.00000E+00
    0.71690E+05         0.65868E+04         0.00000E+00
    0.00000E+00         0.00000E+00        -0.27266E+05
 
   -0.14122E+06         0.78896E+05         0.00000E+00
    0.78896E+05         0.59957E+04         0.00000E+00
    0.00000E+00         0.00000E+00        -0.27045E+05
 
   -0.13942E+06         0.86019E+05         0.00000E+00
    0.86019E+05         0.53507E+04         0.00000E+00
    0.00000E+00         0.00000E+00        -0.26814E+05
 
   -0.13752E+06         0.93054E+05         0.00000E+00
    0.93054E+05         0.46526E+04         0.00000E+00
    0.00000E+00         0.00000E+00        -0.26574E+05
 
   -0.13553E+06         0.99995E+05         0.00000E+00
    0.99995E+05         0.39024E+04         0.00000E+00
    0.00000E+00         0.00000E+00        -0.26326E+05
 
   -0.13344E+06         0.10684E+06         0.00000E+00
    0.10684E+06         0.31013E+04         0.00000E+00
    0.00000E+00         0.00000E+00        -0.26068E+05
 
   -0.13126E+06         0.11358E+06         0.00000E+00
    0.11358E+06         0.22502E+04         0.00000E+00
    0.00000E+00         0.00000E+00        -0.25801E+05
 
   -0.12898E+06         0.12022E+06         0.00000E+00
    0.12022E+06         0.13502E+04         0.00000E+00
    0.00000E+00         0.00000E+00        -0.25526E+05
 
   -0.12662E+06         0.12674E+06         0.00000E+00
    0.12674E+06         0.40244E+03         0.00000E+00
    0.00000E+00         0.00000E+00        -0.25243E+05
 
   -0.12416E+06         0.13315E+06         0.00000E+00
    0.13315E+06        -0.59208E+03         0.00000E+00
    0.00000E+00         0.00000E+00        -0.24951E+05
 
   -0.12163E+06         0.13944E+06         0.00000E+00
    0.13944E+06        -0.16323E+04         0.00000E+00
    0.00000E+00         0.00000E+00        -0.24651E+05
 
   -0.11900E+06         0.14561E+06         0.00000E+00
    0.14561E+06        -0.27170E+04         0.00000E+00
    0.00000E+00         0.00000E+00        -0.24344E+05
 
   -0.11630E+06         0.15165E+06         0.00000E+00
    0.15165E+06        -0.38452E+04         0.00000E+00
    0.00000E+00         0.00000E+00        -0.24028E+05
 
   -0.11351E+06         0.15756E+06         0.00000E+00
    0.15756E+06        -0.50157E+04         0.00000E+00
    0.00000E+00         0.00000E+00        -0.23705E+05
 
   -0.11064E+06         0.16333E+06         0.00000E+00
    0.16333E+06        -0.62275E+04         0.00000E+00
    0.00000E+00         0.00000E+00        -0.23374E+05
 
   -0.10770E+06         0.16897E+06         0.00000E+00
    0.16897E+06        -0.74794E+04         0.00000E+00
    0.00000E+00         0.00000E+00        -0.23036E+05
 
   -0.10468E+06         0.17446E+06         0.00000E+00
    0.17446E+06        -0.87704E+04         0.00000E+00
    0.00000E+00         0.00000E+00        -0.22691E+05
 
   -0.10159E+06         0.17981E+06         0.00000E+00
    0.17981E+06        -0.10099E+05         0.00000E+00
    0.00000E+00         0.00000E+00        -0.22339E+05
 
   -0.98434E+05         0.18501E+06         0.00000E+00
    0.18501E+06        -0.11465E+05         0.00000E+00
    0.00000E+00         0.00000E+00        -0.21980E+05
 
   -0.95204E+05         0.19005E+06         0.00000E+00
    0.19005E+06        -0.12866E+05         0.00000E+00
    0.00000E+00         0.00000E+00        -0.21614E+05
 
   -0.91906E+05         0.19495E+06         0.00000E+00
    0.19495E+06        -0.14302E+05         0.00000E+00
    0.00000E+00         0.00000E+00        -0.21242E+05
 
   -0.88543E+05         0.19968E+06         0.00000E+00
    0.19968E+06        -0.15772E+05         0.00000E+00
    0.00000E+00         0.00000E+00        -0.20863E+05
 
   -0.85116E+05         0.20425E+06         0.00000E+00
    0.20425E+06        -0.17274E+05         0.00000E+00
    0.00000E+00         0.00000E+00        -0.20478E+05
 
   -0.81627E+05         0.20866E+06         0.00000E+00
    0.20866E+06        -0.18807E+05         0.00000E+00
    0.00000E+00         0.00000E+00        -0.20087E+05
 
   -0.78078E+05         0.21289E+06         0.00000E+00
    0.21289E+06        -0.20370E+05         0.00000E+00
    0.00000E+00         0.00000E+00        -0.19690E+05
 
   -0.74470E+05         0.21696E+06         0.00000E+00
    0.21696E+06        -0.21963E+05         0.00000E+00
    0.00000E+00         0.00000E+00        -0.19287E+05
 
   -0.70807E+05         0.22086E+06         0.00000E+00
    0.22086E+06        -0.23584E+05         0.00000E+00
    0.00000E+00         0.00000E+00        -0.18878E+05
 
   -0.67088E+05         0.22458E+06         0.00000E+00
    0.22458E+06        -0.25231E+05         0.00000E+00
    0.00000E+00         0.00000E+00        -0.18464E+05
 
   -0.63316E+05         0.22812E+06         0.00000E+00
    0.22812E+06        -0.26905E+05         0.00000E+00
    0.00000E+00         0.00000E+00        -0.18044E+05
 
   -0.59494E+05         0.23148E+06         0.00000E+00
    0.23148E+06        -0.28603E+05         0.00000E+00
    0.00000E+00         0.00000E+00        -0.17619E+05
 
   -0.55621E+05         0.23466E+06         0.00000E+00
    0.23466E+06        -0.30326E+05         0.00000E+00
    0.00000E+00         0.00000E+00        -0.17189E+05
 
   -0.51701E+05         0.23765E+06         0.00000E+00
    0.23765E+06        -0.32071E+05         0.00000E+00
    0.00000E+00         0.00000E+00        -0.16754E+05
 
   -0.47735E+05         0.24046E+06         0.00000E+00
    0.24046E+06        -0.33837E+05         0.00000E+00
    0.00000E+00         0.00000E+00        -0.16314E+05
 
   -0.43724E+05         0.24307E+06         0.00000E+00
    0.24307E+06        -0.35625E+05         0.00000E+00
    0.00000E+00         0.00000E+00        -0.15870E+05
 
   -0.39670E+05         0.24550E+06         0.00000E+00
    0.24550E+06        -0.37432E+05         0.00000E+00
    0.00000E+00         0.00000E+00        -0.15420E+05
 
   -0.35576E+05         0.24773E+06         0.00000E+00
    0.24773E+06        -0.39258E+05         0.00000E+00
    0.00000E+00         0.00000E+00        -0.14967E+05
 
   -0.31442E+05         0.24977E+06         0.00000E+00
    0.24977E+06        -0.41101E+05         0.00000E+00
    0.00000E+00         0.00000E+00        -0.14508E+05
 
   -0.27269E+05         0.25160E+06         0.00000E+00
    0.25160E+06        -0.42961E+05         0.00000E+00
    0.00000E+00         0.00000E+00        -0.14046E+05
 
   -0.23061E+05         0.25324E+06         0.00000E+00
    0.25324E+06        -0.44836E+05         0.00000E+00
    0.00000E+00         0.00000E+00        -0.13580E+05
 
   -0.18818E+05         0.25468E+06         0.00000E+00
    0.25468E+06        -0.46726E+05         0.00000E+00
    0.00000E+00         0.00000E+00        -0.13109E+05
 
   -0.14542E+05         0.25592E+06         0.00000E+00
    0.25592E+06        -0.48630E+05         0.00000E+00
    0.00000E+00         0.00000E+00        -0.12634E+05
 
   -0.11743E+06         0.37591E+04         0.00000E+00
    0.37591E+04         0.72312E+04         0.00000E+00
    0.00000E+00         0.00000E+00        -0.22041E+05
 
   -0.11688E+06         0.11215E+05         0.00000E+00
    0.11215E+05         0.71826E+04         0.00000E+00
    0.00000E+00         0.00000E+00        -0.21940E+05
 
   -0.11624E+06         0.18637E+05         0.00000E+00
    0.18637E+05         0.70866E+04         0.00000E+00
    0.00000E+00         0.00000E+00        -0.21832E+05
 
   -0.11552E+06         0.26019E+05         0.00000E+00
    0.26019E+05         0.69439E+04         0.00000E+00
    0.00000E+00         0.00000E+00        -0.21715E+05
 
   -0.11471E+06         0.33358E+05         0.00000E+00
    0.33358E+05         0.67549E+04         0.00000E+00
    0.00000E+00         0.00000E+00        -0.21590E+05
 
   -0.11381E+06         0.40647E+05         0.00000E+00
    0.40647E+05         0.65204E+04         0.00000E+00
    0.00000E+00         0.00000E+00        -0.21458E+05
 
   -0.11283E+06         0.47881E+05         0.00000E+00
    0.47881E+05         0.62410E+04         0.00000E+00
    0.00000E+00         0.00000E+00        -0.21317E+05
 
   -0.11177E+06         0.55056E+05         0.00000E+00
    0.55056E+05         0.59173E+04         0.00000E+00
    0.00000E+00         0.00000E+00        -0.21170E+05
 
   -0.11062E+06         0.62166E+05         0.00000E+00
    0.62166E+05         0.55501E+04         0.00000E+00
    0.00000E+00         0.00000E+00        -0.21014E+05
 
   -0.10940E+06         0.69207E+05         0.00000E+00
    0.69207E+05         0.51401E+04         0.00000E+00
    0.00000E+00         0.00000E+00        -0.20852E+05
 
   -0.10810E+06         0.76173E+05         0.00000E+00
    0.76173E+05         0.46880E+04         0.00000E+00
    0.00000E+00         0.00000E+00        -0.20682E+05
 
   -0.10672E+06         0.83059E+05         0.00000E+00
    0.83059E+05         0.41945E+04         0.00000E+00
    0.00000E+00         0.00000E+00        -0.20504E+05
 
   -0.10526E+06         0.89862E+05         0.00000E+00
    0.89862E+05         0.36605E+04         0.00000E+00
    0.00000E+00         0.00000E+00        -0.20320E+05
 
   -0.10373E+06         0.96577E+05         0.00000E+00
    0.96577E+05         0.30868E+04         0.00000E+00
    0.00000E+00         0.00000E+00        -0.20129E+05
 
   -0.10213E+06         0.10320E+06         0.00000E+00
    0.10320E+06         0.24740E+04         0.00000E+00
    0.00000E+00         0.00000E+00        -0.19931E+05
 
   -0.10046E+06         0.10972E+06         0.00000E+00
    0.10972E+06         0.18230E+04         0.00000E+00
    0.00000E+00         0.00000E+00        -0.19727E+05
 
   -0.98712E+05         0.11614E+06         0.00000E+00
    0.11614E+06         0.11346E+04         0.00000E+00
    0.00000E+00         0.00000E+00        -0.19516E+05
 
   -0.96900E+05         0.12246E+06         0.00000E+00
    0.12246E+06         0.40968E+03         0.00000E+00
    0.00000E+00         0.00000E+00        -0.19298E+05
 
   -0.95020E+05         0.12867E+06         0.00000E+00
    0.12867E+06        -0.35100E+03         0.00000E+00
    0.00000E+00         0.00000E+00        -0.19074E+05
 
   -0.93074E+05         0.13476E+06         0.00000E+00
    0.13476E+06        -0.11466E+04         0.00000E+00
    0.00000E+00         0.00000E+00        -0.18844E+05
 
   -0.91064E+05         0.14073E+06         0.00000E+00
    0.14073E+06        -0.19763E+04         0.00000E+00
    0.00000E+00         0.00000E+00        -0.18608E+05
 
   -0.88991E+05         0.14658E+06         0.00000E+00
    0.14658E+06        -0.28392E+04         0.00000E+00
    0.00000E+00         0.00000E+00        -0.18366E+05
 
   -0.86857E+05         0.15231E+06         0.00000E+00
    0.15231E+06        -0.37345E+04         0.00000E+00
    0.00000E+00         0.00000E+00        -0.18118E+05
 
   -0.84662E+05         0.15790E+06         0.00000E+00
    0.15790E+06        -0.46613E+04         0.00000E+00
    0.00000E+00         0.00000E+00        -0.17865E+05
 
   -0.82409E+05         0.16336E+06         0.00000E+00
    0.16336E+06        -0.56188E+04         0.00000E+00
    0.00000E+00         0.00000E+00        -0.17606E+05
 
   -0.80098E+05         0.16869E+06         0.00000E+00
    0.16869E+06        -0.66062E+04         0.00000E+00
    0.00000E+00         0.00000E+00        -0.17341E+05
 
   -0.77732E+05         0.17387E+06         0.00000E+00
    0.17387E+06        -0.76226E+04         0.00000E+00
    0.00000E+00         0.00000E+00        -0.17071E+05
 
   -0.75312E+05         0.17891E+06         0.00000E+00
    0.17891E+06        -0.86672E+04         0.00000E+00
    0.00000E+00         0.00000E+00        -0.16796E+05
 
   -0.72838E+05         0.18380E+06         0.00000E+00
    0.18380E+06        -0.97390E+04         0.00000E+00
    0.00000E+00         0.00000E+00        -0.16515E+05
 
   -0.70313E+05         0.18854E+06         0.00000E+00
    0.18854E+06        -0.10837E+05         0.00000E+00
    0.00000E+00         0.00000E+00        -0.16230E+05
 
   -0.67738E+05         0.19313E+06         0.00000E+00
    0.19313E+06        -0.11961E+05         0.00000E+00
    0.00000E+00         0.00000E+00        -0.15940E+05
 
   -0.65115E+05         0.19756E+06         0.00000E+00
    0.19756E+06        -0.13110E+05         0.00000E+00
    0.00000E+00         0.00000E+00        -0.15645E+05
 
   -0.62444E+05         0.20183E+06         0.00000E+00
    0.20183E+06        -0.14283E+05         0.00000E+00
    0.00000E+00         0.00000E+00        -0.15345E+05
 
   -0.59727E+05         0.20594E+06         0.00000E+00
    0.20594E+06        -0.15479E+05         0.00000E+00
    0.00000E+00         0.00000E+00        -0.15041E+05
 
   -0.56966E+05         0.20988E+06         0.00000E+00
    0.20988E+06        -0.16697E+05         0.00000E+00
    0.00000E+00         0.00000E+00        -0.14733E+05
 
   -0.54161E+05         0.21365E+06         0.00000E+00
    0.21365E+06        -0.17937E+05         0.00000E+00
    0.00000E+00         0.00000E+00        -0.14420E+05
 
   -0.51315E+05         0.21726E+06         0.00000E+00
    0.21726E+06        -0.19197E+05         0.00000E+00
    0.00000E+00         0.00000E+00        -0.14102E+05
 
   -0.48428E+05         0.22069E+06         0.00000E+00
    0.22069E+06        -0.20477E+05         0.00000E+00
    0.00000E+00         0.00000E+00        -0.13781E+05
 
   -0.45502E+05         0.22394E+06         0.00000E+00
    0.22394E+06        -0.21776E+05         0.00000E+00
    0.00000E+00         0.00000E+00        -0.13456E+05
 
   -0.42538E+05         0.22702E+06         0.00000E+00
    0.22702E+06        -0.23094E+05         0.00000E+00
    0.00000E+00         0.00000E+00        -0.13126E+05
 
   -0.39538E+05         0.22991E+06         0.00000E+00
    0.22991E+06        -0.24429E+05         0.00000E+00
    0.00000E+00         0.00000E+00        -0.12793E+05
 
   -0.36503E+05         0.23262E+06         0.00000E+00
    0.23262E+06        -0.25780E+05         0.00000E+00
    0.00000E+00         0.00000E+00        -0.12457E+05
 
   -0.33433E+05         0.23515E+06         0.00000E+00
    0.23515E+06        -0.27148E+05         0.00000E+00
    0.00000E+00         0.00000E+00        -0.12116E+05
 
   -0.30331E+05         0.23749E+06         0.00000E+00
    0.23749E+06        -0.28530E+05         0.00000E+00
    0.00000E+00         0.00000E+00        -0.11772E+05
 
   -0.27197E+05         0.23964E+06         0.00000E+00
    0.23964E+06        -0.29927E+05         0.00000E+00
    0.00000E+00         0.00000E+00        -0.11425E+05
 
   -0.24033E+05         0.24160E+06         0.00000E+00
    0.24160E+06        -0.31338E+05         0.00000E+00
    0.00000E+00         0.00000E+00        -0.11074E+05
 
   -0.20840E+05         0.24337E+06         0.00000E+00
    0.24337E+06        -0.32761E+05         0.00000E+00
    0.00000E+00         0.00000E+00        -0.10720E+05
 
   -0.17619E+05         0.24494E+06         0.00000E+00
    0.24494E+06        -0.34196E+05         0.00000E+00
    0.00000E+00         0.00000E+00        -0.10363E+05
 
   -0.14372E+05         0.24632E+06         0.00000E+00
    0.24632E+06        -0.35642E+05         0.00000E+00
    0.00000E+00         0.00000E+00        -0.10003E+05
 
   -0.11100E+05         0.24749E+06         0.00000E+00
    0.24749E+06        -0.37099E+05         0.00000E+00
    0.00000E+00         0.00000E+00        -0.96398E+04
 
   -0.82487E+05         0.36551E+04         0.00000E+00
    0.36551E+04         0.53574E+04         0.00000E+00
    0.00000E+00         0.00000E+00        -0.15426E+05
 
   -0.82085E+05         0.10908E+05         0.00000E+00
    0.10908E+05         0.53232E+04         0.00000E+00
    0.00000E+00         0.00000E+00        -0.15352E+05
 
   -0.81621E+05         0.18130E+05         0.00000E+00
    0.18130E+05         0.52558E+04         0.00000E+00
    0.00000E+00         0.00000E+00        -0.15273E+05
 
   -0.81096E+05         0.25315E+05         0.00000E+00
    0.25315E+05         0.51555E+04         0.00000E+00
    0.00000E+00         0.00000E+00        -0.15188E+05
 
   -0.80511E+05         0.32459E+05         0.00000E+00
    0.32459E+05         0.50229E+04         0.00000E+00
    0.00000E+00         0.00000E+00        -0.15098E+05
 
   -0.79867E+05         0.39555E+05         0.00000E+00
    0.39555E+05         0.48582E+04         0.00000E+00
    0.00000E+00         0.00000E+00        -0.15002E+05
 
   -0.79165E+05         0.46601E+05         0.00000E+00
    0.46601E+05         0.46621E+04         0.00000E+00
    0.00000E+00         0.00000E+00        -0.14901E+05
 
   -0.78406E+05         0.53589E+05         0.00000E+00
    0.53589E+05         0.44350E+04         0.00000E+00
    0.00000E+00         0.00000E+00        -0.14794E+05
 
   -0.77589E+05         0.60516E+05         0.00000E+00
    0.60516E+05         0.41775E+04         0.00000E+00
    0.00000E+00         0.00000E+00        -0.14682E+05
 
   -0.76718E+05         0.67376E+05         0.00000E+00
    0.67376E+05         0.38900E+04         0.00000E+00
    0.00000E+00         0.00000E+00        -0.14566E+05
 
   -0.75791E+05         0.74165E+05         0.00000E+00
    0.74165E+05         0.35730E+04         0.00000E+00
    0.00000E+00         0.00000E+00        -0.14444E+05
 
   -0.74811E+05         0.80878E+05         0.00000E+00
    0.80878E+05         0.32271E+04         0.00000E+00
    0.00000E+00         0.00000E+00        -0.14317E+05
 
   -0.73779E+05         0.87510E+05         0.00000E+00
    0.87510E+05         0.28529E+04         0.00000E+00
    0.00000E+00         0.00000E+00        -0.14185E+05
 
   -0.72695E+05         0.94057E+05         0.00000E+00
    0.94057E+05         0.24509E+04         0.00000E+00
    0.00000E+00         0.00000E+00        -0.14049E+05
 
   -0.71560E+05         0.10051E+06         0.00000E+00
    0.10051E+06         0.20217E+04         0.00000E+00
    0.00000E+00         0.00000E+00        -0.13908E+05
 
   -0.70375E+05         0.10688E+06         0.00000E+00
    0.10688E+06         0.15658E+04         0.00000E+00
    0.00000E+00         0.00000E+00        -0.13762E+05
 
   -0.69142E+05         0.11314E+06         0.00000E+00
    0.11314E+06         0.10838E+04         0.00000E+00
    0.00000E+00         0.00000E+00        -0.13612E+05
 
   -0.67861E+05         0.11931E+06         0.00000E+00
    0.11931E+06         0.57630E+03         0.00000E+00
    0.00000E+00         0.00000E+00        -0.13457E+05
 
   -0.66533E+05         0.12536E+06         0.00000E+00
    0.12536E+06         0.43896E+02         0.00000E+00
    0.00000E+00         0.00000E+00        -0.13298E+05
 
   -0.65160E+05         0.13131E+06         0.00000E+00
    0.13131E+06        -0.51283E+03         0.00000E+00
    0.00000E+00         0.00000E+00        -0.13135E+05
 
   -0.63743E+05         0.13714E+06         0.00000E+00
    0.13714E+06        -0.10933E+04         0.00000E+00
    0.00000E+00         0.00000E+00        -0.12967E+05
 
   -0.62282E+05         0.14285E+06         0.00000E+00
    0.14285E+06        -0.16969E+04         0.00000E+00
    0.00000E+00         0.00000E+00        -0.12796E+05
 
   -0.60778E+05         0.14844E+06         0.00000E+00
    0.14844E+06        -0.23231E+04         0.00000E+00
    0.00000E+00         0.00000E+00        -0.12620E+05
 
   -0.59233E+05         0.15390E+06         0.00000E+00
    0.15390E+06        -0.29712E+04         0.00000E+00
    0.00000E+00         0.00000E+00        -0.12441E+05
 
   -0.57647E+05         0.15923E+06         0.00000E+00
    0.15923E+06        -0.36406E+04         0.00000E+00
    0.00000E+00         0.00000E+00        -0.12258E+05
 
   -0.56022E+05         0.16443E+06         0.00000E+00
    0.16443E+06        -0.43309E+04         0.00000E+00
    0.00000E+00         0.00000E+00        -0.12071E+05
 
   -0.54358E+05         0.16950E+06         0.00000E+00
    0.16950E+06        -0.50413E+04         0.00000E+00
    0.00000E+00         0.00000E+00        -0.11880E+05
 
   -0.52657E+05         0.17442E+06         0.00000E+00
    0.17442E+06        -0.57713E+04         0.00000E+00
    0.00000E+00         0.00000E+00        -0.11686E+05
 
   -0.50920E+05         0.17919E+06         0.00000E+00
    0.17919E+06        -0.65202E+04         0.00000E+00
    0.00000E+00         0.00000E+00        -0.11488E+05
 
   -0.49147E+05         0.18383E+06         0.00000E+00
    0.18383E+06        -0.72876E+04         0.00000E+00
    0.00000E+00         0.00000E+00        -0.11287E+05
 
   -0.47339E+05         0.18831E+06         0.00000E+00
    0.18831E+06        -0.80729E+04         0.00000E+00
    0.00000E+00         0.00000E+00        -0.11082E+05
 
   -0.45498E+05         0.19263E+06         0.00000E+00
    0.19263E+06        -0.88753E+04         0.00000E+00
    0.00000E+00         0.00000E+00        -0.10875E+05
 
   -0.43624E+05         0.19680E+06         0.00000E+00
    0.19680E+06        -0.96945E+04         0.00000E+00
    0.00000E+00         0.00000E+00        -0.10664E+05
 
   -0.41719E+05         0.20082E+06         0.00000E+00
    0.20082E+06        -0.10530E+05         0.00000E+00
    0.00000E+00         0.00000E+00        -0.10450E+05
 
   -0.39783E+05         0.20466E+06         0.00000E+00
    0.20466E+06        -0.11381E+05         0.00000E+00
    0.00000E+00         0.00000E+00        -0.10233E+05
 
   -0.37818E+05         0.20835E+06         0.00000E+00
    0.20835E+06        -0.12246E+05         0.00000E+00
    0.00000E+00         0.00000E+00        -0.10013E+05
 
   -0.35824E+05         0.21187E+06         0.00000E+00
    0.21187E+06        -0.13126E+05         0.00000E+00
    0.00000E+00         0.00000E+00        -0.97900E+04
 
   -0.33801E+05         0.21521E+06         0.00000E+00
    0.21521E+06        -0.14020E+05         0.00000E+00
    0.00000E+00         0.00000E+00        -0.95644E+04
 
   -0.31752E+05         0.21839E+06         0.00000E+00
    0.21839E+06        -0.14928E+05         0.00000E+00
    0.00000E+00         0.00000E+00        -0.93360E+04
 
   -0.29677E+05         0.22139E+06         0.00000E+00
    0.22139E+06        -0.15848E+05         0.00000E+00
    0.00000E+00         0.00000E+00        -0.91050E+04
 
   -0.27577E+05         0.22421E+06         0.00000E+00
    0.22421E+06        -0.16780E+05         0.00000E+00
    0.00000E+00         0.00000E+00        -0.88714E+04
 
   -0.25452E+05         0.22685E+06         0.00000E+00
    0.22685E+06        -0.17724E+05         0.00000E+00
    0.00000E+00         0.00000E+00        -0.86352E+04
 
   -0.23304E+05         0.22931E+06         0.00000E+00
    0.22931E+06        -0.18679E+05         0.00000E+00
    0.00000E+00         0.00000E+00        -0.83967E+04
 
   -0.21134E+05         0.23159E+06         0.00000E+00
    0.23159E+06        -0.19645E+05         0.00000E+00
    0.00000E+00         0.00000E+00        -0.81557E+04
 
   -0.18941E+05         0.23368E+06         0.00000E+00
    0.23368E+06        -0.20621E+05         0.00000E+00
    0.00000E+00         0.00000E+00        -0.79124E+04
 
   -0.16728E+05         0.23559E+06         0.00000E+00
    0.23559E+06        -0.21606E+05         0.00000E+00
    0.00000E+00         0.00000E+00        -0.76668E+04
 
   -0.14495E+05         0.23730E+06         0.00000E+00
    0.23730E+06        -0.22600E+05         0.00000E+00
    0.00000E+00         0.00000E+00        -0.74191E+04
 
   -0.12243E+05         0.23882E+06         0.00000E+00
    0.23882E+06        -0.23603E+05         0.00000E+00
    0.00000E+00         0.00000E+00        -0.71692E+04
 
   -0.99723E+04         0.24016E+06         0.00000E+00
    0.24016E+06        -0.24614E+05         0.00000E+00
    0.00000E+00         0.00000E+00        -0.69172E+04
 
   -0.76841E+04         0.24129E+06         0.00000E+00
    0.24129E+06        -0.25632E+05         0.00000E+00
    0.00000E+00         0.00000E+00        -0.66633E+04
 
   -0.48222E+05         0.35869E+04         0.00000E+00
    0.35869E+04         0.36431E+04         0.00000E+00
    0.00000E+00         0.00000E+00        -0.89158E+04
 
   -0.47959E+05         0.10707E+05         0.00000E+00
    0.10707E+05         0.36231E+04         0.00000E+00
    0.00000E+00         0.00000E+00        -0.88671E+04
 
   -0.47660E+05         0.17798E+05         0.00000E+00
    0.17798E+05         0.35835E+04         0.00000E+00
    0.00000E+00         0.00000E+00        -0.88152E+04
 
   -0.47325E+05         0.24854E+05         0.00000E+00
    0.24854E+05         0.35248E+04         0.00000E+00
    0.00000E+00         0.00000E+00        -0.87601E+04
 
   -0.46957E+05         0.31871E+05         0.00000E+00
    0.31871E+05         0.34472E+04         0.00000E+00
    0.00000E+00         0.00000E+00        -0.87019E+04
 
   -0.46554E+05         0.38842E+05         0.00000E+00
    0.38842E+05         0.33509E+04         0.00000E+00
    0.00000E+00         0.00000E+00        -0.86406E+04
 
   -0.46118E+05         0.45764E+05         0.00000E+00
    0.45764E+05         0.32364E+04         0.00000E+00
    0.00000E+00         0.00000E+00        -0.85762E+04
 
   -0.45648E+05         0.52631E+05         0.00000E+00
    0.52631E+05         0.31039E+04         0.00000E+00
    0.00000E+00         0.00000E+00        -0.85089E+04
 
   -0.45147E+05         0.59439E+05         0.00000E+00
    0.59439E+05         0.29537E+04         0.00000E+00
    0.00000E+00         0.00000E+00        -0.84387E+04
 
   -0.44614E+05         0.66182E+05         0.00000E+00
    0.66182E+05         0.27863E+04         0.00000E+00
    0.00000E+00         0.00000E+00        -0.83656E+04
 
   -0.44050E+05         0.72856E+05         0.00000E+00
    0.72856E+05         0.26018E+04         0.00000E+00
    0.00000E+00         0.00000E+00        -0.82897E+04
 
   -0.43456E+05         0.79456E+05         0.00000E+00
    0.79456E+05         0.24006E+04         0.00000E+00
    0.00000E+00         0.00000E+00        -0.82110E+04
 
   -0.42832E+05         0.85978E+05         0.00000E+00
    0.85978E+05         0.21832E+04         0.00000E+00
    0.00000E+00         0.00000E+00        -0.81297E+04
 
   -0.42178E+05         0.92417E+05         0.00000E+00
    0.92417E+05         0.19498E+04         0.00000E+00
    0.00000E+00         0.00000E+00        -0.80457E+04
 
   -0.41496E+05         0.98769E+05         0.00000E+00
    0.98769E+05         0.17008E+04         0.00000E+00
    0.00000E+00         0.00000E+00        -0.79591E+04
 
   -0.40787E+05         0.10503E+06         0.00000E+00
    0.10503E+06         0.14365E+04         0.00000E+00
    0.00000E+00         0.00000E+00        -0.78700E+04
 
   -0.40049E+05         0.11119E+06         0.00000E+00
    0.11119E+06         0.11573E+04         0.00000E+00
    0.00000E+00         0.00000E+00        -0.77784E+04
 
   -0.39286E+05         0.11726E+06         0.00000E+00
    0.11726E+06         0.86355E+03         0.00000E+00
    0.00000E+00         0.00000E+00        -0.76844E+04
 
   -0.38496E+05         0.12322E+06         0.00000E+00
    0.12322E+06         0.55561E+03         0.00000E+00
    0.00000E+00         0.00000E+00        -0.75880E+04
 
   -0.37681E+05         0.12907E+06         0.00000E+00
    0.12907E+06         0.23383E+03         0.00000E+00
    0.00000E+00         0.00000E+00        -0.74894E+04
 
   -0.36841E+05         0.13481E+06         0.00000E+00
    0.13481E+06        -0.10145E+03         0.00000E+00
    0.00000E+00         0.00000E+00        -0.73884E+04
 
   -0.35976E+05         0.14043E+06         0.00000E+00
    0.14043E+06        -0.44985E+03         0.00000E+00
    0.00000E+00         0.00000E+00        -0.72853E+04
 
   -0.35089E+05         0.14593E+06         0.00000E+00
    0.14593E+06        -0.81104E+03         0.00000E+00
    0.00000E+00         0.00000E+00        -0.71800E+04
 
   -0.34178E+05         0.15131E+06         0.00000E+00
    0.15131E+06        -0.11847E+04         0.00000E+00
    0.00000E+00         0.00000E+00        -0.70726E+04
 
   -0.33245E+05         0.15656E+06         0.00000E+00
    0.15656E+06        -0.15704E+04         0.00000E+00
    0.00000E+00         0.00000E+00        -0.69631E+04
 
   -0.32290E+05         0.16168E+06         0.00000E+00
    0.16168E+06        -0.19678E+04         0.00000E+00
    0.00000E+00         0.00000E+00        -0.68517E+04
 
   -0.31315E+05         0.16666E+06         0.00000E+00
    0.16666E+06        -0.23766E+04         0.00000E+00
    0.00000E+00         0.00000E+00        -0.67383E+04
 
   -0.30318E+05         0.17151E+06         0.00000E+00
    0.17151E+06        -0.27965E+04         0.00000E+00
    0.00000E+00         0.00000E+00        -0.66230E+04
 
   -0.29302E+05         0.17621E+06         0.00000E+00
    0.17621E+06        -0.32271E+04         0.00000E+00
    0.00000E+00         0.00000E+00        -0.65058E+04
 
   -0.28266E+05         0.18077E+06         0.00000E+00
    0.18077E+06        -0.36681E+04         0.00000E+00
    0.00000E+00         0.00000E+00        -0.63869E+04
 
   -0.27212E+05         0.18518E+06         0.00000E+00
    0.18518E+06        -0.41191E+04         0.00000E+00
    0.00000E+00         0.00000E+00        -0.62662E+04
 
   -0.26139E+05         0.18944E+06         0.00000E+00
    0.18944E+06        -0.45799E+04         0.00000E+00
    0.00000E+00         0.00000E+00        -0.61437E+04
 
   -0.25048E+05         0.19355E+06         0.00000E+00
    0.19355E+06        -0.50501E+04         0.00000E+00
    0.00000E+00         0.00000E+00        -0.60197E+04
 
   -0.23940E+05         0.19750E+06         0.00000E+00
    0.19750E+06        -0.55294E+04         0.00000E+00
    0.00000E+00         0.00000E+00        -0.58940E+04
 
   -0.22816E+05         0.20129E+06         0.00000E+00
    0.20129E+06        -0.60175E+04         0.00000E+00
    0.00000E+00         0.00000E+00        -0.57667E+04
 
   -0.21675E+05         0.20492E+06         0.00000E+00
    0.20492E+06        -0.65141E+04         0.00000E+00
    0.00000E+00         0.00000E+00        -0.56379E+04
 
   -0.20519E+05         0.20838E+06         0.00000E+00
    0.20838E+06        -0.70188E+04         0.00000E+00
    0.00000E+00         0.00000E+00        -0.55076E+04
 
   -0.19348E+05         0.21167E+06         0.00000E+00
    0.21167E+06        -0.75315E+04         0.00000E+00
    0.00000E+00         0.00000E+00        -0.53759E+04
 
   -0.18162E+05         0.21480E+06         0.00000E+00
    0.21480E+06        -0.80517E+04         0.00000E+00
    0.00000E+00         0.00000E+00        -0.52427E+04
 
   -0.16962E+05         0.21775E+06         0.00000E+00
    0.21775E+06        -0.85792E+04         0.00000E+00
    0.00000E+00         0.00000E+00        -0.51082E+04
 
   -0.15748E+05         0.22052E+06         0.00000E+00
    0.22052E+06        -0.91138E+04         0.00000E+00
    0.00000E+00         0.00000E+00        -0.49724E+04
 
   -0.14521E+05         0.22312E+06         0.00000E+00
    0.22312E+06        -0.96550E+04         0.00000E+00
    0.00000E+00         0.00000E+00        -0.48352E+04
 
   -0.13281E+05         0.22554E+06         0.00000E+00
    0.22554E+06        -0.10203E+05         0.00000E+00
    0.00000E+00         0.00000E+00        -0.46968E+04
 
   -0.12029E+05         0.22778E+06         0.00000E+00
    0.22778E+06        -0.10757E+05         0.00000E+00
    0.00000E+00         0.00000E+00        -0.45572E+04
 
   -0.10765E+05         0.22983E+06         0.00000E+00
    0.22983E+06        -0.11317E+05         0.00000E+00
    0.00000E+00         0.00000E+00        -0.44164E+04
 
   -0.94901E+04         0.23169E+06         0.00000E+00
    0.23169E+06        -0.11882E+05         0.00000E+00
    0.00000E+00         0.00000E+00        -0.42744E+04
 
   -0.82037E+04         0.23337E+06         0.00000E+00
    0.23337E+06        -0.12453E+05         0.00000E+00
    0.00000E+00         0.00000E+00        -0.41313E+04
 
   -0.69069E+04         0.23486E+06         0.00000E+00
    0.23486E+06        -0.13029E+05         0.00000E+00
    0.00000E+00         0.00000E+00        -0.39871E+04
 
   -0.55998E+04         0.23616E+06         0.00000E+00
    0.23616E+06        -0.13610E+05         0.00000E+00
    0.00000E+00         0.00000E+00        -0.38419E+04
 
   -0.42830E+04         0.23727E+06         0.00000E+00
    0.23727E+06        -0.14195E+05         0.00000E+00
    0.00000E+00         0.00000E+00        -0.36956E+04
 
   -0.14343E+05         0.35539E+04         0.00000E+00
    0.35539E+04         0.20374E+04         0.00000E+00
    0.00000E+00         0.00000E+00        -0.24611E+04
 
   -0.14211E+05         0.10610E+05         0.00000E+00
    0.10610E+05         0.20312E+04         0.00000E+00
    0.00000E+00         0.00000E+00        -0.24360E+04
 
   -0.14070E+05         0.17639E+05         0.00000E+00
    0.17639E+05         0.20192E+04         0.00000E+00
    0.00000E+00         0.00000E+00        -0.24101E+04
 
   -0.13919E+05         0.24633E+05         0.00000E+00
    0.24633E+05         0.20014E+04         0.00000E+00
    0.00000E+00         0.00000E+00        -0.23835E+04
 
   -0.13759E+05         0.31589E+05         0.00000E+00
    0.31589E+05         0.19781E+04         0.00000E+00
    0.00000E+00         0.00000E+00        -0.23561E+04
 
   -0.13589E+05         0.38501E+05         0.00000E+00
    0.38501E+05         0.19494E+04         0.00000E+00
    0.00000E+00         0.00000E+00        -0.23280E+04
 
   -0.13411E+05         0.45365E+05         0.00000E+00
    0.45365E+05         0.19155E+04         0.00000E+00
    0.00000E+00         0.00000E+00        -0.22991E+04
 
   -0.13225E+05         0.52175E+05         0.00000E+00
    0.52175E+05         0.18764E+04         0.00000E+00
    0.00000E+00         0.00000E+00        -0.22696E+04
 
   -0.13030E+05         0.58926E+05         0.00000E+00
    0.58926E+05         0.18323E+04         0.00000E+00
    0.00000E+00         0.00000E+00        -0.22395E+04
 
   -0.12827E+05         0.65615E+05         0.00000E+00
    0.65615E+05         0.17835E+04         0.00000E+00
    0.00000E+00         0.00000E+00        -0.22088E+04
 
   -0.12617E+05         0.72235E+05         0.00000E+00
    0.72235E+05         0.17300E+04         0.00000E+00
    0.00000E+00         0.00000E+00        -0.21774E+04
 
   -0.12400E+05         0.78783E+05         0.00000E+00
    0.78783E+05         0.16720E+04         0.00000E+00
    0.00000E+00         0.00000E+00        -0.21455E+04
 
   -0.12175E+05         0.85254E+05         0.00000E+00
    0.85254E+05         0.16096E+04         0.00000E+00
    0.00000E+00         0.00000E+00        -0.21131E+04
 
   -0.11944E+05         0.91643E+05         0.00000E+00
    0.91643E+05         0.15430E+04         0.00000E+00
    0.00000E+00         0.00000E+00        -0.20802E+04
 
   -0.11706E+05         0.97947E+05         0.00000E+00
    0.97947E+05         0.14724E+04         0.00000E+00
    0.00000E+00         0.00000E+00        -0.20468E+04
 
   -0.11462E+05         0.10416E+06         0.00000E+00
    0.10416E+06         0.13978E+04         0.00000E+00
    0.00000E+00         0.00000E+00        -0.20129E+04
 
   -0.11213E+05         0.11028E+06         0.00000E+00
    0.11028E+06         0.13194E+04         0.00000E+00
    0.00000E+00         0.00000E+00        -0.19786E+04
 
   -0.10957E+05         0.11630E+06         0.00000E+00
    0.11630E+06         0.12374E+04         0.00000E+00
    0.00000E+00         0.00000E+00        -0.19439E+04
 
   -0.10696E+05         0.12221E+06         0.00000E+00
    0.12221E+06         0.11518E+04         0.00000E+00
    0.00000E+00         0.00000E+00        -0.19088E+04
 
   -0.10430E+05         0.12802E+06         0.00000E+00
    0.12802E+06         0.10629E+04         0.00000E+00
    0.00000E+00         0.00000E+00        -0.18734E+04
 
   -0.10158E+05         0.13372E+06         0.00000E+00
    0.13372E+06         0.97066E+03         0.00000E+00
    0.00000E+00         0.00000E+00        -0.18376E+04
 
   -0.98825E+04         0.13930E+06         0.00000E+00
    0.13930E+06         0.87527E+03         0.00000E+00
    0.00000E+00         0.00000E+00        -0.18014E+04
 
   -0.96021E+04         0.14476E+06         0.00000E+00
    0.14476E+06         0.77685E+03         0.00000E+00
    0.00000E+00         0.00000E+00        -0.17650E+04
 
   -0.93173E+04         0.15010E+06         0.00000E+00
    0.15010E+06         0.67550E+03         0.00000E+00
    0.00000E+00         0.00000E+00        -0.17284E+04
 
   -0.90284E+04         0.15532E+06         0.00000E+00
    0.15532E+06         0.57132E+03         0.00000E+00
    0.00000E+00         0.00000E+00        -0.16914E+04
 
   -0.87356E+04         0.16040E+06         0.00000E+00
    0.16040E+06         0.46443E+03         0.00000E+00
    0.00000E+00         0.00000E+00        -0.16542E+04
 
   -0.84391E+04         0.16535E+06         0.00000E+00
    0.16535E+06         0.35491E+03         0.00000E+00
    0.00000E+00         0.00000E+00        -0.16168E+04
 
   -0.81390E+04         0.17016E+06         0.00000E+00
    0.17016E+06         0.24286E+03         0.00000E+00
    0.00000E+00         0.00000E+00        -0.15792E+04
 
   -0.78355E+04         0.17483E+06         0.00000E+00
    0.17483E+06         0.12835E+03         0.00000E+00
    0.00000E+00         0.00000E+00        -0.15414E+04
 
   -0.75289E+04         0.17936E+06         0.00000E+00
    0.17936E+06         0.11483E+02         0.00000E+00
    0.00000E+00         0.00000E+00        -0.15035E+04
 
   -0.72192E+04         0.18374E+06         0.00000E+00
    0.18374E+06        -0.10768E+03         0.00000E+00
    0.00000E+00         0.00000E+00        -0.14654E+04
 
   -0.69065E+04         0.18798E+06         0.00000E+00
    0.18798E+06        -0.22907E+03         0.00000E+00
    0.00000E+00         0.00000E+00        -0.14271E+04
 
   -0.65910E+04         0.19205E+06         0.00000E+00
    0.19205E+06        -0.35261E+03         0.00000E+00
    0.00000E+00         0.00000E+00        -0.13887E+04
 
   -0.62729E+04         0.19598E+06         0.00000E+00
    0.19598E+06        -0.47826E+03         0.00000E+00
    0.00000E+00         0.00000E+00        -0.13502E+04
 
   -0.59522E+04         0.19974E+06         0.00000E+00
    0.19974E+06        -0.60596E+03         0.00000E+00
    0.00000E+00         0.00000E+00        -0.13116E+04
 
   -0.56291E+04         0.20334E+06         0.00000E+00
    0.20334E+06        -0.73565E+03         0.00000E+00
    0.00000E+00         0.00000E+00        -0.12729E+04
 
   -0.53035E+04         0.20678E+06         0.00000E+00
    0.20678E+06        -0.86731E+03         0.00000E+00
    0.00000E+00         0.00000E+00        -0.12342E+04
 
   -0.49757E+04         0.21005E+06         0.00000E+00
    0.21005E+06        -0.10009E+04         0.00000E+00
    0.00000E+00         0.00000E+00        -0.11953E+04
 
   -0.46457E+04         0.21315E+06         0.00000E+00
    0.21315E+06        -0.11363E+04         0.00000E+00
    0.00000E+00         0.00000E+00        -0.11564E+04
 
   -0.43136E+04         0.21607E+06         0.00000E+00
    0.21607E+06        -0.12737E+04         0.00000E+00
    0.00000E+00         0.00000E+00        -0.11174E+04
 
   -0.39793E+04         0.21883E+06         0.00000E+00
    0.21883E+06        -0.14128E+04         0.00000E+00
    0.00000E+00         0.00000E+00        -0.10784E+04
 
   -0.36431E+04         0.22141E+06         0.00000E+00
    0.22141E+06        -0.15538E+04         0.00000E+00
    0.00000E+00         0.00000E+00        -0.10394E+04
 
   -0.33048E+04         0.22380E+06         0.00000E+00
    0.22380E+06        -0.16966E+04         0.00000E+00
    0.00000E+00         0.00000E+00        -0.10003E+04
 
   -0.29645E+04         0.22602E+06         0.00000E+00
    0.22602E+06        -0.18412E+04         0.00000E+00
    0.00000E+00         0.00000E+00        -0.96114E+03
 
   -0.26223E+04         0.22805E+06         0.00000E+00
    0.22805E+06        -0.19875E+04         0.00000E+00
    0.00000E+00         0.00000E+00        -0.92198E+03
 
   -0.22782E+04         0.22990E+06         0.00000E+00
    0.22990E+06        -0.21357E+04         0.00000E+00
    0.00000E+00         0.00000E+00        -0.88279E+03
 
   -0.19322E+04         0.23156E+06         0.00000E+00
    0.23156E+06        -0.22857E+04         0.00000E+00
    0.00000E+00         0.00000E+00        -0.84357E+03
 
   -0.15842E+04         0.23304E+06         0.00000E+00
    0.23304E+06        -0.24374E+04         0.00000E+00
    0.00000E+00         0.00000E+00        -0.80433E+03
 
   -0.12343E+04         0.23432E+06         0.00000E+00
    0.23432E+06        -0.25910E+04         0.00000E+00
    0.00000E+00         0.00000E+00        -0.76506E+03
 
   -0.88252E+03         0.23541E+06         0.00000E+00
    0.23541E+06        -0.27464E+04         0.00000E+00
    0.00000E+00         0.00000E+00        -0.72578E+03
 
    0.19447E+05         0.35556E+04         0.00000E+00
    0.35556E+04         0.49239E+03         0.00000E+00
    0.00000E+00         0.00000E+00         0.39879E+04
 
    0.19450E+05         0.10617E+05         0.00000E+00
    0.10617E+05         0.50003E+03         0.00000E+00
    0.00000E+00         0.00000E+00         0.39901E+04
 
    0.19438E+05         0.17650E+05         0.00000E+00
    0.17650E+05         0.51538E+03         0.00000E+00
    0.00000E+00         0.00000E+00         0.39906E+04
 
    0.19409E+05         0.24649E+05         0.00000E+00
    0.24649E+05         0.53846E+03         0.00000E+00
    0.00000E+00         0.00000E+00         0.39895E+04
 
    0.19365E+05         0.31611E+05         0.00000E+00
    0.31611E+05         0.56928E+03         0.00000E+00
    0.00000E+00         0.00000E+00         0.39868E+04
 
    0.19304E+05         0.38529E+05         0.00000E+00
    0.38529E+05         0.60784E+03         0.00000E+00
    0.00000E+00         0.00000E+00         0.39825E+04
 
    0.19228E+05         0.45399E+05         0.00000E+00
    0.45399E+05         0.65414E+03         0.00000E+00
    0.00000E+00         0.00000E+00         0.39765E+04
 
    0.19136E+05         0.52216E+05         0.00000E+00
    0.52216E+05         0.70818E+03         0.00000E+00
    0.00000E+00         0.00000E+00         0.39688E+04
 
    0.19028E+05         0.58974E+05         0.00000E+00
    0.58974E+05         0.76994E+03         0.00000E+00
    0.00000E+00         0.00000E+00         0.39596E+04
 
    0.18904E+05         0.65670E+05         0.00000E+00
    0.65670E+05         0.83940E+03         0.00000E+00
    0.00000E+00         0.00000E+00         0.39486E+04
 
    0.18764E+05         0.72298E+05         0.00000E+00
    0.72298E+05         0.91652E+03         0.00000E+00
    0.00000E+00         0.00000E+00         0.39361E+04
 
    0.18608E+05         0.78854E+05         0.00000E+00
    0.78854E+05         0.10013E+04         0.00000E+00
    0.00000E+00         0.00000E+00         0.39219E+04
 
    0.18436E+05         0.85333E+05         0.00000E+00
    0.85333E+05         0.10936E+04         0.00000E+00
    0.00000E+00         0.00000E+00         0.39060E+04
 
    0.18249E+05         0.91731E+05         0.00000E+00
    0.91731E+05         0.11935E+04         0.00000E+00
    0.00000E+00         0.00000E+00         0.38885E+04
 
    0.18046E+05         0.98043E+05         0.00000E+00
    0.98043E+05         0.13008E+04         0.00000E+00
    0.00000E+00         0.00000E+00         0.38694E+04
 
    0.17828E+05         0.10426E+06         0.00000E+00
    0.10426E+06         0.14156E+04         0.00000E+00
    0.00000E+00         0.00000E+00         0.38486E+04
 
    0.17594E+05         0.11039E+06         0.00000E+00
    0.11039E+06         0.15377E+04         0.00000E+00
    0.00000E+00         0.00000E+00         0.38263E+04
 
    0.17344E+05         0.11642E+06         0.00000E+00
    0.11642E+06         0.16670E+04         0.00000E+00
    0.00000E+00         0.00000E+00         0.38023E+04
 
    0.17080E+05         0.12234E+06         0.00000E+00
    0.12234E+06         0.18036E+04         0.00000E+00
    0.00000E+00         0.00000E+00         0.37767E+04
 
    0.16800E+05         0.12816E+06         0.00000E+00
    0.12816E+06         0.19471E+04         0.00000E+00
    0.00000E+00         0.00000E+00         0.37495E+04
 
    0.16506E+05         0.13387E+06         0.00000E+00
    0.13387E+06         0.20977E+04         0.00000E+00
    0.00000E+00         0.00000E+00         0.37206E+04
 
    0.16196E+05         0.13946E+06         0.00000E+00
    0.13946E+06         0.22551E+04         0.00000E+00
    0.00000E+00         0.00000E+00         0.36902E+04
 
    0.15872E+05         0.14493E+06         0.00000E+00
    0.14493E+06         0.24192E+04         0.00000E+00
    0.00000E+00         0.00000E+00         0.36583E+04
 
    0.15534E+05         0.15028E+06         0.00000E+00
    0.15028E+06         0.25899E+04         0.00000E+00
    0.00000E+00         0.00000E+00         0.36247E+04
 
    0.15181E+05         0.15550E+06         0.00000E+00
    0.15550E+06         0.27671E+04         0.00000E+00
    0.00000E+00         0.00000E+00         0.35896E+04
 
    0.14814E+05         0.16059E+06         0.00000E+00
    0.16059E+06         0.29507E+04         0.00000E+00
    0.00000E+00         0.00000E+00         0.35530E+04
 
    0.14434E+05         0.16555E+06         0.00000E+00
    0.16555E+06         0.31404E+04         0.00000E+00
    0.00000E+00         0.00000E+00         0.35148E+04
 
    0.14040E+05         0.17037E+06         0.00000E+00
    0.17037E+06         0.33361E+04         0.00000E+00
    0.00000E+00         0.00000E+00         0.34752E+04
 
    0.13632E+05         0.17506E+06         0.00000E+00
    0.17506E+06         0.35377E+04         0.00000E+00
    0.00000E+00         0.00000E+00         0.34340E+04
 
    0.13212E+05         0.17959E+06         0.00000E+00
    0.17959E+06         0.37449E+04         0.00000E+00
    0.00000E+00         0.00000E+00         0.33913E+04
 
    0.12778E+05         0.18398E+06         0.00000E+00
    0.18398E+06         0.39577E+04         0.00000E+00
    0.00000E+00         0.00000E+00         0.33472E+04
 
    0.12332E+05         0.18822E+06         0.00000E+00
    0.18822E+06         0.41758E+04         0.00000E+00
    0.00000E+00         0.00000E+00         0.33017E+04
 
    0.11874E+05         0.19231E+06         0.00000E+00
    0.19231E+06         0.43990E+04         0.00000E+00
    0.00000E+00         0.00000E+00         0.32547E+04
 
    0.11404E+05         0.19623E+06         0.00000E+00
    0.19623E+06         0.46272E+04         0.00000E+00
    0.00000E+00         0.00000E+00         0.32063E+04
 
    0.10922E+05         0.20000E+06         0.00000E+00
    0.20000E+06         0.48600E+04         0.00000E+00
    0.00000E+00         0.00000E+00         0.31565E+04
 
    0.10429E+05         0.20361E+06         0.00000E+00
    0.20361E+06         0.50974E+04         0.00000E+00
    0.00000E+00         0.00000E+00         0.31053E+04
 
    0.99248E+04         0.20705E+06         0.00000E+00
    0.20705E+06         0.53391E+04         0.00000E+00
    0.00000E+00         0.00000E+00         0.30528E+04
 
    0.94099E+04         0.21033E+06         0.00000E+00
    0.21033E+06         0.55848E+04         0.00000E+00
    0.00000E+00         0.00000E+00         0.29989E+04
 
    0.88846E+04         0.21343E+06         0.00000E+00
    0.21343E+06         0.58344E+04         0.00000E+00
    0.00000E+00         0.00000E+00         0.29438E+04
 
    0.83494E+04         0.21637E+06         0.00000E+00
    0.21637E+06         0.60876E+04         0.00000E+00
    0.00000E+00         0.00000E+00         0.28874E+04
 
    0.78045E+04         0.21912E+06         0.00000E+00
    0.21912E+06         0.63441E+04         0.00000E+00
    0.00000E+00         0.00000E+00         0.28297E+04
 
    0.72504E+04         0.22170E+06         0.00000E+00
    0.22170E+06         0.66037E+04         0.00000E+00
    0.00000E+00         0.00000E+00         0.27708E+04
 
    0.66874E+04         0.22410E+06         0.00000E+00
    0.22410E+06         0.68662E+04         0.00000E+00
    0.00000E+00         0.00000E+00         0.27107E+04
 
    0.61160E+04         0.22632E+06         0.00000E+00
    0.22632E+06         0.71312E+04         0.00000E+00
    0.00000E+00         0.00000E+00         0.26494E+04
 
    0.55365E+04         0.22836E+06         0.00000E+00
    0.22836E+06         0.73986E+04         0.00000E+00
    0.00000E+00         0.00000E+00         0.25870E+04
 
    0.49494E+04         0.23020E+06         0.00000E+00
    0.23020E+06         0.76681E+04         0.00000E+00
    0.00000E+00         0.00000E+00         0.25235E+04
 
    0.43550E+04         0.23187E+06         0.00000E+00
    0.23187E+06         0.79393E+04         0.00000E+00
    0.00000E+00         0.00000E+00         0.24589E+04
 
    0.37539E+04         0.23334E+06         0.00000E+00
    0.23334E+06         0.82120E+04         0.00000E+00
    0.00000E+00         0.00000E+00         0.23932E+04
 
    0.31463E+04         0.23462E+06         0.00000E+00
    0.23462E+06         0.84860E+04         0.00000E+00
    0.00000E+00         0.00000E+00         0.23265E+04
 
    0.25328E+04         0.23571E+06         0.00000E+00
    0.23571E+06         0.87609E+04         0.00000E+00
    0.00000E+00         0.00000E+00         0.22588E+04
 
    0.53444E+05         0.35920E+04         0.00000E+00
    0.35920E+04        -0.10379E+04         0.00000E+00
    0.00000E+00         0.00000E+00         0.10481E+05
 
    0.53319E+05         0.10726E+05         0.00000E+00
    0.10726E+05        -0.10163E+04         0.00000E+00
    0.00000E+00         0.00000E+00         0.10461E+05
 
    0.53153E+05         0.17831E+05         0.00000E+00
    0.17831E+05        -0.97347E+03         0.00000E+00
    0.00000E+00         0.00000E+00         0.10436E+05
 
    0.52946E+05         0.24903E+05         0.00000E+00
    0.24903E+05        -0.90935E+03         0.00000E+00
    0.00000E+00         0.00000E+00         0.10407E+05
 
    0.52697E+05         0.31936E+05         0.00000E+00
    0.31936E+05        -0.82412E+03         0.00000E+00
    0.00000E+00         0.00000E+00         0.10374E+05
 
    0.52407E+05         0.38926E+05         0.00000E+00
    0.38926E+05        -0.71791E+03         0.00000E+00
    0.00000E+00         0.00000E+00         0.10338E+05
 
    0.52076E+05         0.45867E+05         0.00000E+00
    0.45867E+05        -0.59088E+03         0.00000E+00
    0.00000E+00         0.00000E+00         0.10297E+05
 
    0.51704E+05         0.52755E+05         0.00000E+00
    0.52755E+05        -0.44318E+03         0.00000E+00
    0.00000E+00         0.00000E+00         0.10252E+05
 
    0.51293E+05         0.59583E+05         0.00000E+00
    0.59583E+05        -0.27501E+03         0.00000E+00
    0.00000E+00         0.00000E+00         0.10204E+05
 
    0.50841E+05         0.66349E+05         0.00000E+00
    0.66349E+05        -0.86559E+02         0.00000E+00
    0.00000E+00         0.00000E+00         0.10151E+05
 
    0.50350E+05         0.73046E+05         0.00000E+00
    0.73046E+05         0.12197E+03         0.00000E+00
    0.00000E+00         0.00000E+00         0.10094E+05
 
    0.49820E+05         0.79670E+05         0.00000E+00
    0.79670E+05         0.35035E+03         0.00000E+00
    0.00000E+00         0.00000E+00         0.10034E+05
 
    0.49251E+05         0.86217E+05         0.00000E+00
    0.86217E+05         0.59835E+03         0.00000E+00
    0.00000E+00         0.00000E+00         0.99699E+04
 
    0.48644E+05         0.92681E+05         0.00000E+00
    0.92681E+05         0.86572E+03         0.00000E+00
    0.00000E+00         0.00000E+00         0.99019E+04
 
    0.47999E+05         0.99059E+05         0.00000E+00
    0.99059E+05         0.11522E+04         0.00000E+00
    0.00000E+00         0.00000E+00         0.98302E+04
 
    0.47316E+05         0.10535E+06         0.00000E+00
    0.10535E+06         0.14575E+04         0.00000E+00
    0.00000E+00         0.00000E+00         0.97547E+04
 
    0.46596E+05         0.11154E+06         0.00000E+00
    0.11154E+06         0.17814E+04         0.00000E+00
    0.00000E+00         0.00000E+00         0.96755E+04
 
    0.45840E+05         0.11763E+06         0.00000E+00
    0.11763E+06         0.21235E+04         0.00000E+00
    0.00000E+00         0.00000E+00         0.95926E+04
 
    0.45047E+05         0.12361E+06         0.00000E+00
    0.12361E+06         0.24836E+04         0.00000E+00
    0.00000E+00         0.00000E+00         0.95061E+04
 
    0.44219E+05         0.12949E+06         0.00000E+00
    0.12949E+06         0.28612E+04         0.00000E+00
    0.00000E+00         0.00000E+00         0.94160E+04
 
    0.43356E+05         0.13526E+06         0.00000E+00
    0.13526E+06         0.32562E+04         0.00000E+00
    0.00000E+00         0.00000E+00         0.93224E+04
 
    0.42458E+05         0.14091E+06         0.00000E+00
    0.14091E+06         0.36681E+04         0.00000E+00
    0.00000E+00         0.00000E+00         0.92252E+04
 
    0.41526E+05         0.14644E+06         0.00000E+00
    0.14644E+06         0.40966E+04         0.00000E+00
    0.00000E+00         0.00000E+00         0.91246E+04
 
    0.40561E+05         0.15184E+06         0.00000E+00
    0.15184E+06         0.45413E+04         0.00000E+00
    0.00000E+00         0.00000E+00         0.90205E+04
 
    0.39564E+05         0.15712E+06         0.00000E+00
    0.15712E+06         0.50018E+04         0.00000E+00
    0.00000E+00         0.00000E+00         0.89131E+04
 
    0.38534E+05         0.16227E+06         0.00000E+00
    0.16227E+06         0.54778E+04         0.00000E+00
    0.00000E+00         0.00000E+00         0.88023E+04
 
    0.37472E+05         0.16728E+06         0.00000E+00
    0.16728E+06         0.59689E+04         0.00000E+00
    0.00000E+00         0.00000E+00         0.86882E+04
 
    0.36380E+05         0.17215E+06         0.00000E+00
    0.17215E+06         0.64746E+04         0.00000E+00
    0.00000E+00         0.00000E+00         0.85709E+04
 
    0.35257E+05         0.17688E+06         0.00000E+00
    0.17688E+06         0.69946E+04         0.00000E+00
    0.00000E+00         0.00000E+00         0.84503E+04
 
    0.34105E+05         0.18147E+06         0.00000E+00
    0.18147E+06         0.75284E+04         0.00000E+00
    0.00000E+00         0.00000E+00         0.83267E+04
 
    0.32924E+05         0.18590E+06         0.00000E+00
    0.18590E+06         0.80755E+04         0.00000E+00
    0.00000E+00         0.00000E+00         0.81999E+04
 
    0.31714E+05         0.19019E+06         0.00000E+00
    0.19019E+06         0.86356E+04         0.00000E+00
    0.00000E+00         0.00000E+00         0.80700E+04
 
    0.30478E+05         0.19431E+06         0.00000E+00
    0.19431E+06         0.92081E+04         0.00000E+00
    0.00000E+00         0.00000E+00         0.79371E+04
 
    0.29214E+05         0.19828E+06         0.00000E+00
    0.19828E+06         0.97927E+04         0.00000E+00
    0.00000E+00         0.00000E+00         0.78013E+04
 
    0.27924E+05         0.20209E+06         0.00000E+00
    0.20209E+06         0.10389E+05         0.00000E+00
    0.00000E+00         0.00000E+00         0.76626E+04
 
    0.26609E+05         0.20574E+06         0.00000E+00
    0.20574E+06         0.10996E+05         0.00000E+00
    0.00000E+00         0.00000E+00         0.75210E+04
 
    0.25270E+05         0.20922E+06         0.00000E+00
    0.20922E+06         0.11614E+05         0.00000E+00
    0.00000E+00         0.00000E+00         0.73767E+04
 
    0.23906E+05         0.21253E+06         0.00000E+00
    0.21253E+06         0.12242E+05         0.00000E+00
    0.00000E+00         0.00000E+00         0.72296E+04
 
    0.22520E+05         0.21566E+06         0.00000E+00
    0.21566E+06         0.12879E+05         0.00000E+00
    0.00000E+00         0.00000E+00         0.70798E+04
 
    0.21111E+05         0.21863E+06         0.00000E+00
    0.21863E+06         0.13526E+05         0.00000E+00
    0.00000E+00         0.00000E+00         0.69274E+04
 
    0.19681E+05         0.22141E+06         0.00000E+00
    0.22141E+06         0.14181E+05         0.00000E+00
    0.00000E+00         0.00000E+00         0.67724E+04
 
    0.18230E+05         0.22402E+06         0.00000E+00
    0.22402E+06         0.14844E+05         0.00000E+00
    0.00000E+00         0.00000E+00         0.66148E+04
 
    0.16759E+05         0.22644E+06         0.00000E+00
    0.22644E+06         0.15515E+05         0.00000E+00
    0.00000E+00         0.00000E+00         0.64549E+04
 
    0.15270E+05         0.22869E+06         0.00000E+00
    0.22869E+06         0.16193E+05         0.00000E+00
    0.00000E+00         0.00000E+00         0.62925E+04
 
    0.13762E+05         0.23074E+06         0.00000E+00
    0.23074E+06         0.16877E+05         0.00000E+00
    0.00000E+00         0.00000E+00         0.61278E+04
 
    0.12236E+05         0.23261E+06         0.00000E+00
    0.23261E+06         0.17568E+05         0.00000E+00
    0.00000E+00         0.00000E+00         0.59608E+04
 
    0.10695E+05         0.23429E+06         0.00000E+00
    0.23429E+06         0.18263E+05         0.00000E+00
    0.00000E+00         0.00000E+00         0.57916E+04
 
    0.91374E+04         0.23578E+06         0.00000E+00
    0.23578E+06         0.18964E+05         0.00000E+00
    0.00000E+00         0.00000E+00         0.56202E+04
 
    0.75653E+04         0.23707E+06         0.00000E+00
    0.23707E+06         0.19668E+05         0.00000E+00
    0.00000E+00         0.00000E+00         0.54467E+04
 
    0.59793E+04         0.23817E+06         0.00000E+00
    0.23817E+06         0.20377E+05         0.00000E+00
    0.00000E+00         0.00000E+00         0.52712E+04
 
    0.87946E+05         0.36636E+04         0.00000E+00
    0.36636E+04        -0.25990E+04         0.00000E+00
    0.00000E+00         0.00000E+00         0.17069E+05
 
    0.87691E+05         0.10939E+05         0.00000E+00
    0.10939E+05        -0.25633E+04         0.00000E+00
    0.00000E+00         0.00000E+00         0.17026E+05
 
    0.87369E+05         0.18185E+05         0.00000E+00
    0.18185E+05        -0.24925E+04         0.00000E+00
    0.00000E+00         0.00000E+00         0.16975E+05
 
    0.86979E+05         0.25397E+05         0.00000E+00
    0.25397E+05        -0.23868E+04         0.00000E+00
    0.00000E+00         0.00000E+00         0.16919E+05
 
    0.86522E+05         0.32569E+05         0.00000E+00
    0.32569E+05        -0.22463E+04         0.00000E+00
    0.00000E+00         0.00000E+00         0.16855E+05
 
    0.85999E+05         0.39696E+05         0.00000E+00
    0.39696E+05        -0.20714E+04         0.00000E+00
    0.00000E+00         0.00000E+00         0.16785E+05
 
    0.85409E+05         0.46774E+05         0.00000E+00
    0.46774E+05        -0.18625E+04         0.00000E+00
    0.00000E+00         0.00000E+00         0.16709E+05
 
    0.84754E+05         0.53797E+05         0.00000E+00
    0.53797E+05        -0.16197E+04         0.00000E+00
    0.00000E+00         0.00000E+00         0.16627E+05
 
    0.84034E+05         0.60759E+05         0.00000E+00
    0.60759E+05        -0.13436E+04         0.00000E+00
    0.00000E+00         0.00000E+00         0.16538E+05
 
    0.83250E+05         0.67657E+05         0.00000E+00
    0.67657E+05        -0.10344E+04         0.00000E+00
    0.00000E+00         0.00000E+00         0.16443E+05
 
    0.82403E+05         0.74485E+05         0.00000E+00
    0.74485E+05        -0.69250E+03         0.00000E+00
    0.00000E+00         0.00000E+00         0.16342E+05
 
    0.81492E+05         0.81239E+05         0.00000E+00
    0.81239E+05        -0.31837E+03         0.00000E+00
    0.00000E+00         0.00000E+00         0.16235E+05
 
    0.80520E+05         0.87913E+05         0.00000E+00
    0.87913E+05         0.87586E+02         0.00000E+00
    0.00000E+00         0.00000E+00         0.16122E+05
 
    0.79486E+05         0.94503E+05         0.00000E+00
    0.94503E+05         0.52492E+03         0.00000E+00
    0.00000E+00         0.00000E+00         0.16002E+05
 
    0.78392E+05         0.10100E+06         0.00000E+00
    0.10100E+06         0.99316E+03         0.00000E+00
    0.00000E+00         0.00000E+00         0.15877E+05
 
    0.77237E+05         0.10741E+06         0.00000E+00
    0.10741E+06         0.14918E+04         0.00000E+00
    0.00000E+00         0.00000E+00         0.15746E+05
 
    0.76024E+05         0.11372E+06         0.00000E+00
    0.11372E+06         0.20204E+04         0.00000E+00
    0.00000E+00         0.00000E+00         0.15609E+05
 
    0.74753E+05         0.11993E+06         0.00000E+00
    0.11993E+06         0.25784E+04         0.00000E+00
    0.00000E+00         0.00000E+00         0.15466E+05
 
    0.73424E+05         0.12604E+06         0.00000E+00
    0.12604E+06         0.31653E+04         0.00000E+00
    0.00000E+00         0.00000E+00         0.15318E+05
 
    0.72039E+05         0.13203E+06         0.00000E+00
    0.13203E+06         0.37805E+04         0.00000E+00
    0.00000E+00         0.00000E+00         0.15164E+05
 
    0.70599E+05         0.13791E+06         0.00000E+00
    0.13791E+06         0.44234E+04         0.00000E+00
    0.00000E+00         0.00000E+00         0.15004E+05
 
    0.69104E+05         0.14367E+06         0.00000E+00
    0.14367E+06         0.50936E+04         0.00000E+00
    0.00000E+00         0.00000E+00         0.14839E+05
 
    0.67555E+05         0.14930E+06         0.00000E+00
    0.14930E+06         0.57903E+04         0.00000E+00
    0.00000E+00         0.00000E+00         0.14669E+05
 
    0.65954E+05         0.15481E+06         0.00000E+00
    0.15481E+06         0.65130E+04         0.00000E+00
    0.00000E+00         0.00000E+00         0.14493E+05
 
    0.64302E+05         0.16019E+06         0.00000E+00
    0.16019E+06         0.72610E+04         0.00000E+00
    0.00000E+00         0.00000E+00         0.14313E+05
 
    0.62599E+05         0.16544E+06         0.00000E+00
    0.16544E+06         0.80337E+04         0.00000E+00
    0.00000E+00         0.00000E+00         0.14126E+05
 
    0.60846E+05         0.17054E+06         0.00000E+00
    0.17054E+06         0.88305E+04         0.00000E+00
    0.00000E+00         0.00000E+00         0.13935E+05
 
    0.59045E+05         0.17551E+06         0.00000E+00
    0.17551E+06         0.96508E+04         0.00000E+00
    0.00000E+00         0.00000E+00         0.13739E+05
 
    0.57197E+05         0.18033E+06         0.00000E+00
    0.18033E+06         0.10494E+05         0.00000E+00
    0.00000E+00         0.00000E+00         0.13538E+05
 
    0.55302E+05         0.18500E+06         0.00000E+00
    0.18500E+06         0.11359E+05         0.00000E+00
    0.00000E+00         0.00000E+00         0.13332E+05
 
    0.53362E+05         0.18952E+06         0.00000E+00
    0.18952E+06         0.12245E+05         0.00000E+00
    0.00000E+00         0.00000E+00         0.13121E+05
 
    0.51378E+05         0.19389E+06         0.00000E+00
    0.19389E+06         0.13152E+05         0.00000E+00
    0.00000E+00         0.00000E+00         0.12906E+05
 
    0.49351E+05         0.19810E+06         0.00000E+00
    0.19810E+06         0.14079E+05         0.00000E+00
    0.00000E+00         0.00000E+00         0.12686E+05
 
    0.47282E+05         0.20214E+06         0.00000E+00
    0.20214E+06         0.15025E+05         0.00000E+00
    0.00000E+00         0.00000E+00         0.12461E+05
 
    0.45172E+05         0.20603E+06         0.00000E+00
    0.20603E+06         0.15990E+05         0.00000E+00
    0.00000E+00         0.00000E+00         0.12232E+05
 
    0.43023E+05         0.20974E+06         0.00000E+00
    0.20974E+06         0.16972E+05         0.00000E+00
    0.00000E+00         0.00000E+00         0.11999E+05
 
    0.40836E+05         0.21329E+06         0.00000E+00
    0.21329E+06         0.17972E+05         0.00000E+00
    0.00000E+00         0.00000E+00         0.11762E+05
 
    0.38612E+05         0.21666E+06         0.00000E+00
    0.21666E+06         0.18987E+05         0.00000E+00
    0.00000E+00         0.00000E+00         0.11520E+05
 
    0.36351E+05         0.21986E+06         0.00000E+00
    0.21986E+06         0.20018E+05         0.00000E+00
    0.00000E+00         0.00000E+00         0.11274E+05
 
    0.34056E+05         0.22288E+06         0.00000E+00
    0.22288E+06         0.21064E+05         0.00000E+00
    0.00000E+00         0.00000E+00         0.11024E+05
 
    0.31728E+05         0.22572E+06         0.00000E+00
    0.22572E+06         0.22124E+05         0.00000E+00
    0.00000E+00         0.00000E+00         0.10770E+05
 
    0.29367E+05         0.22838E+06         0.00000E+00
    0.22838E+06         0.23197E+05         0.00000E+00
    0.00000E+00         0.00000E+00         0.10513E+05
 
    0.26976E+05         0.23085E+06         0.00000E+00
    0.23085E+06         0.24282E+05         0.00000E+00
    0.00000E+00         0.00000E+00         0.10251E+05
 
    0.24554E+05         0.23314E+06         0.00000E+00
    0.23314E+06         0.25378E+05         0.00000E+00
    0.00000E+00         0.00000E+00         0.99865E+04
 
    0.22104E+05         0.23524E+06         0.00000E+00
    0.23524E+06         0.26485E+05         0.00000E+00
    0.00000E+00         0.00000E+00         0.97180E+04
 
    0.19627E+05         0.23714E+06         0.00000E+00
    0.23714E+06         0.27603E+05         0.00000E+00
    0.00000E+00         0.00000E+00         0.94460E+04
 
    0.17125E+05         0.23885E+06         0.00000E+00
    0.23885E+06         0.28729E+05         0.00000E+00
    0.00000E+00         0.00000E+00         0.91707E+04
 
    0.14597E+05         0.24037E+06         0.00000E+00
    0.24037E+06         0.29863E+05         0.00000E+00
    0.00000E+00         0.00000E+00         0.88921E+04
 
    0.12047E+05         0.24169E+06         0.00000E+00
    0.24169E+06         0.31005E+05         0.00000E+00
    0.00000E+00         0.00000E+00         0.86103E+04
 
    0.94739E+04         0.24282E+06         0.00000E+00
    0.24282E+06         0.32153E+05         0.00000E+00
    0.00000E+00         0.00000E+00         0.83254E+04
 
    0.12326E+06         0.37710E+04         0.00000E+00
    0.37710E+04        -0.42373E+04         0.00000E+00
    0.00000E+00         0.00000E+00         0.23804E+05
 
    0.12287E+06         0.11258E+05         0.00000E+00
    0.11258E+05        -0.41873E+04         0.00000E+00
    0.00000E+00         0.00000E+00         0.23736E+05
 
    0.12238E+06         0.18715E+05         0.00000E+00
    0.18715E+05        -0.40878E+04         0.00000E+00
    0.00000E+00         0.00000E+00         0.23659E+05
 
    0.12180E+06         0.26135E+05         0.00000E+00
    0.26135E+05        -0.39394E+04         0.00000E+00
    0.00000E+00         0.00000E+00         0.23573E+05
 
    0.12113E+06         0.33514E+05         0.00000E+00
    0.33514E+05        -0.37424E+04         0.00000E+00
    0.00000E+00         0.00000E+00         0.23478E+05
 
    0.12037E+06         0.40847E+05         0.00000E+00
    0.40847E+05        -0.34973E+04         0.00000E+00
    0.00000E+00         0.00000E+00         0.23374E+05
 
    0.11951E+06         0.48128E+05         0.00000E+00
    0.48128E+05        -0.32044E+04         0.00000E+00
    0.00000E+00         0.00000E+00         0.23261E+05
 
    0.11856E+06         0.55352E+05         0.00000E+00
    0.55352E+05        -0.28644E+04         0.00000E+00
    0.00000E+00         0.00000E+00         0.23140E+05
 
    0.11753E+06         0.62513E+05         0.00000E+00
    0.62513E+05        -0.24777E+04         0.00000E+00
    0.00000E+00         0.00000E+00         0.23010E+05
 
    0.11640E+06         0.69608E+05         0.00000E+00
    0.69608E+05        -0.20449E+04         0.00000E+00
    0.00000E+00         0.00000E+00         0.22871E+05
 
    0.11518E+06         0.76630E+05         0.00000E+00
    0.76630E+05        -0.15666E+04         0.00000E+00
    0.00000E+00         0.00000E+00         0.22724E+05
 
    0.11388E+06         0.83575E+05         0.00000E+00
    0.83575E+05        -0.10433E+04         0.00000E+00
    0.00000E+00         0.00000E+00         0.22568E+05
 
    0.11250E+06         0.90438E+05         0.00000E+00
    0.90438E+05        -0.47575E+03         0.00000E+00
    0.00000E+00         0.00000E+00         0.22404E+05
 
    0.11102E+06         0.97214E+05         0.00000E+00
    0.97214E+05         0.13546E+03         0.00000E+00
    0.00000E+00         0.00000E+00         0.22232E+05
 
    0.10947E+06         0.10390E+06         0.00000E+00
    0.10390E+06         0.78962E+03         0.00000E+00
    0.00000E+00         0.00000E+00         0.22052E+05
 
    0.10783E+06         0.11049E+06         0.00000E+00
    0.11049E+06         0.14861E+04         0.00000E+00
    0.00000E+00         0.00000E+00         0.21863E+05
 
    0.10611E+06         0.11698E+06         0.00000E+00
    0.11698E+06         0.22240E+04         0.00000E+00
    0.00000E+00         0.00000E+00         0.21667E+05
 
    0.10431E+06         0.12336E+06         0.00000E+00
    0.12336E+06         0.30028E+04         0.00000E+00
    0.00000E+00         0.00000E+00         0.21463E+05
 
    0.10243E+06         0.12963E+06         0.00000E+00
    0.12963E+06         0.38216E+04         0.00000E+00
    0.00000E+00         0.00000E+00         0.21251E+05
 
    0.10048E+06         0.13579E+06         0.00000E+00
    0.13579E+06         0.46796E+04         0.00000E+00
    0.00000E+00         0.00000E+00         0.21031E+05
 
    0.98444E+05         0.14183E+06         0.00000E+00
    0.14183E+06         0.55761E+04         0.00000E+00
    0.00000E+00         0.00000E+00         0.20804E+05
 
    0.96337E+05         0.14775E+06         0.00000E+00
    0.14775E+06         0.65102E+04         0.00000E+00
    0.00000E+00         0.00000E+00         0.20570E+05
 
    0.94157E+05         0.15354E+06         0.00000E+00
    0.15354E+06         0.74810E+04         0.00000E+00
    0.00000E+00         0.00000E+00         0.20328E+05
 
    0.91904E+05         0.15921E+06         0.00000E+00
    0.15921E+06         0.84878E+04         0.00000E+00
    0.00000E+00         0.00000E+00         0.20078E+05
 
    0.89581E+05         0.16473E+06         0.00000E+00
    0.16473E+06         0.95296E+04         0.00000E+00
    0.00000E+00         0.00000E+00         0.19822E+05
 
    0.87189E+05         0.17012E+06         0.00000E+00
    0.17012E+06         0.10606E+05         0.00000E+00
    0.00000E+00         0.00000E+00         0.19559E+05
 
    0.84728E+05         0.17537E+06         0.00000E+00
    0.17537E+06         0.11715E+05         0.00000E+00
    0.00000E+00         0.00000E+00         0.19289E+05
 
    0.82202E+05         0.18048E+06         0.00000E+00
    0.18048E+06         0.12856E+05         0.00000E+00
    0.00000E+00         0.00000E+00         0.19012E+05
 
    0.79610E+05         0.18543E+06         0.00000E+00
    0.18543E+06         0.14029E+05         0.00000E+00
    0.00000E+00         0.00000E+00         0.18728E+05
 
    0.76956E+05         0.19023E+06         0.00000E+00
    0.19023E+06         0.15233E+05         0.00000E+00
    0.00000E+00         0.00000E+00         0.18438E+05
 
    0.74239E+05         0.19488E+06         0.00000E+00
    0.19488E+06         0.16466E+05         0.00000E+00
    0.00000E+00         0.00000E+00         0.18141E+05
 
    0.71463E+05         0.19936E+06         0.00000E+00
    0.19936E+06         0.17727E+05         0.00000E+00
    0.00000E+00         0.00000E+00         0.17838E+05
 
    0.68627E+05         0.20369E+06         0.00000E+00
    0.20369E+06         0.19016E+05         0.00000E+00
    0.00000E+00         0.00000E+00         0.17529E+05
 
    0.65735E+05         0.20785E+06         0.00000E+00
    0.20785E+06         0.20331E+05         0.00000E+00
    0.00000E+00         0.00000E+00         0.17213E+05
 
    0.62787E+05         0.21184E+06         0.00000E+00
    0.21184E+06         0.21673E+05         0.00000E+00
    0.00000E+00         0.00000E+00         0.16892E+05
 
    0.59785E+05         0.21566E+06         0.00000E+00
    0.21566E+06         0.23038E+05         0.00000E+00
    0.00000E+00         0.00000E+00         0.16565E+05
 
    0.56731E+05         0.21930E+06         0.00000E+00
    0.21930E+06         0.24427E+05         0.00000E+00
    0.00000E+00         0.00000E+00         0.16232E+05
 
    0.53627E+05         0.22277E+06         0.00000E+00
    0.22277E+06         0.25839E+05         0.00000E+00
    0.00000E+00         0.00000E+00         0.15893E+05
 
    0.50473E+05         0.22606E+06         0.00000E+00
    0.22606E+06         0.27272E+05         0.00000E+00
    0.00000E+00         0.00000E+00         0.15549E+05
 
    0.47272E+05         0.22917E+06         0.00000E+00
    0.22917E+06         0.28725E+05         0.00000E+00
    0.00000E+00         0.00000E+00         0.15199E+05
 
    0.44026E+05         0.23209E+06         0.00000E+00
    0.23209E+06         0.30198E+05         0.00000E+00
    0.00000E+00         0.00000E+00         0.14845E+05
 
    0.40735E+05         0.23482E+06         0.00000E+00
    0.23482E+06         0.31689E+05         0.00000E+00
    0.00000E+00         0.00000E+00         0.14485E+05
 
    0.37403E+05         0.23736E+06         0.00000E+00
    0.23736E+06         0.33197E+05         0.00000E+00
    0.00000E+00         0.00000E+00         0.14120E+05
 
    0.34029E+05         0.23972E+06         0.00000E+00
    0.23972E+06         0.34721E+05         0.00000E+00
    0.00000E+00         0.00000E+00         0.13750E+05
 
    0.30617E+05         0.24188E+06         0.00000E+00
    0.24188E+06         0.36260E+05         0.00000E+00
    0.00000E+00         0.00000E+00         0.13375E+05
 
    0.27168E+05         0.24384E+06         0.00000E+00
    0.24384E+06         0.37813E+05         0.00000E+00
    0.00000E+00         0.00000E+00         0.12996E+05
 
    0.23683E+05         0.24560E+06         0.00000E+00
    0.24560E+06         0.39379E+05         0.00000E+00
    0.00000E+00         0.00000E+00         0.12612E+05
 
    0.20164E+05         0.24717E+06         0.00000E+00
    0.24717E+06         0.40957E+05         0.00000E+00
    0.00000E+00         0.00000E+00         0.12224E+05
 
    0.16614E+05         0.24853E+06         0.00000E+00
    0.24853E+06         0.42545E+05         0.00000E+00
    0.00000E+00         0.00000E+00         0.11832E+05
 
    0.13033E+05         0.24969E+06         0.00000E+00
    0.24969E+06         0.44143E+05         0.00000E+00
    0.00000E+00         0.00000E+00         0.11435E+05
 
    0.15968E+06         0.39153E+04         0.00000E+00
    0.39153E+04        -0.60018E+04         0.00000E+00
    0.00000E+00         0.00000E+00         0.30736E+05
 
    0.15915E+06         0.11686E+05         0.00000E+00
    0.11686E+05        -0.59368E+04         0.00000E+00
    0.00000E+00         0.00000E+00         0.30643E+05
 
    0.15849E+06         0.19425E+05         0.00000E+00
    0.19425E+05        -0.58078E+04         0.00000E+00
    0.00000E+00         0.00000E+00         0.30537E+05
 
    0.15772E+06         0.27125E+05         0.00000E+00
    0.27125E+05        -0.56153E+04         0.00000E+00
    0.00000E+00         0.00000E+00         0.30420E+05
 
    0.15682E+06         0.34782E+05         0.00000E+00
    0.34782E+05        -0.53599E+04         0.00000E+00
    0.00000E+00         0.00000E+00         0.30292E+05
 
    0.15580E+06         0.42389E+05         0.00000E+00
    0.42389E+05        -0.50421E+04         0.00000E+00
    0.00000E+00         0.00000E+00         0.30152E+05
 
    0.15467E+06         0.49941E+05         0.00000E+00
    0.49941E+05        -0.46627E+04         0.00000E+00
    0.00000E+00         0.00000E+00         0.30001E+05
 
    0.15341E+06         0.57434E+05         0.00000E+00
    0.57434E+05        -0.42222E+04         0.00000E+00
    0.00000E+00         0.00000E+00         0.29838E+05
 
    0.15204E+06         0.64861E+05         0.00000E+00
    0.64861E+05        -0.37215E+04         0.00000E+00
    0.00000E+00         0.00000E+00         0.29665E+05
 
    0.15056E+06         0.72218E+05         0.00000E+00
    0.72218E+05        -0.31612E+04         0.00000E+00
    0.00000E+00         0.00000E+00         0.29480E+05
 
    0.14896E+06         0.79499E+05         0.00000E+00
    0.79499E+05        -0.25421E+04         0.00000E+00
    0.00000E+00         0.00000E+00         0.29285E+05
 
    0.14726E+06         0.86699E+05         0.00000E+00
    0.86699E+05        -0.18650E+04         0.00000E+00
    0.00000E+00         0.00000E+00         0.29078E+05
 
    0.14544E+06         0.93813E+05         0.00000E+00
    0.93813E+05        -0.11308E+04         0.00000E+00
    0.00000E+00         0.00000E+00         0.28861E+05
 
    0.14351E+06         0.10084E+06         0.00000E+00
    0.10084E+06        -0.34033E+03         0.00000E+00
    0.00000E+00         0.00000E+00         0.28634E+05
 
    0.14148E+06         0.10777E+06         0.00000E+00
    0.10777E+06         0.50548E+03         0.00000E+00
    0.00000E+00         0.00000E+00         0.28396E+05
 
    0.13934E+06         0.11459E+06         0.00000E+00
    0.11459E+06         0.14057E+04         0.00000E+00
    0.00000E+00         0.00000E+00         0.28148E+05
 
    0.13709E+06         0.12132E+06         0.00000E+00
    0.12132E+06         0.23594E+04         0.00000E+00
    0.00000E+00         0.00000E+00         0.27890E+05
 
    0.13474E+06         0.12793E+06         0.00000E+00
    0.12793E+06         0.33656E+04         0.00000E+00
    0.00000E+00         0.00000E+00         0.27622E+05
 
    0.13230E+06         0.13443E+06         0.00000E+00
    0.13443E+06         0.44233E+04         0.00000E+00
    0.00000E+00         0.00000E+00         0.27344E+05
 
    0.12975E+06         0.14081E+06         0.00000E+00
    0.14081E+06         0.55314E+04         0.00000E+00
    0.00000E+00         0.00000E+00         0.27056E+05
 
    0.12710E+06         0.14707E+06         0.00000E+00
    0.14707E+06         0.66889E+04         0.00000E+00
    0.00000E+00         0.00000E+00         0.26759E+05
 
    0.12436E+06         0.15320E+06         0.00000E+00
    0.15320E+06         0.78947E+04         0.00000E+00
    0.00000E+00         0.00000E+00         0.26452E+05
 
    0.12153E+06         0.15920E+06         0.00000E+00
    0.15920E+06         0.91477E+04         0.00000E+00
    0.00000E+00         0.00000E+00         0.26136E+05
 
    0.11860E+06         0.16507E+06         0.00000E+00
    0.16507E+06         0.10447E+05         0.00000E+00
    0.00000E+00         0.00000E+00         0.25810E+05
 
    0.11559E+06         0.17079E+06         0.00000E+00
    0.17079E+06         0.11791E+05         0.00000E+00
    0.00000E+00         0.00000E+00         0.25476E+05
 
    0.11248E+06         0.17637E+06         0.00000E+00
    0.17637E+06         0.13179E+05         0.00000E+00
    0.00000E+00         0.00000E+00         0.25133E+05
 
    0.10929E+06         0.18181E+06         0.00000E+00
    0.18181E+06         0.14610E+05         0.00000E+00
    0.00000E+00         0.00000E+00         0.24781E+05
 
    0.10602E+06         0.18709E+06         0.00000E+00
    0.18709E+06         0.16082E+05         0.00000E+00
    0.00000E+00         0.00000E+00         0.24420E+05
 
    0.10266E+06         0.19222E+06         0.00000E+00
    0.19222E+06         0.17594E+05         0.00000E+00
    0.00000E+00         0.00000E+00         0.24051E+05
 
    0.99221E+05         0.19720E+06         0.00000E+00
    0.19720E+06         0.19145E+05         0.00000E+00
    0.00000E+00         0.00000E+00         0.23673E+05
 
    0.95704E+05         0.20201E+06         0.00000E+00
    0.20201E+06         0.20735E+05         0.00000E+00
    0.00000E+00         0.00000E+00         0.23288E+05
 
    0.92111E+05         0.20665E+06         0.00000E+00
    0.20665E+06         0.22360E+05         0.00000E+00
    0.00000E+00         0.00000E+00         0.22894E+05
 
    0.88442E+05         0.21113E+06         0.00000E+00
    0.21113E+06         0.24021E+05         0.00000E+00
    0.00000E+00         0.00000E+00         0.22493E+05
 
    0.84701E+05         0.21544E+06         0.00000E+00
    0.21544E+06         0.25717E+05         0.00000E+00
    0.00000E+00         0.00000E+00         0.22084E+05
 
    0.80889E+05         0.21957E+06         0.00000E+00
    0.21957E+06         0.27444E+05         0.00000E+00
    0.00000E+00         0.00000E+00         0.21667E+05
 
    0.77009E+05         0.22353E+06         0.00000E+00
    0.22353E+06         0.29204E+05         0.00000E+00
    0.00000E+00         0.00000E+00         0.21243E+05
 
    0.73063E+05         0.22731E+06         0.00000E+00
    0.22731E+06         0.30993E+05         0.00000E+00
    0.00000E+00         0.00000E+00         0.20811E+05
 
    0.69052E+05         0.23090E+06         0.00000E+00
    0.23090E+06         0.32812E+05         0.00000E+00
    0.00000E+00         0.00000E+00         0.20373E+05
 
    0.64979E+05         0.23431E+06         0.00000E+00
    0.23431E+06         0.34658E+05         0.00000E+00
    0.00000E+00         0.00000E+00         0.19927E+05
 
    0.60846E+05         0.23753E+06         0.00000E+00
    0.23753E+06         0.36530E+05         0.00000E+00
    0.00000E+00         0.00000E+00         0.19475E+05
 
    0.56654E+05         0.24056E+06         0.00000E+00
    0.24056E+06         0.38427E+05         0.00000E+00
    0.00000E+00         0.00000E+00         0.19016E+05
 
    0.52407E+05         0.24339E+06         0.00000E+00
    0.24339E+06         0.40348E+05         0.00000E+00
    0.00000E+00         0.00000E+00         0.18551E+05
 
    0.48106E+05         0.24603E+06         0.00000E+00
    0.24603E+06         0.42291E+05         0.00000E+00
    0.00000E+00         0.00000E+00         0.18079E+05
 
    0.43753E+05         0.24847E+06         0.00000E+00
    0.24847E+06         0.44254E+05         0.00000E+00
    0.00000E+00         0.00000E+00         0.17602E+05
 
    0.39351E+05         0.25071E+06         0.00000E+00
    0.25071E+06         0.46237E+05         0.00000E+00
    0.00000E+00         0.00000E+00         0.17118E+05
 
    0.34902E+05         0.25275E+06         0.00000E+00
    0.25275E+06         0.48239E+05         0.00000E+00
    0.00000E+00         0.00000E+00         0.16628E+05
 
    0.30407E+05         0.25459E+06         0.00000E+00
    0.25459E+06         0.50256E+05         0.00000E+00
    0.00000E+00         0.00000E+00         0.16133E+05
 
    0.25870E+05         0.25622E+06         0.00000E+00
    0.25622E+06         0.52289E+05         0.00000E+00
    0.00000E+00         0.00000E+00         0.15632E+05
 
    0.21292E+05         0.25764E+06         0.00000E+00
    0.25764E+06         0.54336E+05         0.00000E+00
    0.00000E+00         0.00000E+00         0.15126E+05
 
    0.16675E+05         0.25885E+06         0.00000E+00
    0.25885E+06         0.56396E+05         0.00000E+00
    0.00000E+00         0.00000E+00         0.14614E+05
 
    0.19755E+06         0.40978E+04         0.00000E+00
    0.40978E+04        -0.79448E+04         0.00000E+00
    0.00000E+00         0.00000E+00         0.37920E+05
 
    0.19686E+06         0.12228E+05         0.00000E+00
    0.12228E+05        -0.78642E+04         0.00000E+00
    0.00000E+00         0.00000E+00         0.37799E+05
 
    0.19602E+06         0.20323E+05         0.00000E+00
    0.20323E+05        -0.77044E+04         0.00000E+00
    0.00000E+00         0.00000E+00         0.37662E+05
 
    0.19503E+06         0.28376E+05         0.00000E+00
    0.28376E+05        -0.74660E+04         0.00000E+00
    0.00000E+00         0.00000E+00         0.37512E+05
 
    0.19389E+06         0.36383E+05         0.00000E+00
    0.36383E+05        -0.71498E+04         0.00000E+00
    0.00000E+00         0.00000E+00         0.37347E+05
 
    0.19260E+06         0.44336E+05         0.00000E+00
    0.44336E+05        -0.67565E+04         0.00000E+00
    0.00000E+00         0.00000E+00         0.37169E+05
 
    0.19117E+06         0.52231E+05         0.00000E+00
    0.52231E+05        -0.62869E+04         0.00000E+00
    0.00000E+00         0.00000E+00         0.36976E+05
 
    0.18959E+06         0.60062E+05         0.00000E+00
    0.60062E+05        -0.57420E+04         0.00000E+00
    0.00000E+00         0.00000E+00         0.36770E+05
 
    0.18787E+06         0.67824E+05         0.00000E+00
    0.67824E+05        -0.51226E+04         0.00000E+00
    0.00000E+00         0.00000E+00         0.36550E+05
 
    0.18601E+06         0.75511E+05         0.00000E+00
    0.75511E+05        -0.44297E+04         0.00000E+00
    0.00000E+00         0.00000E+00         0.36317E+05
 
    0.18402E+06         0.83117E+05         0.00000E+00
    0.83117E+05        -0.36643E+04         0.00000E+00
    0.00000E+00         0.00000E+00         0.36070E+05
 
    0.18188E+06         0.90638E+05         0.00000E+00
    0.90638E+05        -0.28275E+04         0.00000E+00
    0.00000E+00         0.00000E+00         0.35811E+05
 
    0.17961E+06         0.98069E+05         0.00000E+00
    0.98069E+05        -0.19202E+04         0.00000E+00
    0.00000E+00         0.00000E+00         0.35538E+05
 
    0.17720E+06         0.10540E+06         0.00000E+00
    0.10540E+06        -0.94358E+03         0.00000E+00
    0.00000E+00         0.00000E+00         0.35252E+05
 
    0.17467E+06         0.11264E+06         0.00000E+00
    0.11264E+06         0.10119E+03         0.00000E+00
    0.00000E+00         0.00000E+00         0.34954E+05
 
    0.17200E+06         0.11977E+06         0.00000E+00
    0.11977E+06         0.12129E+04         0.00000E+00
    0.00000E+00         0.00000E+00         0.34643E+05
 
    0.16921E+06         0.12678E+06         0.00000E+00
    0.12678E+06         0.23905E+04         0.00000E+00
    0.00000E+00         0.00000E+00         0.34319E+05
 
    0.16629E+06         0.13369E+06         0.00000E+00
    0.13369E+06         0.36326E+04         0.00000E+00
    0.00000E+00         0.00000E+00         0.33984E+05
 
    0.16324E+06         0.14047E+06         0.00000E+00
    0.14047E+06         0.49380E+04         0.00000E+00
    0.00000E+00         0.00000E+00         0.33636E+05
 
    0.16008E+06         0.14713E+06         0.00000E+00
    0.14713E+06         0.63054E+04         0.00000E+00
    0.00000E+00         0.00000E+00         0.33277E+05
 
    0.15680E+06         0.15366E+06         0.00000E+00
    0.15366E+06         0.77334E+04         0.00000E+00
    0.00000E+00         0.00000E+00         0.32906E+05
 
    0.15339E+06         0.16006E+06         0.00000E+00
    0.16006E+06         0.92208E+04         0.00000E+00
    0.00000E+00         0.00000E+00         0.32523E+05
 
    0.14988E+06         0.16632E+06         0.00000E+00
    0.16632E+06         0.10766E+05         0.00000E+00
    0.00000E+00         0.00000E+00         0.32129E+05
 
    0.14625E+06         0.17244E+06         0.00000E+00
    0.17244E+06         0.12368E+05         0.00000E+00
    0.00000E+00         0.00000E+00         0.31724E+05
 
    0.14251E+06         0.17841E+06         0.00000E+00
    0.17841E+06         0.14025E+05         0.00000E+00
    0.00000E+00         0.00000E+00         0.31308E+05
 
    0.13867E+06         0.18423E+06         0.00000E+00
    0.18423E+06         0.15736E+05         0.00000E+00
    0.00000E+00         0.00000E+00         0.30881E+05
 
    0.13472E+06         0.18990E+06         0.00000E+00
    0.18990E+06         0.17500E+05         0.00000E+00
    0.00000E+00         0.00000E+00         0.30443E+05
 
    0.13066E+06         0.19541E+06         0.00000E+00
    0.19541E+06         0.19314E+05         0.00000E+00
    0.00000E+00         0.00000E+00         0.29995E+05
 
    0.12651E+06         0.20076E+06         0.00000E+00
    0.20076E+06         0.21177E+05         0.00000E+00
    0.00000E+00         0.00000E+00         0.29537E+05
 
    0.12225E+06         0.20595E+06         0.00000E+00
    0.20595E+06         0.23089E+05         0.00000E+00
    0.00000E+00         0.00000E+00         0.29069E+05
 
    0.11791E+06         0.21097E+06         0.00000E+00
    0.21097E+06         0.25046E+05         0.00000E+00
    0.00000E+00         0.00000E+00         0.28590E+05
 
    0.11346E+06         0.21582E+06         0.00000E+00
    0.21582E+06         0.27049E+05         0.00000E+00
    0.00000E+00         0.00000E+00         0.28102E+05
 
    0.10893E+06         0.22049E+06         0.00000E+00
    0.22049E+06         0.29095E+05         0.00000E+00
    0.00000E+00         0.00000E+00         0.27605E+05
 
    0.10431E+06         0.22498E+06         0.00000E+00
    0.22498E+06         0.31183E+05         0.00000E+00
    0.00000E+00         0.00000E+00         0.27098E+05
 
    0.99601E+05         0.22929E+06         0.00000E+00
    0.22929E+06         0.33311E+05         0.00000E+00
    0.00000E+00         0.00000E+00         0.26582E+05
 
    0.94810E+05         0.23342E+06         0.00000E+00
    0.23342E+06         0.35477E+05         0.00000E+00
    0.00000E+00         0.00000E+00         0.26057E+05
 
    0.89938E+05         0.23736E+06         0.00000E+00
    0.23736E+06         0.37681E+05         0.00000E+00
    0.00000E+00         0.00000E+00         0.25524E+05
 
    0.84988E+05         0.24111E+06         0.00000E+00
    0.24111E+06         0.39920E+05         0.00000E+00
    0.00000E+00         0.00000E+00         0.24982E+05
 
    0.79962E+05         0.24467E+06         0.00000E+00
    0.24467E+06         0.42193E+05         0.00000E+00
    0.00000E+00         0.00000E+00         0.24431E+05
 
    0.74863E+05         0.24803E+06         0.00000E+00
    0.24803E+06         0.44498E+05         0.00000E+00
    0.00000E+00         0.00000E+00         0.23872E+05
 
    0.69693E+05         0.25119E+06         0.00000E+00
    0.25119E+06         0.46834E+05         0.00000E+00
    0.00000E+00         0.00000E+00         0.23305E+05
 
    0.64455E+05         0.25416E+06         0.00000E+00
    0.25416E+06         0.49198E+05         0.00000E+00
    0.00000E+00         0.00000E+00         0.22731E+05
 
    0.59152E+05         0.25692E+06         0.00000E+00
    0.25692E+06         0.51590E+05         0.00000E+00
    0.00000E+00         0.00000E+00         0.22148E+05
 
    0.53785E+05         0.25947E+06         0.00000E+00
    0.25947E+06         0.54008E+05         0.00000E+00
    0.00000E+00         0.00000E+00         0.21559E+05
 
    0.48359E+05         0.26182E+06         0.00000E+00
    0.26182E+06         0.56450E+05         0.00000E+00
    0.00000E+00         0.00000E+00         0.20962E+05
 
    0.42875E+05         0.26395E+06         0.00000E+00
    0.26395E+06         0.58914E+05         0.00000E+00
    0.00000E+00         0.00000E+00         0.20358E+05
 
    0.37336E+05         0.26588E+06         0.00000E+00
    0.26588E+06         0.61399E+05         0.00000E+00
    0.00000E+00         0.00000E+00         0.19747E+05
 
    0.31744E+05         0.26759E+06         0.00000E+00
    0.26759E+06         0.63903E+05         0.00000E+00
    0.00000E+00         0.00000E+00         0.19129E+05
 
    0.26103E+05         0.26908E+06         0.00000E+00
    0.26908E+06         0.66424E+05         0.00000E+00
    0.00000E+00         0.00000E+00         0.18505E+05
 
    0.20414E+05         0.27036E+06         0.00000E+00
    0.27036E+06         0.68961E+05         0.00000E+00
    0.00000E+00         0.00000E+00         0.17875E+05
 
    0.23717E+06         0.43205E+04         0.00000E+00
    0.43205E+04        -0.10124E+05         0.00000E+00
    0.00000E+00         0.00000E+00         0.45409E+05
 
    0.23631E+06         0.12888E+05         0.00000E+00
    0.12888E+05        -0.10027E+05         0.00000E+00
    0.00000E+00         0.00000E+00         0.45256E+05
 
    0.23527E+06         0.21417E+05         0.00000E+00
    0.21417E+05        -0.98351E+04         0.00000E+00
    0.00000E+00         0.00000E+00         0.45087E+05
 
    0.23405E+06         0.29900E+05         0.00000E+00
    0.29900E+05        -0.95486E+04         0.00000E+00
    0.00000E+00         0.00000E+00         0.44900E+05
 
    0.23265E+06         0.38332E+05         0.00000E+00
    0.38332E+05        -0.91685E+04         0.00000E+00
    0.00000E+00         0.00000E+00         0.44696E+05
 
    0.23107E+06         0.46707E+05         0.00000E+00
    0.46707E+05        -0.86960E+04         0.00000E+00
    0.00000E+00         0.00000E+00         0.44475E+05
 
    0.22932E+06         0.55018E+05         0.00000E+00
    0.55018E+05        -0.81320E+04         0.00000E+00
    0.00000E+00         0.00000E+00         0.44238E+05
 
    0.22740E+06         0.63261E+05         0.00000E+00
    0.63261E+05        -0.74777E+04         0.00000E+00
    0.00000E+00         0.00000E+00         0.43984E+05
 
    0.22531E+06         0.71429E+05         0.00000E+00
    0.71429E+05        -0.67340E+04         0.00000E+00
    0.00000E+00         0.00000E+00         0.43715E+05
 
    0.22305E+06         0.79516E+05         0.00000E+00
    0.79516E+05        -0.59024E+04         0.00000E+00
    0.00000E+00         0.00000E+00         0.43429E+05
 
    0.22062E+06         0.87518E+05         0.00000E+00
    0.87518E+05        -0.49839E+04         0.00000E+00
    0.00000E+00         0.00000E+00         0.43127E+05
 
    0.21803E+06         0.95428E+05         0.00000E+00
    0.95428E+05        -0.39798E+04         0.00000E+00
    0.00000E+00         0.00000E+00         0.42810E+05
 
    0.21528E+06         0.10324E+06         0.00000E+00
    0.10324E+06        -0.28915E+04         0.00000E+00
    0.00000E+00         0.00000E+00         0.42477E+05
 
    0.21237E+06         0.11095E+06         0.00000E+00
    0.11095E+06        -0.17203E+04         0.00000E+00
    0.00000E+00         0.00000E+00         0.42129E+05
 
    0.20930E+06         0.11856E+06         0.00000E+00
    0.11856E+06        -0.46768E+03         0.00000E+00
    0.00000E+00         0.00000E+00         0.41766E+05
 
    0.20607E+06         0.12605E+06         0.00000E+00
    0.12605E+06         0.86503E+03         0.00000E+00
    0.00000E+00         0.00000E+00         0.41388E+05
 
    0.20270E+06         0.13343E+06         0.00000E+00
    0.13343E+06         0.22763E+04         0.00000E+00
    0.00000E+00         0.00000E+00         0.40995E+05
 
    0.19918E+06         0.14068E+06         0.00000E+00
    0.14068E+06         0.37646E+04         0.00000E+00
    0.00000E+00         0.00000E+00         0.40588E+05
 
    0.19551E+06         0.14781E+06         0.00000E+00
    0.14781E+06         0.53285E+04         0.00000E+00
    0.00000E+00         0.00000E+00         0.40167E+05
 
    0.19169E+06         0.15480E+06         0.00000E+00
    0.15480E+06         0.69664E+04         0.00000E+00
    0.00000E+00         0.00000E+00         0.39731E+05
 
    0.18773E+06         0.16166E+06         0.00000E+00
    0.16166E+06         0.86766E+04         0.00000E+00
    0.00000E+00         0.00000E+00         0.39282E+05
 
    0.18364E+06         0.16838E+06         0.00000E+00
    0.16838E+06         0.10458E+05         0.00000E+00
    0.00000E+00         0.00000E+00         0.38819E+05
 
    0.17941E+06         0.17495E+06         0.00000E+00
    0.17495E+06         0.12308E+05         0.00000E+00
    0.00000E+00         0.00000E+00         0.38343E+05
 
    0.17504E+06         0.18138E+06         0.00000E+00
    0.18138E+06         0.14225E+05         0.00000E+00
    0.00000E+00         0.00000E+00         0.37854E+05
 
    0.17055E+06         0.18765E+06         0.00000E+00
    0.18765E+06         0.16208E+05         0.00000E+00
    0.00000E+00         0.00000E+00         0.37351E+05
 
    0.16592E+06         0.19376E+06         0.00000E+00
    0.19376E+06         0.18256E+05         0.00000E+00
    0.00000E+00         0.00000E+00         0.36836E+05
 
    0.16118E+06         0.19971E+06         0.00000E+00
    0.19971E+06         0.20365E+05         0.00000E+00
    0.00000E+00         0.00000E+00         0.36308E+05
 
    0.15631E+06         0.20550E+06         0.00000E+00
    0.20550E+06         0.22535E+05         0.00000E+00
    0.00000E+00         0.00000E+00         0.35768E+05
 
    0.15132E+06         0.21112E+06         0.00000E+00
    0.21112E+06         0.24764E+05         0.00000E+00
    0.00000E+00         0.00000E+00         0.35216E+05
 
    0.14621E+06         0.21656E+06         0.00000E+00
    0.21656E+06         0.27050E+05         0.00000E+00
    0.00000E+00         0.00000E+00         0.34652E+05
 
    0.14099E+06         0.22183E+06         0.00000E+00
    0.22183E+06         0.29391E+05         0.00000E+00
    0.00000E+00         0.00000E+00         0.34077E+05
 
    0.13566E+06         0.22692E+06         0.00000E+00
    0.22692E+06         0.31786E+05         0.00000E+00
    0.00000E+00         0.00000E+00         0.33490E+05
 
    0.13023E+06         0.23182E+06         0.00000E+00
    0.23182E+06         0.34232E+05         0.00000E+00
    0.00000E+00         0.00000E+00         0.32892E+05
 
    0.12468E+06         0.23654E+06         0.00000E+00
    0.23654E+06         0.36728E+05         0.00000E+00
    0.00000E+00         0.00000E+00         0.32283E+05
 
    0.11904E+06         0.24107E+06         0.00000E+00
    0.24107E+06         0.39271E+05         0.00000E+00
    0.00000E+00         0.00000E+00         0.31663E+05
 
    0.11330E+06         0.24540E+06         0.00000E+00
    0.24540E+06         0.41861E+05         0.00000E+00
    0.00000E+00         0.00000E+00         0.31032E+05
 
    0.10746E+06         0.24954E+06         0.00000E+00
    0.24954E+06         0.44495E+05         0.00000E+00
    0.00000E+00         0.00000E+00         0.30392E+05
 
    0.10153E+06         0.25348E+06         0.00000E+00
    0.25348E+06         0.47171E+05         0.00000E+00
    0.00000E+00         0.00000E+00         0.29741E+05
 
    0.95515E+05         0.25722E+06         0.00000E+00
    0.25722E+06         0.49887E+05         0.00000E+00
    0.00000E+00         0.00000E+00         0.29080E+05
 
    0.89409E+05         0.26075E+06         0.00000E+00
    0.26075E+06         0.52642E+05         0.00000E+00
    0.00000E+00         0.00000E+00         0.28410E+05
 
    0.83220E+05         0.26408E+06         0.00000E+00
    0.26408E+06         0.55433E+05         0.00000E+00
    0.00000E+00         0.00000E+00         0.27731E+05
 
    0.76951E+05         0.26720E+06         0.00000E+00
    0.26720E+06         0.58259E+05         0.00000E+00
    0.00000E+00         0.00000E+00         0.27042E+05
 
    0.70604E+05         0.27010E+06         0.00000E+00
    0.27010E+06         0.61118E+05         0.00000E+00
    0.00000E+00         0.00000E+00         0.26344E+05
 
    0.64183E+05         0.27279E+06         0.00000E+00
    0.27279E+06         0.64008E+05         0.00000E+00
    0.00000E+00         0.00000E+00         0.25638E+05
 
    0.57690E+05         0.27527E+06         0.00000E+00
    0.27527E+06         0.66926E+05         0.00000E+00
    0.00000E+00         0.00000E+00         0.24923E+05
 
    0.51129E+05         0.27752E+06         0.00000E+00
    0.27752E+06         0.69871E+05         0.00000E+00
    0.00000E+00         0.00000E+00         0.24200E+05
 
    0.44503E+05         0.27956E+06         0.00000E+00
    0.27956E+06         0.72841E+05         0.00000E+00
    0.00000E+00         0.00000E+00         0.23469E+05
 
    0.37816E+05         0.28137E+06         0.00000E+00
    0.28137E+06         0.75835E+05         0.00000E+00
    0.00000E+00         0.00000E+00         0.22730E+05
 
    0.31069E+05         0.28295E+06         0.00000E+00
    0.28295E+06         0.78849E+05         0.00000E+00
    0.00000E+00         0.00000E+00         0.21983E+05
 
    0.24266E+05         0.28431E+06         0.00000E+00
    0.28431E+06         0.81882E+05         0.00000E+00
    0.00000E+00         0.00000E+00         0.21230E+05
 
    0.27890E+06         0.45854E+04         0.00000E+00
    0.45854E+04        -0.12605E+05         0.00000E+00
    0.00000E+00         0.00000E+00         0.53258E+05
 
    0.27784E+06         0.13673E+05         0.00000E+00
    0.13673E+05        -0.12491E+05         0.00000E+00
    0.00000E+00         0.00000E+00         0.53070E+05
 
    0.27658E+06         0.22718E+05         0.00000E+00
    0.22718E+05        -0.12264E+05         0.00000E+00
    0.00000E+00         0.00000E+00         0.52863E+05
 
    0.27510E+06         0.31711E+05         0.00000E+00
    0.31711E+05        -0.11927E+05         0.00000E+00
    0.00000E+00         0.00000E+00         0.52635E+05
 
    0.27342E+06         0.40649E+05         0.00000E+00
    0.40649E+05        -0.11480E+05         0.00000E+00
    0.00000E+00         0.00000E+00         0.52388E+05
 
    0.27153E+06         0.49523E+05         0.00000E+00
    0.49523E+05        -0.10923E+05         0.00000E+00
    0.00000E+00         0.00000E+00         0.52121E+05
 
    0.26943E+06         0.58328E+05         0.00000E+00
    0.58328E+05        -0.10260E+05         0.00000E+00
    0.00000E+00         0.00000E+00         0.51835E+05
 
    0.26714E+06         0.67059E+05         0.00000E+00
    0.67059E+05        -0.94899E+04         0.00000E+00
    0.00000E+00         0.00000E+00         0.51529E+05
 
    0.26464E+06         0.75708E+05         0.00000E+00
    0.75708E+05        -0.86154E+04         0.00000E+00
    0.00000E+00         0.00000E+00         0.51205E+05
 
    0.26195E+06         0.84270E+05         0.00000E+00
    0.84270E+05        -0.76375E+04         0.00000E+00
    0.00000E+00         0.00000E+00         0.50862E+05
 
    0.25906E+06         0.92739E+05         0.00000E+00
    0.92739E+05        -0.65578E+04         0.00000E+00
    0.00000E+00         0.00000E+00         0.50501E+05
 
    0.25598E+06         0.10111E+06         0.00000E+00
    0.10111E+06        -0.53778E+04         0.00000E+00
    0.00000E+00         0.00000E+00         0.50121E+05
 
    0.25272E+06         0.10938E+06         0.00000E+00
    0.10938E+06        -0.40991E+04         0.00000E+00
    0.00000E+00         0.00000E+00         0.49723E+05
 
    0.24926E+06         0.11753E+06         0.00000E+00
    0.11753E+06        -0.27233E+04         0.00000E+00
    0.00000E+00         0.00000E+00         0.49308E+05
 
    0.24563E+06         0.12558E+06         0.00000E+00
    0.12558E+06        -0.12521E+04         0.00000E+00
    0.00000E+00         0.00000E+00         0.48875E+05
 
    0.24181E+06         0.13350E+06         0.00000E+00
    0.13350E+06         0.31272E+03         0.00000E+00
    0.00000E+00         0.00000E+00         0.48425E+05
 
    0.23782E+06         0.14130E+06         0.00000E+00
    0.14130E+06         0.19695E+04         0.00000E+00
    0.00000E+00         0.00000E+00         0.47958E+05
 
    0.23365E+06         0.14896E+06         0.00000E+00
    0.14896E+06         0.37163E+04         0.00000E+00
    0.00000E+00         0.00000E+00         0.47474E+05
 
    0.22932E+06         0.15650E+06         0.00000E+00
    0.15650E+06         0.55514E+04         0.00000E+00
    0.00000E+00         0.00000E+00         0.46973E+05
 
    0.22481E+06         0.16389E+06         0.00000E+00
    0.16389E+06         0.74729E+04         0.00000E+00
    0.00000E+00         0.00000E+00         0.46457E+05
 
    0.22014E+06         0.17113E+06         0.00000E+00
    0.17113E+06         0.94790E+04         0.00000E+00
    0.00000E+00         0.00000E+00         0.45924E+05
 
    0.21531E+06         0.17823E+06         0.00000E+00
    0.17823E+06         0.11568E+05         0.00000E+00
    0.00000E+00         0.00000E+00         0.45375E+05
 
    0.21032E+06         0.18517E+06         0.00000E+00
    0.18517E+06         0.13737E+05         0.00000E+00
    0.00000E+00         0.00000E+00         0.44811E+05
 
    0.20518E+06         0.19196E+06         0.00000E+00
    0.19196E+06         0.15985E+05         0.00000E+00
    0.00000E+00         0.00000E+00         0.44232E+05
 
    0.19988E+06         0.19858E+06         0.00000E+00
    0.19858E+06         0.18309E+05         0.00000E+00
    0.00000E+00         0.00000E+00         0.43638E+05
 
    0.19444E+06         0.20504E+06         0.00000E+00
    0.20504E+06         0.20709E+05         0.00000E+00
    0.00000E+00         0.00000E+00         0.43029E+05
 
    0.18885E+06         0.21132E+06         0.00000E+00
    0.21132E+06         0.23181E+05         0.00000E+00
    0.00000E+00         0.00000E+00         0.42406E+05
 
    0.18312E+06         0.21743E+06         0.00000E+00
    0.21743E+06         0.25723E+05         0.00000E+00
    0.00000E+00         0.00000E+00         0.41768E+05
 
    0.17725E+06         0.22336E+06         0.00000E+00
    0.22336E+06         0.28334E+05         0.00000E+00
    0.00000E+00         0.00000E+00         0.41117E+05
 
    0.17125E+06         0.22911E+06         0.00000E+00
    0.22911E+06         0.31011E+05         0.00000E+00
    0.00000E+00         0.00000E+00         0.40452E+05
 
    0.16511E+06         0.23467E+06         0.00000E+00
    0.23467E+06         0.33753E+05         0.00000E+00
    0.00000E+00         0.00000E+00         0.39773E+05
 
    0.15885E+06         0.24004E+06         0.00000E+00
    0.24004E+06         0.36557E+05         0.00000E+00
    0.00000E+00         0.00000E+00         0.39082E+05
 
    0.15246E+06         0.24522E+06         0.00000E+00
    0.24522E+06         0.39421E+05         0.00000E+00
    0.00000E+00         0.00000E+00         0.38377E+05
 
    0.14596E+06         0.25020E+06         0.00000E+00
    0.25020E+06         0.42343E+05         0.00000E+00
    0.00000E+00         0.00000E+00         0.37660E+05
 
    0.13933E+06         0.25498E+06         0.00000E+00
    0.25498E+06         0.45320E+05         0.00000E+00
    0.00000E+00         0.00000E+00         0.36931E+05
 
    0.13259E+06         0.25956E+06         0.00000E+00
    0.25956E+06         0.48352E+05         0.00000E+00
    0.00000E+00         0.00000E+00         0.36189E+05
 
    0.12575E+06         0.26393E+06         0.00000E+00
    0.26393E+06         0.51434E+05         0.00000E+00
    0.00000E+00         0.00000E+00         0.35436E+05
 
    0.11879E+06         0.26810E+06         0.00000E+00
    0.26810E+06         0.54567E+05         0.00000E+00
    0.00000E+00         0.00000E+00         0.34671E+05
 
    0.11173E+06         0.27205E+06         0.00000E+00
    0.27205E+06         0.57746E+05         0.00000E+00
    0.00000E+00         0.00000E+00         0.33895E+05
 
    0.10457E+06         0.27579E+06         0.00000E+00
    0.27579E+06         0.60970E+05         0.00000E+00
    0.00000E+00         0.00000E+00         0.33108E+05
 
    0.97313E+05         0.27931E+06         0.00000E+00
    0.27931E+06         0.64236E+05         0.00000E+00
    0.00000E+00         0.00000E+00         0.32310E+05
 
    0.89964E+05         0.28261E+06         0.00000E+00
    0.28261E+06         0.67544E+05         0.00000E+00
    0.00000E+00         0.00000E+00         0.31502E+05
 
    0.82525E+05         0.28568E+06         0.00000E+00
    0.28568E+06         0.70889E+05         0.00000E+00
    0.00000E+00         0.00000E+00         0.30683E+05
 
    0.75000E+05         0.28854E+06         0.00000E+00
    0.28854E+06         0.74271E+05         0.00000E+00
    0.00000E+00         0.00000E+00         0.29854E+05
 
    0.67393E+05         0.29116E+06         0.00000E+00
    0.29116E+06         0.77687E+05         0.00000E+00
    0.00000E+00         0.00000E+00         0.29016E+05
 
    0.59707E+05         0.29356E+06         0.00000E+00
    0.29356E+06         0.81134E+05         0.00000E+00
    0.00000E+00         0.00000E+00         0.28168E+05
 
    0.51945E+05         0.29572E+06         0.00000E+00
    0.29572E+06         0.84611E+05         0.00000E+00
    0.00000E+00         0.00000E+00         0.27311E+05
 
    0.44112E+05         0.29765E+06         0.00000E+00
    0.29765E+06         0.88114E+05         0.00000E+00
    0.00000E+00         0.00000E+00         0.26445E+05
 
    0.36210E+05         0.29935E+06         0.00000E+00
    0.29935E+06         0.91643E+05         0.00000E+00
    0.00000E+00         0.00000E+00         0.25571E+05
 
    0.28243E+05         0.30081E+06         0.00000E+00
    0.30081E+06         0.95195E+05         0.00000E+00
    0.00000E+00         0.00000E+00         0.24688E+05
 
    0.32308E+06         0.48954E+04         0.00000E+00
    0.48954E+04        -0.15461E+05         0.00000E+00
    0.00000E+00         0.00000E+00         0.61523E+05
 
    0.32181E+06         0.14591E+05         0.00000E+00
    0.14591E+05        -0.15328E+05         0.00000E+00
    0.00000E+00         0.00000E+00         0.61296E+05
 
    0.32029E+06         0.24237E+05         0.00000E+00
    0.24237E+05        -0.15066E+05         0.00000E+00
    0.00000E+00         0.00000E+00         0.61046E+05
 
    0.31854E+06         0.33827E+05         0.00000E+00
    0.33827E+05        -0.14674E+05         0.00000E+00
    0.00000E+00         0.00000E+00         0.60772E+05
 
    0.31654E+06         0.43354E+05         0.00000E+00
    0.43354E+05        -0.14155E+05         0.00000E+00
    0.00000E+00         0.00000E+00         0.60476E+05
 
    0.31430E+06         0.52811E+05         0.00000E+00
    0.52811E+05        -0.13510E+05         0.00000E+00
    0.00000E+00         0.00000E+00         0.60158E+05
 
    0.31183E+06         0.62192E+05         0.00000E+00
    0.62192E+05        -0.12741E+05         0.00000E+00
    0.00000E+00         0.00000E+00         0.59817E+05
 
    0.30912E+06         0.71490E+05         0.00000E+00
    0.71490E+05        -0.11848E+05         0.00000E+00
    0.00000E+00         0.00000E+00         0.59454E+05
 
    0.30618E+06         0.80700E+05         0.00000E+00
    0.80700E+05        -0.10835E+05         0.00000E+00
    0.00000E+00         0.00000E+00         0.59070E+05
 
    0.30302E+06         0.89814E+05         0.00000E+00
    0.89814E+05        -0.97023E+04         0.00000E+00
    0.00000E+00         0.00000E+00         0.58664E+05
 
    0.29964E+06         0.98827E+05         0.00000E+00
    0.98827E+05        -0.84519E+04         0.00000E+00
    0.00000E+00         0.00000E+00         0.58237E+05
 
    0.29603E+06         0.10773E+06         0.00000E+00
    0.10773E+06        -0.70857E+04         0.00000E+00
    0.00000E+00         0.00000E+00         0.57789E+05
 
    0.29221E+06         0.11653E+06         0.00000E+00
    0.11653E+06        -0.56056E+04         0.00000E+00
    0.00000E+00         0.00000E+00         0.57321E+05
 
    0.28817E+06         0.12520E+06         0.00000E+00
    0.12520E+06        -0.40136E+04         0.00000E+00
    0.00000E+00         0.00000E+00         0.56832E+05
 
    0.28393E+06         0.13375E+06         0.00000E+00
    0.13375E+06        -0.23116E+04         0.00000E+00
    0.00000E+00         0.00000E+00         0.56323E+05
 
    0.27947E+06         0.14217E+06         0.00000E+00
    0.14217E+06        -0.50164E+03         0.00000E+00
    0.00000E+00         0.00000E+00         0.55794E+05
 
    0.27482E+06         0.15046E+06         0.00000E+00
    0.15046E+06         0.14141E+04         0.00000E+00
    0.00000E+00         0.00000E+00         0.55246E+05
 
    0.26996E+06         0.15861E+06         0.00000E+00
    0.15861E+06         0.34336E+04         0.00000E+00
    0.00000E+00         0.00000E+00         0.54679E+05
 
    0.26491E+06         0.16661E+06         0.00000E+00
    0.16661E+06         0.55547E+04         0.00000E+00
    0.00000E+00         0.00000E+00         0.54093E+05
 
    0.25967E+06         0.17446E+06         0.00000E+00
    0.17446E+06         0.77751E+04         0.00000E+00
    0.00000E+00         0.00000E+00         0.53489E+05
 
    0.25424E+06         0.18215E+06         0.00000E+00
    0.18215E+06         0.10093E+05         0.00000E+00
    0.00000E+00         0.00000E+00         0.52866E+05
 
    0.24862E+06         0.18969E+06         0.00000E+00
    0.18969E+06         0.12505E+05         0.00000E+00
    0.00000E+00         0.00000E+00         0.52226E+05
 
    0.24283E+06         0.19706E+06         0.00000E+00
    0.19706E+06         0.15010E+05         0.00000E+00
    0.00000E+00         0.00000E+00         0.51567E+05
 
    0.23685E+06         0.20426E+06         0.00000E+00
    0.20426E+06         0.17606E+05         0.00000E+00
    0.00000E+00         0.00000E+00         0.50892E+05
 
    0.23071E+06         0.21129E+06         0.00000E+00
    0.21129E+06         0.20289E+05         0.00000E+00
    0.00000E+00         0.00000E+00         0.50199E+05
 
    0.22439E+06         0.21814E+06         0.00000E+00
    0.21814E+06         0.23059E+05         0.00000E+00
    0.00000E+00         0.00000E+00         0.49490E+05
 
    0.21791E+06         0.22481E+06         0.00000E+00
    0.22481E+06         0.25911E+05         0.00000E+00
    0.00000E+00         0.00000E+00         0.48764E+05
 
    0.21127E+06         0.23129E+06         0.00000E+00
    0.23129E+06         0.28845E+05         0.00000E+00
    0.00000E+00         0.00000E+00         0.48023E+05
 
    0.20447E+06         0.23758E+06         0.00000E+00
    0.23758E+06         0.31857E+05         0.00000E+00
    0.00000E+00         0.00000E+00         0.47265E+05
 
    0.19752E+06         0.24368E+06         0.00000E+00
    0.24368E+06         0.34945E+05         0.00000E+00
    0.00000E+00         0.00000E+00         0.46492E+05
 
    0.19041E+06         0.24958E+06         0.00000E+00
    0.24958E+06         0.38107E+05         0.00000E+00
    0.00000E+00         0.00000E+00         0.45704E+05
 
    0.18317E+06         0.25528E+06         0.00000E+00
    0.25528E+06         0.41340E+05         0.00000E+00
    0.00000E+00         0.00000E+00         0.44901E+05
 
    0.17578E+06         0.26078E+06         0.00000E+00
    0.26078E+06         0.44642E+05         0.00000E+00
    0.00000E+00         0.00000E+00         0.44084E+05
 
    0.16825E+06         0.26606E+06         0.00000E+00
    0.26606E+06         0.48011E+05         0.00000E+00
    0.00000E+00         0.00000E+00         0.43252E+05
 
    0.16059E+06         0.27114E+06         0.00000E+00
    0.27114E+06         0.51443E+05         0.00000E+00
    0.00000E+00         0.00000E+00         0.42407E+05
 
    0.15280E+06         0.27600E+06         0.00000E+00
    0.27600E+06         0.54937E+05         0.00000E+00
    0.00000E+00         0.00000E+00         0.41547E+05
 
    0.14488E+06         0.28064E+06         0.00000E+00
    0.28064E+06         0.58491E+05         0.00000E+00
    0.00000E+00         0.00000E+00         0.40675E+05
 
    0.13685E+06         0.28506E+06         0.00000E+00
    0.28506E+06         0.62100E+05         0.00000E+00
    0.00000E+00         0.00000E+00         0.39789E+05
 
    0.12869E+06         0.28926E+06         0.00000E+00
    0.28926E+06         0.65764E+05         0.00000E+00
    0.00000E+00         0.00000E+00         0.38891E+05
 
    0.12042E+06         0.29324E+06         0.00000E+00
    0.29324E+06         0.69480E+05         0.00000E+00
    0.00000E+00         0.00000E+00         0.37981E+05
 
    0.11204E+06         0.29698E+06         0.00000E+00
    0.29698E+06         0.73244E+05         0.00000E+00
    0.00000E+00         0.00000E+00         0.37058E+05
 
    0.10356E+06         0.30049E+06         0.00000E+00
    0.30049E+06         0.77055E+05         0.00000E+00
    0.00000E+00         0.00000E+00         0.36123E+05
 
    0.94975E+05         0.30377E+06         0.00000E+00
    0.30377E+06         0.80911E+05         0.00000E+00
    0.00000E+00         0.00000E+00         0.35177E+05
 
    0.86291E+05         0.30681E+06         0.00000E+00
    0.30681E+06         0.84808E+05         0.00000E+00
    0.00000E+00         0.00000E+00         0.34220E+05
 
    0.77513E+05         0.30961E+06         0.00000E+00
    0.30961E+06         0.88744E+05         0.00000E+00
    0.00000E+00         0.00000E+00         0.33252E+05
 
    0.68646E+05         0.31217E+06         0.00000E+00
    0.31217E+06         0.92717E+05         0.00000E+00
    0.00000E+00         0.00000E+00         0.32273E+05
 
    0.59693E+05         0.31449E+06         0.00000E+00
    0.31449E+06         0.96724E+05         0.00000E+00
    0.00000E+00         0.00000E+00         0.31283E+05
 
    0.50657E+05         0.31656E+06         0.00000E+00
    0.31656E+06         0.10076E+06         0.00000E+00
    0.00000E+00         0.00000E+00         0.30284E+05
 
    0.41544E+05         0.31839E+06         0.00000E+00
    0.31839E+06         0.10483E+06         0.00000E+00
    0.00000E+00         0.00000E+00         0.29275E+05
 
    0.32357E+05         0.31996E+06         0.00000E+00
    0.31996E+06         0.10893E+06         0.00000E+00
    0.00000E+00         0.00000E+00         0.28256E+05
 
    0.37008E+06         0.52535E+04         0.00000E+00
    0.52535E+04        -0.18777E+05         0.00000E+00
    0.00000E+00         0.00000E+00         0.70261E+05
 
    0.36857E+06         0.15650E+05         0.00000E+00
    0.15650E+05        -0.18625E+05         0.00000E+00
    0.00000E+00         0.00000E+00         0.69988E+05
 
    0.36677E+06         0.25990E+05         0.00000E+00
    0.25990E+05        -0.18323E+05         0.00000E+00
    0.00000E+00         0.00000E+00         0.69689E+05
 
    0.36469E+06         0.36267E+05         0.00000E+00
    0.36267E+05        -0.17874E+05         0.00000E+00
    0.00000E+00         0.00000E+00         0.69364E+05
 
    0.36234E+06         0.46473E+05         0.00000E+00
    0.46473E+05        -0.17278E+05         0.00000E+00
    0.00000E+00         0.00000E+00         0.69013E+05
 
    0.35972E+06         0.56600E+05         0.00000E+00
    0.56600E+05        -0.16538E+05         0.00000E+00
    0.00000E+00         0.00000E+00         0.68637E+05
 
    0.35683E+06         0.66643E+05         0.00000E+00
    0.66643E+05        -0.15656E+05         0.00000E+00
    0.00000E+00         0.00000E+00         0.68235E+05
 
    0.35367E+06         0.76595E+05         0.00000E+00
    0.76595E+05        -0.14634E+05         0.00000E+00
    0.00000E+00         0.00000E+00         0.67808E+05
 
    0.35026E+06         0.86448E+05         0.00000E+00
    0.86448E+05        -0.13472E+05         0.00000E+00
    0.00000E+00         0.00000E+00         0.67357E+05
 
    0.34658E+06         0.96197E+05         0.00000E+00
    0.96197E+05        -0.12175E+05         0.00000E+00
    0.00000E+00         0.00000E+00         0.66881E+05
 
    0.34265E+06         0.10583E+06         0.00000E+00
    0.10583E+06        -0.10743E+05         0.00000E+00
    0.00000E+00         0.00000E+00         0.66381E+05
 
    0.33847E+06         0.11536E+06         0.00000E+00
    0.11536E+06        -0.91788E+04         0.00000E+00
    0.00000E+00         0.00000E+00         0.65858E+05
 
    0.33404E+06         0.12475E+06         0.00000E+00
    0.12475E+06        -0.74847E+04         0.00000E+00
    0.00000E+00         0.00000E+00         0.65311E+05
 
    0.32937E+06         0.13402E+06         0.00000E+00
    0.13402E+06        -0.56631E+04         0.00000E+00
    0.00000E+00         0.00000E+00         0.64742E+05
 
    0.32446E+06         0.14315E+06         0.00000E+00
    0.14315E+06        -0.37162E+04         0.00000E+00
    0.00000E+00         0.00000E+00         0.64150E+05
 
    0.31932E+06         0.15215E+06         0.00000E+00
    0.15215E+06        -0.16463E+04         0.00000E+00
    0.00000E+00         0.00000E+00         0.63535E+05
 
    0.31395E+06         0.16099E+06         0.00000E+00
    0.16099E+06         0.54392E+03         0.00000E+00
    0.00000E+00         0.00000E+00         0.62899E+05
 
    0.30835E+06         0.16969E+06         0.00000E+00
    0.16969E+06         0.28522E+04         0.00000E+00
    0.00000E+00         0.00000E+00         0.62241E+05
 
    0.30253E+06         0.17822E+06         0.00000E+00
    0.17822E+06         0.52759E+04         0.00000E+00
    0.00000E+00         0.00000E+00         0.61562E+05
 
    0.29650E+06         0.18660E+06         0.00000E+00
    0.18660E+06         0.78126E+04         0.00000E+00
    0.00000E+00         0.00000E+00         0.60862E+05
 
    0.29025E+06         0.19481E+06         0.00000E+00
    0.19481E+06         0.10460E+05         0.00000E+00
    0.00000E+00         0.00000E+00         0.60142E+05
 
    0.28379E+06         0.20284E+06         0.00000E+00
    0.20284E+06         0.13214E+05         0.00000E+00
    0.00000E+00         0.00000E+00         0.59402E+05
 
    0.27713E+06         0.21070E+06         0.00000E+00
    0.21070E+06         0.16074E+05         0.00000E+00
    0.00000E+00         0.00000E+00         0.58641E+05
 
    0.27027E+06         0.21838E+06         0.00000E+00
    0.21838E+06         0.19037E+05         0.00000E+00
    0.00000E+00         0.00000E+00         0.57862E+05
 
    0.26322E+06         0.22587E+06         0.00000E+00
    0.22587E+06         0.22099E+05         0.00000E+00
    0.00000E+00         0.00000E+00         0.57063E+05
 
    0.25597E+06         0.23317E+06         0.00000E+00
    0.23317E+06         0.25258E+05         0.00000E+00
    0.00000E+00         0.00000E+00         0.56246E+05
 
    0.24854E+06         0.24028E+06         0.00000E+00
    0.24028E+06         0.28512E+05         0.00000E+00
    0.00000E+00         0.00000E+00         0.55410E+05
 
    0.24092E+06         0.24718E+06         0.00000E+00
    0.24718E+06         0.31858E+05         0.00000E+00
    0.00000E+00         0.00000E+00         0.54556E+05
 
    0.23313E+06         0.25389E+06         0.00000E+00
    0.25389E+06         0.35292E+05         0.00000E+00
    0.00000E+00         0.00000E+00         0.53685E+05
 
    0.22517E+06         0.26039E+06         0.00000E+00
    0.26039E+06         0.38813E+05         0.00000E+00
    0.00000E+00         0.00000E+00         0.52797E+05
 
    0.21704E+06         0.26667E+06         0.00000E+00
    0.26667E+06         0.42417E+05         0.00000E+00
    0.00000E+00         0.00000E+00         0.51891E+05
 
    0.20875E+06         0.27275E+06         0.00000E+00
    0.27275E+06         0.46102E+05         0.00000E+00
    0.00000E+00         0.00000E+00         0.50969E+05
 
    0.20029E+06         0.27860E+06         0.00000E+00
    0.27860E+06         0.49865E+05         0.00000E+00
    0.00000E+00         0.00000E+00         0.50031E+05
 
    0.19168E+06         0.28424E+06         0.00000E+00
    0.28424E+06         0.53703E+05         0.00000E+00
    0.00000E+00         0.00000E+00         0.49077E+05
 
    0.18293E+06         0.28965E+06         0.00000E+00
    0.28965E+06         0.57614E+05         0.00000E+00
    0.00000E+00         0.00000E+00         0.48108E+05
 
    0.17402E+06         0.29483E+06         0.00000E+00
    0.29483E+06         0.61594E+05         0.00000E+00
    0.00000E+00         0.00000E+00         0.47123E+05
 
    0.16498E+06         0.29978E+06         0.00000E+00
    0.29978E+06         0.65642E+05         0.00000E+00
    0.00000E+00         0.00000E+00         0.46124E+05
 
    0.15580E+06         0.30450E+06         0.00000E+00
    0.30450E+06         0.69753E+05         0.00000E+00
    0.00000E+00         0.00000E+00         0.45110E+05
 
    0.14649E+06         0.30898E+06         0.00000E+00
    0.30898E+06         0.73926E+05         0.00000E+00
    0.00000E+00         0.00000E+00         0.44083E+05
 
    0.13705E+06         0.31322E+06         0.00000E+00
    0.31322E+06         0.78158E+05         0.00000E+00
    0.00000E+00         0.00000E+00         0.43041E+05
 
    0.12748E+06         0.31722E+06         0.00000E+00
    0.31722E+06         0.82445E+05         0.00000E+00
    0.00000E+00         0.00000E+00         0.41986E+05
 
    0.11780E+06         0.32097E+06         0.00000E+00
    0.32097E+06         0.86786E+05         0.00000E+00
    0.00000E+00         0.00000E+00         0.40918E+05
 
    0.10801E+06         0.32448E+06         0.00000E+00
    0.32448E+06         0.91177E+05         0.00000E+00
    0.00000E+00         0.00000E+00         0.39837E+05
 
    0.98102E+05         0.32774E+06         0.00000E+00
    0.32774E+06         0.95615E+05         0.00000E+00
    0.00000E+00         0.00000E+00         0.38743E+05
 
    0.88091E+05         0.33074E+06         0.00000E+00
    0.33074E+06         0.10010E+06         0.00000E+00
    0.00000E+00         0.00000E+00         0.37638E+05
 
    0.77980E+05         0.33349E+06         0.00000E+00
    0.33349E+06         0.10462E+06         0.00000E+00
    0.00000E+00         0.00000E+00         0.36521E+05
 
    0.67772E+05         0.33599E+06         0.00000E+00
    0.33599E+06         0.10919E+06         0.00000E+00
    0.00000E+00         0.00000E+00         0.35392E+05
 
    0.57472E+05         0.33822E+06         0.00000E+00
    0.33822E+06         0.11379E+06         0.00000E+00
    0.00000E+00         0.00000E+00         0.34252E+05
 
    0.47084E+05         0.34020E+06         0.00000E+00
    0.34020E+06         0.11842E+06         0.00000E+00
    0.00000E+00         0.00000E+00         0.33102E+05
 
    0.36613E+05         0.34191E+06         0.00000E+00
    0.34191E+06         0.12309E+06         0.00000E+00
    0.00000E+00         0.00000E+00         0.31940E+05
 
    0.42030E+06         0.56632E+04         0.00000E+00
    0.56632E+04        -0.22653E+05         0.00000E+00
    0.00000E+00         0.00000E+00         0.79529E+05
 
    0.41850E+06         0.16861E+05         0.00000E+00
    0.16861E+05        -0.22479E+05         0.00000E+00
    0.00000E+00         0.00000E+00         0.79204E+05
 
    0.41638E+06         0.27994E+05         0.00000E+00
    0.27994E+05        -0.22135E+05         0.00000E+00
    0.00000E+00         0.00000E+00         0.78849E+05
 
    0.41395E+06         0.39054E+05         0.00000E+00
    0.39054E+05        -0.21624E+05         0.00000E+00
    0.00000E+00         0.00000E+00         0.78465E+05
 
    0.41120E+06         0.50034E+05         0.00000E+00
    0.50034E+05        -0.20946E+05         0.00000E+00
    0.00000E+00         0.00000E+00         0.78051E+05
 
    0.40815E+06         0.60926E+05         0.00000E+00
    0.60926E+05        -0.20105E+05         0.00000E+00
    0.00000E+00         0.00000E+00         0.77608E+05
 
    0.40479E+06         0.71723E+05         0.00000E+00
    0.71723E+05        -0.19102E+05         0.00000E+00
    0.00000E+00         0.00000E+00         0.77138E+05
 
    0.40113E+06         0.82418E+05         0.00000E+00
    0.82418E+05        -0.17940E+05         0.00000E+00
    0.00000E+00         0.00000E+00         0.76639E+05
 
    0.39718E+06         0.93004E+05         0.00000E+00
    0.93004E+05        -0.16620E+05         0.00000E+00
    0.00000E+00         0.00000E+00         0.76112E+05
 
    0.39294E+06         0.10347E+06         0.00000E+00
    0.10347E+06        -0.15147E+05         0.00000E+00
    0.00000E+00         0.00000E+00         0.75558E+05
 
    0.38841E+06         0.11382E+06         0.00000E+00
    0.11382E+06        -0.13521E+05         0.00000E+00
    0.00000E+00         0.00000E+00         0.74977E+05
 
    0.38360E+06         0.12404E+06         0.00000E+00
    0.12404E+06        -0.11745E+05         0.00000E+00
    0.00000E+00         0.00000E+00         0.74370E+05
 
    0.37851E+06         0.13412E+06         0.00000E+00
    0.13412E+06        -0.98233E+04         0.00000E+00
    0.00000E+00         0.00000E+00         0.73737E+05
 
    0.37315E+06         0.14406E+06         0.00000E+00
    0.14406E+06        -0.77570E+04         0.00000E+00
    0.00000E+00         0.00000E+00         0.73078E+05
 
    0.36752E+06         0.15386E+06         0.00000E+00
    0.15386E+06        -0.55493E+04         0.00000E+00
    0.00000E+00         0.00000E+00         0.72394E+05
 
    0.36163E+06         0.16349E+06         0.00000E+00
    0.16349E+06        -0.32029E+04         0.00000E+00
    0.00000E+00         0.00000E+00         0.71685E+05
 
    0.35548E+06         0.17297E+06         0.00000E+00
    0.17297E+06        -0.72079E+03         0.00000E+00
    0.00000E+00         0.00000E+00         0.70951E+05
 
    0.34907E+06         0.18229E+06         0.00000E+00
    0.18229E+06         0.18943E+04         0.00000E+00
    0.00000E+00         0.00000E+00         0.70194E+05
 
    0.34242E+06         0.19143E+06         0.00000E+00
    0.19143E+06         0.46394E+04         0.00000E+00
    0.00000E+00         0.00000E+00         0.69413E+05
 
    0.33553E+06         0.20040E+06         0.00000E+00
    0.20040E+06         0.75116E+04         0.00000E+00
    0.00000E+00         0.00000E+00         0.68608E+05
 
    0.32840E+06         0.20919E+06         0.00000E+00
    0.20919E+06         0.10508E+05         0.00000E+00
    0.00000E+00         0.00000E+00         0.67781E+05
 
    0.32103E+06         0.21779E+06         0.00000E+00
    0.21779E+06         0.13626E+05         0.00000E+00
    0.00000E+00         0.00000E+00         0.66932E+05
 
    0.31344E+06         0.22620E+06         0.00000E+00
    0.22620E+06         0.16861E+05         0.00000E+00
    0.00000E+00         0.00000E+00         0.66061E+05
 
    0.30563E+06         0.23441E+06         0.00000E+00
    0.23441E+06         0.20212E+05         0.00000E+00
    0.00000E+00         0.00000E+00         0.65168E+05
 
    0.29760E+06         0.24242E+06         0.00000E+00
    0.24242E+06         0.23675E+05         0.00000E+00
    0.00000E+00         0.00000E+00         0.64254E+05
 
    0.28935E+06         0.25023E+06         0.00000E+00
    0.25023E+06         0.27247E+05         0.00000E+00
    0.00000E+00         0.00000E+00         0.63320E+05
 
    0.28090E+06         0.25783E+06         0.00000E+00
    0.25783E+06         0.30925E+05         0.00000E+00
    0.00000E+00         0.00000E+00         0.62365E+05
 
    0.27225E+06         0.26522E+06         0.00000E+00
    0.26522E+06         0.34705E+05         0.00000E+00
    0.00000E+00         0.00000E+00         0.61390E+05
 
    0.26340E+06         0.27239E+06         0.00000E+00
    0.27239E+06         0.38586E+05         0.00000E+00
    0.00000E+00         0.00000E+00         0.60396E+05
 
    0.25435E+06         0.27934E+06         0.00000E+00
    0.27934E+06         0.42563E+05         0.00000E+00
    0.00000E+00         0.00000E+00         0.59384E+05
 
    0.24513E+06         0.28606E+06         0.00000E+00
    0.28606E+06         0.46634E+05         0.00000E+00
    0.00000E+00         0.00000E+00         0.58352E+05
 
    0.23572E+06         0.29255E+06         0.00000E+00
    0.29255E+06         0.50795E+05         0.00000E+00
    0.00000E+00         0.00000E+00         0.57302E+05
 
    0.22613E+06         0.29881E+06         0.00000E+00
    0.29881E+06         0.55044E+05         0.00000E+00
    0.00000E+00         0.00000E+00         0.56235E+05
 
    0.21637E+06         0.30484E+06         0.00000E+00
    0.30484E+06         0.59378E+05         0.00000E+00
    0.00000E+00         0.00000E+00         0.55150E+05
 
    0.20645E+06         0.31063E+06         0.00000E+00
    0.31063E+06         0.63792E+05         0.00000E+00
    0.00000E+00         0.00000E+00         0.54048E+05
 
    0.19636E+06         0.31617E+06         0.00000E+00
    0.31617E+06         0.68285E+05         0.00000E+00
    0.00000E+00         0.00000E+00         0.52929E+05
 
    0.18612E+06         0.32147E+06         0.00000E+00
    0.32147E+06         0.72852E+05         0.00000E+00
    0.00000E+00         0.00000E+00         0.51795E+05
 
    0.17573E+06         0.32652E+06         0.00000E+00
    0.32652E+06         0.77492E+05         0.00000E+00
    0.00000E+00         0.00000E+00         0.50644E+05
 
    0.16519E+06         0.33132E+06         0.00000E+00
    0.33132E+06         0.82201E+05         0.00000E+00
    0.00000E+00         0.00000E+00         0.49478E+05
 
    0.15451E+06         0.33587E+06         0.00000E+00
    0.33587E+06         0.86976E+05         0.00000E+00
    0.00000E+00         0.00000E+00         0.48297E+05
 
    0.14369E+06         0.34015E+06         0.00000E+00
    0.34015E+06         0.91814E+05         0.00000E+00
    0.00000E+00         0.00000E+00         0.47101E+05
 
    0.13274E+06         0.34418E+06         0.00000E+00
    0.34418E+06         0.96711E+05         0.00000E+00
    0.00000E+00         0.00000E+00         0.45891E+05
 
    0.12167E+06         0.34795E+06         0.00000E+00
    0.34795E+06         0.10167E+06         0.00000E+00
    0.00000E+00         0.00000E+00         0.44667E+05
 
    0.11047E+06         0.35145E+06         0.00000E+00
    0.35145E+06         0.10667E+06         0.00000E+00
    0.00000E+00         0.00000E+00         0.43430E+05
 
    0.99162E+05         0.35469E+06         0.00000E+00
    0.35469E+06         0.11173E+06         0.00000E+00
    0.00000E+00         0.00000E+00         0.42179E+05
 
    0.87738E+05         0.35766E+06         0.00000E+00
    0.35766E+06         0.11684E+06         0.00000E+00
    0.00000E+00         0.00000E+00         0.40915E+05
 
    0.76206E+05         0.36036E+06         0.00000E+00
    0.36036E+06         0.12199E+06         0.00000E+00
    0.00000E+00         0.00000E+00         0.39639E+05
 
    0.64572E+05         0.36278E+06         0.00000E+00
    0.36278E+06         0.12718E+06         0.00000E+00
    0.00000E+00         0.00000E+00         0.38351E+05
 
    0.52840E+05         0.36493E+06         0.00000E+00
    0.36493E+06         0.13241E+06         0.00000E+00
    0.00000E+00         0.00000E+00         0.37051E+05
 
    0.41016E+05         0.36680E+06         0.00000E+00
    0.36680E+06         0.13768E+06         0.00000E+00
    0.00000E+00         0.00000E+00         0.35739E+05
 
    0.47414E+06         0.61288E+04         0.00000E+00
    0.61288E+04        -0.27203E+05         0.00000E+00
    0.00000E+00         0.00000E+00         0.89387E+05
 
    0.47201E+06         0.18236E+05         0.00000E+00
    0.18236E+05        -0.27006E+05         0.00000E+00
    0.00000E+00         0.00000E+00         0.89001E+05
 
    0.46952E+06         0.30267E+05         0.00000E+00
    0.30267E+05        -0.26617E+05         0.00000E+00
    0.00000E+00         0.00000E+00         0.88581E+05
 
    0.46668E+06         0.42215E+05         0.00000E+00
    0.42215E+05        -0.26039E+05         0.00000E+00
    0.00000E+00         0.00000E+00         0.88128E+05
 
    0.46348E+06         0.54071E+05         0.00000E+00
    0.54071E+05        -0.25273E+05         0.00000E+00
    0.00000E+00         0.00000E+00         0.87642E+05
 
    0.45994E+06         0.65828E+05         0.00000E+00
    0.65828E+05        -0.24322E+05         0.00000E+00
    0.00000E+00         0.00000E+00         0.87124E+05
 
    0.45606E+06         0.77478E+05         0.00000E+00
    0.77478E+05        -0.23189E+05         0.00000E+00
    0.00000E+00         0.00000E+00         0.86574E+05
 
    0.45184E+06         0.89013E+05         0.00000E+00
    0.89013E+05        -0.21877E+05         0.00000E+00
    0.00000E+00         0.00000E+00         0.85994E+05
 
    0.44730E+06         0.10043E+06         0.00000E+00
    0.10043E+06        -0.20388E+05         0.00000E+00
    0.00000E+00         0.00000E+00         0.85382E+05
 
    0.44242E+06         0.11171E+06         0.00000E+00
    0.11171E+06        -0.18725E+05         0.00000E+00
    0.00000E+00         0.00000E+00         0.84740E+05
 
    0.43723E+06         0.12286E+06         0.00000E+00
    0.12286E+06        -0.16892E+05         0.00000E+00
    0.00000E+00         0.00000E+00         0.84068E+05
 
    0.43172E+06         0.13386E+06         0.00000E+00
    0.13386E+06        -0.14890E+05         0.00000E+00
    0.00000E+00         0.00000E+00         0.83366E+05
 
    0.42590E+06         0.14471E+06         0.00000E+00
    0.14471E+06        -0.12724E+05         0.00000E+00
    0.00000E+00         0.00000E+00         0.82636E+05
 
    0.41978E+06         0.15541E+06         0.00000E+00
    0.15541E+06        -0.10397E+05         0.00000E+00
    0.00000E+00         0.00000E+00         0.81877E+05
 
    0.41336E+06         0.16594E+06         0.00000E+00
    0.16594E+06        -0.79106E+04         0.00000E+00
    0.00000E+00         0.00000E+00         0.81091E+05
 
    0.40665E+06         0.17631E+06         0.00000E+00
    0.17631E+06        -0.52692E+04         0.00000E+00
    0.00000E+00         0.00000E+00         0.80276E+05
 
    0.39965E+06         0.18650E+06         0.00000E+00
    0.18650E+06        -0.24760E+04         0.00000E+00
    0.00000E+00         0.00000E+00         0.79435E+05
 
    0.39237E+06         0.19651E+06         0.00000E+00
    0.19651E+06         0.46595E+03         0.00000E+00
    0.00000E+00         0.00000E+00         0.78568E+05
 
    0.38482E+06         0.20633E+06         0.00000E+00
    0.20633E+06         0.35531E+04         0.00000E+00
    0.00000E+00         0.00000E+00         0.77674E+05
 
    0.37699E+06         0.21597E+06         0.00000E+00
    0.21597E+06         0.67823E+04         0.00000E+00
    0.00000E+00         0.00000E+00         0.76755E+05
 
    0.36890E+06         0.22540E+06         0.00000E+00
    0.22540E+06         0.10150E+05         0.00000E+00
    0.00000E+00         0.00000E+00         0.75811E+05
 
    0.36056E+06         0.23463E+06         0.00000E+00
    0.23463E+06         0.13653E+05         0.00000E+00
    0.00000E+00         0.00000E+00         0.74842E+05
 
    0.35196E+06         0.24366E+06         0.00000E+00
    0.24366E+06         0.17287E+05         0.00000E+00
    0.00000E+00         0.00000E+00         0.73849E+05
 
    0.34311E+06         0.25247E+06         0.00000E+00
    0.25247E+06         0.21050E+05         0.00000E+00
    0.00000E+00         0.00000E+00         0.72833E+05
 
    0.33403E+06         0.26107E+06         0.00000E+00
    0.26107E+06         0.24938E+05         0.00000E+00
    0.00000E+00         0.00000E+00         0.71793E+05
 
    0.32471E+06         0.26945E+06         0.00000E+00
    0.26945E+06         0.28947E+05         0.00000E+00
    0.00000E+00         0.00000E+00         0.70731E+05
 
    0.31516E+06         0.27760E+06         0.00000E+00
    0.27760E+06         0.33073E+05         0.00000E+00
    0.00000E+00         0.00000E+00         0.69647E+05
 
    0.30539E+06         0.28552E+06         0.00000E+00
    0.28552E+06         0.37315E+05         0.00000E+00
    0.00000E+00         0.00000E+00         0.68541E+05
 
    0.29540E+06         0.29321E+06         0.00000E+00
    0.29321E+06         0.41667E+05         0.00000E+00
    0.00000E+00         0.00000E+00         0.67414E+05
 
    0.28521E+06         0.30066E+06         0.00000E+00
    0.30066E+06         0.46127E+05         0.00000E+00
    0.00000E+00         0.00000E+00         0.66266E+05
 
    0.27480E+06         0.30787E+06         0.00000E+00
    0.30787E+06         0.50691E+05         0.00000E+00
    0.00000E+00         0.00000E+00         0.65099E+05
 
    0.26420E+06         0.31483E+06         0.00000E+00
    0.31483E+06         0.55355E+05         0.00000E+00
    0.00000E+00         0.00000E+00         0.63911E+05
 
    0.25340E+06         0.32155E+06         0.00000E+00
    0.32155E+06         0.60117E+05         0.00000E+00
    0.00000E+00         0.00000E+00         0.62704E+05
 
    0.24242E+06         0.32801E+06         0.00000E+00
    0.32801E+06         0.64972E+05         0.00000E+00
    0.00000E+00         0.00000E+00         0.61478E+05
 
    0.23125E+06         0.33422E+06         0.00000E+00
    0.33422E+06         0.69918E+05         0.00000E+00
    0.00000E+00         0.00000E+00         0.60234E+05
 
    0.21991E+06         0.34017E+06         0.00000E+00
    0.34017E+06         0.74951E+05         0.00000E+00
    0.00000E+00         0.00000E+00         0.58971E+05
 
    0.20839E+06         0.34585E+06         0.00000E+00
    0.34585E+06         0.80068E+05         0.00000E+00
    0.00000E+00         0.00000E+00         0.57691E+05
 
    0.19671E+06         0.35128E+06         0.00000E+00
    0.35128E+06         0.85264E+05         0.00000E+00
    0.00000E+00         0.00000E+00         0.56394E+05
 
    0.18487E+06         0.35643E+06         0.00000E+00
    0.35643E+06         0.90538E+05         0.00000E+00
    0.00000E+00         0.00000E+00         0.55081E+05
 
    0.17287E+06         0.36132E+06         0.00000E+00
    0.36132E+06         0.95885E+05         0.00000E+00
    0.00000E+00         0.00000E+00         0.53751E+05
 
    0.16072E+06         0.36593E+06         0.00000E+00
    0.36593E+06         0.10130E+06         0.00000E+00
    0.00000E+00         0.00000E+00         0.52405E+05
 
    0.14843E+06         0.37027E+06         0.00000E+00
    0.37027E+06         0.10679E+06         0.00000E+00
    0.00000E+00         0.00000E+00         0.51044E+05
 
    0.13601E+06         0.37433E+06         0.00000E+00
    0.37433E+06         0.11233E+06         0.00000E+00
    0.00000E+00         0.00000E+00         0.49668E+05
 
    0.12344E+06         0.37811E+06         0.00000E+00
    0.37811E+06         0.11794E+06         0.00000E+00
    0.00000E+00         0.00000E+00         0.48277E+05
 
    0.11075E+06         0.38161E+06         0.00000E+00
    0.38161E+06         0.12361E+06         0.00000E+00
    0.00000E+00         0.00000E+00         0.46872E+05
 
    0.97940E+05         0.38482E+06         0.00000E+00
    0.38482E+06         0.12933E+06         0.00000E+00
    0.00000E+00         0.00000E+00         0.45453E+05
 
    0.85009E+05         0.38775E+06         0.00000E+00
    0.38775E+06         0.13510E+06         0.00000E+00
    0.00000E+00         0.00000E+00         0.44021E+05
 
    0.71965E+05         0.39039E+06         0.00000E+00
    0.39039E+06         0.14091E+06         0.00000E+00
    0.00000E+00         0.00000E+00         0.42575E+05
 
    0.58814E+05         0.39273E+06         0.00000E+00
    0.39273E+06         0.14677E+06         0.00000E+00
    0.00000E+00         0.00000E+00         0.41117E+05
 
    0.45560E+05         0.39479E+06         0.00000E+00
    0.39479E+06         0.15267E+06         0.00000E+00
    0.00000E+00         0.00000E+00         0.39647E+05
 
    0.53203E+06         0.66550E+04         0.00000E+00
    0.66550E+04        -0.32563E+05         0.00000E+00
    0.00000E+00         0.00000E+00         0.99893E+05
 
    0.52951E+06         0.19787E+05         0.00000E+00
    0.19787E+05        -0.32341E+05         0.00000E+00
    0.00000E+00         0.00000E+00         0.99434E+05
 
    0.52660E+06         0.32831E+05         0.00000E+00
    0.32831E+05        -0.31903E+05         0.00000E+00
    0.00000E+00         0.00000E+00         0.98938E+05
 
    0.52328E+06         0.45779E+05         0.00000E+00
    0.45779E+05        -0.31252E+05         0.00000E+00
    0.00000E+00         0.00000E+00         0.98406E+05
 
    0.51958E+06         0.58621E+05         0.00000E+00
    0.58621E+05        -0.30391E+05         0.00000E+00
    0.00000E+00         0.00000E+00         0.97837E+05
 
    0.51548E+06         0.71350E+05         0.00000E+00
    0.71350E+05        -0.29322E+05         0.00000E+00
    0.00000E+00         0.00000E+00         0.97232E+05
 
    0.51101E+06         0.83957E+05         0.00000E+00
    0.83957E+05        -0.28050E+05         0.00000E+00
    0.00000E+00         0.00000E+00         0.96592E+05
 
    0.50616E+06         0.96435E+05         0.00000E+00
    0.96435E+05        -0.26576E+05         0.00000E+00
    0.00000E+00         0.00000E+00         0.95918E+05
 
    0.50095E+06         0.10877E+06         0.00000E+00
    0.10877E+06        -0.24904E+05         0.00000E+00
    0.00000E+00         0.00000E+00         0.95209E+05
 
    0.49537E+06         0.12097E+06         0.00000E+00
    0.12097E+06        -0.23039E+05         0.00000E+00
    0.00000E+00         0.00000E+00         0.94467E+05
 
    0.48944E+06         0.13301E+06         0.00000E+00
    0.13301E+06        -0.20982E+05         0.00000E+00
    0.00000E+00         0.00000E+00         0.93692E+05
 
    0.48316E+06         0.14489E+06         0.00000E+00
    0.14489E+06        -0.18739E+05         0.00000E+00
    0.00000E+00         0.00000E+00         0.92884E+05
 
    0.47653E+06         0.15661E+06         0.00000E+00
    0.15661E+06        -0.16311E+05         0.00000E+00
    0.00000E+00         0.00000E+00         0.92045E+05
 
    0.46957E+06         0.16815E+06         0.00000E+00
    0.16815E+06        -0.13704E+05         0.00000E+00
    0.00000E+00         0.00000E+00         0.91174E+05
 
    0.46228E+06         0.17951E+06         0.00000E+00
    0.17951E+06        -0.10920E+05         0.00000E+00
    0.00000E+00         0.00000E+00         0.90272E+05
 
    0.45467E+06         0.19069E+06         0.00000E+00
    0.19069E+06        -0.79631E+04         0.00000E+00
    0.00000E+00         0.00000E+00         0.89341E+05
 
    0.44674E+06         0.20167E+06         0.00000E+00
    0.20167E+06        -0.48376E+04         0.00000E+00
    0.00000E+00         0.00000E+00         0.88380E+05
 
    0.43849E+06         0.21246E+06         0.00000E+00
    0.21246E+06        -0.15471E+04         0.00000E+00
    0.00000E+00         0.00000E+00         0.87389E+05
 
    0.42995E+06         0.22304E+06         0.00000E+00
    0.22304E+06         0.19048E+04         0.00000E+00
    0.00000E+00         0.00000E+00         0.86371E+05
 
    0.42111E+06         0.23341E+06         0.00000E+00
    0.23341E+06         0.55140E+04         0.00000E+00
    0.00000E+00         0.00000E+00         0.85324E+05
 
    0.41198E+06         0.24357E+06         0.00000E+00
    0.24357E+06         0.92768E+04         0.00000E+00
    0.00000E+00         0.00000E+00         0.84251E+05
 
    0.40256E+06         0.25350E+06         0.00000E+00
    0.25350E+06         0.13189E+05         0.00000E+00
    0.00000E+00         0.00000E+00         0.83150E+05
 
    0.39287E+06         0.26321E+06         0.00000E+00
    0.26321E+06         0.17248E+05         0.00000E+00
    0.00000E+00         0.00000E+00         0.82024E+05
 
    0.38291E+06         0.27269E+06         0.00000E+00
    0.27269E+06         0.21448E+05         0.00000E+00
    0.00000E+00         0.00000E+00         0.80872E+05
 
    0.37269E+06         0.28194E+06         0.00000E+00
    0.28194E+06         0.25786E+05         0.00000E+00
    0.00000E+00         0.00000E+00         0.79694E+05
 
    0.36221E+06         0.29094E+06         0.00000E+00
    0.29094E+06         0.30258E+05         0.00000E+00
    0.00000E+00         0.00000E+00         0.78493E+05
 
    0.35148E+06         0.29971E+06         0.00000E+00
    0.29971E+06         0.34861E+05         0.00000E+00
    0.00000E+00         0.00000E+00         0.77267E+05
 
    0.34050E+06         0.30822E+06         0.00000E+00
    0.30822E+06         0.39590E+05         0.00000E+00
    0.00000E+00         0.00000E+00         0.76018E+05
 
    0.32929E+06         0.31648E+06         0.00000E+00
    0.31648E+06         0.44442E+05         0.00000E+00
    0.00000E+00         0.00000E+00         0.74747E+05
 
    0.31785E+06         0.32449E+06         0.00000E+00
    0.32449E+06         0.49412E+05         0.00000E+00
    0.00000E+00         0.00000E+00         0.73452E+05
 
    0.30619E+06         0.33224E+06         0.00000E+00
    0.33224E+06         0.54497E+05         0.00000E+00
    0.00000E+00         0.00000E+00         0.72137E+05
 
    0.29430E+06         0.33972E+06         0.00000E+00
    0.33972E+06         0.59693E+05         0.00000E+00
    0.00000E+00         0.00000E+00         0.70799E+05
 
    0.28221E+06         0.34694E+06         0.00000E+00
    0.34694E+06         0.64997E+05         0.00000E+00
    0.00000E+00         0.00000E+00         0.69442E+05
 
    0.26991E+06         0.35388E+06         0.00000E+00
    0.35388E+06         0.70404E+05         0.00000E+00
    0.00000E+00         0.00000E+00         0.68064E+05
 
    0.25742E+06         0.36056E+06         0.00000E+00
    0.36056E+06         0.75910E+05         0.00000E+00
    0.00000E+00         0.00000E+00         0.66666E+05
 
    0.24473E+06         0.36696E+06         0.00000E+00
    0.36696E+06         0.81513E+05         0.00000E+00
    0.00000E+00         0.00000E+00         0.65249E+05
 
    0.23186E+06         0.37307E+06         0.00000E+00
    0.37307E+06         0.87208E+05         0.00000E+00
    0.00000E+00         0.00000E+00         0.63813E+05
 
    0.21880E+06         0.37891E+06         0.00000E+00
    0.37891E+06         0.92992E+05         0.00000E+00
    0.00000E+00         0.00000E+00         0.62359E+05
 
    0.20557E+06         0.38446E+06         0.00000E+00
    0.38446E+06         0.98861E+05         0.00000E+00
    0.00000E+00         0.00000E+00         0.60887E+05
 
    0.19218E+06         0.38973E+06         0.00000E+00
    0.38973E+06         0.10481E+06         0.00000E+00
    0.00000E+00         0.00000E+00         0.59398E+05
 
    0.17862E+06         0.39470E+06         0.00000E+00
    0.39470E+06         0.11084E+06         0.00000E+00
    0.00000E+00         0.00000E+00         0.57892E+05
 
    0.16490E+06         0.39938E+06         0.00000E+00
    0.39938E+06         0.11694E+06         0.00000E+00
    0.00000E+00         0.00000E+00         0.56369E+05
 
    0.15104E+06         0.40377E+06         0.00000E+00
    0.40377E+06         0.12312E+06         0.00000E+00
    0.00000E+00         0.00000E+00         0.54831E+05
 
    0.13703E+06         0.40786E+06         0.00000E+00
    0.40786E+06         0.12936E+06         0.00000E+00
    0.00000E+00         0.00000E+00         0.53277E+05
 
    0.12288E+06         0.41165E+06         0.00000E+00
    0.41165E+06         0.13566E+06         0.00000E+00
    0.00000E+00         0.00000E+00         0.51708E+05
 
    0.10860E+06         0.41514E+06         0.00000E+00
    0.41514E+06         0.14202E+06         0.00000E+00
    0.00000E+00         0.00000E+00         0.50124E+05
 
    0.94185E+05         0.41833E+06         0.00000E+00
    0.41833E+06         0.14845E+06         0.00000E+00
    0.00000E+00         0.00000E+00         0.48526E+05
 
    0.79651E+05         0.42121E+06         0.00000E+00
    0.42121E+06         0.15492E+06         0.00000E+00
    0.00000E+00         0.00000E+00         0.46914E+05
 
    0.65000E+05         0.42378E+06         0.00000E+00
    0.42378E+06         0.16145E+06         0.00000E+00
    0.00000E+00         0.00000E+00         0.45289E+05
 
    0.50237E+05         0.42605E+06         0.00000E+00
    0.42605E+06         0.16802E+06         0.00000E+00
    0.00000E+00         0.00000E+00         0.43651E+05
 
    0.59442E+06         0.72471E+04         0.00000E+00
    0.72471E+04        -0.38893E+05         0.00000E+00
    0.00000E+00         0.00000E+00         0.11110E+06
 
    0.59145E+06         0.21530E+05         0.00000E+00
    0.21530E+05        -0.38644E+05         0.00000E+00
    0.00000E+00         0.00000E+00         0.11056E+06
 
    0.58803E+06         0.35710E+05         0.00000E+00
    0.35710E+05        -0.38153E+05         0.00000E+00
    0.00000E+00         0.00000E+00         0.10998E+06
 
    0.58418E+06         0.49779E+05         0.00000E+00
    0.49779E+05        -0.37423E+05         0.00000E+00
    0.00000E+00         0.00000E+00         0.10935E+06
 
    0.57988E+06         0.63725E+05         0.00000E+00
    0.63725E+05        -0.36459E+05         0.00000E+00
    0.00000E+00         0.00000E+00         0.10869E+06
 
    0.57516E+06         0.77542E+05         0.00000E+00
    0.77542E+05        -0.35263E+05         0.00000E+00
    0.00000E+00         0.00000E+00         0.10798E+06
 
    0.57002E+06         0.91219E+05         0.00000E+00
    0.91219E+05        -0.33839E+05         0.00000E+00
    0.00000E+00         0.00000E+00         0.10724E+06
 
    0.56446E+06         0.10475E+06         0.00000E+00
    0.10475E+06        -0.32191E+05         0.00000E+00
    0.00000E+00         0.00000E+00         0.10645E+06
 
    0.55849E+06         0.11812E+06         0.00000E+00
    0.11812E+06        -0.30323E+05         0.00000E+00
    0.00000E+00         0.00000E+00         0.10563E+06
 
    0.55213E+06         0.13133E+06         0.00000E+00
    0.13133E+06        -0.28239E+05         0.00000E+00
    0.00000E+00         0.00000E+00         0.10478E+06
 
    0.54537E+06         0.14437E+06         0.00000E+00
    0.14437E+06        -0.25943E+05         0.00000E+00
    0.00000E+00         0.00000E+00         0.10388E+06
 
    0.53822E+06         0.15723E+06         0.00000E+00
    0.15723E+06        -0.23439E+05         0.00000E+00
    0.00000E+00         0.00000E+00         0.10296E+06
 
    0.53070E+06         0.16991E+06         0.00000E+00
    0.16991E+06        -0.20731E+05         0.00000E+00
    0.00000E+00         0.00000E+00         0.10199E+06
 
    0.52281E+06         0.18239E+06         0.00000E+00
    0.18239E+06        -0.17823E+05         0.00000E+00
    0.00000E+00         0.00000E+00         0.10100E+06
 
    0.51455E+06         0.19467E+06         0.00000E+00
    0.19467E+06        -0.14721E+05         0.00000E+00
    0.00000E+00         0.00000E+00         0.99966E+05
 
    0.50594E+06         0.20674E+06         0.00000E+00
    0.20674E+06        -0.11427E+05         0.00000E+00
    0.00000E+00         0.00000E+00         0.98902E+05
 
    0.49698E+06         0.21861E+06         0.00000E+00
    0.21861E+06        -0.79464E+04         0.00000E+00
    0.00000E+00         0.00000E+00         0.97807E+05
 
    0.48768E+06         0.23025E+06         0.00000E+00
    0.23025E+06        -0.42836E+04         0.00000E+00
    0.00000E+00         0.00000E+00         0.96679E+05
 
    0.47805E+06         0.24167E+06         0.00000E+00
    0.24167E+06        -0.44293E+03         0.00000E+00
    0.00000E+00         0.00000E+00         0.95522E+05
 
    0.46810E+06         0.25286E+06         0.00000E+00
    0.25286E+06         0.35714E+04         0.00000E+00
    0.00000E+00         0.00000E+00         0.94334E+05
 
    0.45783E+06         0.26381E+06         0.00000E+00
    0.26381E+06         0.77549E+04         0.00000E+00
    0.00000E+00         0.00000E+00         0.93116E+05
 
    0.44725E+06         0.27452E+06         0.00000E+00
    0.27452E+06         0.12103E+05         0.00000E+00
    0.00000E+00         0.00000E+00         0.91870E+05
 
    0.43636E+06         0.28498E+06         0.00000E+00
    0.28498E+06         0.16612E+05         0.00000E+00
    0.00000E+00         0.00000E+00         0.90595E+05
 
    0.42519E+06         0.29520E+06         0.00000E+00
    0.29520E+06         0.21277E+05         0.00000E+00
    0.00000E+00         0.00000E+00         0.89293E+05
 
    0.41373E+06         0.30516E+06         0.00000E+00
    0.30516E+06         0.26093E+05         0.00000E+00
    0.00000E+00         0.00000E+00         0.87965E+05
 
    0.40199E+06         0.31486E+06         0.00000E+00
    0.31486E+06         0.31057E+05         0.00000E+00
    0.00000E+00         0.00000E+00         0.86610E+05
 
    0.38998E+06         0.32429E+06         0.00000E+00
    0.32429E+06         0.36164E+05         0.00000E+00
    0.00000E+00         0.00000E+00         0.85229E+05
 
    0.37771E+06         0.33346E+06         0.00000E+00
    0.33346E+06         0.41409E+05         0.00000E+00
    0.00000E+00         0.00000E+00         0.83823E+05
 
    0.36518E+06         0.34235E+06         0.00000E+00
    0.34235E+06         0.46789E+05         0.00000E+00
    0.00000E+00         0.00000E+00         0.82393E+05
 
    0.35240E+06         0.35097E+06         0.00000E+00
    0.35097E+06         0.52299E+05         0.00000E+00
    0.00000E+00         0.00000E+00         0.80940E+05
 
    0.33938E+06         0.35931E+06         0.00000E+00
    0.35931E+06         0.57935E+05         0.00000E+00
    0.00000E+00         0.00000E+00         0.79463E+05
 
    0.32612E+06         0.36737E+06         0.00000E+00
    0.36737E+06         0.63693E+05         0.00000E+00
    0.00000E+00         0.00000E+00         0.77963E+05
 
    0.31264E+06         0.37513E+06         0.00000E+00
    0.37513E+06         0.69568E+05         0.00000E+00
    0.00000E+00         0.00000E+00         0.76442E+05
 
    0.29894E+06         0.38261E+06         0.00000E+00
    0.38261E+06         0.75557E+05         0.00000E+00
    0.00000E+00         0.00000E+00         0.74899E+05
 
    0.28502E+06         0.38980E+06         0.00000E+00
    0.38980E+06         0.81656E+05         0.00000E+00
    0.00000E+00         0.00000E+00         0.73335E+05
 
    0.27090E+06         0.39669E+06         0.00000E+00
    0.39669E+06         0.87860E+05         0.00000E+00
    0.00000E+00         0.00000E+00         0.71751E+05
 
    0.25657E+06         0.40329E+06         0.00000E+00
    0.40329E+06         0.94165E+05         0.00000E+00
    0.00000E+00         0.00000E+00         0.70147E+05
 
    0.24205E+06         0.40958E+06         0.00000E+00
    0.40958E+06         0.10057E+06         0.00000E+00
    0.00000E+00         0.00000E+00         0.68524E+05
 
    0.22735E+06         0.41557E+06         0.00000E+00
    0.41557E+06         0.10706E+06         0.00000E+00
    0.00000E+00         0.00000E+00         0.66883E+05
 
    0.21246E+06         0.42125E+06         0.00000E+00
    0.42125E+06         0.11365E+06         0.00000E+00
    0.00000E+00         0.00000E+00         0.65223E+05
 
    0.19740E+06         0.42663E+06         0.00000E+00
    0.42663E+06         0.12032E+06         0.00000E+00
    0.00000E+00         0.00000E+00         0.63545E+05
 
    0.18218E+06         0.43169E+06         0.00000E+00
    0.43169E+06         0.12708E+06         0.00000E+00
    0.00000E+00         0.00000E+00         0.61850E+05
 
    0.16679E+06         0.43644E+06         0.00000E+00
    0.43644E+06         0.13391E+06         0.00000E+00
    0.00000E+00         0.00000E+00         0.60139E+05
 
    0.15124E+06         0.44088E+06         0.00000E+00
    0.44088E+06         0.14081E+06         0.00000E+00
    0.00000E+00         0.00000E+00         0.58411E+05
 
    0.13555E+06         0.44500E+06         0.00000E+00
    0.44500E+06         0.14779E+06         0.00000E+00
    0.00000E+00         0.00000E+00         0.56668E+05
 
    0.11971E+06         0.44880E+06         0.00000E+00
    0.44880E+06         0.15484E+06         0.00000E+00
    0.00000E+00         0.00000E+00         0.54909E+05
 
    0.10373E+06         0.45227E+06         0.00000E+00
    0.45227E+06         0.16195E+06         0.00000E+00
    0.00000E+00         0.00000E+00         0.53135E+05
 
    0.87619E+05         0.45543E+06         0.00000E+00
    0.45543E+06         0.16911E+06         0.00000E+00
    0.00000E+00         0.00000E+00         0.51347E+05
 
    0.71383E+05         0.45826E+06         0.00000E+00
    0.45826E+06         0.17634E+06         0.00000E+00
    0.00000E+00         0.00000E+00         0.49544E+05
 
    0.55025E+05         0.46076E+06         0.00000E+00
    0.46076E+06         0.18362E+06         0.00000E+00
    0.00000E+00         0.00000E+00         0.47728E+05
 
    0.66178E+06         0.79110E+04         0.00000E+00
    0.79110E+04        -0.46381E+05         0.00000E+00
    0.00000E+00         0.00000E+00         0.12308E+06
 
    0.65828E+06         0.23482E+05         0.00000E+00
    0.23482E+05        -0.46102E+05         0.00000E+00
    0.00000E+00         0.00000E+00         0.12244E+06
 
    0.65428E+06         0.38931E+05         0.00000E+00
    0.38931E+05        -0.45553E+05         0.00000E+00
    0.00000E+00         0.00000E+00         0.12175E+06
 
    0.64980E+06         0.54250E+05         0.00000E+00
    0.54250E+05        -0.44739E+05         0.00000E+00
    0.00000E+00         0.00000E+00         0.12101E+06
 
    0.64483E+06         0.69428E+05         0.00000E+00
    0.69428E+05        -0.43662E+05         0.00000E+00
    0.00000E+00         0.00000E+00         0.12023E+06
 
    0.63938E+06         0.84456E+05         0.00000E+00
    0.84456E+05        -0.42328E+05         0.00000E+00
    0.00000E+00         0.00000E+00         0.11941E+06
 
    0.63347E+06         0.99325E+05         0.00000E+00
    0.99325E+05        -0.40741E+05         0.00000E+00
    0.00000E+00         0.00000E+00         0.11855E+06
 
    0.62710E+06         0.11402E+06         0.00000E+00
    0.11402E+06        -0.38905E+05         0.00000E+00
    0.00000E+00         0.00000E+00         0.11764E+06
 
    0.62028E+06         0.12855E+06         0.00000E+00
    0.12855E+06        -0.36826E+05         0.00000E+00
    0.00000E+00         0.00000E+00         0.11669E+06
 
    0.61303E+06         0.14289E+06         0.00000E+00
    0.14289E+06        -0.34506E+05         0.00000E+00
    0.00000E+00         0.00000E+00         0.11570E+06
 
    0.60534E+06         0.15703E+06         0.00000E+00
    0.15703E+06        -0.31953E+05         0.00000E+00
    0.00000E+00         0.00000E+00         0.11468E+06
 
    0.59722E+06         0.17097E+06         0.00000E+00
    0.17097E+06        -0.29169E+05         0.00000E+00
    0.00000E+00         0.00000E+00         0.11361E+06
 
    0.58870E+06         0.18471E+06         0.00000E+00
    0.18471E+06        -0.26160E+05         0.00000E+00
    0.00000E+00         0.00000E+00         0.11251E+06
 
    0.57976E+06         0.19822E+06         0.00000E+00
    0.19822E+06        -0.22931E+05         0.00000E+00
    0.00000E+00         0.00000E+00         0.11137E+06
 
    0.57044E+06         0.21152E+06         0.00000E+00
    0.21152E+06        -0.19487E+05         0.00000E+00
    0.00000E+00         0.00000E+00         0.11019E+06
 
    0.56072E+06         0.22459E+06         0.00000E+00
    0.22459E+06        -0.15833E+05         0.00000E+00
    0.00000E+00         0.00000E+00         0.10898E+06
 
    0.55063E+06         0.23742E+06         0.00000E+00
    0.23742E+06        -0.11973E+05         0.00000E+00
    0.00000E+00         0.00000E+00         0.10773E+06
 
    0.54016E+06         0.25000E+06         0.00000E+00
    0.25000E+06        -0.79131E+04         0.00000E+00
    0.00000E+00         0.00000E+00         0.10645E+06
 
    0.52934E+06         0.26234E+06         0.00000E+00
    0.26234E+06        -0.36577E+04         0.00000E+00
    0.00000E+00         0.00000E+00         0.10514E+06
 
    0.51816E+06         0.27443E+06         0.00000E+00
    0.27443E+06         0.78799E+03         0.00000E+00
    0.00000E+00         0.00000E+00         0.10379E+06
 
    0.50664E+06         0.28626E+06         0.00000E+00
    0.28626E+06         0.54191E+04         0.00000E+00
    0.00000E+00         0.00000E+00         0.10241E+06
 
    0.49478E+06         0.29782E+06         0.00000E+00
    0.29782E+06         0.10231E+05         0.00000E+00
    0.00000E+00         0.00000E+00         0.10100E+06
 
    0.48260E+06         0.30911E+06         0.00000E+00
    0.30911E+06         0.15218E+05         0.00000E+00
    0.00000E+00         0.00000E+00         0.99564E+05
 
    0.47011E+06         0.32013E+06         0.00000E+00
    0.32013E+06         0.20376E+05         0.00000E+00
    0.00000E+00         0.00000E+00         0.98096E+05
 
    0.45730E+06         0.33087E+06         0.00000E+00
    0.33087E+06         0.25699E+05         0.00000E+00
    0.00000E+00         0.00000E+00         0.96600E+05
 
    0.44420E+06         0.34133E+06         0.00000E+00
    0.34133E+06         0.31183E+05         0.00000E+00
    0.00000E+00         0.00000E+00         0.95076E+05
 
    0.43080E+06         0.35150E+06         0.00000E+00
    0.35150E+06         0.36824E+05         0.00000E+00
    0.00000E+00         0.00000E+00         0.93524E+05
 
    0.41712E+06         0.36138E+06         0.00000E+00
    0.36138E+06         0.42616E+05         0.00000E+00
    0.00000E+00         0.00000E+00         0.91947E+05
 
    0.40316E+06         0.37097E+06         0.00000E+00
    0.37097E+06         0.48554E+05         0.00000E+00
    0.00000E+00         0.00000E+00         0.90343E+05
 
    0.38894E+06         0.38025E+06         0.00000E+00
    0.38025E+06         0.54634E+05         0.00000E+00
    0.00000E+00         0.00000E+00         0.88715E+05
 
    0.37446E+06         0.38924E+06         0.00000E+00
    0.38924E+06         0.60852E+05         0.00000E+00
    0.00000E+00         0.00000E+00         0.87062E+05
 
    0.35973E+06         0.39792E+06         0.00000E+00
    0.39792E+06         0.67202E+05         0.00000E+00
    0.00000E+00         0.00000E+00         0.85386E+05
 
    0.34475E+06         0.40630E+06         0.00000E+00
    0.40630E+06         0.73681E+05         0.00000E+00
    0.00000E+00         0.00000E+00         0.83687E+05
 
    0.32954E+06         0.41436E+06         0.00000E+00
    0.41436E+06         0.80283E+05         0.00000E+00
    0.00000E+00         0.00000E+00         0.81965E+05
 
    0.31410E+06         0.42211E+06         0.00000E+00
    0.42211E+06         0.87005E+05         0.00000E+00
    0.00000E+00         0.00000E+00         0.80221E+05
 
    0.29844E+06         0.42954E+06         0.00000E+00
    0.42954E+06         0.93842E+05         0.00000E+00
    0.00000E+00         0.00000E+00         0.78457E+05
 
    0.28257E+06         0.43665E+06         0.00000E+00
    0.43665E+06         0.10079E+06         0.00000E+00
    0.00000E+00         0.00000E+00         0.76672E+05
 
    0.26649E+06         0.44345E+06         0.00000E+00
    0.44345E+06         0.10784E+06         0.00000E+00
    0.00000E+00         0.00000E+00         0.74867E+05
 
    0.25021E+06         0.44991E+06         0.00000E+00
    0.44991E+06         0.11500E+06         0.00000E+00
    0.00000E+00         0.00000E+00         0.73042E+05
 
    0.23374E+06         0.45606E+06         0.00000E+00
    0.45606E+06         0.12225E+06         0.00000E+00
    0.00000E+00         0.00000E+00         0.71199E+05
 
    0.21708E+06         0.46187E+06         0.00000E+00
    0.46187E+06         0.12960E+06         0.00000E+00
    0.00000E+00         0.00000E+00         0.69338E+05
 
    0.20025E+06         0.46736E+06         0.00000E+00
    0.46736E+06         0.13704E+06         0.00000E+00
    0.00000E+00         0.00000E+00         0.67458E+05
 
    0.18324E+06         0.47251E+06         0.00000E+00
    0.47251E+06         0.14457E+06         0.00000E+00
    0.00000E+00         0.00000E+00         0.65562E+05
 
    0.16607E+06         0.47733E+06         0.00000E+00
    0.47733E+06         0.15217E+06         0.00000E+00
    0.00000E+00         0.00000E+00         0.63649E+05
 
    0.14874E+06         0.48181E+06         0.00000E+00
    0.48181E+06         0.15986E+06         0.00000E+00
    0.00000E+00         0.00000E+00         0.61720E+05
 
    0.13125E+06         0.48596E+06         0.00000E+00
    0.48596E+06         0.16762E+06         0.00000E+00
    0.00000E+00         0.00000E+00         0.59775E+05
 
    0.11362E+06         0.48976E+06         0.00000E+00
    0.48976E+06         0.17545E+06         0.00000E+00
    0.00000E+00         0.00000E+00         0.57814E+05
 
    0.95843E+05         0.49323E+06         0.00000E+00
    0.49323E+06         0.18335E+06         0.00000E+00
    0.00000E+00         0.00000E+00         0.55839E+05
 
    0.77933E+05         0.49635E+06         0.00000E+00
    0.49635E+06         0.19132E+06         0.00000E+00
    0.00000E+00         0.00000E+00         0.53850E+05
 
    0.59893E+05         0.49912E+06         0.00000E+00
    0.49912E+06         0.19934E+06         0.00000E+00
    0.00000E+00         0.00000E+00         0.51846E+05
 
    0.73462E+06         0.86534E+04         0.00000E+00
    0.86534E+04        -0.55250E+05         0.00000E+00
    0.00000E+00         0.00000E+00         0.13587E+06
 
    0.73049E+06         0.25660E+05         0.00000E+00
    0.25660E+05        -0.54939E+05         0.00000E+00
    0.00000E+00         0.00000E+00         0.13511E+06
 
    0.72581E+06         0.42524E+05         0.00000E+00
    0.42524E+05        -0.54328E+05         0.00000E+00
    0.00000E+00         0.00000E+00         0.13430E+06
 
    0.72058E+06         0.59234E+05         0.00000E+00
    0.59234E+05        -0.53421E+05         0.00000E+00
    0.00000E+00         0.00000E+00         0.13343E+06
 
    0.71483E+06         0.75781E+05         0.00000E+00
    0.75781E+05        -0.52223E+05         0.00000E+00
    0.00000E+00         0.00000E+00         0.13252E+06
 
    0.70855E+06         0.92153E+05         0.00000E+00
    0.92153E+05        -0.50740E+05         0.00000E+00
    0.00000E+00         0.00000E+00         0.13156E+06
 
    0.70176E+06         0.10834E+06         0.00000E+00
    0.10834E+06        -0.48976E+05         0.00000E+00
    0.00000E+00         0.00000E+00         0.13056E+06
 
    0.69447E+06         0.12434E+06         0.00000E+00
    0.12434E+06        -0.46938E+05         0.00000E+00
    0.00000E+00         0.00000E+00         0.12951E+06
 
    0.68668E+06         0.14013E+06         0.00000E+00
    0.14013E+06        -0.44630E+05         0.00000E+00
    0.00000E+00         0.00000E+00         0.12841E+06
 
    0.67841E+06         0.15571E+06         0.00000E+00
    0.15571E+06        -0.42057E+05         0.00000E+00
    0.00000E+00         0.00000E+00         0.12727E+06
 
    0.66967E+06         0.17108E+06         0.00000E+00
    0.17108E+06        -0.39226E+05         0.00000E+00
    0.00000E+00         0.00000E+00         0.12609E+06
 
    0.66047E+06         0.18621E+06         0.00000E+00
    0.18621E+06        -0.36142E+05         0.00000E+00
    0.00000E+00         0.00000E+00         0.12487E+06
 
    0.65082E+06         0.20112E+06         0.00000E+00
    0.20112E+06        -0.32811E+05         0.00000E+00
    0.00000E+00         0.00000E+00         0.12360E+06
 
    0.64073E+06         0.21577E+06         0.00000E+00
    0.21577E+06        -0.29238E+05         0.00000E+00
    0.00000E+00         0.00000E+00         0.12230E+06
 
    0.63020E+06         0.23018E+06         0.00000E+00
    0.23018E+06        -0.25429E+05         0.00000E+00
    0.00000E+00         0.00000E+00         0.12095E+06
 
    0.61926E+06         0.24434E+06         0.00000E+00
    0.24434E+06        -0.21389E+05         0.00000E+00
    0.00000E+00         0.00000E+00         0.11957E+06
 
    0.60790E+06         0.25823E+06         0.00000E+00
    0.25823E+06        -0.17125E+05         0.00000E+00
    0.00000E+00         0.00000E+00         0.11816E+06
 
    0.59615E+06         0.27185E+06         0.00000E+00
    0.27185E+06        -0.12642E+05         0.00000E+00
    0.00000E+00         0.00000E+00         0.11670E+06
 
    0.58400E+06         0.28520E+06         0.00000E+00
    0.28520E+06        -0.79449E+04         0.00000E+00
    0.00000E+00         0.00000E+00         0.11521E+06
 
    0.57148E+06         0.29827E+06         0.00000E+00
    0.29827E+06        -0.30404E+04         0.00000E+00
    0.00000E+00         0.00000E+00         0.11369E+06
 
    0.55858E+06         0.31105E+06         0.00000E+00
    0.31105E+06         0.20662E+04         0.00000E+00
    0.00000E+00         0.00000E+00         0.11213E+06
 
    0.54533E+06         0.32354E+06         0.00000E+00
    0.32354E+06         0.73695E+04         0.00000E+00
    0.00000E+00         0.00000E+00         0.11054E+06
 
    0.53173E+06         0.33574E+06         0.00000E+00
    0.33574E+06         0.12864E+05         0.00000E+00
    0.00000E+00         0.00000E+00         0.10892E+06
 
    0.51779E+06         0.34764E+06         0.00000E+00
    0.34764E+06         0.18544E+05         0.00000E+00
    0.00000E+00         0.00000E+00         0.10727E+06
 
    0.50351E+06         0.35923E+06         0.00000E+00
    0.35923E+06         0.24404E+05         0.00000E+00
    0.00000E+00         0.00000E+00         0.10558E+06
 
    0.48892E+06         0.37051E+06         0.00000E+00
    0.37051E+06         0.30438E+05         0.00000E+00
    0.00000E+00         0.00000E+00         0.10387E+06
 
    0.47402E+06         0.38149E+06         0.00000E+00
    0.38149E+06         0.36643E+05         0.00000E+00
    0.00000E+00         0.00000E+00         0.10213E+06
 
    0.45881E+06         0.39214E+06         0.00000E+00
    0.39214E+06         0.43011E+05         0.00000E+00
    0.00000E+00         0.00000E+00         0.10037E+06
 
    0.44332E+06         0.40248E+06         0.00000E+00
    0.40248E+06         0.49539E+05         0.00000E+00
    0.00000E+00         0.00000E+00         0.98571E+05
 
    0.42754E+06         0.41250E+06         0.00000E+00
    0.41250E+06         0.56220E+05         0.00000E+00
    0.00000E+00         0.00000E+00         0.96751E+05
 
    0.41148E+06         0.42218E+06         0.00000E+00
    0.42218E+06         0.63050E+05         0.00000E+00
    0.00000E+00         0.00000E+00         0.94906E+05
 
    0.39516E+06         0.43155E+06         0.00000E+00
    0.43155E+06         0.70024E+05         0.00000E+00
    0.00000E+00         0.00000E+00         0.93036E+05
 
    0.37858E+06         0.44058E+06         0.00000E+00
    0.44058E+06         0.77137E+05         0.00000E+00
    0.00000E+00         0.00000E+00         0.91143E+05
 
    0.36175E+06         0.44927E+06         0.00000E+00
    0.44927E+06         0.84385E+05         0.00000E+00
    0.00000E+00         0.00000E+00         0.89227E+05
 
    0.34468E+06         0.45763E+06         0.00000E+00
    0.45763E+06         0.91762E+05         0.00000E+00
    0.00000E+00         0.00000E+00         0.87288E+05
 
    0.32738E+06         0.46565E+06         0.00000E+00
    0.46565E+06         0.99263E+05         0.00000E+00
    0.00000E+00         0.00000E+00         0.85328E+05
 
    0.30985E+06         0.47333E+06         0.00000E+00
    0.47333E+06         0.10689E+06         0.00000E+00
    0.00000E+00         0.00000E+00         0.83347E+05
 
    0.29211E+06         0.48067E+06         0.00000E+00
    0.48067E+06         0.11462E+06         0.00000E+00
    0.00000E+00         0.00000E+00         0.81346E+05
 
    0.27415E+06         0.48766E+06         0.00000E+00
    0.48766E+06         0.12247E+06         0.00000E+00
    0.00000E+00         0.00000E+00         0.79325E+05
 
    0.25599E+06         0.49431E+06         0.00000E+00
    0.49431E+06         0.13043E+06         0.00000E+00
    0.00000E+00         0.00000E+00         0.77285E+05
 
    0.23764E+06         0.50061E+06         0.00000E+00
    0.50061E+06         0.13849E+06         0.00000E+00
    0.00000E+00         0.00000E+00         0.75226E+05
 
    0.21910E+06         0.50655E+06         0.00000E+00
    0.50655E+06         0.14665E+06         0.00000E+00
    0.00000E+00         0.00000E+00         0.73149E+05
 
    0.20038E+06         0.51215E+06         0.00000E+00
    0.51215E+06         0.15490E+06         0.00000E+00
    0.00000E+00         0.00000E+00         0.71056E+05
 
    0.18148E+06         0.51739E+06         0.00000E+00
    0.51739E+06         0.16324E+06         0.00000E+00
    0.00000E+00         0.00000E+00         0.68945E+05
 
    0.16242E+06         0.52228E+06         0.00000E+00
    0.52228E+06         0.17167E+06         0.00000E+00
    0.00000E+00         0.00000E+00         0.66818E+05
 
    0.14319E+06         0.52680E+06         0.00000E+00
    0.52680E+06         0.18018E+06         0.00000E+00
    0.00000E+00         0.00000E+00         0.64675E+05
 
    0.12381E+06         0.53097E+06         0.00000E+00
    0.53097E+06         0.18878E+06         0.00000E+00
    0.00000E+00         0.00000E+00         0.62517E+05
 
    0.10428E+06         0.53479E+06         0.00000E+00
    0.53479E+06         0.19744E+06         0.00000E+00
    0.00000E+00         0.00000E+00         0.60344E+05
 
    0.84604E+05         0.53824E+06         0.00000E+00
    0.53824E+06         0.20618E+06         0.00000E+00
    0.00000E+00         0.00000E+00         0.58157E+05
 
    0.64791E+05         0.54132E+06         0.00000E+00
    0.54132E+06         0.21499E+06         0.00000E+00
    0.00000E+00         0.00000E+00         0.55955E+05
 
    0.81344E+06         0.94814E+04         0.00000E+00
    0.94814E+04        -0.65766E+05         0.00000E+00
    0.00000E+00         0.00000E+00         0.14954E+06
 
    0.80857E+06         0.28085E+05         0.00000E+00
    0.28085E+05        -0.65420E+05         0.00000E+00
    0.00000E+00         0.00000E+00         0.14863E+06
 
    0.80308E+06         0.46519E+05         0.00000E+00
    0.46519E+05        -0.64740E+05         0.00000E+00
    0.00000E+00         0.00000E+00         0.14767E+06
 
    0.79700E+06         0.64773E+05         0.00000E+00
    0.64773E+05        -0.63733E+05         0.00000E+00
    0.00000E+00         0.00000E+00         0.14665E+06
 
    0.79033E+06         0.82835E+05         0.00000E+00
    0.82835E+05        -0.62404E+05         0.00000E+00
    0.00000E+00         0.00000E+00         0.14559E+06
 
    0.78309E+06         0.10069E+06         0.00000E+00
    0.10069E+06        -0.60759E+05         0.00000E+00
    0.00000E+00         0.00000E+00         0.14447E+06
 
    0.77529E+06         0.11834E+06         0.00000E+00
    0.11834E+06        -0.58805E+05         0.00000E+00
    0.00000E+00         0.00000E+00         0.14330E+06
 
    0.76693E+06         0.13577E+06         0.00000E+00
    0.13577E+06        -0.56548E+05         0.00000E+00
    0.00000E+00         0.00000E+00         0.14208E+06
 
    0.75804E+06         0.15296E+06         0.00000E+00
    0.15296E+06        -0.53994E+05         0.00000E+00
    0.00000E+00         0.00000E+00         0.14081E+06
 
    0.74863E+06         0.16992E+06         0.00000E+00
    0.16992E+06        -0.51150E+05         0.00000E+00
    0.00000E+00         0.00000E+00         0.13950E+06
 
    0.73870E+06         0.18662E+06         0.00000E+00
    0.18662E+06        -0.48022E+05         0.00000E+00
    0.00000E+00         0.00000E+00         0.13813E+06
 
    0.72826E+06         0.20307E+06         0.00000E+00
    0.20307E+06        -0.44616E+05         0.00000E+00
    0.00000E+00         0.00000E+00         0.13673E+06
 
    0.71734E+06         0.21925E+06         0.00000E+00
    0.21925E+06        -0.40940E+05         0.00000E+00
    0.00000E+00         0.00000E+00         0.13528E+06
 
    0.70595E+06         0.23516E+06         0.00000E+00
    0.23516E+06        -0.36999E+05         0.00000E+00
    0.00000E+00         0.00000E+00         0.13379E+06
 
    0.69408E+06         0.25079E+06         0.00000E+00
    0.25079E+06        -0.32800E+05         0.00000E+00
    0.00000E+00         0.00000E+00         0.13226E+06
 
    0.68177E+06         0.26613E+06         0.00000E+00
    0.26613E+06        -0.28350E+05         0.00000E+00
    0.00000E+00         0.00000E+00         0.13068E+06
 
    0.66901E+06         0.28118E+06         0.00000E+00
    0.28118E+06        -0.23655E+05         0.00000E+00
    0.00000E+00         0.00000E+00         0.12907E+06
 
    0.65582E+06         0.29593E+06         0.00000E+00
    0.29593E+06        -0.18721E+05         0.00000E+00
    0.00000E+00         0.00000E+00         0.12742E+06
 
    0.64222E+06         0.31038E+06         0.00000E+00
    0.31038E+06        -0.13556E+05         0.00000E+00
    0.00000E+00         0.00000E+00         0.12573E+06
 
    0.62821E+06         0.32451E+06         0.00000E+00
    0.32451E+06        -0.81647E+04         0.00000E+00
    0.00000E+00         0.00000E+00         0.12401E+06
 
    0.61380E+06         0.33833E+06         0.00000E+00
    0.33833E+06        -0.25543E+04         0.00000E+00
    0.00000E+00         0.00000E+00         0.12225E+06
 
    0.59901E+06         0.35183E+06         0.00000E+00
    0.35183E+06         0.32693E+04         0.00000E+00
    0.00000E+00         0.00000E+00         0.12046E+06
 
    0.58385E+06         0.36501E+06         0.00000E+00
    0.36501E+06         0.92997E+04         0.00000E+00
    0.00000E+00         0.00000E+00         0.11863E+06
 
    0.56833E+06         0.37786E+06         0.00000E+00
    0.37786E+06         0.15531E+05         0.00000E+00
    0.00000E+00         0.00000E+00         0.11677E+06
 
    0.55245E+06         0.39038E+06         0.00000E+00
    0.39038E+06         0.21957E+05         0.00000E+00
    0.00000E+00         0.00000E+00         0.11488E+06
 
    0.53624E+06         0.40256E+06         0.00000E+00
    0.40256E+06         0.28572E+05         0.00000E+00
    0.00000E+00         0.00000E+00         0.11296E+06
 
    0.51970E+06         0.41440E+06         0.00000E+00
    0.41440E+06         0.35370E+05         0.00000E+00
    0.00000E+00         0.00000E+00         0.11101E+06
 
    0.50284E+06         0.42589E+06         0.00000E+00
    0.42589E+06         0.42345E+05         0.00000E+00
    0.00000E+00         0.00000E+00         0.10904E+06
 
    0.48568E+06         0.43704E+06         0.00000E+00
    0.43704E+06         0.49491E+05         0.00000E+00
    0.00000E+00         0.00000E+00         0.10703E+06
 
    0.46821E+06         0.44785E+06         0.00000E+00
    0.44785E+06         0.56804E+05         0.00000E+00
    0.00000E+00         0.00000E+00         0.10500E+06
 
    0.45046E+06         0.45830E+06         0.00000E+00
    0.45830E+06         0.64277E+05         0.00000E+00
    0.00000E+00         0.00000E+00         0.10295E+06
 
    0.43242E+06         0.46839E+06         0.00000E+00
    0.46839E+06         0.71906E+05         0.00000E+00
    0.00000E+00         0.00000E+00         0.10087E+06
 
    0.41412E+06         0.47813E+06         0.00000E+00
    0.47813E+06         0.79684E+05         0.00000E+00
    0.00000E+00         0.00000E+00         0.98760E+05
 
    0.39555E+06         0.48751E+06         0.00000E+00
    0.48751E+06         0.87607E+05         0.00000E+00
    0.00000E+00         0.00000E+00         0.96632E+05
 
    0.37674E+06         0.49653E+06         0.00000E+00
    0.49653E+06         0.95670E+05         0.00000E+00
    0.00000E+00         0.00000E+00         0.94482E+05
 
    0.35768E+06         0.50519E+06         0.00000E+00
    0.50519E+06         0.10387E+06         0.00000E+00
    0.00000E+00         0.00000E+00         0.92309E+05
 
    0.33838E+06         0.51349E+06         0.00000E+00
    0.51349E+06         0.11220E+06         0.00000E+00
    0.00000E+00         0.00000E+00         0.90116E+05
 
    0.31886E+06         0.52142E+06         0.00000E+00
    0.52142E+06         0.12065E+06         0.00000E+00
    0.00000E+00         0.00000E+00         0.87903E+05
 
    0.29913E+06         0.52898E+06         0.00000E+00
    0.52898E+06         0.12922E+06         0.00000E+00
    0.00000E+00         0.00000E+00         0.85670E+05
 
    0.27918E+06         0.53617E+06         0.00000E+00
    0.53617E+06         0.13791E+06         0.00000E+00
    0.00000E+00         0.00000E+00         0.83418E+05
 
    0.25902E+06         0.54300E+06         0.00000E+00
    0.54300E+06         0.14672E+06         0.00000E+00
    0.00000E+00         0.00000E+00         0.81148E+05
 
    0.23868E+06         0.54945E+06         0.00000E+00
    0.54945E+06         0.15563E+06         0.00000E+00
    0.00000E+00         0.00000E+00         0.78860E+05
 
    0.21814E+06         0.55553E+06         0.00000E+00
    0.55553E+06         0.16464E+06         0.00000E+00
    0.00000E+00         0.00000E+00         0.76556E+05
 
    0.19742E+06         0.56123E+06         0.00000E+00
    0.56123E+06         0.17375E+06         0.00000E+00
    0.00000E+00         0.00000E+00         0.74234E+05
 
    0.17653E+06         0.56657E+06         0.00000E+00
    0.56657E+06         0.18296E+06         0.00000E+00
    0.00000E+00         0.00000E+00         0.71897E+05
 
    0.15546E+06         0.57152E+06         0.00000E+00
    0.57152E+06         0.19226E+06         0.00000E+00
    0.00000E+00         0.00000E+00         0.69545E+05
 
    0.13424E+06         0.57610E+06         0.00000E+00
    0.57610E+06         0.20165E+06         0.00000E+00
    0.00000E+00         0.00000E+00         0.67177E+05
 
    0.11286E+06         0.58030E+06         0.00000E+00
    0.58030E+06         0.21112E+06         0.00000E+00
    0.00000E+00         0.00000E+00         0.64795E+05
 
    0.91330E+05         0.58412E+06         0.00000E+00
    0.58412E+06         0.22067E+06         0.00000E+00
    0.00000E+00         0.00000E+00         0.62399E+05
 
    0.69655E+05         0.58755E+06         0.00000E+00
    0.58755E+06         0.23029E+06         0.00000E+00
    0.00000E+00         0.00000E+00         0.59990E+05
 
    0.89880E+06         0.10403E+05         0.00000E+00
    0.10403E+05        -0.78240E+05         0.00000E+00
    0.00000E+00         0.00000E+00         0.16411E+06
 
    0.89303E+06         0.30777E+05         0.00000E+00
    0.30777E+05        -0.77856E+05         0.00000E+00
    0.00000E+00         0.00000E+00         0.16303E+06
 
    0.88659E+06         0.50951E+05         0.00000E+00
    0.50951E+05        -0.77102E+05         0.00000E+00
    0.00000E+00         0.00000E+00         0.16190E+06
 
    0.87950E+06         0.70912E+05         0.00000E+00
    0.70912E+05        -0.75986E+05         0.00000E+00
    0.00000E+00         0.00000E+00         0.16070E+06
 
    0.87177E+06         0.90648E+05         0.00000E+00
    0.90648E+05        -0.74516E+05         0.00000E+00
    0.00000E+00         0.00000E+00         0.15945E+06
 
    0.86341E+06         0.11015E+06         0.00000E+00
    0.11015E+06        -0.72697E+05         0.00000E+00
    0.00000E+00         0.00000E+00         0.15814E+06
 
    0.85443E+06         0.12940E+06         0.00000E+00
    0.12940E+06        -0.70538E+05         0.00000E+00
    0.00000E+00         0.00000E+00         0.15678E+06
 
    0.84486E+06         0.14840E+06         0.00000E+00
    0.14840E+06        -0.68046E+05         0.00000E+00
    0.00000E+00         0.00000E+00         0.15536E+06
 
    0.83470E+06         0.16713E+06         0.00000E+00
    0.16713E+06        -0.65228E+05         0.00000E+00
    0.00000E+00         0.00000E+00         0.15390E+06
 
    0.82398E+06         0.18559E+06         0.00000E+00
    0.18559E+06        -0.62093E+05         0.00000E+00
    0.00000E+00         0.00000E+00         0.15238E+06
 
    0.81270E+06         0.20376E+06         0.00000E+00
    0.20376E+06        -0.58646E+05         0.00000E+00
    0.00000E+00         0.00000E+00         0.15081E+06
 
    0.80087E+06         0.22164E+06         0.00000E+00
    0.22164E+06        -0.54897E+05         0.00000E+00
    0.00000E+00         0.00000E+00         0.14920E+06
 
    0.78852E+06         0.23922E+06         0.00000E+00
    0.23922E+06        -0.50853E+05         0.00000E+00
    0.00000E+00         0.00000E+00         0.14753E+06
 
    0.77566E+06         0.25649E+06         0.00000E+00
    0.25649E+06        -0.46520E+05         0.00000E+00
    0.00000E+00         0.00000E+00         0.14583E+06
 
    0.76229E+06         0.27345E+06         0.00000E+00
    0.27345E+06        -0.41907E+05         0.00000E+00
    0.00000E+00         0.00000E+00         0.14408E+06
 
    0.74844E+06         0.29008E+06         0.00000E+00
    0.29008E+06        -0.37021E+05         0.00000E+00
    0.00000E+00         0.00000E+00         0.14228E+06
 
    0.73412E+06         0.30639E+06         0.00000E+00
    0.30639E+06        -0.31869E+05         0.00000E+00
    0.00000E+00         0.00000E+00         0.14045E+06
 
    0.71934E+06         0.32237E+06         0.00000E+00
    0.32237E+06        -0.26459E+05         0.00000E+00
    0.00000E+00         0.00000E+00         0.13858E+06
 
    0.70412E+06         0.33801E+06         0.00000E+00
    0.33801E+06        -0.20798E+05         0.00000E+00
    0.00000E+00         0.00000E+00         0.13666E+06
 
    0.68846E+06         0.35330E+06         0.00000E+00
    0.35330E+06        -0.14893E+05         0.00000E+00
    0.00000E+00         0.00000E+00         0.13471E+06
 
    0.67239E+06         0.36825E+06         0.00000E+00
    0.36825E+06        -0.87511E+04         0.00000E+00
    0.00000E+00         0.00000E+00         0.13273E+06
 
    0.65591E+06         0.38284E+06         0.00000E+00
    0.38284E+06        -0.23794E+04         0.00000E+00
    0.00000E+00         0.00000E+00         0.13071E+06
 
    0.63903E+06         0.39707E+06         0.00000E+00
    0.39707E+06         0.42153E+04         0.00000E+00
    0.00000E+00         0.00000E+00         0.12865E+06
 
    0.62178E+06         0.41095E+06         0.00000E+00
    0.41095E+06         0.11026E+05         0.00000E+00
    0.00000E+00         0.00000E+00         0.12656E+06
 
    0.60416E+06         0.42446E+06         0.00000E+00
    0.42446E+06         0.18047E+05         0.00000E+00
    0.00000E+00         0.00000E+00         0.12444E+06
 
    0.58618E+06         0.43760E+06         0.00000E+00
    0.43760E+06         0.25270E+05         0.00000E+00
    0.00000E+00         0.00000E+00         0.12229E+06
 
    0.56786E+06         0.45038E+06         0.00000E+00
    0.45038E+06         0.32690E+05         0.00000E+00
    0.00000E+00         0.00000E+00         0.12011E+06
 
    0.54921E+06         0.46278E+06         0.00000E+00
    0.46278E+06         0.40300E+05         0.00000E+00
    0.00000E+00         0.00000E+00         0.11790E+06
 
    0.53023E+06         0.47481E+06         0.00000E+00
    0.47481E+06         0.48095E+05         0.00000E+00
    0.00000E+00         0.00000E+00         0.11566E+06
 
    0.51094E+06         0.48645E+06         0.00000E+00
    0.48645E+06         0.56068E+05         0.00000E+00
    0.00000E+00         0.00000E+00         0.11340E+06
 
    0.49135E+06         0.49772E+06         0.00000E+00
    0.49772E+06         0.64213E+05         0.00000E+00
    0.00000E+00         0.00000E+00         0.11111E+06
 
    0.47148E+06         0.50861E+06         0.00000E+00
    0.50861E+06         0.72524E+05         0.00000E+00
    0.00000E+00         0.00000E+00         0.10880E+06
 
    0.45132E+06         0.51911E+06         0.00000E+00
    0.51911E+06         0.80997E+05         0.00000E+00
    0.00000E+00         0.00000E+00         0.10646E+06
 
    0.43090E+06         0.52923E+06         0.00000E+00
    0.52923E+06         0.89625E+05         0.00000E+00
    0.00000E+00         0.00000E+00         0.10410E+06
 
    0.41021E+06         0.53897E+06         0.00000E+00
    0.53897E+06         0.98403E+05         0.00000E+00
    0.00000E+00         0.00000E+00         0.10172E+06
 
    0.38928E+06         0.54831E+06         0.00000E+00
    0.54831E+06         0.10733E+06         0.00000E+00
    0.00000E+00         0.00000E+00         0.99320E+05
 
    0.36810E+06         0.55727E+06         0.00000E+00
    0.55727E+06         0.11639E+06         0.00000E+00
    0.00000E+00         0.00000E+00         0.96897E+05
 
    0.34669E+06         0.56584E+06         0.00000E+00
    0.56584E+06         0.12559E+06         0.00000E+00
    0.00000E+00         0.00000E+00         0.94455E+05
 
    0.32505E+06         0.57402E+06         0.00000E+00
    0.57402E+06         0.13492E+06         0.00000E+00
    0.00000E+00         0.00000E+00         0.91994E+05
 
    0.30320E+06         0.58181E+06         0.00000E+00
    0.58181E+06         0.14437E+06         0.00000E+00
    0.00000E+00         0.00000E+00         0.89514E+05
 
    0.28114E+06         0.58920E+06         0.00000E+00
    0.58920E+06         0.15395E+06         0.00000E+00
    0.00000E+00         0.00000E+00         0.87018E+05
 
    0.25888E+06         0.59621E+06         0.00000E+00
    0.59621E+06         0.16364E+06         0.00000E+00
    0.00000E+00         0.00000E+00         0.84504E+05
 
    0.23643E+06         0.60282E+06         0.00000E+00
    0.60282E+06         0.17344E+06         0.00000E+00
    0.00000E+00         0.00000E+00         0.81974E+05
 
    0.21379E+06         0.60903E+06         0.00000E+00
    0.60903E+06         0.18336E+06         0.00000E+00
    0.00000E+00         0.00000E+00         0.79429E+05
 
    0.19097E+06         0.61485E+06         0.00000E+00
    0.61485E+06         0.19338E+06         0.00000E+00
    0.00000E+00         0.00000E+00         0.76869E+05
 
    0.16797E+06         0.62028E+06         0.00000E+00
    0.62028E+06         0.20350E+06         0.00000E+00
    0.00000E+00         0.00000E+00         0.74294E+05
 
    0.14481E+06         0.62531E+06         0.00000E+00
    0.62531E+06         0.21371E+06         0.00000E+00
    0.00000E+00         0.00000E+00         0.71706E+05
 
    0.12149E+06         0.62994E+06         0.00000E+00
    0.62994E+06         0.22402E+06         0.00000E+00
    0.00000E+00         0.00000E+00         0.69103E+05
 
    0.98018E+05         0.63418E+06         0.00000E+00
    0.63418E+06         0.23442E+06         0.00000E+00
    0.00000E+00         0.00000E+00         0.66488E+05
 
    0.74393E+05         0.63801E+06         0.00000E+00
    0.63801E+06         0.24491E+06         0.00000E+00
    0.00000E+00         0.00000E+00         0.63860E+05
 
    0.99123E+06         0.11427E+05         0.00000E+00
    0.11427E+05        -0.93046E+05         0.00000E+00
    0.00000E+00         0.00000E+00         0.17964E+06
 
    0.98440E+06         0.33761E+05         0.00000E+00
    0.33761E+05        -0.92620E+05         0.00000E+00
    0.00000E+00         0.00000E+00         0.17836E+06
 
    0.97683E+06         0.55856E+05         0.00000E+00
    0.55856E+05        -0.91786E+05         0.00000E+00
    0.00000E+00         0.00000E+00         0.17701E+06
 
    0.96855E+06         0.77699E+05         0.00000E+00
    0.77699E+05        -0.90553E+05         0.00000E+00
    0.00000E+00         0.00000E+00         0.17560E+06
 
    0.95957E+06         0.99278E+05         0.00000E+00
    0.99278E+05        -0.88930E+05         0.00000E+00
    0.00000E+00         0.00000E+00         0.17413E+06
 
    0.94991E+06         0.12058E+06         0.00000E+00
    0.12058E+06        -0.86924E+05         0.00000E+00
    0.00000E+00         0.00000E+00         0.17260E+06
 
    0.93958E+06         0.14160E+06         0.00000E+00
    0.14160E+06        -0.84545E+05         0.00000E+00
    0.00000E+00         0.00000E+00         0.17101E+06
 
    0.92860E+06         0.16232E+06         0.00000E+00
    0.16232E+06        -0.81801E+05         0.00000E+00
    0.00000E+00         0.00000E+00         0.16936E+06
 
    0.91699E+06         0.18273E+06         0.00000E+00
    0.18273E+06        -0.78702E+05         0.00000E+00
    0.00000E+00         0.00000E+00         0.16766E+06
 
    0.90477E+06         0.20283E+06         0.00000E+00
    0.20283E+06        -0.75256E+05         0.00000E+00
    0.00000E+00         0.00000E+00         0.16590E+06
 
    0.89195E+06         0.22261E+06         0.00000E+00
    0.22261E+06        -0.71471E+05         0.00000E+00
    0.00000E+00         0.00000E+00         0.16409E+06
 
    0.87854E+06         0.24205E+06         0.00000E+00
    0.24205E+06        -0.67357E+05         0.00000E+00
    0.00000E+00         0.00000E+00         0.16224E+06
 
    0.86457E+06         0.26115E+06         0.00000E+00
    0.26115E+06        -0.62921E+05         0.00000E+00
    0.00000E+00         0.00000E+00         0.16033E+06
 
    0.85005E+06         0.27990E+06         0.00000E+00
    0.27990E+06        -0.58174E+05         0.00000E+00
    0.00000E+00         0.00000E+00         0.15838E+06
 
    0.83500E+06         0.29830E+06         0.00000E+00
    0.29830E+06        -0.53122E+05         0.00000E+00
    0.00000E+00         0.00000E+00         0.15638E+06
 
    0.81943E+06         0.31633E+06         0.00000E+00
    0.31633E+06        -0.47776E+05         0.00000E+00
    0.00000E+00         0.00000E+00         0.15433E+06
 
    0.80337E+06         0.33400E+06         0.00000E+00
    0.33400E+06        -0.42142E+05         0.00000E+00
    0.00000E+00         0.00000E+00         0.15224E+06
 
    0.78681E+06         0.35130E+06         0.00000E+00
    0.35130E+06        -0.36230E+05         0.00000E+00
    0.00000E+00         0.00000E+00         0.15012E+06
 
    0.76979E+06         0.36823E+06         0.00000E+00
    0.36823E+06        -0.30048E+05         0.00000E+00
    0.00000E+00         0.00000E+00         0.14795E+06
 
    0.75231E+06         0.38477E+06         0.00000E+00
    0.38477E+06        -0.23603E+05         0.00000E+00
    0.00000E+00         0.00000E+00         0.14574E+06
 
    0.73439E+06         0.40092E+06         0.00000E+00
    0.40092E+06        -0.16904E+05         0.00000E+00
    0.00000E+00         0.00000E+00         0.14350E+06
 
    0.71605E+06         0.41669E+06         0.00000E+00
    0.41669E+06        -0.99582E+04         0.00000E+00
    0.00000E+00         0.00000E+00         0.14122E+06
 
    0.69730E+06         0.43206E+06         0.00000E+00
    0.43206E+06        -0.27733E+04         0.00000E+00
    0.00000E+00         0.00000E+00         0.13890E+06
 
    0.67815E+06         0.44704E+06         0.00000E+00
    0.44704E+06         0.46433E+04         0.00000E+00
    0.00000E+00         0.00000E+00         0.13656E+06
 
    0.65861E+06         0.46162E+06         0.00000E+00
    0.46162E+06         0.12284E+05         0.00000E+00
    0.00000E+00         0.00000E+00         0.13418E+06
 
    0.63871E+06         0.47579E+06         0.00000E+00
    0.47579E+06         0.20142E+05         0.00000E+00
    0.00000E+00         0.00000E+00         0.13177E+06
 
    0.61845E+06         0.48957E+06         0.00000E+00
    0.48957E+06         0.28210E+05         0.00000E+00
    0.00000E+00         0.00000E+00         0.12933E+06
 
    0.59784E+06         0.50294E+06         0.00000E+00
    0.50294E+06         0.36481E+05         0.00000E+00
    0.00000E+00         0.00000E+00         0.12687E+06
 
    0.57691E+06         0.51590E+06         0.00000E+00
    0.51590E+06         0.44950E+05         0.00000E+00
    0.00000E+00         0.00000E+00         0.12437E+06
 
    0.55565E+06         0.52846E+06         0.00000E+00
    0.52846E+06         0.53608E+05         0.00000E+00
    0.00000E+00         0.00000E+00         0.12185E+06
 
    0.53409E+06         0.54060E+06         0.00000E+00
    0.54060E+06         0.62450E+05         0.00000E+00
    0.00000E+00         0.00000E+00         0.11931E+06
 
    0.51223E+06         0.55234E+06         0.00000E+00
    0.55234E+06         0.71470E+05         0.00000E+00
    0.00000E+00         0.00000E+00         0.11674E+06
 
    0.49009E+06         0.56366E+06         0.00000E+00
    0.56366E+06         0.80663E+05         0.00000E+00
    0.00000E+00         0.00000E+00         0.11415E+06
 
    0.46767E+06         0.57457E+06         0.00000E+00
    0.57457E+06         0.90021E+05         0.00000E+00
    0.00000E+00         0.00000E+00         0.11154E+06
 
    0.44498E+06         0.58507E+06         0.00000E+00
    0.58507E+06         0.99540E+05         0.00000E+00
    0.00000E+00         0.00000E+00         0.10890E+06
 
    0.42205E+06         0.59515E+06         0.00000E+00
    0.59515E+06         0.10921E+06         0.00000E+00
    0.00000E+00         0.00000E+00         0.10625E+06
 
    0.39886E+06         0.60482E+06         0.00000E+00
    0.60482E+06         0.11904E+06         0.00000E+00
    0.00000E+00         0.00000E+00         0.10358E+06
 
    0.37544E+06         0.61408E+06         0.00000E+00
    0.61408E+06         0.12901E+06         0.00000E+00
    0.00000E+00         0.00000E+00         0.10089E+06
 
    0.35180E+06         0.62292E+06         0.00000E+00
    0.62292E+06         0.13912E+06         0.00000E+00
    0.00000E+00         0.00000E+00         0.98183E+05
 
    0.32793E+06         0.63135E+06         0.00000E+00
    0.63135E+06         0.14936E+06         0.00000E+00
    0.00000E+00         0.00000E+00         0.95459E+05
 
    0.30386E+06         0.63937E+06         0.00000E+00
    0.63937E+06         0.15974E+06         0.00000E+00
    0.00000E+00         0.00000E+00         0.92719E+05
 
    0.27958E+06         0.64697E+06         0.00000E+00
    0.64697E+06         0.17024E+06         0.00000E+00
    0.00000E+00         0.00000E+00         0.89965E+05
 
    0.25511E+06         0.65416E+06         0.00000E+00
    0.65416E+06         0.18087E+06         0.00000E+00
    0.00000E+00         0.00000E+00         0.87195E+05
 
    0.23045E+06         0.66093E+06         0.00000E+00
    0.66093E+06         0.19161E+06         0.00000E+00
    0.00000E+00         0.00000E+00         0.84412E+05
 
    0.20560E+06         0.66729E+06         0.00000E+00
    0.66729E+06         0.20247E+06         0.00000E+00
    0.00000E+00         0.00000E+00         0.81615E+05
 
    0.18059E+06         0.67324E+06         0.00000E+00
    0.67324E+06         0.21344E+06         0.00000E+00
    0.00000E+00         0.00000E+00         0.78806E+05
 
    0.15540E+06         0.67877E+06         0.00000E+00
    0.67877E+06         0.22452E+06         0.00000E+00
    0.00000E+00         0.00000E+00         0.75984E+05
 
    0.13005E+06         0.68389E+06         0.00000E+00
    0.68389E+06         0.23570E+06         0.00000E+00
    0.00000E+00         0.00000E+00         0.73151E+05
 
    0.10455E+06         0.68859E+06         0.00000E+00
    0.68859E+06         0.24698E+06         0.00000E+00
    0.00000E+00         0.00000E+00         0.70306E+05
 
    0.78886E+05         0.69288E+06         0.00000E+00
    0.69288E+06         0.25836E+06         0.00000E+00
    0.00000E+00         0.00000E+00         0.67450E+05
 
    0.10913E+07         0.12561E+05         0.00000E+00
    0.12561E+05        -0.11062E+06         0.00000E+00
    0.00000E+00         0.00000E+00         0.19614E+06
 
    0.10832E+07         0.37058E+05         0.00000E+00
    0.37058E+05        -0.11015E+06         0.00000E+00
    0.00000E+00         0.00000E+00         0.19461E+06
 
    0.10743E+07         0.61269E+05         0.00000E+00
    0.61269E+05        -0.10923E+06         0.00000E+00
    0.00000E+00         0.00000E+00         0.19301E+06
 
    0.10646E+07         0.85183E+05         0.00000E+00
    0.85183E+05        -0.10787E+06         0.00000E+00
    0.00000E+00         0.00000E+00         0.19135E+06
 
    0.10542E+07         0.10879E+06         0.00000E+00
    0.10879E+06        -0.10609E+06         0.00000E+00
    0.00000E+00         0.00000E+00         0.18961E+06
 
    0.10430E+07         0.13207E+06         0.00000E+00
    0.13207E+06        -0.10388E+06         0.00000E+00
    0.00000E+00         0.00000E+00         0.18782E+06
 
    0.10311E+07         0.15501E+06         0.00000E+00
    0.15501E+06        -0.10127E+06         0.00000E+00
    0.00000E+00         0.00000E+00         0.18596E+06
 
    0.10185E+07         0.17761E+06         0.00000E+00
    0.17761E+06        -0.98257E+05         0.00000E+00
    0.00000E+00         0.00000E+00         0.18404E+06
 
    0.10052E+07         0.19986E+06         0.00000E+00
    0.19986E+06        -0.94858E+05         0.00000E+00
    0.00000E+00         0.00000E+00         0.18207E+06
 
    0.99125E+06         0.22175E+06         0.00000E+00
    0.22175E+06        -0.91082E+05         0.00000E+00
    0.00000E+00         0.00000E+00         0.18003E+06
 
    0.97667E+06         0.24326E+06         0.00000E+00
    0.24326E+06        -0.86939E+05         0.00000E+00
    0.00000E+00         0.00000E+00         0.17795E+06
 
    0.96146E+06         0.26439E+06         0.00000E+00
    0.26439E+06        -0.82439E+05         0.00000E+00
    0.00000E+00         0.00000E+00         0.17580E+06
 
    0.94566E+06         0.28514E+06         0.00000E+00
    0.28514E+06        -0.77592E+05         0.00000E+00
    0.00000E+00         0.00000E+00         0.17361E+06
 
    0.92927E+06         0.30549E+06         0.00000E+00
    0.30549E+06        -0.72408E+05         0.00000E+00
    0.00000E+00         0.00000E+00         0.17137E+06
 
    0.91232E+06         0.32545E+06         0.00000E+00
    0.32545E+06        -0.66897E+05         0.00000E+00
    0.00000E+00         0.00000E+00         0.16909E+06
 
    0.89483E+06         0.34499E+06         0.00000E+00
    0.34499E+06        -0.61067E+05         0.00000E+00
    0.00000E+00         0.00000E+00         0.16675E+06
 
    0.87681E+06         0.36413E+06         0.00000E+00
    0.36413E+06        -0.54930E+05         0.00000E+00
    0.00000E+00         0.00000E+00         0.16438E+06
 
    0.85827E+06         0.38285E+06         0.00000E+00
    0.38285E+06        -0.48493E+05         0.00000E+00
    0.00000E+00         0.00000E+00         0.16196E+06
 
    0.83925E+06         0.40115E+06         0.00000E+00
    0.40115E+06        -0.41767E+05         0.00000E+00
    0.00000E+00         0.00000E+00         0.15950E+06
 
    0.81975E+06         0.41903E+06         0.00000E+00
    0.41903E+06        -0.34760E+05         0.00000E+00
    0.00000E+00         0.00000E+00         0.15700E+06
 
    0.79980E+06         0.43648E+06         0.00000E+00
    0.43648E+06        -0.27481E+05         0.00000E+00
    0.00000E+00         0.00000E+00         0.15446E+06
 
    0.77940E+06         0.45350E+06         0.00000E+00
    0.45350E+06        -0.19939E+05         0.00000E+00
    0.00000E+00         0.00000E+00         0.15189E+06
 
    0.75858E+06         0.47009E+06         0.00000E+00
    0.47009E+06        -0.12141E+05         0.00000E+00
    0.00000E+00         0.00000E+00         0.14929E+06
 
    0.73735E+06         0.48625E+06         0.00000E+00
    0.48625E+06        -0.40969E+04         0.00000E+00
    0.00000E+00         0.00000E+00         0.14665E+06
 
    0.71572E+06         0.50197E+06         0.00000E+00
    0.50197E+06         0.41861E+04         0.00000E+00
    0.00000E+00         0.00000E+00         0.14398E+06
 
    0.69372E+06         0.51725E+06         0.00000E+00
    0.51725E+06         0.12700E+05         0.00000E+00
    0.00000E+00         0.00000E+00         0.14128E+06
 
    0.67135E+06         0.53209E+06         0.00000E+00
    0.53209E+06         0.21438E+05         0.00000E+00
    0.00000E+00         0.00000E+00         0.13856E+06
 
    0.64863E+06         0.54649E+06         0.00000E+00
    0.54649E+06         0.30391E+05         0.00000E+00
    0.00000E+00         0.00000E+00         0.13580E+06
 
    0.62558E+06         0.56045E+06         0.00000E+00
    0.56045E+06         0.39554E+05         0.00000E+00
    0.00000E+00         0.00000E+00         0.13303E+06
 
    0.60220E+06         0.57397E+06         0.00000E+00
    0.57397E+06         0.48919E+05         0.00000E+00
    0.00000E+00         0.00000E+00         0.13022E+06
 
    0.57851E+06         0.58705E+06         0.00000E+00
    0.58705E+06         0.58479E+05         0.00000E+00
    0.00000E+00         0.00000E+00         0.12740E+06
 
    0.55452E+06         0.59969E+06         0.00000E+00
    0.59969E+06         0.68228E+05         0.00000E+00
    0.00000E+00         0.00000E+00         0.12455E+06
 
    0.53024E+06         0.61188E+06         0.00000E+00
    0.61188E+06         0.78160E+05         0.00000E+00
    0.00000E+00         0.00000E+00         0.12168E+06
 
    0.50569E+06         0.62364E+06         0.00000E+00
    0.62364E+06         0.88270E+05         0.00000E+00
    0.00000E+00         0.00000E+00         0.11879E+06
 
    0.48087E+06         0.63495E+06         0.00000E+00
    0.63495E+06         0.98550E+05         0.00000E+00
    0.00000E+00         0.00000E+00         0.11588E+06
 
    0.45580E+06         0.64582E+06         0.00000E+00
    0.64582E+06         0.10900E+06         0.00000E+00
    0.00000E+00         0.00000E+00         0.11296E+06
 
    0.43049E+06         0.65626E+06         0.00000E+00
    0.65626E+06         0.11960E+06         0.00000E+00
    0.00000E+00         0.00000E+00         0.11002E+06
 
    0.40494E+06         0.66626E+06         0.00000E+00
    0.66626E+06         0.13036E+06         0.00000E+00
    0.00000E+00         0.00000E+00         0.10706E+06
 
    0.37917E+06         0.67581E+06         0.00000E+00
    0.67581E+06         0.14128E+06         0.00000E+00
    0.00000E+00         0.00000E+00         0.10409E+06
 
    0.35318E+06         0.68494E+06         0.00000E+00
    0.68494E+06         0.15233E+06         0.00000E+00
    0.00000E+00         0.00000E+00         0.10110E+06
 
    0.32698E+06         0.69362E+06         0.00000E+00
    0.69362E+06         0.16353E+06         0.00000E+00
    0.00000E+00         0.00000E+00         0.98102E+05
 
    0.30058E+06         0.70187E+06         0.00000E+00
    0.70187E+06         0.17487E+06         0.00000E+00
    0.00000E+00         0.00000E+00         0.95090E+05
 
    0.27399E+06         0.70969E+06         0.00000E+00
    0.70969E+06         0.18634E+06         0.00000E+00
    0.00000E+00         0.00000E+00         0.92065E+05
 
    0.24721E+06         0.71707E+06         0.00000E+00
    0.71707E+06         0.19794E+06         0.00000E+00
    0.00000E+00         0.00000E+00         0.89029E+05
 
    0.22025E+06         0.72403E+06         0.00000E+00
    0.72403E+06         0.20966E+06         0.00000E+00
    0.00000E+00         0.00000E+00         0.85983E+05
 
    0.19312E+06         0.73055E+06         0.00000E+00
    0.73055E+06         0.22151E+06         0.00000E+00
    0.00000E+00         0.00000E+00         0.82926E+05
 
    0.16583E+06         0.73664E+06         0.00000E+00
    0.73664E+06         0.23347E+06         0.00000E+00
    0.00000E+00         0.00000E+00         0.79860E+05
 
    0.13837E+06         0.74230E+06         0.00000E+00
    0.74230E+06         0.24555E+06         0.00000E+00
    0.00000E+00         0.00000E+00         0.76784E+05
 
    0.11075E+06         0.74753E+06         0.00000E+00
    0.74753E+06         0.25775E+06         0.00000E+00
    0.00000E+00         0.00000E+00         0.73700E+05
 
    0.82980E+05         0.75233E+06         0.00000E+00
    0.75233E+06         0.27005E+06         0.00000E+00
    0.00000E+00         0.00000E+00         0.70607E+05
 
    0.11996E+07         0.13815E+05         0.00000E+00
    0.13815E+05        -0.13150E+06         0.00000E+00
    0.00000E+00         0.00000E+00         0.21361E+06
 
    0.11899E+07         0.40692E+05         0.00000E+00
    0.40692E+05        -0.13098E+06         0.00000E+00
    0.00000E+00         0.00000E+00         0.21179E+06
 
    0.11794E+07         0.67228E+05         0.00000E+00
    0.67228E+05        -0.12997E+06         0.00000E+00
    0.00000E+00         0.00000E+00         0.20989E+06
 
    0.11681E+07         0.93411E+05         0.00000E+00
    0.93411E+05        -0.12847E+06         0.00000E+00
    0.00000E+00         0.00000E+00         0.20792E+06
 
    0.11559E+07         0.11923E+06         0.00000E+00
    0.11923E+06        -0.12651E+06         0.00000E+00
    0.00000E+00         0.00000E+00         0.20588E+06
 
    0.11430E+07         0.14466E+06         0.00000E+00
    0.14466E+06        -0.12409E+06         0.00000E+00
    0.00000E+00         0.00000E+00         0.20377E+06
 
    0.11292E+07         0.16971E+06         0.00000E+00
    0.16971E+06        -0.12123E+06         0.00000E+00
    0.00000E+00         0.00000E+00         0.20160E+06
 
    0.11147E+07         0.19436E+06         0.00000E+00
    0.19436E+06        -0.11794E+06         0.00000E+00
    0.00000E+00         0.00000E+00         0.19936E+06
 
    0.10995E+07         0.21860E+06         0.00000E+00
    0.21860E+06        -0.11423E+06         0.00000E+00
    0.00000E+00         0.00000E+00         0.19706E+06
 
    0.10836E+07         0.24242E+06         0.00000E+00
    0.24242E+06        -0.11010E+06         0.00000E+00
    0.00000E+00         0.00000E+00         0.19470E+06
 
    0.10670E+07         0.26582E+06         0.00000E+00
    0.26582E+06        -0.10559E+06         0.00000E+00
    0.00000E+00         0.00000E+00         0.19229E+06
 
    0.10498E+07         0.28878E+06         0.00000E+00
    0.28878E+06        -0.10068E+06         0.00000E+00
    0.00000E+00         0.00000E+00         0.18982E+06
 
    0.10319E+07         0.31130E+06         0.00000E+00
    0.31130E+06        -0.95405E+05         0.00000E+00
    0.00000E+00         0.00000E+00         0.18730E+06
 
    0.10134E+07         0.33338E+06         0.00000E+00
    0.33338E+06        -0.89766E+05         0.00000E+00
    0.00000E+00         0.00000E+00         0.18472E+06
 
    0.99430E+06         0.35500E+06         0.00000E+00
    0.35500E+06        -0.83776E+05         0.00000E+00
    0.00000E+00         0.00000E+00         0.18210E+06
 
    0.97464E+06         0.37617E+06         0.00000E+00
    0.37617E+06        -0.77446E+05         0.00000E+00
    0.00000E+00         0.00000E+00         0.17944E+06
 
    0.95443E+06         0.39687E+06         0.00000E+00
    0.39687E+06        -0.70786E+05         0.00000E+00
    0.00000E+00         0.00000E+00         0.17673E+06
 
    0.93369E+06         0.41712E+06         0.00000E+00
    0.41712E+06        -0.63807E+05         0.00000E+00
    0.00000E+00         0.00000E+00         0.17398E+06
 
    0.91244E+06         0.43689E+06         0.00000E+00
    0.43689E+06        -0.56519E+05         0.00000E+00
    0.00000E+00         0.00000E+00         0.17118E+06
 
    0.89070E+06         0.45620E+06         0.00000E+00
    0.45620E+06        -0.48932E+05         0.00000E+00
    0.00000E+00         0.00000E+00         0.16835E+06
 
    0.86850E+06         0.47503E+06         0.00000E+00
    0.47503E+06        -0.41056E+05         0.00000E+00
    0.00000E+00         0.00000E+00         0.16549E+06
 
    0.84584E+06         0.49339E+06         0.00000E+00
    0.49339E+06        -0.32901E+05         0.00000E+00
    0.00000E+00         0.00000E+00         0.16259E+06
 
    0.82274E+06         0.51127E+06         0.00000E+00
    0.51127E+06        -0.24475E+05         0.00000E+00
    0.00000E+00         0.00000E+00         0.15965E+06
 
    0.79923E+06         0.52867E+06         0.00000E+00
    0.52867E+06        -0.15787E+05         0.00000E+00
    0.00000E+00         0.00000E+00         0.15669E+06
 
    0.77532E+06         0.54560E+06         0.00000E+00
    0.54560E+06        -0.68467E+04         0.00000E+00
    0.00000E+00         0.00000E+00         0.15369E+06
 
    0.75103E+06         0.56205E+06         0.00000E+00
    0.56205E+06         0.23383E+04         0.00000E+00
    0.00000E+00         0.00000E+00         0.15067E+06
 
    0.72637E+06         0.57803E+06         0.00000E+00
    0.57803E+06         0.11760E+05         0.00000E+00
    0.00000E+00         0.00000E+00         0.14763E+06
 
    0.70136E+06         0.59352E+06         0.00000E+00
    0.59352E+06         0.21410E+05         0.00000E+00
    0.00000E+00         0.00000E+00         0.14455E+06
 
    0.67601E+06         0.60854E+06         0.00000E+00
    0.60854E+06         0.31281E+05         0.00000E+00
    0.00000E+00         0.00000E+00         0.14146E+06
 
    0.65034E+06         0.62308E+06         0.00000E+00
    0.62308E+06         0.41365E+05         0.00000E+00
    0.00000E+00         0.00000E+00         0.13834E+06
 
    0.62436E+06         0.63715E+06         0.00000E+00
    0.63715E+06         0.51657E+05         0.00000E+00
    0.00000E+00         0.00000E+00         0.13520E+06
 
    0.59808E+06         0.65074E+06         0.00000E+00
    0.65074E+06         0.62149E+05         0.00000E+00
    0.00000E+00         0.00000E+00         0.13205E+06
 
    0.57153E+06         0.66387E+06         0.00000E+00
    0.66387E+06         0.72834E+05         0.00000E+00
    0.00000E+00         0.00000E+00         0.12887E+06
 
    0.54470E+06         0.67652E+06         0.00000E+00
    0.67652E+06         0.83707E+05         0.00000E+00
    0.00000E+00         0.00000E+00         0.12568E+06
 
    0.51761E+06         0.68870E+06         0.00000E+00
    0.68870E+06         0.94762E+05         0.00000E+00
    0.00000E+00         0.00000E+00         0.12247E+06
 
    0.49028E+06         0.70042E+06         0.00000E+00
    0.70042E+06         0.10599E+06         0.00000E+00
    0.00000E+00         0.00000E+00         0.11925E+06
 
    0.46271E+06         0.71167E+06         0.00000E+00
    0.71167E+06         0.11739E+06         0.00000E+00
    0.00000E+00         0.00000E+00         0.11602E+06
 
    0.43491E+06         0.72246E+06         0.00000E+00
    0.72246E+06         0.12896E+06         0.00000E+00
    0.00000E+00         0.00000E+00         0.11277E+06
 
    0.40689E+06         0.73278E+06         0.00000E+00
    0.73278E+06         0.14069E+06         0.00000E+00
    0.00000E+00         0.00000E+00         0.10952E+06
 
    0.37867E+06         0.74265E+06         0.00000E+00
    0.74265E+06         0.15257E+06         0.00000E+00
    0.00000E+00         0.00000E+00         0.10625E+06
 
    0.35024E+06         0.75206E+06         0.00000E+00
    0.75206E+06         0.16461E+06         0.00000E+00
    0.00000E+00         0.00000E+00         0.10297E+06
 
    0.32162E+06         0.76101E+06         0.00000E+00
    0.76101E+06         0.17680E+06         0.00000E+00
    0.00000E+00         0.00000E+00         0.99683E+05
 
    0.29281E+06         0.76951E+06         0.00000E+00
    0.76951E+06         0.18913E+06         0.00000E+00
    0.00000E+00         0.00000E+00         0.96388E+05
 
    0.26383E+06         0.77757E+06         0.00000E+00
    0.77757E+06         0.20160E+06         0.00000E+00
    0.00000E+00         0.00000E+00         0.93085E+05
 
    0.23467E+06         0.78517E+06         0.00000E+00
    0.78517E+06         0.21421E+06         0.00000E+00
    0.00000E+00         0.00000E+00         0.89775E+05
 
    0.20535E+06         0.79232E+06         0.00000E+00
    0.79232E+06         0.22695E+06         0.00000E+00
    0.00000E+00         0.00000E+00         0.86459E+05
 
    0.17586E+06         0.79903E+06         0.00000E+00
    0.79903E+06         0.23982E+06         0.00000E+00
    0.00000E+00         0.00000E+00         0.83136E+05
 
    0.14622E+06         0.80529E+06         0.00000E+00
    0.80529E+06         0.25283E+06         0.00000E+00
    0.00000E+00         0.00000E+00         0.79808E+05
 
    0.11642E+06         0.81112E+06         0.00000E+00
    0.81112E+06         0.26596E+06         0.00000E+00
    0.00000E+00         0.00000E+00         0.76475E+05
 
    0.86476E+05         0.81650E+06         0.00000E+00
    0.81650E+06         0.27921E+06         0.00000E+00
    0.00000E+00         0.00000E+00         0.73137E+05
 
    0.13165E+07         0.15197E+05         0.00000E+00
    0.15197E+05        -0.15629E+06         0.00000E+00
    0.00000E+00         0.00000E+00         0.23204E+06
 
    0.13051E+07         0.44685E+05         0.00000E+00
    0.44685E+05        -0.15572E+06         0.00000E+00
    0.00000E+00         0.00000E+00         0.22987E+06
 
    0.12927E+07         0.73765E+05         0.00000E+00
    0.73765E+05        -0.15461E+06         0.00000E+00
    0.00000E+00         0.00000E+00         0.22761E+06
 
    0.12793E+07         0.10243E+06         0.00000E+00
    0.10243E+06        -0.15297E+06         0.00000E+00
    0.00000E+00         0.00000E+00         0.22527E+06
 
    0.12652E+07         0.13065E+06         0.00000E+00
    0.13065E+06        -0.15083E+06         0.00000E+00
    0.00000E+00         0.00000E+00         0.22287E+06
 
    0.12501E+07         0.15844E+06         0.00000E+00
    0.15844E+06        -0.14819E+06         0.00000E+00
    0.00000E+00         0.00000E+00         0.22039E+06
 
    0.12343E+07         0.18577E+06         0.00000E+00
    0.18577E+06        -0.14507E+06         0.00000E+00
    0.00000E+00         0.00000E+00         0.21784E+06
 
    0.12176E+07         0.21263E+06         0.00000E+00
    0.21263E+06        -0.14148E+06         0.00000E+00
    0.00000E+00         0.00000E+00         0.21522E+06
 
    0.12002E+07         0.23902E+06         0.00000E+00
    0.23902E+06        -0.13744E+06         0.00000E+00
    0.00000E+00         0.00000E+00         0.21254E+06
 
    0.11820E+07         0.26493E+06         0.00000E+00
    0.26493E+06        -0.13296E+06         0.00000E+00
    0.00000E+00         0.00000E+00         0.20980E+06
 
    0.11631E+07         0.29035E+06         0.00000E+00
    0.29035E+06        -0.12805E+06         0.00000E+00
    0.00000E+00         0.00000E+00         0.20701E+06
 
    0.11435E+07         0.31528E+06         0.00000E+00
    0.31528E+06        -0.12273E+06         0.00000E+00
    0.00000E+00         0.00000E+00         0.20415E+06
 
    0.11232E+07         0.33971E+06         0.00000E+00
    0.33971E+06        -0.11701E+06         0.00000E+00
    0.00000E+00         0.00000E+00         0.20125E+06
 
    0.11024E+07         0.36363E+06         0.00000E+00
    0.36363E+06        -0.11090E+06         0.00000E+00
    0.00000E+00         0.00000E+00         0.19829E+06
 
    0.10809E+07         0.38703E+06         0.00000E+00
    0.38703E+06        -0.10442E+06         0.00000E+00
    0.00000E+00         0.00000E+00         0.19529E+06
 
    0.10588E+07         0.40993E+06         0.00000E+00
    0.40993E+06        -0.97580E+05         0.00000E+00
    0.00000E+00         0.00000E+00         0.19224E+06
 
    0.10361E+07         0.43231E+06         0.00000E+00
    0.43231E+06        -0.90386E+05         0.00000E+00
    0.00000E+00         0.00000E+00         0.18915E+06
 
    0.10129E+07         0.45417E+06         0.00000E+00
    0.45417E+06        -0.82854E+05         0.00000E+00
    0.00000E+00         0.00000E+00         0.18601E+06
 
    0.98919E+06         0.47551E+06         0.00000E+00
    0.47551E+06        -0.74994E+05         0.00000E+00
    0.00000E+00         0.00000E+00         0.18284E+06
 
    0.96497E+06         0.49633E+06         0.00000E+00
    0.49633E+06        -0.66818E+05         0.00000E+00
    0.00000E+00         0.00000E+00         0.17963E+06
 
    0.94027E+06         0.51662E+06         0.00000E+00
    0.51662E+06        -0.58337E+05         0.00000E+00
    0.00000E+00         0.00000E+00         0.17639E+06
 
    0.91512E+06         0.53640E+06         0.00000E+00
    0.53640E+06        -0.49560E+05         0.00000E+00
    0.00000E+00         0.00000E+00         0.17311E+06
 
    0.88953E+06         0.55564E+06         0.00000E+00
    0.55564E+06        -0.40498E+05         0.00000E+00
    0.00000E+00         0.00000E+00         0.16981E+06
 
    0.86352E+06         0.57437E+06         0.00000E+00
    0.57437E+06        -0.31161E+05         0.00000E+00
    0.00000E+00         0.00000E+00         0.16647E+06
 
    0.83712E+06         0.59258E+06         0.00000E+00
    0.59258E+06        -0.21557E+05         0.00000E+00
    0.00000E+00         0.00000E+00         0.16311E+06
 
    0.81033E+06         0.61026E+06         0.00000E+00
    0.61026E+06        -0.11695E+05         0.00000E+00
    0.00000E+00         0.00000E+00         0.15973E+06
 
    0.78319E+06         0.62743E+06         0.00000E+00
    0.62743E+06        -0.15853E+04         0.00000E+00
    0.00000E+00         0.00000E+00         0.15632E+06
 
    0.75569E+06         0.64408E+06         0.00000E+00
    0.64408E+06         0.87653E+04         0.00000E+00
    0.00000E+00         0.00000E+00         0.15289E+06
 
    0.72787E+06         0.66021E+06         0.00000E+00
    0.66021E+06         0.19349E+05         0.00000E+00
    0.00000E+00         0.00000E+00         0.14944E+06
 
    0.69974E+06         0.67584E+06         0.00000E+00
    0.67584E+06         0.30157E+05         0.00000E+00
    0.00000E+00         0.00000E+00         0.14598E+06
 
    0.67130E+06         0.69095E+06         0.00000E+00
    0.69095E+06         0.41183E+05         0.00000E+00
    0.00000E+00         0.00000E+00         0.14250E+06
 
    0.64258E+06         0.70556E+06         0.00000E+00
    0.70556E+06         0.52420E+05         0.00000E+00
    0.00000E+00         0.00000E+00         0.13900E+06
 
    0.61359E+06         0.71966E+06         0.00000E+00
    0.71966E+06         0.63861E+05         0.00000E+00
    0.00000E+00         0.00000E+00         0.13549E+06
 
    0.58434E+06         0.73326E+06         0.00000E+00
    0.73326E+06         0.75501E+05         0.00000E+00
    0.00000E+00         0.00000E+00         0.13197E+06
 
    0.55485E+06         0.74636E+06         0.00000E+00
    0.74636E+06         0.87333E+05         0.00000E+00
    0.00000E+00         0.00000E+00         0.12844E+06
 
    0.52512E+06         0.75897E+06         0.00000E+00
    0.75897E+06         0.99351E+05         0.00000E+00
    0.00000E+00         0.00000E+00         0.12489E+06
 
    0.49516E+06         0.77109E+06         0.00000E+00
    0.77109E+06         0.11155E+06         0.00000E+00
    0.00000E+00         0.00000E+00         0.12134E+06
 
    0.46499E+06         0.78273E+06         0.00000E+00
    0.78273E+06         0.12393E+06         0.00000E+00
    0.00000E+00         0.00000E+00         0.11778E+06
 
    0.43462E+06         0.79387E+06         0.00000E+00
    0.79387E+06         0.13648E+06         0.00000E+00
    0.00000E+00         0.00000E+00         0.11422E+06
 
    0.40405E+06         0.80454E+06         0.00000E+00
    0.80454E+06         0.14919E+06         0.00000E+00
    0.00000E+00         0.00000E+00         0.11065E+06
 
    0.37330E+06         0.81473E+06         0.00000E+00
    0.81473E+06         0.16208E+06         0.00000E+00
    0.00000E+00         0.00000E+00         0.10707E+06
 
    0.34236E+06         0.82445E+06         0.00000E+00
    0.82445E+06         0.17512E+06         0.00000E+00
    0.00000E+00         0.00000E+00         0.10350E+06
 
    0.31125E+06         0.83369E+06         0.00000E+00
    0.83369E+06         0.18831E+06         0.00000E+00
    0.00000E+00         0.00000E+00         0.99913E+05
 
    0.27998E+06         0.84247E+06         0.00000E+00
    0.84247E+06         0.20167E+06         0.00000E+00
    0.00000E+00         0.00000E+00         0.96328E+05
 
    0.24854E+06         0.85079E+06         0.00000E+00
    0.85079E+06         0.21517E+06         0.00000E+00
    0.00000E+00         0.00000E+00         0.92742E+05
 
    0.21695E+06         0.85864E+06         0.00000E+00
    0.85864E+06         0.22882E+06         0.00000E+00
    0.00000E+00         0.00000E+00         0.89154E+05
 
    0.18521E+06         0.86604E+06         0.00000E+00
    0.86604E+06         0.24261E+06         0.00000E+00
    0.00000E+00         0.00000E+00         0.85565E+05
 
    0.15332E+06         0.87298E+06         0.00000E+00
    0.87298E+06         0.25655E+06         0.00000E+00
    0.00000E+00         0.00000E+00         0.81975E+05
 
    0.12129E+06         0.87947E+06         0.00000E+00
    0.87947E+06         0.27064E+06         0.00000E+00
    0.00000E+00         0.00000E+00         0.78386E+05
 
    0.89122E+05         0.88551E+06         0.00000E+00
    0.88551E+06         0.28486E+06         0.00000E+00
    0.00000E+00         0.00000E+00         0.74796E+05
 
    0.14426E+07         0.16716E+05         0.00000E+00
    0.16716E+05        -0.18574E+06         0.00000E+00
    0.00000E+00         0.00000E+00         0.25138E+06
 
    0.14290E+07         0.49056E+05         0.00000E+00
    0.49056E+05        -0.18511E+06         0.00000E+00
    0.00000E+00         0.00000E+00         0.24878E+06
 
    0.14143E+07         0.80910E+05         0.00000E+00
    0.80910E+05        -0.18390E+06         0.00000E+00
    0.00000E+00         0.00000E+00         0.24609E+06
 
    0.13987E+07         0.11227E+06         0.00000E+00
    0.11227E+06        -0.18212E+06         0.00000E+00
    0.00000E+00         0.00000E+00         0.24332E+06
 
    0.13821E+07         0.14311E+06         0.00000E+00
    0.14311E+06        -0.17978E+06         0.00000E+00
    0.00000E+00         0.00000E+00         0.24047E+06
 
    0.13647E+07         0.17343E+06         0.00000E+00
    0.17343E+06        -0.17692E+06         0.00000E+00
    0.00000E+00         0.00000E+00         0.23755E+06
 
    0.13463E+07         0.20323E+06         0.00000E+00
    0.20323E+06        -0.17353E+06         0.00000E+00
    0.00000E+00         0.00000E+00         0.23456E+06
 
    0.13271E+07         0.23248E+06         0.00000E+00
    0.23248E+06        -0.16964E+06         0.00000E+00
    0.00000E+00         0.00000E+00         0.23150E+06
 
    0.13071E+07         0.26118E+06         0.00000E+00
    0.26118E+06        -0.16526E+06         0.00000E+00
    0.00000E+00         0.00000E+00         0.22837E+06
 
    0.12863E+07         0.28933E+06         0.00000E+00
    0.28933E+06        -0.16041E+06         0.00000E+00
    0.00000E+00         0.00000E+00         0.22519E+06
 
    0.12648E+07         0.31692E+06         0.00000E+00
    0.31692E+06        -0.15511E+06         0.00000E+00
    0.00000E+00         0.00000E+00         0.22194E+06
 
    0.12426E+07         0.34395E+06         0.00000E+00
    0.34395E+06        -0.14936E+06         0.00000E+00
    0.00000E+00         0.00000E+00         0.21864E+06
 
    0.12196E+07         0.37040E+06         0.00000E+00
    0.37040E+06        -0.14320E+06         0.00000E+00
    0.00000E+00         0.00000E+00         0.21529E+06
 
    0.11960E+07         0.39628E+06         0.00000E+00
    0.39628E+06        -0.13662E+06         0.00000E+00
    0.00000E+00         0.00000E+00         0.21189E+06
 
    0.11718E+07         0.42159E+06         0.00000E+00
    0.42159E+06        -0.12964E+06         0.00000E+00
    0.00000E+00         0.00000E+00         0.20844E+06
 
    0.11470E+07         0.44632E+06         0.00000E+00
    0.44632E+06        -0.12228E+06         0.00000E+00
    0.00000E+00         0.00000E+00         0.20494E+06
 
    0.11216E+07         0.47047E+06         0.00000E+00
    0.47047E+06        -0.11455E+06         0.00000E+00
    0.00000E+00         0.00000E+00         0.20141E+06
 
    0.10957E+07         0.49404E+06         0.00000E+00
    0.49404E+06        -0.10647E+06         0.00000E+00
    0.00000E+00         0.00000E+00         0.19784E+06
 
    0.10692E+07         0.51703E+06         0.00000E+00
    0.51703E+06        -0.98036E+05         0.00000E+00
    0.00000E+00         0.00000E+00         0.19423E+06
 
    0.10422E+07         0.53945E+06         0.00000E+00
    0.53945E+06        -0.89273E+05         0.00000E+00
    0.00000E+00         0.00000E+00         0.19059E+06
 
    0.10148E+07         0.56128E+06         0.00000E+00
    0.56128E+06        -0.80189E+05         0.00000E+00
    0.00000E+00         0.00000E+00         0.18692E+06
 
    0.98688E+06         0.58254E+06         0.00000E+00
    0.58254E+06        -0.70795E+05         0.00000E+00
    0.00000E+00         0.00000E+00         0.18322E+06
 
    0.95856E+06         0.60323E+06         0.00000E+00
    0.60323E+06        -0.61103E+05         0.00000E+00
    0.00000E+00         0.00000E+00         0.17949E+06
 
    0.92982E+06         0.62334E+06         0.00000E+00
    0.62334E+06        -0.51121E+05         0.00000E+00
    0.00000E+00         0.00000E+00         0.17574E+06
 
    0.90070E+06         0.64289E+06         0.00000E+00
    0.64289E+06        -0.40861E+05         0.00000E+00
    0.00000E+00         0.00000E+00         0.17197E+06
 
    0.87121E+06         0.66187E+06         0.00000E+00
    0.66187E+06        -0.30331E+05         0.00000E+00
    0.00000E+00         0.00000E+00         0.16818E+06
 
    0.84137E+06         0.68029E+06         0.00000E+00
    0.68029E+06        -0.19541E+05         0.00000E+00
    0.00000E+00         0.00000E+00         0.16437E+06
 
    0.81120E+06         0.69815E+06         0.00000E+00
    0.69815E+06        -0.84992E+04         0.00000E+00
    0.00000E+00         0.00000E+00         0.16054E+06
 
    0.78071E+06         0.71546E+06         0.00000E+00
    0.71546E+06         0.27864E+04         0.00000E+00
    0.00000E+00         0.00000E+00         0.15670E+06
 
    0.74993E+06         0.73222E+06         0.00000E+00
    0.73222E+06         0.14308E+05         0.00000E+00
    0.00000E+00         0.00000E+00         0.15285E+06
 
    0.71887E+06         0.74843E+06         0.00000E+00
    0.74843E+06         0.26058E+05         0.00000E+00
    0.00000E+00         0.00000E+00         0.14899E+06
 
    0.68754E+06         0.76410E+06         0.00000E+00
    0.76410E+06         0.38030E+05         0.00000E+00
    0.00000E+00         0.00000E+00         0.14511E+06
 
    0.65596E+06         0.77924E+06         0.00000E+00
    0.77924E+06         0.50216E+05         0.00000E+00
    0.00000E+00         0.00000E+00         0.14124E+06
 
    0.62415E+06         0.79384E+06         0.00000E+00
    0.79384E+06         0.62612E+05         0.00000E+00
    0.00000E+00         0.00000E+00         0.13735E+06
 
    0.59210E+06         0.80792E+06         0.00000E+00
    0.80792E+06         0.75211E+05         0.00000E+00
    0.00000E+00         0.00000E+00         0.13346E+06
 
    0.55985E+06         0.82148E+06         0.00000E+00
    0.82148E+06         0.88007E+05         0.00000E+00
    0.00000E+00         0.00000E+00         0.12957E+06
 
    0.52739E+06         0.83452E+06         0.00000E+00
    0.83452E+06         0.10100E+06         0.00000E+00
    0.00000E+00         0.00000E+00         0.12568E+06
 
    0.49473E+06         0.84706E+06         0.00000E+00
    0.84706E+06         0.11417E+06         0.00000E+00
    0.00000E+00         0.00000E+00         0.12178E+06
 
    0.46190E+06         0.85909E+06         0.00000E+00
    0.85909E+06         0.12754E+06         0.00000E+00
    0.00000E+00         0.00000E+00         0.11789E+06
 
    0.42889E+06         0.87061E+06         0.00000E+00
    0.87061E+06         0.14108E+06         0.00000E+00
    0.00000E+00         0.00000E+00         0.11399E+06
 
    0.39571E+06         0.88165E+06         0.00000E+00
    0.88165E+06         0.15480E+06         0.00000E+00
    0.00000E+00         0.00000E+00         0.11010E+06
 
    0.36238E+06         0.89219E+06         0.00000E+00
    0.89219E+06         0.16869E+06         0.00000E+00
    0.00000E+00         0.00000E+00         0.10621E+06
 
    0.32889E+06         0.90224E+06         0.00000E+00
    0.90224E+06         0.18275E+06         0.00000E+00
    0.00000E+00         0.00000E+00         0.10233E+06
 
    0.29525E+06         0.91182E+06         0.00000E+00
    0.91182E+06         0.19698E+06         0.00000E+00
    0.00000E+00         0.00000E+00         0.98447E+05
 
    0.26148E+06         0.92092E+06         0.00000E+00
    0.92092E+06         0.21138E+06         0.00000E+00
    0.00000E+00         0.00000E+00         0.94570E+05
 
    0.22756E+06         0.92955E+06         0.00000E+00
    0.92955E+06         0.22593E+06         0.00000E+00
    0.00000E+00         0.00000E+00         0.90700E+05
 
    0.19352E+06         0.93771E+06         0.00000E+00
    0.93771E+06         0.24066E+06         0.00000E+00
    0.00000E+00         0.00000E+00         0.86834E+05
 
    0.15934E+06         0.94541E+06         0.00000E+00
    0.94541E+06         0.25554E+06         0.00000E+00
    0.00000E+00         0.00000E+00         0.82975E+05
 
    0.12503E+06         0.95265E+06         0.00000E+00
    0.95265E+06         0.27058E+06         0.00000E+00
    0.00000E+00         0.00000E+00         0.79123E+05
 
    0.90602E+05         0.95943E+06         0.00000E+00
    0.95943E+06         0.28578E+06         0.00000E+00
    0.00000E+00         0.00000E+00         0.75277E+05
 
    0.15783E+07         0.18379E+05         0.00000E+00
    0.18379E+05        -0.22072E+06         0.00000E+00
    0.00000E+00         0.00000E+00         0.27153E+06
 
    0.15621E+07         0.53820E+05         0.00000E+00
    0.53820E+05        -0.22004E+06         0.00000E+00
    0.00000E+00         0.00000E+00         0.26841E+06
 
    0.15447E+07         0.88683E+05         0.00000E+00
    0.88683E+05        -0.21872E+06         0.00000E+00
    0.00000E+00         0.00000E+00         0.26520E+06
 
    0.15264E+07         0.12295E+06         0.00000E+00
    0.12295E+06        -0.21679E+06         0.00000E+00
    0.00000E+00         0.00000E+00         0.26191E+06
 
    0.15070E+07         0.15662E+06         0.00000E+00
    0.15662E+06        -0.21426E+06         0.00000E+00
    0.00000E+00         0.00000E+00         0.25854E+06
 
    0.14867E+07         0.18968E+06         0.00000E+00
    0.18968E+06        -0.21116E+06         0.00000E+00
    0.00000E+00         0.00000E+00         0.25510E+06
 
    0.14654E+07         0.22212E+06         0.00000E+00
    0.22212E+06        -0.20750E+06         0.00000E+00
    0.00000E+00         0.00000E+00         0.25158E+06
 
    0.14433E+07         0.25393E+06         0.00000E+00
    0.25393E+06        -0.20331E+06         0.00000E+00
    0.00000E+00         0.00000E+00         0.24800E+06
 
    0.14203E+07         0.28510E+06         0.00000E+00
    0.28510E+06        -0.19859E+06         0.00000E+00
    0.00000E+00         0.00000E+00         0.24435E+06
 
    0.13966E+07         0.31564E+06         0.00000E+00
    0.31564E+06        -0.19338E+06         0.00000E+00
    0.00000E+00         0.00000E+00         0.24063E+06
 
    0.13720E+07         0.34554E+06         0.00000E+00
    0.34554E+06        -0.18768E+06         0.00000E+00
    0.00000E+00         0.00000E+00         0.23687E+06
 
    0.13467E+07         0.37479E+06         0.00000E+00
    0.37479E+06        -0.18152E+06         0.00000E+00
    0.00000E+00         0.00000E+00         0.23304E+06
 
    0.13208E+07         0.40339E+06         0.00000E+00
    0.40339E+06        -0.17491E+06         0.00000E+00
    0.00000E+00         0.00000E+00         0.22917E+06
 
    0.12941E+07         0.43135E+06         0.00000E+00
    0.43135E+06        -0.16786E+06         0.00000E+00
    0.00000E+00         0.00000E+00         0.22525E+06
 
    0.12668E+07         0.45865E+06         0.00000E+00
    0.45865E+06        -0.16040E+06         0.00000E+00
    0.00000E+00         0.00000E+00         0.22129E+06
 
    0.12390E+07         0.48531E+06         0.00000E+00
    0.48531E+06        -0.15254E+06         0.00000E+00
    0.00000E+00         0.00000E+00         0.21728E+06
 
    0.12105E+07         0.51132E+06         0.00000E+00
    0.51132E+06        -0.14429E+06         0.00000E+00
    0.00000E+00         0.00000E+00         0.21324E+06
 
    0.11815E+07         0.53669E+06         0.00000E+00
    0.53669E+06        -0.13566E+06         0.00000E+00
    0.00000E+00         0.00000E+00         0.20917E+06
 
    0.11520E+07         0.56141E+06         0.00000E+00
    0.56141E+06        -0.12667E+06         0.00000E+00
    0.00000E+00         0.00000E+00         0.20506E+06
 
    0.11220E+07         0.58550E+06         0.00000E+00
    0.58550E+06        -0.11734E+06         0.00000E+00
    0.00000E+00         0.00000E+00         0.20093E+06
 
    0.10915E+07         0.60895E+06         0.00000E+00
    0.60895E+06        -0.10768E+06         0.00000E+00
    0.00000E+00         0.00000E+00         0.19676E+06
 
    0.10606E+07         0.63176E+06         0.00000E+00
    0.63176E+06        -0.97685E+05         0.00000E+00
    0.00000E+00         0.00000E+00         0.19258E+06
 
    0.10293E+07         0.65395E+06         0.00000E+00
    0.65395E+06        -0.87384E+05         0.00000E+00
    0.00000E+00         0.00000E+00         0.18838E+06
 
    0.99756E+06         0.67551E+06         0.00000E+00
    0.67551E+06        -0.76782E+05         0.00000E+00
    0.00000E+00         0.00000E+00         0.18416E+06
 
    0.96549E+06         0.69646E+06         0.00000E+00
    0.69646E+06        -0.65890E+05         0.00000E+00
    0.00000E+00         0.00000E+00         0.17992E+06
 
    0.93306E+06         0.71679E+06         0.00000E+00
    0.71679E+06        -0.54718E+05         0.00000E+00
    0.00000E+00         0.00000E+00         0.17567E+06
 
    0.90032E+06         0.73652E+06         0.00000E+00
    0.73652E+06        -0.43274E+05         0.00000E+00
    0.00000E+00         0.00000E+00         0.17141E+06
 
    0.86726E+06         0.75565E+06         0.00000E+00
    0.75565E+06        -0.31568E+05         0.00000E+00
    0.00000E+00         0.00000E+00         0.16714E+06
 
    0.83392E+06         0.77418E+06         0.00000E+00
    0.77418E+06        -0.19608E+05         0.00000E+00
    0.00000E+00         0.00000E+00         0.16286E+06
 
    0.80032E+06         0.79213E+06         0.00000E+00
    0.79213E+06        -0.74018E+04         0.00000E+00
    0.00000E+00         0.00000E+00         0.15858E+06
 
    0.76645E+06         0.80949E+06         0.00000E+00
    0.80949E+06         0.50438E+04         0.00000E+00
    0.00000E+00         0.00000E+00         0.15430E+06
 
    0.73236E+06         0.82628E+06         0.00000E+00
    0.82628E+06         0.17722E+05         0.00000E+00
    0.00000E+00         0.00000E+00         0.15002E+06
 
    0.69804E+06         0.84251E+06         0.00000E+00
    0.84251E+06         0.30625E+05         0.00000E+00
    0.00000E+00         0.00000E+00         0.14573E+06
 
    0.66351E+06         0.85817E+06         0.00000E+00
    0.85817E+06         0.43749E+05         0.00000E+00
    0.00000E+00         0.00000E+00         0.14145E+06
 
    0.62878E+06         0.87328E+06         0.00000E+00
    0.87328E+06         0.57087E+05         0.00000E+00
    0.00000E+00         0.00000E+00         0.13717E+06
 
    0.59387E+06         0.88785E+06         0.00000E+00
    0.88785E+06         0.70635E+05         0.00000E+00
    0.00000E+00         0.00000E+00         0.13290E+06
 
    0.55879E+06         0.90188E+06         0.00000E+00
    0.90188E+06         0.84388E+05         0.00000E+00
    0.00000E+00         0.00000E+00         0.12864E+06
 
    0.52355E+06         0.91537E+06         0.00000E+00
    0.91537E+06         0.98342E+05         0.00000E+00
    0.00000E+00         0.00000E+00         0.12438E+06
 
    0.48816E+06         0.92834E+06         0.00000E+00
    0.92834E+06         0.11249E+06         0.00000E+00
    0.00000E+00         0.00000E+00         0.12013E+06
 
    0.45262E+06         0.94080E+06         0.00000E+00
    0.94080E+06         0.12684E+06         0.00000E+00
    0.00000E+00         0.00000E+00         0.11589E+06
 
    0.41694E+06         0.95274E+06         0.00000E+00
    0.95274E+06         0.14137E+06         0.00000E+00
    0.00000E+00         0.00000E+00         0.11166E+06
 
    0.38113E+06         0.96418E+06         0.00000E+00
    0.96418E+06         0.15609E+06         0.00000E+00
    0.00000E+00         0.00000E+00         0.10745E+06
 
    0.34520E+06         0.97512E+06         0.00000E+00
    0.97512E+06         0.17100E+06         0.00000E+00
    0.00000E+00         0.00000E+00         0.10324E+06
 
    0.30915E+06         0.98557E+06         0.00000E+00
    0.98557E+06         0.18610E+06         0.00000E+00
    0.00000E+00         0.00000E+00         0.99049E+05
 
    0.27298E+06         0.99554E+06         0.00000E+00
    0.99554E+06         0.20137E+06         0.00000E+00
    0.00000E+00         0.00000E+00         0.94871E+05
 
    0.23671E+06         0.10050E+07         0.00000E+00
    0.10050E+07         0.21683E+06         0.00000E+00
    0.00000E+00         0.00000E+00         0.90707E+05
 
    0.20032E+06         0.10140E+07         0.00000E+00
    0.10140E+07         0.23247E+06         0.00000E+00
    0.00000E+00         0.00000E+00         0.86558E+05
 
    0.16383E+06         0.10226E+07         0.00000E+00
    0.10226E+07         0.24828E+06         0.00000E+00
    0.00000E+00         0.00000E+00         0.82423E+05
 
    0.12723E+06         0.10307E+07         0.00000E+00
    0.10307E+07         0.26428E+06         0.00000E+00
    0.00000E+00         0.00000E+00         0.78302E+05
 
    0.90527E+05         0.10383E+07         0.00000E+00
    0.10383E+07         0.28046E+06         0.00000E+00
    0.00000E+00         0.00000E+00         0.74197E+05
 
    0.17239E+07         0.20188E+05         0.00000E+00
    0.20188E+05        -0.26228E+06         0.00000E+00
    0.00000E+00         0.00000E+00         0.29232E+06
 
    0.17045E+07         0.58984E+05         0.00000E+00
    0.58984E+05        -0.26154E+06         0.00000E+00
    0.00000E+00         0.00000E+00         0.28859E+06
 
    0.16839E+07         0.97090E+05         0.00000E+00
    0.97090E+05        -0.26012E+06         0.00000E+00
    0.00000E+00         0.00000E+00         0.28476E+06
 
    0.16623E+07         0.13449E+06         0.00000E+00
    0.13449E+06        -0.25804E+06         0.00000E+00
    0.00000E+00         0.00000E+00         0.28085E+06
 
    0.16396E+07         0.17119E+06         0.00000E+00
    0.17119E+06        -0.25532E+06         0.00000E+00
    0.00000E+00         0.00000E+00         0.27686E+06
 
    0.16160E+07         0.20717E+06         0.00000E+00
    0.20717E+06        -0.25199E+06         0.00000E+00
    0.00000E+00         0.00000E+00         0.27280E+06
 
    0.15914E+07         0.24242E+06         0.00000E+00
    0.24242E+06        -0.24806E+06         0.00000E+00
    0.00000E+00         0.00000E+00         0.26866E+06
 
    0.15658E+07         0.27695E+06         0.00000E+00
    0.27695E+06        -0.24357E+06         0.00000E+00
    0.00000E+00         0.00000E+00         0.26445E+06
 
    0.15395E+07         0.31075E+06         0.00000E+00
    0.31075E+06        -0.23853E+06         0.00000E+00
    0.00000E+00         0.00000E+00         0.26019E+06
 
    0.15123E+07         0.34381E+06         0.00000E+00
    0.34381E+06        -0.23296E+06         0.00000E+00
    0.00000E+00         0.00000E+00         0.25586E+06
 
    0.14843E+07         0.37614E+06         0.00000E+00
    0.37614E+06        -0.22689E+06         0.00000E+00
    0.00000E+00         0.00000E+00         0.25148E+06
 
    0.14556E+07         0.40774E+06         0.00000E+00
    0.40774E+06        -0.22033E+06         0.00000E+00
    0.00000E+00         0.00000E+00         0.24705E+06
 
    0.14261E+07         0.43860E+06         0.00000E+00
    0.43860E+06        -0.21329E+06         0.00000E+00
    0.00000E+00         0.00000E+00         0.24257E+06
 
    0.13960E+07         0.46873E+06         0.00000E+00
    0.46873E+06        -0.20580E+06         0.00000E+00
    0.00000E+00         0.00000E+00         0.23805E+06
 
    0.13653E+07         0.49813E+06         0.00000E+00
    0.49813E+06        -0.19788E+06         0.00000E+00
    0.00000E+00         0.00000E+00         0.23349E+06
 
    0.13340E+07         0.52681E+06         0.00000E+00
    0.52681E+06        -0.18954E+06         0.00000E+00
    0.00000E+00         0.00000E+00         0.22890E+06
 
    0.13022E+07         0.55476E+06         0.00000E+00
    0.55476E+06        -0.18080E+06         0.00000E+00
    0.00000E+00         0.00000E+00         0.22427E+06
 
    0.12698E+07         0.58200E+06         0.00000E+00
    0.58200E+06        -0.17167E+06         0.00000E+00
    0.00000E+00         0.00000E+00         0.21962E+06
 
    0.12369E+07         0.60852E+06         0.00000E+00
    0.60852E+06        -0.16217E+06         0.00000E+00
    0.00000E+00         0.00000E+00         0.21494E+06
 
    0.12035E+07         0.63434E+06         0.00000E+00
    0.63434E+06        -0.15230E+06         0.00000E+00
    0.00000E+00         0.00000E+00         0.21024E+06
 
    0.11697E+07         0.65946E+06         0.00000E+00
    0.65946E+06        -0.14209E+06         0.00000E+00
    0.00000E+00         0.00000E+00         0.20552E+06
 
    0.11355E+07         0.68389E+06         0.00000E+00
    0.68389E+06        -0.13155E+06         0.00000E+00
    0.00000E+00         0.00000E+00         0.20079E+06
 
    0.11009E+07         0.70764E+06         0.00000E+00
    0.70764E+06        -0.12069E+06         0.00000E+00
    0.00000E+00         0.00000E+00         0.19605E+06
 
    0.10660E+07         0.73070E+06         0.00000E+00
    0.73070E+06        -0.10951E+06         0.00000E+00
    0.00000E+00         0.00000E+00         0.19130E+06
 
    0.10307E+07         0.75310E+06         0.00000E+00
    0.75310E+06        -0.98036E+05         0.00000E+00
    0.00000E+00         0.00000E+00         0.18654E+06
 
    0.99513E+06         0.77484E+06         0.00000E+00
    0.77484E+06        -0.86269E+05         0.00000E+00
    0.00000E+00         0.00000E+00         0.18177E+06
 
    0.95926E+06         0.79593E+06         0.00000E+00
    0.79593E+06        -0.74222E+05         0.00000E+00
    0.00000E+00         0.00000E+00         0.17701E+06
 
    0.92312E+06         0.81637E+06         0.00000E+00
    0.81637E+06        -0.61903E+05         0.00000E+00
    0.00000E+00         0.00000E+00         0.17224E+06
 
    0.88673E+06         0.83619E+06         0.00000E+00
    0.83619E+06        -0.49319E+05         0.00000E+00
    0.00000E+00         0.00000E+00         0.16748E+06
 
    0.85011E+06         0.85537E+06         0.00000E+00
    0.85537E+06        -0.36479E+05         0.00000E+00
    0.00000E+00         0.00000E+00         0.16273E+06
 
    0.81328E+06         0.87394E+06         0.00000E+00
    0.87394E+06        -0.23389E+05         0.00000E+00
    0.00000E+00         0.00000E+00         0.15798E+06
 
    0.77625E+06         0.89191E+06         0.00000E+00
    0.89191E+06        -0.10057E+05         0.00000E+00
    0.00000E+00         0.00000E+00         0.15324E+06
 
    0.73904E+06         0.90928E+06         0.00000E+00
    0.90928E+06         0.35136E+04         0.00000E+00
    0.00000E+00         0.00000E+00         0.14851E+06
 
    0.70167E+06         0.92606E+06         0.00000E+00
    0.92606E+06         0.17315E+05         0.00000E+00
    0.00000E+00         0.00000E+00         0.14380E+06
 
    0.66414E+06         0.94226E+06         0.00000E+00
    0.94226E+06         0.31344E+05         0.00000E+00
    0.00000E+00         0.00000E+00         0.13910E+06
 
    0.62646E+06         0.95789E+06         0.00000E+00
    0.95789E+06         0.45595E+05         0.00000E+00
    0.00000E+00         0.00000E+00         0.13441E+06
 
    0.58866E+06         0.97297E+06         0.00000E+00
    0.97297E+06         0.60065E+05         0.00000E+00
    0.00000E+00         0.00000E+00         0.12974E+06
 
    0.55073E+06         0.98750E+06         0.00000E+00
    0.98750E+06         0.74749E+05         0.00000E+00
    0.00000E+00         0.00000E+00         0.12510E+06
 
    0.51269E+06         0.10015E+07         0.00000E+00
    0.10015E+07         0.89645E+05         0.00000E+00
    0.00000E+00         0.00000E+00         0.12047E+06
 
    0.47455E+06         0.10149E+07         0.00000E+00
    0.10149E+07         0.10475E+06         0.00000E+00
    0.00000E+00         0.00000E+00         0.11586E+06
 
    0.43631E+06         0.10279E+07         0.00000E+00
    0.10279E+07         0.12006E+06         0.00000E+00
    0.00000E+00         0.00000E+00         0.11127E+06
 
    0.39798E+06         0.10403E+07         0.00000E+00
    0.10403E+07         0.13558E+06         0.00000E+00
    0.00000E+00         0.00000E+00         0.10671E+06
 
    0.35955E+06         0.10522E+07         0.00000E+00
    0.10522E+07         0.15130E+06         0.00000E+00
    0.00000E+00         0.00000E+00         0.10217E+06
 
    0.32105E+06         0.10636E+07         0.00000E+00
    0.10636E+07         0.16723E+06         0.00000E+00
    0.00000E+00         0.00000E+00         0.97656E+05
 
    0.28247E+06         0.10745E+07         0.00000E+00
    0.10745E+07         0.18335E+06         0.00000E+00
    0.00000E+00         0.00000E+00         0.93164E+05
 
    0.24381E+06         0.10850E+07         0.00000E+00
    0.10850E+07         0.19968E+06         0.00000E+00
    0.00000E+00         0.00000E+00         0.88698E+05
 
    0.20507E+06         0.10950E+07         0.00000E+00
    0.10950E+07         0.21621E+06         0.00000E+00
    0.00000E+00         0.00000E+00         0.84257E+05
 
    0.16626E+06         0.11045E+07         0.00000E+00
    0.11045E+07         0.23295E+06         0.00000E+00
    0.00000E+00         0.00000E+00         0.79842E+05
 
    0.12738E+06         0.11135E+07         0.00000E+00
    0.11135E+07         0.24988E+06         0.00000E+00
    0.00000E+00         0.00000E+00         0.75452E+05
 
    0.88413E+05         0.11221E+07         0.00000E+00
    0.11221E+07         0.26703E+06         0.00000E+00
    0.00000E+00         0.00000E+00         0.71088E+05
 
    0.18793E+07         0.22146E+05         0.00000E+00
    0.22146E+05        -0.31165E+06         0.00000E+00
    0.00000E+00         0.00000E+00         0.31353E+06
 
    0.18561E+07         0.64543E+05         0.00000E+00
    0.64543E+05        -0.31086E+06         0.00000E+00
    0.00000E+00         0.00000E+00         0.30906E+06
 
    0.18318E+07         0.10612E+06         0.00000E+00
    0.10612E+06        -0.30934E+06         0.00000E+00
    0.00000E+00         0.00000E+00         0.30449E+06
 
    0.18063E+07         0.14687E+06         0.00000E+00
    0.14687E+06        -0.30711E+06         0.00000E+00
    0.00000E+00         0.00000E+00         0.29985E+06
 
    0.17798E+07         0.18678E+06         0.00000E+00
    0.18678E+06        -0.30421E+06         0.00000E+00
    0.00000E+00         0.00000E+00         0.29512E+06
 
    0.17522E+07         0.22586E+06         0.00000E+00
    0.22586E+06        -0.30066E+06         0.00000E+00
    0.00000E+00         0.00000E+00         0.29032E+06
 
    0.17237E+07         0.26409E+06         0.00000E+00
    0.26409E+06        -0.29649E+06         0.00000E+00
    0.00000E+00         0.00000E+00         0.28545E+06
 
    0.16943E+07         0.30148E+06         0.00000E+00
    0.30148E+06        -0.29172E+06         0.00000E+00
    0.00000E+00         0.00000E+00         0.28051E+06
 
    0.16640E+07         0.33803E+06         0.00000E+00
    0.33803E+06        -0.28638E+06         0.00000E+00
    0.00000E+00         0.00000E+00         0.27552E+06
 
    0.16328E+07         0.37375E+06         0.00000E+00
    0.37375E+06        -0.28049E+06         0.00000E+00
    0.00000E+00         0.00000E+00         0.27047E+06
 
    0.16009E+07         0.40862E+06         0.00000E+00
    0.40862E+06        -0.27407E+06         0.00000E+00
    0.00000E+00         0.00000E+00         0.26537E+06
 
    0.15683E+07         0.44266E+06         0.00000E+00
    0.44266E+06        -0.26714E+06         0.00000E+00
    0.00000E+00         0.00000E+00         0.26023E+06
 
    0.15350E+07         0.47587E+06         0.00000E+00
    0.47587E+06        -0.25973E+06         0.00000E+00
    0.00000E+00         0.00000E+00         0.25505E+06
 
    0.15010E+07         0.50826E+06         0.00000E+00
    0.50826E+06        -0.25184E+06         0.00000E+00
    0.00000E+00         0.00000E+00         0.24984E+06
 
    0.14665E+07         0.53983E+06         0.00000E+00
    0.53983E+06        -0.24351E+06         0.00000E+00
    0.00000E+00         0.00000E+00         0.24459E+06
 
    0.14313E+07         0.57059E+06         0.00000E+00
    0.57059E+06        -0.23475E+06         0.00000E+00
    0.00000E+00         0.00000E+00         0.23932E+06
 
    0.13957E+07         0.60055E+06         0.00000E+00
    0.60055E+06        -0.22557E+06         0.00000E+00
    0.00000E+00         0.00000E+00         0.23402E+06
 
    0.13595E+07         0.62972E+06         0.00000E+00
    0.62972E+06        -0.21600E+06         0.00000E+00
    0.00000E+00         0.00000E+00         0.22871E+06
 
    0.13229E+07         0.65810E+06         0.00000E+00
    0.65810E+06        -0.20604E+06         0.00000E+00
    0.00000E+00         0.00000E+00         0.22338E+06
 
    0.12859E+07         0.68571E+06         0.00000E+00
    0.68571E+06        -0.19571E+06         0.00000E+00
    0.00000E+00         0.00000E+00         0.21804E+06
 
    0.12485E+07         0.71255E+06         0.00000E+00
    0.71255E+06        -0.18503E+06         0.00000E+00
    0.00000E+00         0.00000E+00         0.21269E+06
 
    0.12107E+07         0.73864E+06         0.00000E+00
    0.73864E+06        -0.17401E+06         0.00000E+00
    0.00000E+00         0.00000E+00         0.20733E+06
 
    0.11726E+07         0.76399E+06         0.00000E+00
    0.76399E+06        -0.16266E+06         0.00000E+00
    0.00000E+00         0.00000E+00         0.20198E+06
 
    0.11341E+07         0.78861E+06         0.00000E+00
    0.78861E+06        -0.15098E+06         0.00000E+00
    0.00000E+00         0.00000E+00         0.19663E+06
 
    0.10954E+07         0.81251E+06         0.00000E+00
    0.81251E+06        -0.13900E+06         0.00000E+00
    0.00000E+00         0.00000E+00         0.19128E+06
 
    0.10564E+07         0.83570E+06         0.00000E+00
    0.83570E+06        -0.12672E+06         0.00000E+00
    0.00000E+00         0.00000E+00         0.18594E+06
 
    0.10172E+07         0.85820E+06         0.00000E+00
    0.85820E+06        -0.11415E+06         0.00000E+00
    0.00000E+00         0.00000E+00         0.18061E+06
 
    0.97778E+06         0.88001E+06         0.00000E+00
    0.88001E+06        -0.10130E+06         0.00000E+00
    0.00000E+00         0.00000E+00         0.17530E+06
 
    0.93815E+06         0.90115E+06         0.00000E+00
    0.90115E+06        -0.88171E+05         0.00000E+00
    0.00000E+00         0.00000E+00         0.17000E+06
 
    0.89835E+06         0.92163E+06         0.00000E+00
    0.92163E+06        -0.74778E+05         0.00000E+00
    0.00000E+00         0.00000E+00         0.16471E+06
 
    0.85838E+06         0.94146E+06         0.00000E+00
    0.94146E+06        -0.61124E+05         0.00000E+00
    0.00000E+00         0.00000E+00         0.15945E+06
 
    0.81828E+06         0.96065E+06         0.00000E+00
    0.96065E+06        -0.47216E+05         0.00000E+00
    0.00000E+00         0.00000E+00         0.15421E+06
 
    0.77805E+06         0.97923E+06         0.00000E+00
    0.97923E+06        -0.33058E+05         0.00000E+00
    0.00000E+00         0.00000E+00         0.14900E+06
 
    0.73770E+06         0.99719E+06         0.00000E+00
    0.99719E+06        -0.18655E+05         0.00000E+00
    0.00000E+00         0.00000E+00         0.14381E+06
 
    0.69725E+06         0.10145E+07         0.00000E+00
    0.10145E+07        -0.40119E+04         0.00000E+00
    0.00000E+00         0.00000E+00         0.13865E+06
 
    0.65672E+06         0.10313E+07         0.00000E+00
    0.10313E+07         0.10868E+05         0.00000E+00
    0.00000E+00         0.00000E+00         0.13352E+06
 
    0.61610E+06         0.10475E+07         0.00000E+00
    0.10475E+07         0.25983E+05         0.00000E+00
    0.00000E+00         0.00000E+00         0.12842E+06
 
    0.57541E+06         0.10632E+07         0.00000E+00
    0.10632E+07         0.41329E+05         0.00000E+00
    0.00000E+00         0.00000E+00         0.12335E+06
 
    0.53467E+06         0.10782E+07         0.00000E+00
    0.10782E+07         0.56904E+05         0.00000E+00
    0.00000E+00         0.00000E+00         0.11831E+06
 
    0.49386E+06         0.10928E+07         0.00000E+00
    0.10928E+07         0.72706E+05         0.00000E+00
    0.00000E+00         0.00000E+00         0.11331E+06
 
    0.45301E+06         0.11068E+07         0.00000E+00
    0.11068E+07         0.88735E+05         0.00000E+00
    0.00000E+00         0.00000E+00         0.10835E+06
 
    0.41212E+06         0.11203E+07         0.00000E+00
    0.11203E+07         0.10499E+06         0.00000E+00
    0.00000E+00         0.00000E+00         0.10342E+06
 
    0.37119E+06         0.11333E+07         0.00000E+00
    0.11333E+07         0.12147E+06         0.00000E+00
    0.00000E+00         0.00000E+00         0.98531E+05
 
    0.33022E+06         0.11457E+07         0.00000E+00
    0.11457E+07         0.13817E+06         0.00000E+00
    0.00000E+00         0.00000E+00         0.93678E+05
 
    0.28921E+06         0.11577E+07         0.00000E+00
    0.11577E+07         0.15511E+06         0.00000E+00
    0.00000E+00         0.00000E+00         0.88864E+05
 
    0.24818E+06         0.11693E+07         0.00000E+00
    0.11693E+07         0.17226E+06         0.00000E+00
    0.00000E+00         0.00000E+00         0.84088E+05
 
    0.20710E+06         0.11803E+07         0.00000E+00
    0.11803E+07         0.18965E+06         0.00000E+00
    0.00000E+00         0.00000E+00         0.79350E+05
 
    0.16600E+06         0.11909E+07         0.00000E+00
    0.11909E+07         0.20726E+06         0.00000E+00
    0.00000E+00         0.00000E+00         0.74652E+05
 
    0.12486E+06         0.12010E+07         0.00000E+00
    0.12010E+07         0.22511E+06         0.00000E+00
    0.00000E+00         0.00000E+00         0.69993E+05
 
    0.83674E+05         0.12107E+07         0.00000E+00
    0.12107E+07         0.24319E+06         0.00000E+00
    0.00000E+00         0.00000E+00         0.65373E+05
 
    0.20444E+07         0.24247E+05         0.00000E+00
    0.24247E+05        -0.37031E+06         0.00000E+00
    0.00000E+00         0.00000E+00         0.33481E+06
 
    0.20168E+07         0.70476E+05         0.00000E+00
    0.70476E+05        -0.36947E+06         0.00000E+00
    0.00000E+00         0.00000E+00         0.32946E+06
 
    0.19879E+07         0.11573E+06         0.00000E+00
    0.11573E+06        -0.36785E+06         0.00000E+00
    0.00000E+00         0.00000E+00         0.32401E+06
 
    0.19579E+07         0.16001E+06         0.00000E+00
    0.16001E+06        -0.36550E+06         0.00000E+00
    0.00000E+00         0.00000E+00         0.31849E+06
 
    0.19269E+07         0.20331E+06         0.00000E+00
    0.20331E+06        -0.36244E+06         0.00000E+00
    0.00000E+00         0.00000E+00         0.31289E+06
 
    0.18948E+07         0.24563E+06         0.00000E+00
    0.24563E+06        -0.35870E+06         0.00000E+00
    0.00000E+00         0.00000E+00         0.30722E+06
 
    0.18617E+07         0.28698E+06         0.00000E+00
    0.28698E+06        -0.35431E+06         0.00000E+00
    0.00000E+00         0.00000E+00         0.30149E+06
 
    0.18278E+07         0.32736E+06         0.00000E+00
    0.32736E+06        -0.34931E+06         0.00000E+00
    0.00000E+00         0.00000E+00         0.29570E+06
 
    0.17930E+07         0.36677E+06         0.00000E+00
    0.36677E+06        -0.34371E+06         0.00000E+00
    0.00000E+00         0.00000E+00         0.28985E+06
 
    0.17574E+07         0.40523E+06         0.00000E+00
    0.40523E+06        -0.33754E+06         0.00000E+00
    0.00000E+00         0.00000E+00         0.28396E+06
 
    0.17210E+07         0.44273E+06         0.00000E+00
    0.44273E+06        -0.33083E+06         0.00000E+00
    0.00000E+00         0.00000E+00         0.27804E+06
 
    0.16840E+07         0.47929E+06         0.00000E+00
    0.47929E+06        -0.32360E+06         0.00000E+00
    0.00000E+00         0.00000E+00         0.27207E+06
 
    0.16463E+07         0.51491E+06         0.00000E+00
    0.51491E+06        -0.31587E+06         0.00000E+00
    0.00000E+00         0.00000E+00         0.26608E+06
 
    0.16080E+07         0.54962E+06         0.00000E+00
    0.54962E+06        -0.30767E+06         0.00000E+00
    0.00000E+00         0.00000E+00         0.26006E+06
 
    0.15691E+07         0.58341E+06         0.00000E+00
    0.58341E+06        -0.29901E+06         0.00000E+00
    0.00000E+00         0.00000E+00         0.25402E+06
 
    0.15297E+07         0.61631E+06         0.00000E+00
    0.61631E+06        -0.28991E+06         0.00000E+00
    0.00000E+00         0.00000E+00         0.24796E+06
 
    0.14899E+07         0.64832E+06         0.00000E+00
    0.64832E+06        -0.28039E+06         0.00000E+00
    0.00000E+00         0.00000E+00         0.24190E+06
 
    0.14496E+07         0.67946E+06         0.00000E+00
    0.67946E+06        -0.27047E+06         0.00000E+00
    0.00000E+00         0.00000E+00         0.23583E+06
 
    0.14089E+07         0.70973E+06         0.00000E+00
    0.70973E+06        -0.26015E+06         0.00000E+00
    0.00000E+00         0.00000E+00         0.22975E+06
 
    0.13679E+07         0.73917E+06         0.00000E+00
    0.73917E+06        -0.24947E+06         0.00000E+00
    0.00000E+00         0.00000E+00         0.22368E+06
 
    0.13265E+07         0.76777E+06         0.00000E+00
    0.76777E+06        -0.23842E+06         0.00000E+00
    0.00000E+00         0.00000E+00         0.21762E+06
 
    0.12848E+07         0.79556E+06         0.00000E+00
    0.79556E+06        -0.22703E+06         0.00000E+00
    0.00000E+00         0.00000E+00         0.21156E+06
 
    0.12429E+07         0.82255E+06         0.00000E+00
    0.82255E+06        -0.21530E+06         0.00000E+00
    0.00000E+00         0.00000E+00         0.20552E+06
 
    0.12007E+07         0.84876E+06         0.00000E+00
    0.84876E+06        -0.20324E+06         0.00000E+00
    0.00000E+00         0.00000E+00         0.19949E+06
 
    0.11583E+07         0.87420E+06         0.00000E+00
    0.87420E+06        -0.19087E+06         0.00000E+00
    0.00000E+00         0.00000E+00         0.19348E+06
 
    0.11157E+07         0.89888E+06         0.00000E+00
    0.89888E+06        -0.17819E+06         0.00000E+00
    0.00000E+00         0.00000E+00         0.18750E+06
 
    0.10729E+07         0.92283E+06         0.00000E+00
    0.92283E+06        -0.16521E+06         0.00000E+00
    0.00000E+00         0.00000E+00         0.18154E+06
 
    0.10300E+07         0.94606E+06         0.00000E+00
    0.94606E+06        -0.15195E+06         0.00000E+00
    0.00000E+00         0.00000E+00         0.17561E+06
 
    0.98697E+06         0.96857E+06         0.00000E+00
    0.96857E+06        -0.13839E+06         0.00000E+00
    0.00000E+00         0.00000E+00         0.16971E+06
 
    0.94382E+06         0.99040E+06         0.00000E+00
    0.99040E+06        -0.12457E+06         0.00000E+00
    0.00000E+00         0.00000E+00         0.16385E+06
 
    0.90059E+06         0.10116E+07         0.00000E+00
    0.10116E+07        -0.11046E+06         0.00000E+00
    0.00000E+00         0.00000E+00         0.15802E+06
 
    0.85727E+06         0.10320E+07         0.00000E+00
    0.10320E+07        -0.96096E+05         0.00000E+00
    0.00000E+00         0.00000E+00         0.15224E+06
 
    0.81390E+06         0.10519E+07         0.00000E+00
    0.10519E+07        -0.81463E+05         0.00000E+00
    0.00000E+00         0.00000E+00         0.14649E+06
 
    0.77048E+06         0.10711E+07         0.00000E+00
    0.10711E+07        -0.66570E+05         0.00000E+00
    0.00000E+00         0.00000E+00         0.14078E+06
 
    0.72703E+06         0.10897E+07         0.00000E+00
    0.10897E+07        -0.51420E+05         0.00000E+00
    0.00000E+00         0.00000E+00         0.13512E+06
 
    0.68355E+06         0.11077E+07         0.00000E+00
    0.11077E+07        -0.36016E+05         0.00000E+00
    0.00000E+00         0.00000E+00         0.12951E+06
 
    0.64006E+06         0.11251E+07         0.00000E+00
    0.11251E+07        -0.20358E+05         0.00000E+00
    0.00000E+00         0.00000E+00         0.12394E+06
 
    0.59656E+06         0.11419E+07         0.00000E+00
    0.11419E+07        -0.44496E+04         0.00000E+00
    0.00000E+00         0.00000E+00         0.11842E+06
 
    0.55307E+06         0.11582E+07         0.00000E+00
    0.11582E+07         0.11710E+05         0.00000E+00
    0.00000E+00         0.00000E+00         0.11296E+06
 
    0.50958E+06         0.11739E+07         0.00000E+00
    0.11739E+07         0.28119E+05         0.00000E+00
    0.00000E+00         0.00000E+00         0.10754E+06
 
    0.46610E+06         0.11891E+07         0.00000E+00
    0.11891E+07         0.44778E+05         0.00000E+00
    0.00000E+00         0.00000E+00         0.10218E+06
 
    0.42263E+06         0.12038E+07         0.00000E+00
    0.12038E+07         0.61688E+05         0.00000E+00
    0.00000E+00         0.00000E+00         0.96865E+05
 
    0.37919E+06         0.12180E+07         0.00000E+00
    0.12180E+07         0.78849E+05         0.00000E+00
    0.00000E+00         0.00000E+00         0.91608E+05
 
    0.33577E+06         0.12317E+07         0.00000E+00
    0.12317E+07         0.96263E+05         0.00000E+00
    0.00000E+00         0.00000E+00         0.86406E+05
 
    0.29236E+06         0.12449E+07         0.00000E+00
    0.12449E+07         0.11393E+06         0.00000E+00
    0.00000E+00         0.00000E+00         0.81259E+05
 
    0.24898E+06         0.12576E+07         0.00000E+00
    0.12576E+07         0.13186E+06         0.00000E+00
    0.00000E+00         0.00000E+00         0.76167E+05
 
    0.20561E+06         0.12699E+07         0.00000E+00
    0.12699E+07         0.15004E+06         0.00000E+00
    0.00000E+00         0.00000E+00         0.71130E+05
 
    0.16226E+06         0.12817E+07         0.00000E+00
    0.12817E+07         0.16848E+06         0.00000E+00
    0.00000E+00         0.00000E+00         0.66149E+05
 
    0.11893E+06         0.12931E+07         0.00000E+00
    0.12931E+07         0.18719E+06         0.00000E+00
    0.00000E+00         0.00000E+00         0.61223E+05
 
    0.75595E+05         0.13040E+07         0.00000E+00
    0.13040E+07         0.20617E+06         0.00000E+00
    0.00000E+00         0.00000E+00         0.56353E+05
 
    0.22185E+07         0.26478E+05         0.00000E+00
    0.26478E+05        -0.44001E+06         0.00000E+00
    0.00000E+00         0.00000E+00         0.35570E+06
 
    0.21856E+07         0.76737E+05         0.00000E+00
    0.76737E+05        -0.43912E+06         0.00000E+00
    0.00000E+00         0.00000E+00         0.34929E+06
 
    0.21515E+07         0.12584E+06         0.00000E+00
    0.12584E+06        -0.43743E+06         0.00000E+00
    0.00000E+00         0.00000E+00         0.34281E+06
 
    0.21162E+07         0.17381E+06         0.00000E+00
    0.17381E+06        -0.43497E+06         0.00000E+00
    0.00000E+00         0.00000E+00         0.33624E+06
 
    0.20798E+07         0.22063E+06         0.00000E+00
    0.22063E+06        -0.43178E+06         0.00000E+00
    0.00000E+00         0.00000E+00         0.32961E+06
 
    0.20425E+07         0.26631E+06         0.00000E+00
    0.26631E+06        -0.42789E+06         0.00000E+00
    0.00000E+00         0.00000E+00         0.32292E+06
 
    0.20042E+07         0.31087E+06         0.00000E+00
    0.31087E+06        -0.42334E+06         0.00000E+00
    0.00000E+00         0.00000E+00         0.31617E+06
 
    0.19651E+07         0.35432E+06         0.00000E+00
    0.35432E+06        -0.41816E+06         0.00000E+00
    0.00000E+00         0.00000E+00         0.30938E+06
 
    0.19251E+07         0.39666E+06         0.00000E+00
    0.39666E+06        -0.41237E+06         0.00000E+00
    0.00000E+00         0.00000E+00         0.30255E+06
 
    0.18844E+07         0.43792E+06         0.00000E+00
    0.43792E+06        -0.40601E+06         0.00000E+00
    0.00000E+00         0.00000E+00         0.29568E+06
 
    0.18430E+07         0.47809E+06         0.00000E+00
    0.47809E+06        -0.39910E+06         0.00000E+00
    0.00000E+00         0.00000E+00         0.28878E+06
 
    0.18010E+07         0.51721E+06         0.00000E+00
    0.51721E+06        -0.39167E+06         0.00000E+00
    0.00000E+00         0.00000E+00         0.28187E+06
 
    0.17584E+07         0.55529E+06         0.00000E+00
    0.55529E+06        -0.38374E+06         0.00000E+00
    0.00000E+00         0.00000E+00         0.27493E+06
 
    0.17153E+07         0.59234E+06         0.00000E+00
    0.59234E+06        -0.37532E+06         0.00000E+00
    0.00000E+00         0.00000E+00         0.26799E+06
 
    0.16717E+07         0.62837E+06         0.00000E+00
    0.62837E+06        -0.36645E+06         0.00000E+00
    0.00000E+00         0.00000E+00         0.26104E+06
 
    0.16276E+07         0.66342E+06         0.00000E+00
    0.66342E+06        -0.35715E+06         0.00000E+00
    0.00000E+00         0.00000E+00         0.25409E+06
 
    0.15832E+07         0.69750E+06         0.00000E+00
    0.69750E+06        -0.34742E+06         0.00000E+00
    0.00000E+00         0.00000E+00         0.24715E+06
 
    0.15384E+07         0.73062E+06         0.00000E+00
    0.73062E+06        -0.33728E+06         0.00000E+00
    0.00000E+00         0.00000E+00         0.24021E+06
 
    0.14932E+07         0.76281E+06         0.00000E+00
    0.76281E+06        -0.32676E+06         0.00000E+00
    0.00000E+00         0.00000E+00         0.23330E+06
 
    0.14478E+07         0.79409E+06         0.00000E+00
    0.79409E+06        -0.31586E+06         0.00000E+00
    0.00000E+00         0.00000E+00         0.22640E+06
 
    0.14022E+07         0.82447E+06         0.00000E+00
    0.82447E+06        -0.30460E+06         0.00000E+00
    0.00000E+00         0.00000E+00         0.21952E+06
 
    0.13563E+07         0.85398E+06         0.00000E+00
    0.85398E+06        -0.29299E+06         0.00000E+00
    0.00000E+00         0.00000E+00         0.21267E+06
 
    0.13103E+07         0.88264E+06         0.00000E+00
    0.88264E+06        -0.28105E+06         0.00000E+00
    0.00000E+00         0.00000E+00         0.20585E+06
 
    0.12641E+07         0.91046E+06         0.00000E+00
    0.91046E+06        -0.26877E+06         0.00000E+00
    0.00000E+00         0.00000E+00         0.19907E+06
 
    0.12178E+07         0.93747E+06         0.00000E+00
    0.93747E+06        -0.25617E+06         0.00000E+00
    0.00000E+00         0.00000E+00         0.19233E+06
 
    0.11714E+07         0.96369E+06         0.00000E+00
    0.96369E+06        -0.24326E+06         0.00000E+00
    0.00000E+00         0.00000E+00         0.18563E+06
 
    0.11249E+07         0.98913E+06         0.00000E+00
    0.98913E+06        -0.23004E+06         0.00000E+00
    0.00000E+00         0.00000E+00         0.17897E+06
 
    0.10783E+07         0.10138E+07         0.00000E+00
    0.10138E+07        -0.21652E+06         0.00000E+00
    0.00000E+00         0.00000E+00         0.17236E+06
 
    0.10317E+07         0.10378E+07         0.00000E+00
    0.10378E+07        -0.20271E+06         0.00000E+00
    0.00000E+00         0.00000E+00         0.16580E+06
 
    0.98510E+06         0.10610E+07         0.00000E+00
    0.10610E+07        -0.18861E+06         0.00000E+00
    0.00000E+00         0.00000E+00         0.15930E+06
 
    0.93847E+06         0.10835E+07         0.00000E+00
    0.10835E+07        -0.17422E+06         0.00000E+00
    0.00000E+00         0.00000E+00         0.15285E+06
 
    0.89185E+06         0.11054E+07         0.00000E+00
    0.11054E+07        -0.15955E+06         0.00000E+00
    0.00000E+00         0.00000E+00         0.14646E+06
 
    0.84525E+06         0.11266E+07         0.00000E+00
    0.11266E+07        -0.14459E+06         0.00000E+00
    0.00000E+00         0.00000E+00         0.14013E+06
 
    0.79868E+06         0.11472E+07         0.00000E+00
    0.11472E+07        -0.12936E+06         0.00000E+00
    0.00000E+00         0.00000E+00         0.13386E+06
 
    0.75217E+06         0.11671E+07         0.00000E+00
    0.11671E+07        -0.11385E+06         0.00000E+00
    0.00000E+00         0.00000E+00         0.12766E+06
 
    0.70570E+06         0.11864E+07         0.00000E+00
    0.11864E+07        -0.98066E+05         0.00000E+00
    0.00000E+00         0.00000E+00         0.12153E+06
 
    0.65930E+06         0.12051E+07         0.00000E+00
    0.12051E+07        -0.82003E+05         0.00000E+00
    0.00000E+00         0.00000E+00         0.11546E+06
 
    0.61297E+06         0.12233E+07         0.00000E+00
    0.12233E+07        -0.65664E+05         0.00000E+00
    0.00000E+00         0.00000E+00         0.10946E+06
 
    0.56671E+06         0.12409E+07         0.00000E+00
    0.12409E+07        -0.49047E+05         0.00000E+00
    0.00000E+00         0.00000E+00         0.10353E+06
 
    0.52053E+06         0.12579E+07         0.00000E+00
    0.12579E+07        -0.32152E+05         0.00000E+00
    0.00000E+00         0.00000E+00         0.97676E+05
 
    0.47443E+06         0.12745E+07         0.00000E+00
    0.12745E+07        -0.14978E+05         0.00000E+00
    0.00000E+00         0.00000E+00         0.91891E+05
 
    0.42842E+06         0.12905E+07         0.00000E+00
    0.12905E+07         0.24786E+04         0.00000E+00
    0.00000E+00         0.00000E+00         0.86181E+05
 
    0.38250E+06         0.13060E+07         0.00000E+00
    0.13060E+07         0.20219E+05         0.00000E+00
    0.00000E+00         0.00000E+00         0.80544E+05
 
    0.33666E+06         0.13210E+07         0.00000E+00
    0.13210E+07         0.38245E+05         0.00000E+00
    0.00000E+00         0.00000E+00         0.74982E+05
 
    0.29091E+06         0.13356E+07         0.00000E+00
    0.13356E+07         0.56561E+05         0.00000E+00
    0.00000E+00         0.00000E+00         0.69495E+05
 
    0.24524E+06         0.13497E+07         0.00000E+00
    0.13497E+07         0.75169E+05         0.00000E+00
    0.00000E+00         0.00000E+00         0.64082E+05
 
    0.19965E+06         0.13633E+07         0.00000E+00
    0.13633E+07         0.94073E+05         0.00000E+00
    0.00000E+00         0.00000E+00         0.58746E+05
 
    0.15414E+06         0.13766E+07         0.00000E+00
    0.13766E+07         0.11328E+06         0.00000E+00
    0.00000E+00         0.00000E+00         0.53484E+05
 
    0.10870E+06         0.13894E+07         0.00000E+00
    0.13894E+07         0.13279E+06         0.00000E+00
    0.00000E+00         0.00000E+00         0.48298E+05
 
    0.63322E+05         0.14018E+07         0.00000E+00
    0.14018E+07         0.15261E+06         0.00000E+00
    0.00000E+00         0.00000E+00         0.43186E+05
 
    0.24005E+07         0.28816E+05         0.00000E+00
    0.28816E+05        -0.52282E+06         0.00000E+00
    0.00000E+00         0.00000E+00         0.37554E+06
 
    0.23614E+07         0.83250E+05         0.00000E+00
    0.83250E+05        -0.52189E+06         0.00000E+00
    0.00000E+00         0.00000E+00         0.36789E+06
 
    0.23210E+07         0.13633E+06         0.00000E+00
    0.13633E+06        -0.52015E+06         0.00000E+00
    0.00000E+00         0.00000E+00         0.36017E+06
 
    0.22796E+07         0.18807E+06         0.00000E+00
    0.18807E+06        -0.51762E+06         0.00000E+00
    0.00000E+00         0.00000E+00         0.35239E+06
 
    0.22371E+07         0.23849E+06         0.00000E+00
    0.23849E+06        -0.51436E+06         0.00000E+00
    0.00000E+00         0.00000E+00         0.34454E+06
 
    0.21937E+07         0.28760E+06         0.00000E+00
    0.28760E+06        -0.51039E+06         0.00000E+00
    0.00000E+00         0.00000E+00         0.33665E+06
 
    0.21494E+07         0.33541E+06         0.00000E+00
    0.33541E+06        -0.50576E+06         0.00000E+00
    0.00000E+00         0.00000E+00         0.32872E+06
 
    0.21043E+07         0.38195E+06         0.00000E+00
    0.38195E+06        -0.50049E+06         0.00000E+00
    0.00000E+00         0.00000E+00         0.32076E+06
 
    0.20585E+07         0.42724E+06         0.00000E+00
    0.42724E+06        -0.49462E+06         0.00000E+00
    0.00000E+00         0.00000E+00         0.31278E+06
 
    0.20121E+07         0.47130E+06         0.00000E+00
    0.47130E+06        -0.48818E+06         0.00000E+00
    0.00000E+00         0.00000E+00         0.30478E+06
 
    0.19650E+07         0.51415E+06         0.00000E+00
    0.51415E+06        -0.48120E+06         0.00000E+00
    0.00000E+00         0.00000E+00         0.29676E+06
 
    0.19174E+07         0.55582E+06         0.00000E+00
    0.55582E+06        -0.47371E+06         0.00000E+00
    0.00000E+00         0.00000E+00         0.28875E+06
 
    0.18694E+07         0.59633E+06         0.00000E+00
    0.59633E+06        -0.46572E+06         0.00000E+00
    0.00000E+00         0.00000E+00         0.28074E+06
 
    0.18209E+07         0.63570E+06         0.00000E+00
    0.63570E+06        -0.45726E+06         0.00000E+00
    0.00000E+00         0.00000E+00         0.27273E+06
 
    0.17721E+07         0.67397E+06         0.00000E+00
    0.67397E+06        -0.44835E+06         0.00000E+00
    0.00000E+00         0.00000E+00         0.26474E+06
 
    0.17229E+07         0.71115E+06         0.00000E+00
    0.71115E+06        -0.43901E+06         0.00000E+00
    0.00000E+00         0.00000E+00         0.25677E+06
 
    0.16734E+07         0.74728E+06         0.00000E+00
    0.74728E+06        -0.42926E+06         0.00000E+00
    0.00000E+00         0.00000E+00         0.24883E+06
 
    0.16237E+07         0.78238E+06         0.00000E+00
    0.78238E+06        -0.41911E+06         0.00000E+00
    0.00000E+00         0.00000E+00         0.24092E+06
 
    0.15738E+07         0.81647E+06         0.00000E+00
    0.81647E+06        -0.40858E+06         0.00000E+00
    0.00000E+00         0.00000E+00         0.23305E+06
 
    0.15237E+07         0.84958E+06         0.00000E+00
    0.84958E+06        -0.39767E+06         0.00000E+00
    0.00000E+00         0.00000E+00         0.22521E+06
 
    0.14735E+07         0.88174E+06         0.00000E+00
    0.88174E+06        -0.38641E+06         0.00000E+00
    0.00000E+00         0.00000E+00         0.21743E+06
 
    0.14233E+07         0.91297E+06         0.00000E+00
    0.91297E+06        -0.37481E+06         0.00000E+00
    0.00000E+00         0.00000E+00         0.20969E+06
 
    0.13729E+07         0.94331E+06         0.00000E+00
    0.94331E+06        -0.36286E+06         0.00000E+00
    0.00000E+00         0.00000E+00         0.20201E+06
 
    0.13225E+07         0.97276E+06         0.00000E+00
    0.97276E+06        -0.35058E+06         0.00000E+00
    0.00000E+00         0.00000E+00         0.19438E+06
 
    0.12721E+07         0.10014E+07         0.00000E+00
    0.10014E+07        -0.33797E+06         0.00000E+00
    0.00000E+00         0.00000E+00         0.18682E+06
 
    0.12216E+07         0.10292E+07         0.00000E+00
    0.10292E+07        -0.32505E+06         0.00000E+00
    0.00000E+00         0.00000E+00         0.17932E+06
 
    0.11713E+07         0.10561E+07         0.00000E+00
    0.10561E+07        -0.31181E+06         0.00000E+00
    0.00000E+00         0.00000E+00         0.17189E+06
 
    0.11209E+07         0.10823E+07         0.00000E+00
    0.10823E+07        -0.29827E+06         0.00000E+00
    0.00000E+00         0.00000E+00         0.16453E+06
 
    0.10706E+07         0.11078E+07         0.00000E+00
    0.11078E+07        -0.28441E+06         0.00000E+00
    0.00000E+00         0.00000E+00         0.15724E+06
 
    0.10204E+07         0.11325E+07         0.00000E+00
    0.11325E+07        -0.27025E+06         0.00000E+00
    0.00000E+00         0.00000E+00         0.15004E+06
 
    0.97034E+06         0.11565E+07         0.00000E+00
    0.11565E+07        -0.25579E+06         0.00000E+00
    0.00000E+00         0.00000E+00         0.14291E+06
 
    0.92035E+06         0.11798E+07         0.00000E+00
    0.11798E+07        -0.24102E+06         0.00000E+00
    0.00000E+00         0.00000E+00         0.13587E+06
 
    0.87048E+06         0.12025E+07         0.00000E+00
    0.12025E+07        -0.22595E+06         0.00000E+00
    0.00000E+00         0.00000E+00         0.12891E+06
 
    0.82074E+06         0.12245E+07         0.00000E+00
    0.12245E+07        -0.21058E+06         0.00000E+00
    0.00000E+00         0.00000E+00         0.12203E+06
 
    0.77114E+06         0.12459E+07         0.00000E+00
    0.12459E+07        -0.19490E+06         0.00000E+00
    0.00000E+00         0.00000E+00         0.11525E+06
 
    0.72168E+06         0.12666E+07         0.00000E+00
    0.12666E+07        -0.17892E+06         0.00000E+00
    0.00000E+00         0.00000E+00         0.10855E+06
 
    0.67237E+06         0.12868E+07         0.00000E+00
    0.12868E+07        -0.16263E+06         0.00000E+00
    0.00000E+00         0.00000E+00         0.10195E+06
 
    0.62322E+06         0.13065E+07         0.00000E+00
    0.13065E+07        -0.14603E+06         0.00000E+00
    0.00000E+00         0.00000E+00         0.95438E+05
 
    0.57423E+06         0.13255E+07         0.00000E+00
    0.13255E+07        -0.12912E+06         0.00000E+00
    0.00000E+00         0.00000E+00         0.89021E+05
 
    0.52540E+06         0.13441E+07         0.00000E+00
    0.13441E+07        -0.11190E+06         0.00000E+00
    0.00000E+00         0.00000E+00         0.82700E+05
 
    0.47673E+06         0.13621E+07         0.00000E+00
    0.13621E+07        -0.94357E+05         0.00000E+00
    0.00000E+00         0.00000E+00         0.76475E+05
 
    0.42823E+06         0.13796E+07         0.00000E+00
    0.13796E+07        -0.76493E+05         0.00000E+00
    0.00000E+00         0.00000E+00         0.70348E+05
 
    0.37989E+06         0.13966E+07         0.00000E+00
    0.13966E+07        -0.58305E+05         0.00000E+00
    0.00000E+00         0.00000E+00         0.64318E+05
 
    0.33172E+06         0.14132E+07         0.00000E+00
    0.14132E+07        -0.39788E+05         0.00000E+00
    0.00000E+00         0.00000E+00         0.58386E+05
 
    0.28370E+06         0.14293E+07         0.00000E+00
    0.14293E+07        -0.20937E+05         0.00000E+00
    0.00000E+00         0.00000E+00         0.52553E+05
 
    0.23584E+06         0.14450E+07         0.00000E+00
    0.14450E+07        -0.17484E+04         0.00000E+00
    0.00000E+00         0.00000E+00         0.46818E+05
 
    0.18813E+06         0.14603E+07         0.00000E+00
    0.14603E+07         0.17783E+05         0.00000E+00
    0.00000E+00         0.00000E+00         0.41182E+05
 
    0.14056E+06         0.14751E+07         0.00000E+00
    0.14751E+07         0.37662E+05         0.00000E+00
    0.00000E+00         0.00000E+00         0.35644E+05
 
    0.93132E+05         0.14896E+07         0.00000E+00
    0.14896E+07         0.57894E+05         0.00000E+00
    0.00000E+00         0.00000E+00         0.30205E+05
 
    0.45835E+05         0.15037E+07         0.00000E+00
    0.15037E+07         0.78486E+05         0.00000E+00
    0.00000E+00         0.00000E+00         0.24864E+05
 
    0.25886E+07         0.31224E+05         0.00000E+00
    0.31224E+05        -0.62121E+06         0.00000E+00
    0.00000E+00         0.00000E+00         0.39349E+06
 
    0.25421E+07         0.89901E+05         0.00000E+00
    0.89901E+05        -0.62027E+06         0.00000E+00
    0.00000E+00         0.00000E+00         0.38437E+06
 
    0.24945E+07         0.14700E+06         0.00000E+00
    0.14700E+06        -0.61851E+06         0.00000E+00
    0.00000E+00         0.00000E+00         0.37519E+06
 
    0.24458E+07         0.20254E+06         0.00000E+00
    0.20254E+06        -0.61597E+06         0.00000E+00
    0.00000E+00         0.00000E+00         0.36597E+06
 
    0.23963E+07         0.25654E+06         0.00000E+00
    0.25654E+06        -0.61271E+06         0.00000E+00
    0.00000E+00         0.00000E+00         0.35671E+06
 
    0.23459E+07         0.30905E+06         0.00000E+00
    0.30905E+06        -0.60875E+06         0.00000E+00
    0.00000E+00         0.00000E+00         0.34743E+06
 
    0.22948E+07         0.36008E+06         0.00000E+00
    0.36008E+06        -0.60414E+06         0.00000E+00
    0.00000E+00         0.00000E+00         0.33812E+06
 
    0.22430E+07         0.40967E+06         0.00000E+00
    0.40967E+06        -0.59892E+06         0.00000E+00
    0.00000E+00         0.00000E+00         0.32881E+06
 
    0.21906E+07         0.45785E+06         0.00000E+00
    0.45785E+06        -0.59312E+06         0.00000E+00
    0.00000E+00         0.00000E+00         0.31949E+06
 
    0.21377E+07         0.50465E+06         0.00000E+00
    0.50465E+06        -0.58677E+06         0.00000E+00
    0.00000E+00         0.00000E+00         0.31018E+06
 
    0.20843E+07         0.55011E+06         0.00000E+00
    0.55011E+06        -0.57990E+06         0.00000E+00
    0.00000E+00         0.00000E+00         0.30089E+06
 
    0.20306E+07         0.59425E+06         0.00000E+00
    0.59425E+06        -0.57253E+06         0.00000E+00
    0.00000E+00         0.00000E+00         0.29162E+06
 
    0.19765E+07         0.63712E+06         0.00000E+00
    0.63712E+06        -0.56469E+06         0.00000E+00
    0.00000E+00         0.00000E+00         0.28237E+06
 
    0.19222E+07         0.67875E+06         0.00000E+00
    0.67875E+06        -0.55641E+06         0.00000E+00
    0.00000E+00         0.00000E+00         0.27316E+06
 
    0.18676E+07         0.71918E+06         0.00000E+00
    0.71918E+06        -0.54769E+06         0.00000E+00
    0.00000E+00         0.00000E+00         0.26399E+06
 
    0.18129E+07         0.75843E+06         0.00000E+00
    0.75843E+06        -0.53857E+06         0.00000E+00
    0.00000E+00         0.00000E+00         0.25487E+06
 
    0.17580E+07         0.79654E+06         0.00000E+00
    0.79654E+06        -0.52905E+06         0.00000E+00
    0.00000E+00         0.00000E+00         0.24580E+06
 
    0.17031E+07         0.83356E+06         0.00000E+00
    0.83356E+06        -0.51915E+06         0.00000E+00
    0.00000E+00         0.00000E+00         0.23679E+06
 
    0.16481E+07         0.86951E+06         0.00000E+00
    0.86951E+06        -0.50887E+06         0.00000E+00
    0.00000E+00         0.00000E+00         0.22784E+06
 
    0.15930E+07         0.90442E+06         0.00000E+00
    0.90442E+06        -0.49825E+06         0.00000E+00
    0.00000E+00         0.00000E+00         0.21896E+06
 
    0.15380E+07         0.93833E+06         0.00000E+00
    0.93833E+06        -0.48727E+06         0.00000E+00
    0.00000E+00         0.00000E+00         0.21015E+06
 
    0.14831E+07         0.97128E+06         0.00000E+00
    0.97128E+06        -0.47594E+06         0.00000E+00
    0.00000E+00         0.00000E+00         0.20142E+06
 
    0.14282E+07         0.10033E+07         0.00000E+00
    0.10033E+07        -0.46429E+06         0.00000E+00
    0.00000E+00         0.00000E+00         0.19278E+06
 
    0.13734E+07         0.10344E+07         0.00000E+00
    0.10344E+07        -0.45230E+06         0.00000E+00
    0.00000E+00         0.00000E+00         0.18422E+06
 
    0.13187E+07         0.10646E+07         0.00000E+00
    0.10646E+07        -0.43998E+06         0.00000E+00
    0.00000E+00         0.00000E+00         0.17575E+06
 
    0.12642E+07         0.10940E+07         0.00000E+00
    0.10940E+07        -0.42734E+06         0.00000E+00
    0.00000E+00         0.00000E+00         0.16737E+06
 
    0.12098E+07         0.11226E+07         0.00000E+00
    0.11226E+07        -0.41437E+06         0.00000E+00
    0.00000E+00         0.00000E+00         0.15909E+06
 
    0.11556E+07         0.11504E+07         0.00000E+00
    0.11504E+07        -0.40108E+06         0.00000E+00
    0.00000E+00         0.00000E+00         0.15091E+06
 
    0.11016E+07         0.11774E+07         0.00000E+00
    0.11774E+07        -0.38747E+06         0.00000E+00
    0.00000E+00         0.00000E+00         0.14283E+06
 
    0.10478E+07         0.12037E+07         0.00000E+00
    0.12037E+07        -0.37353E+06         0.00000E+00
    0.00000E+00         0.00000E+00         0.13486E+06
 
    0.99424E+06         0.12293E+07         0.00000E+00
    0.12293E+07        -0.35926E+06         0.00000E+00
    0.00000E+00         0.00000E+00         0.12700E+06
 
    0.94088E+06         0.12542E+07         0.00000E+00
    0.12542E+07        -0.34467E+06         0.00000E+00
    0.00000E+00         0.00000E+00         0.11924E+06
 
    0.88775E+06         0.12784E+07         0.00000E+00
    0.12784E+07        -0.32975E+06         0.00000E+00
    0.00000E+00         0.00000E+00         0.11160E+06
 
    0.83485E+06         0.13020E+07         0.00000E+00
    0.13020E+07        -0.31449E+06         0.00000E+00
    0.00000E+00         0.00000E+00         0.10407E+06
 
    0.78220E+06         0.13250E+07         0.00000E+00
    0.13250E+07        -0.29889E+06         0.00000E+00
    0.00000E+00         0.00000E+00         0.96661E+05
 
    0.72979E+06         0.13474E+07         0.00000E+00
    0.13474E+07        -0.28295E+06         0.00000E+00
    0.00000E+00         0.00000E+00         0.89368E+05
 
    0.67763E+06         0.13692E+07         0.00000E+00
    0.13692E+07        -0.26666E+06         0.00000E+00
    0.00000E+00         0.00000E+00         0.82194E+05
 
    0.62573E+06         0.13905E+07         0.00000E+00
    0.13905E+07        -0.25002E+06         0.00000E+00
    0.00000E+00         0.00000E+00         0.75141E+05
 
    0.57407E+06         0.14112E+07         0.00000E+00
    0.14112E+07        -0.23302E+06         0.00000E+00
    0.00000E+00         0.00000E+00         0.68210E+05
 
    0.52267E+06         0.14315E+07         0.00000E+00
    0.14315E+07        -0.21566E+06         0.00000E+00
    0.00000E+00         0.00000E+00         0.61402E+05
 
    0.47152E+06         0.14512E+07         0.00000E+00
    0.14512E+07        -0.19794E+06         0.00000E+00
    0.00000E+00         0.00000E+00         0.54717E+05
 
    0.42062E+06         0.14705E+07         0.00000E+00
    0.14705E+07        -0.17984E+06         0.00000E+00
    0.00000E+00         0.00000E+00         0.48157E+05
 
    0.36997E+06         0.14893E+07         0.00000E+00
    0.14893E+07        -0.16136E+06         0.00000E+00
    0.00000E+00         0.00000E+00         0.41722E+05
 
    0.31956E+06         0.15076E+07         0.00000E+00
    0.15076E+07        -0.14250E+06         0.00000E+00
    0.00000E+00         0.00000E+00         0.35412E+05
 
    0.26939E+06         0.15256E+07         0.00000E+00
    0.15256E+07        -0.12325E+06         0.00000E+00
    0.00000E+00         0.00000E+00         0.29228E+05
 
    0.21946E+06         0.15431E+07         0.00000E+00
    0.15431E+07        -0.10361E+06         0.00000E+00
    0.00000E+00         0.00000E+00         0.23170E+05
 
    0.16975E+06         0.15602E+07         0.00000E+00
    0.15602E+07        -0.83564E+05         0.00000E+00
    0.00000E+00         0.00000E+00         0.17238E+05
 
    0.12027E+06         0.15770E+07         0.00000E+00
    0.15770E+07        -0.63113E+05         0.00000E+00
    0.00000E+00         0.00000E+00         0.11431E+05
 
    0.70996E+05         0.15934E+07         0.00000E+00
    0.15934E+07        -0.42248E+05         0.00000E+00
    0.00000E+00         0.00000E+00         0.57495E+04
 
    0.21929E+05         0.16094E+07         0.00000E+00
    0.16094E+07        -0.20965E+05         0.00000E+00
    0.00000E+00         0.00000E+00         0.19289E+03
 
    0.27800E+07         0.33644E+05         0.00000E+00
    0.33644E+05        -0.73810E+06         0.00000E+00
    0.00000E+00         0.00000E+00         0.40838E+06
 
    0.27249E+07         0.96518E+05         0.00000E+00
    0.96518E+05        -0.73718E+06         0.00000E+00
    0.00000E+00         0.00000E+00         0.39754E+06
 
    0.26688E+07         0.15756E+06         0.00000E+00
    0.15756E+06        -0.73546E+06         0.00000E+00
    0.00000E+00         0.00000E+00         0.38666E+06
 
    0.26118E+07         0.21680E+06         0.00000E+00
    0.21680E+06        -0.73299E+06         0.00000E+00
    0.00000E+00         0.00000E+00         0.37577E+06
 
    0.25542E+07         0.27429E+06         0.00000E+00
    0.27429E+06        -0.72983E+06         0.00000E+00
    0.00000E+00         0.00000E+00         0.36486E+06
 
    0.24958E+07         0.33006E+06         0.00000E+00
    0.33006E+06        -0.72602E+06         0.00000E+00
    0.00000E+00         0.00000E+00         0.35396E+06
 
    0.24370E+07         0.38417E+06         0.00000E+00
    0.38417E+06        -0.72160E+06         0.00000E+00
    0.00000E+00         0.00000E+00         0.34307E+06
 
    0.23776E+07         0.43666E+06         0.00000E+00
    0.43666E+06        -0.71660E+06         0.00000E+00
    0.00000E+00         0.00000E+00         0.33220E+06
 
    0.23179E+07         0.48758E+06         0.00000E+00
    0.48758E+06        -0.71106E+06         0.00000E+00
    0.00000E+00         0.00000E+00         0.32136E+06
 
    0.22578E+07         0.53696E+06         0.00000E+00
    0.53696E+06        -0.70502E+06         0.00000E+00
    0.00000E+00         0.00000E+00         0.31056E+06
 
    0.21975E+07         0.58487E+06         0.00000E+00
    0.58487E+06        -0.69850E+06         0.00000E+00
    0.00000E+00         0.00000E+00         0.29980E+06
 
    0.21370E+07         0.63134E+06         0.00000E+00
    0.63134E+06        -0.69152E+06         0.00000E+00
    0.00000E+00         0.00000E+00         0.28910E+06
 
    0.20764E+07         0.67642E+06         0.00000E+00
    0.67642E+06        -0.68411E+06         0.00000E+00
    0.00000E+00         0.00000E+00         0.27845E+06
 
    0.20157E+07         0.72016E+06         0.00000E+00
    0.72016E+06        -0.67630E+06         0.00000E+00
    0.00000E+00         0.00000E+00         0.26788E+06
 
    0.19550E+07         0.76261E+06         0.00000E+00
    0.76261E+06        -0.66809E+06         0.00000E+00
    0.00000E+00         0.00000E+00         0.25738E+06
 
    0.18943E+07         0.80381E+06         0.00000E+00
    0.80381E+06        -0.65950E+06         0.00000E+00
    0.00000E+00         0.00000E+00         0.24696E+06
 
    0.18337E+07         0.84381E+06         0.00000E+00
    0.84381E+06        -0.65054E+06         0.00000E+00
    0.00000E+00         0.00000E+00         0.23662E+06
 
    0.17731E+07         0.88265E+06         0.00000E+00
    0.88265E+06        -0.64123E+06         0.00000E+00
    0.00000E+00         0.00000E+00         0.22638E+06
 
    0.17128E+07         0.92037E+06         0.00000E+00
    0.92037E+06        -0.63158E+06         0.00000E+00
    0.00000E+00         0.00000E+00         0.21624E+06
 
    0.16526E+07         0.95702E+06         0.00000E+00
    0.95702E+06        -0.62158E+06         0.00000E+00
    0.00000E+00         0.00000E+00         0.20620E+06
 
    0.15926E+07         0.99263E+06         0.00000E+00
    0.99263E+06        -0.61125E+06         0.00000E+00
    0.00000E+00         0.00000E+00         0.19626E+06
 
    0.15328E+07         0.10273E+07         0.00000E+00
    0.10273E+07        -0.60059E+06         0.00000E+00
    0.00000E+00         0.00000E+00         0.18644E+06
 
    0.14733E+07         0.10609E+07         0.00000E+00
    0.10609E+07        -0.58959E+06         0.00000E+00
    0.00000E+00         0.00000E+00         0.17673E+06
 
    0.14140E+07         0.10937E+07         0.00000E+00
    0.10937E+07        -0.57827E+06         0.00000E+00
    0.00000E+00         0.00000E+00         0.16715E+06
 
    0.13550E+07         0.11256E+07         0.00000E+00
    0.11256E+07        -0.56661E+06         0.00000E+00
    0.00000E+00         0.00000E+00         0.15768E+06
 
    0.12964E+07         0.11566E+07         0.00000E+00
    0.11566E+07        -0.55462E+06         0.00000E+00
    0.00000E+00         0.00000E+00         0.14835E+06
 
    0.12380E+07         0.11868E+07         0.00000E+00
    0.11868E+07        -0.54230E+06         0.00000E+00
    0.00000E+00         0.00000E+00         0.13914E+06
 
    0.11800E+07         0.12163E+07         0.00000E+00
    0.12163E+07        -0.52963E+06         0.00000E+00
    0.00000E+00         0.00000E+00         0.13007E+06
 
    0.11223E+07         0.12450E+07         0.00000E+00
    0.12450E+07        -0.51662E+06         0.00000E+00
    0.00000E+00         0.00000E+00         0.12113E+06
 
    0.10649E+07         0.12730E+07         0.00000E+00
    0.12730E+07        -0.50326E+06         0.00000E+00
    0.00000E+00         0.00000E+00         0.11233E+06
 
    0.10079E+07         0.13003E+07         0.00000E+00
    0.13003E+07        -0.48954E+06         0.00000E+00
    0.00000E+00         0.00000E+00         0.10367E+06
 
    0.95122E+06         0.13269E+07         0.00000E+00
    0.13269E+07        -0.47546E+06         0.00000E+00
    0.00000E+00         0.00000E+00         0.95151E+05
 
    0.89491E+06         0.13529E+07         0.00000E+00
    0.13529E+07        -0.46101E+06         0.00000E+00
    0.00000E+00         0.00000E+00         0.86779E+05
 
    0.83895E+06         0.13783E+07         0.00000E+00
    0.13783E+07        -0.44618E+06         0.00000E+00
    0.00000E+00         0.00000E+00         0.78554E+05
 
    0.78335E+06         0.14031E+07         0.00000E+00
    0.14031E+07        -0.43097E+06         0.00000E+00
    0.00000E+00         0.00000E+00         0.70477E+05
 
    0.72811E+06         0.14274E+07         0.00000E+00
    0.14274E+07        -0.41536E+06         0.00000E+00
    0.00000E+00         0.00000E+00         0.62550E+05
 
    0.67322E+06         0.14511E+07         0.00000E+00
    0.14511E+07        -0.39935E+06         0.00000E+00
    0.00000E+00         0.00000E+00         0.54774E+05
 
    0.61868E+06         0.14742E+07         0.00000E+00
    0.14742E+07        -0.38293E+06         0.00000E+00
    0.00000E+00         0.00000E+00         0.47150E+05
 
    0.56449E+06         0.14969E+07         0.00000E+00
    0.14969E+07        -0.36610E+06         0.00000E+00
    0.00000E+00         0.00000E+00         0.39679E+05
 
    0.51065E+06         0.15191E+07         0.00000E+00
    0.15191E+07        -0.34884E+06         0.00000E+00
    0.00000E+00         0.00000E+00         0.32362E+05
 
    0.45716E+06         0.15409E+07         0.00000E+00
    0.15409E+07        -0.33115E+06         0.00000E+00
    0.00000E+00         0.00000E+00         0.25200E+05
 
    0.40400E+06         0.15622E+07         0.00000E+00
    0.15622E+07        -0.31303E+06         0.00000E+00
    0.00000E+00         0.00000E+00         0.18194E+05
 
    0.35117E+06         0.15830E+07         0.00000E+00
    0.15830E+07        -0.29445E+06         0.00000E+00
    0.00000E+00         0.00000E+00         0.11343E+05
 
    0.29867E+06         0.16035E+07         0.00000E+00
    0.16035E+07        -0.27543E+06         0.00000E+00
    0.00000E+00         0.00000E+00         0.46491E+04
 
    0.24650E+06         0.16236E+07         0.00000E+00
    0.16236E+07        -0.25594E+06         0.00000E+00
    0.00000E+00         0.00000E+00        -0.18887E+04
 
    0.19463E+06         0.16433E+07         0.00000E+00
    0.16433E+07        -0.23598E+06         0.00000E+00
    0.00000E+00         0.00000E+00        -0.82699E+04
 
    0.14308E+06         0.16626E+07         0.00000E+00
    0.16626E+07        -0.21555E+06         0.00000E+00
    0.00000E+00         0.00000E+00        -0.14495E+05
 
    0.91829E+05         0.16816E+07         0.00000E+00
    0.16816E+07        -0.19464E+06         0.00000E+00
    0.00000E+00         0.00000E+00        -0.20563E+05
 
    0.40870E+05         0.17002E+07         0.00000E+00
    0.17002E+07        -0.17325E+06         0.00000E+00
    0.00000E+00         0.00000E+00        -0.26476E+05
 
   -0.98048E+04         0.17186E+07         0.00000E+00
    0.17186E+07        -0.15136E+06         0.00000E+00
    0.00000E+00         0.00000E+00        -0.32233E+05
 
    0.29706E+07         0.35999E+05         0.00000E+00
    0.35999E+05        -0.87700E+06         0.00000E+00
    0.00000E+00         0.00000E+00         0.41872E+06
 
    0.29055E+07         0.10287E+06         0.00000E+00
    0.10287E+06        -0.87612E+06         0.00000E+00
    0.00000E+00         0.00000E+00         0.40587E+06
 
    0.28396E+07         0.16762E+06         0.00000E+00
    0.16762E+06        -0.87452E+06         0.00000E+00
    0.00000E+00         0.00000E+00         0.39302E+06
 
    0.27732E+07         0.23032E+06         0.00000E+00
    0.23032E+06        -0.87223E+06         0.00000E+00
    0.00000E+00         0.00000E+00         0.38020E+06
 
    0.27063E+07         0.29103E+06         0.00000E+00
    0.29103E+06        -0.86931E+06         0.00000E+00
    0.00000E+00         0.00000E+00         0.36740E+06
 
    0.26390E+07         0.34981E+06         0.00000E+00
    0.34981E+06        -0.86582E+06         0.00000E+00
    0.00000E+00         0.00000E+00         0.35464E+06
 
    0.25715E+07         0.40672E+06         0.00000E+00
    0.40672E+06        -0.86178E+06         0.00000E+00
    0.00000E+00         0.00000E+00         0.34194E+06
 
    0.25037E+07         0.46183E+06         0.00000E+00
    0.46183E+06        -0.85725E+06         0.00000E+00
    0.00000E+00         0.00000E+00         0.32929E+06
 
    0.24358E+07         0.51521E+06         0.00000E+00
    0.51521E+06        -0.85224E+06         0.00000E+00
    0.00000E+00         0.00000E+00         0.31671E+06
 
    0.23679E+07         0.56690E+06         0.00000E+00
    0.56690E+06        -0.84680E+06         0.00000E+00
    0.00000E+00         0.00000E+00         0.30422E+06
 
    0.23000E+07         0.61699E+06         0.00000E+00
    0.61699E+06        -0.84094E+06         0.00000E+00
    0.00000E+00         0.00000E+00         0.29181E+06
 
    0.22322E+07         0.66553E+06         0.00000E+00
    0.66553E+06        -0.83470E+06         0.00000E+00
    0.00000E+00         0.00000E+00         0.27949E+06
 
    0.21645E+07         0.71258E+06         0.00000E+00
    0.71258E+06        -0.82809E+06         0.00000E+00
    0.00000E+00         0.00000E+00         0.26728E+06
 
    0.20970E+07         0.75821E+06         0.00000E+00
    0.75821E+06        -0.82112E+06         0.00000E+00
    0.00000E+00         0.00000E+00         0.25518E+06
 
    0.20298E+07         0.80248E+06         0.00000E+00
    0.80248E+06        -0.81382E+06         0.00000E+00
    0.00000E+00         0.00000E+00         0.24319E+06
 
    0.19628E+07         0.84543E+06         0.00000E+00
    0.84543E+06        -0.80618E+06         0.00000E+00
    0.00000E+00         0.00000E+00         0.23133E+06
 
    0.18962E+07         0.88714E+06         0.00000E+00
    0.88714E+06        -0.79822E+06         0.00000E+00
    0.00000E+00         0.00000E+00         0.21959E+06
 
    0.18299E+07         0.92765E+06         0.00000E+00
    0.92765E+06        -0.78995E+06         0.00000E+00
    0.00000E+00         0.00000E+00         0.20799E+06
 
    0.17640E+07         0.96702E+06         0.00000E+00
    0.96702E+06        -0.78136E+06         0.00000E+00
    0.00000E+00         0.00000E+00         0.19653E+06
 
    0.16985E+07         0.10053E+07         0.00000E+00
    0.10053E+07        -0.77246E+06         0.00000E+00
    0.00000E+00         0.00000E+00         0.18521E+06
 
    0.16334E+07         0.10426E+07         0.00000E+00
    0.10426E+07        -0.76324E+06         0.00000E+00
    0.00000E+00         0.00000E+00         0.17404E+06
 
    0.15688E+07         0.10788E+07         0.00000E+00
    0.10788E+07        -0.75371E+06         0.00000E+00
    0.00000E+00         0.00000E+00         0.16302E+06
 
    0.15046E+07         0.11141E+07         0.00000E+00
    0.11141E+07        -0.74385E+06         0.00000E+00
    0.00000E+00         0.00000E+00         0.15215E+06
 
    0.14409E+07         0.11485E+07         0.00000E+00
    0.11485E+07        -0.73366E+06         0.00000E+00
    0.00000E+00         0.00000E+00         0.14145E+06
 
    0.13777E+07         0.11821E+07         0.00000E+00
    0.11821E+07        -0.72314E+06         0.00000E+00
    0.00000E+00         0.00000E+00         0.13091E+06
 
    0.13150E+07         0.12148E+07         0.00000E+00
    0.12148E+07        -0.71228E+06         0.00000E+00
    0.00000E+00         0.00000E+00         0.12054E+06
 
    0.12527E+07         0.12468E+07         0.00000E+00
    0.12468E+07        -0.70106E+06         0.00000E+00
    0.00000E+00         0.00000E+00         0.11033E+06
 
    0.11910E+07         0.12780E+07         0.00000E+00
    0.12780E+07        -0.68947E+06         0.00000E+00
    0.00000E+00         0.00000E+00         0.10030E+06
 
    0.11297E+07         0.13086E+07         0.00000E+00
    0.13086E+07        -0.67752E+06         0.00000E+00
    0.00000E+00         0.00000E+00         0.90435E+05
 
    0.10689E+07         0.13384E+07         0.00000E+00
    0.13384E+07        -0.66517E+06         0.00000E+00
    0.00000E+00         0.00000E+00         0.80751E+05
 
    0.10086E+07         0.13676E+07         0.00000E+00
    0.13676E+07        -0.65243E+06         0.00000E+00
    0.00000E+00         0.00000E+00         0.71244E+05
 
    0.94886E+06         0.13962E+07         0.00000E+00
    0.13962E+07        -0.63927E+06         0.00000E+00
    0.00000E+00         0.00000E+00         0.61917E+05
 
    0.88956E+06         0.14242E+07         0.00000E+00
    0.14242E+07        -0.62570E+06         0.00000E+00
    0.00000E+00         0.00000E+00         0.52772E+05
 
    0.83073E+06         0.14516E+07         0.00000E+00
    0.14516E+07        -0.61169E+06         0.00000E+00
    0.00000E+00         0.00000E+00         0.43809E+05
 
    0.77238E+06         0.14786E+07         0.00000E+00
    0.14786E+07        -0.59723E+06         0.00000E+00
    0.00000E+00         0.00000E+00         0.35030E+05
 
    0.71449E+06         0.15049E+07         0.00000E+00
    0.15049E+07        -0.58231E+06         0.00000E+00
    0.00000E+00         0.00000E+00         0.26437E+05
 
    0.65707E+06         0.15308E+07         0.00000E+00
    0.15308E+07        -0.56692E+06         0.00000E+00
    0.00000E+00         0.00000E+00         0.18030E+05
 
    0.60009E+06         0.15563E+07         0.00000E+00
    0.15563E+07        -0.55104E+06         0.00000E+00
    0.00000E+00         0.00000E+00         0.98102E+04
 
    0.54357E+06         0.15813E+07         0.00000E+00
    0.15813E+07        -0.53467E+06         0.00000E+00
    0.00000E+00         0.00000E+00         0.17785E+04
 
    0.48748E+06         0.16058E+07         0.00000E+00
    0.16058E+07        -0.51780E+06         0.00000E+00
    0.00000E+00         0.00000E+00        -0.60646E+04
 
    0.43182E+06         0.16299E+07         0.00000E+00
    0.16299E+07        -0.50041E+06         0.00000E+00
    0.00000E+00         0.00000E+00        -0.13718E+05
 
    0.37658E+06         0.16536E+07         0.00000E+00
    0.16536E+07        -0.48249E+06         0.00000E+00
    0.00000E+00         0.00000E+00        -0.21183E+05
 
    0.32176E+06         0.16770E+07         0.00000E+00
    0.16770E+07        -0.46404E+06         0.00000E+00
    0.00000E+00         0.00000E+00        -0.28457E+05
 
    0.26735E+06         0.16999E+07         0.00000E+00
    0.16999E+07        -0.44505E+06         0.00000E+00
    0.00000E+00         0.00000E+00        -0.35541E+05
 
    0.21333E+06         0.17225E+07         0.00000E+00
    0.17225E+07        -0.42550E+06         0.00000E+00
    0.00000E+00         0.00000E+00        -0.42434E+05
 
    0.15971E+06         0.17448E+07         0.00000E+00
    0.17448E+07        -0.40540E+06         0.00000E+00
    0.00000E+00         0.00000E+00        -0.49137E+05
 
    0.10647E+06         0.17667E+07         0.00000E+00
    0.17667E+07        -0.38472E+06         0.00000E+00
    0.00000E+00         0.00000E+00        -0.55650E+05
 
    0.53616E+05         0.17884E+07         0.00000E+00
    0.17884E+07        -0.36348E+06         0.00000E+00
    0.00000E+00         0.00000E+00        -0.61972E+05
 
    0.11271E+04         0.18097E+07         0.00000E+00
    0.18097E+07        -0.34165E+06         0.00000E+00
    0.00000E+00         0.00000E+00        -0.68105E+05
 
   -0.50999E+05         0.18307E+07         0.00000E+00
    0.18307E+07        -0.31924E+06         0.00000E+00
    0.00000E+00         0.00000E+00        -0.74048E+05
 
    0.31549E+07         0.38179E+05         0.00000E+00
    0.38179E+05        -0.10420E+07         0.00000E+00
    0.00000E+00         0.00000E+00         0.42257E+06
 
    0.30782E+07         0.10863E+06         0.00000E+00
    0.10863E+06        -0.10413E+07         0.00000E+00
    0.00000E+00         0.00000E+00         0.40740E+06
 
    0.30013E+07         0.17667E+06         0.00000E+00
    0.17667E+06        -0.10399E+07         0.00000E+00
    0.00000E+00         0.00000E+00         0.39229E+06
 
    0.29241E+07         0.24239E+06         0.00000E+00
    0.24239E+06        -0.10379E+07         0.00000E+00
    0.00000E+00         0.00000E+00         0.37724E+06
 
    0.28468E+07         0.30587E+06         0.00000E+00
    0.30587E+06        -0.10354E+07         0.00000E+00
    0.00000E+00         0.00000E+00         0.36228E+06
 
    0.27695E+07         0.36720E+06         0.00000E+00
    0.36720E+06        -0.10325E+07         0.00000E+00
    0.00000E+00         0.00000E+00         0.34741E+06
 
    0.26923E+07         0.42646E+06         0.00000E+00
    0.42646E+06        -0.10291E+07         0.00000E+00
    0.00000E+00         0.00000E+00         0.33265E+06
 
    0.26153E+07         0.48375E+06         0.00000E+00
    0.48375E+06        -0.10253E+07         0.00000E+00
    0.00000E+00         0.00000E+00         0.31800E+06
 
    0.25385E+07         0.53915E+06         0.00000E+00
    0.53915E+06        -0.10212E+07         0.00000E+00
    0.00000E+00         0.00000E+00         0.30347E+06
 
    0.24621E+07         0.59274E+06         0.00000E+00
    0.59274E+06        -0.10167E+07         0.00000E+00
    0.00000E+00         0.00000E+00         0.28907E+06
 
    0.23860E+07         0.64461E+06         0.00000E+00
    0.64461E+06        -0.10119E+07         0.00000E+00
    0.00000E+00         0.00000E+00         0.27481E+06
 
    0.23104E+07         0.69484E+06         0.00000E+00
    0.69484E+06        -0.10069E+07         0.00000E+00
    0.00000E+00         0.00000E+00         0.26071E+06
 
    0.22353E+07         0.74351E+06         0.00000E+00
    0.74351E+06        -0.10015E+07         0.00000E+00
    0.00000E+00         0.00000E+00         0.24675E+06
 
    0.21607E+07         0.79069E+06         0.00000E+00
    0.79069E+06        -0.99587E+06         0.00000E+00
    0.00000E+00         0.00000E+00         0.23296E+06
 
    0.20867E+07         0.83646E+06         0.00000E+00
    0.83646E+06        -0.98998E+06         0.00000E+00
    0.00000E+00         0.00000E+00         0.21934E+06
 
    0.20132E+07         0.88090E+06         0.00000E+00
    0.88090E+06        -0.98382E+06         0.00000E+00
    0.00000E+00         0.00000E+00         0.20589E+06
 
    0.19405E+07         0.92408E+06         0.00000E+00
    0.92408E+06        -0.97740E+06         0.00000E+00
    0.00000E+00         0.00000E+00         0.19262E+06
 
    0.18684E+07         0.96606E+06         0.00000E+00
    0.96606E+06        -0.97072E+06         0.00000E+00
    0.00000E+00         0.00000E+00         0.17953E+06
 
    0.17969E+07         0.10069E+07         0.00000E+00
    0.10069E+07        -0.96376E+06         0.00000E+00
    0.00000E+00         0.00000E+00         0.16663E+06
 
    0.17262E+07         0.10467E+07         0.00000E+00
    0.10467E+07        -0.95653E+06         0.00000E+00
    0.00000E+00         0.00000E+00         0.15392E+06
 
    0.16561E+07         0.10855E+07         0.00000E+00
    0.10855E+07        -0.94901E+06         0.00000E+00
    0.00000E+00         0.00000E+00         0.14142E+06
 
    0.15867E+07         0.11233E+07         0.00000E+00
    0.11233E+07        -0.94119E+06         0.00000E+00
    0.00000E+00         0.00000E+00         0.12911E+06
 
    0.15181E+07         0.11602E+07         0.00000E+00
    0.11602E+07        -0.93305E+06         0.00000E+00
    0.00000E+00         0.00000E+00         0.11700E+06
 
    0.14501E+07         0.11963E+07         0.00000E+00
    0.11963E+07        -0.92459E+06         0.00000E+00
    0.00000E+00         0.00000E+00         0.10510E+06
 
    0.13829E+07         0.12316E+07         0.00000E+00
    0.12316E+07        -0.91579E+06         0.00000E+00
    0.00000E+00         0.00000E+00         0.93413E+05
 
    0.13163E+07         0.12661E+07         0.00000E+00
    0.12661E+07        -0.90662E+06         0.00000E+00
    0.00000E+00         0.00000E+00         0.81933E+05
 
    0.12504E+07         0.13000E+07         0.00000E+00
    0.13000E+07        -0.89708E+06         0.00000E+00
    0.00000E+00         0.00000E+00         0.70667E+05
 
    0.11852E+07         0.13331E+07         0.00000E+00
    0.13331E+07        -0.88714E+06         0.00000E+00
    0.00000E+00         0.00000E+00         0.59616E+05
 
    0.11207E+07         0.13657E+07         0.00000E+00
    0.13657E+07        -0.87678E+06         0.00000E+00
    0.00000E+00         0.00000E+00         0.48782E+05
 
    0.10568E+07         0.13976E+07         0.00000E+00
    0.13976E+07        -0.86598E+06         0.00000E+00
    0.00000E+00         0.00000E+00         0.38166E+05
 
    0.99358E+06         0.14290E+07         0.00000E+00
    0.14290E+07        -0.85474E+06         0.00000E+00
    0.00000E+00         0.00000E+00         0.27769E+05
 
    0.93098E+06         0.14598E+07         0.00000E+00
    0.14598E+07        -0.84301E+06         0.00000E+00
    0.00000E+00         0.00000E+00         0.17594E+05
 
    0.86900E+06         0.14901E+07         0.00000E+00
    0.14901E+07        -0.83080E+06         0.00000E+00
    0.00000E+00         0.00000E+00         0.76398E+04
 
    0.80761E+06         0.15200E+07         0.00000E+00
    0.15200E+07        -0.81807E+06         0.00000E+00
    0.00000E+00         0.00000E+00        -0.20915E+04
 
    0.74681E+06         0.15493E+07         0.00000E+00
    0.15493E+07        -0.80481E+06         0.00000E+00
    0.00000E+00         0.00000E+00        -0.11599E+05
 
    0.68658E+06         0.15783E+07         0.00000E+00
    0.15783E+07        -0.79100E+06         0.00000E+00
    0.00000E+00         0.00000E+00        -0.20883E+05
 
    0.62692E+06         0.16068E+07         0.00000E+00
    0.16068E+07        -0.77663E+06         0.00000E+00
    0.00000E+00         0.00000E+00        -0.29942E+05
 
    0.56779E+06         0.16349E+07         0.00000E+00
    0.16349E+07        -0.76167E+06         0.00000E+00
    0.00000E+00         0.00000E+00        -0.38776E+05
 
    0.50919E+06         0.16626E+07         0.00000E+00
    0.16626E+07        -0.74612E+06         0.00000E+00
    0.00000E+00         0.00000E+00        -0.47385E+05
 
    0.45111E+06         0.16900E+07         0.00000E+00
    0.16900E+07        -0.72995E+06         0.00000E+00
    0.00000E+00         0.00000E+00        -0.55767E+05
 
    0.39354E+06         0.17170E+07         0.00000E+00
    0.17170E+07        -0.71316E+06         0.00000E+00
    0.00000E+00         0.00000E+00        -0.63924E+05
 
    0.33646E+06         0.17436E+07         0.00000E+00
    0.17436E+07        -0.69573E+06         0.00000E+00
    0.00000E+00         0.00000E+00        -0.71854E+05
 
    0.27986E+06         0.17699E+07         0.00000E+00
    0.17699E+07        -0.67765E+06         0.00000E+00
    0.00000E+00         0.00000E+00        -0.79557E+05
 
    0.22374E+06         0.17959E+07         0.00000E+00
    0.17959E+07        -0.65891E+06         0.00000E+00
    0.00000E+00         0.00000E+00        -0.87034E+05
 
    0.16808E+06         0.18216E+07         0.00000E+00
    0.18216E+07        -0.63950E+06         0.00000E+00
    0.00000E+00         0.00000E+00        -0.94284E+05
 
    0.11287E+06         0.18469E+07         0.00000E+00
    0.18469E+07        -0.61941E+06         0.00000E+00
    0.00000E+00         0.00000E+00        -0.10131E+06
 
    0.58114E+05         0.18720E+07         0.00000E+00
    0.18720E+07        -0.59864E+06         0.00000E+00
    0.00000E+00         0.00000E+00        -0.10810E+06
 
    0.38002E+04         0.18968E+07         0.00000E+00
    0.18968E+07        -0.57717E+06         0.00000E+00
    0.00000E+00         0.00000E+00        -0.11467E+06
 
   -0.50077E+05         0.19213E+07         0.00000E+00
    0.19213E+07        -0.55502E+06         0.00000E+00
    0.00000E+00         0.00000E+00        -0.12102E+06
 
   -0.10352E+06         0.19455E+07         0.00000E+00
    0.19455E+07        -0.53216E+06         0.00000E+00
    0.00000E+00         0.00000E+00        -0.12714E+06
 
    0.33252E+07         0.40039E+05         0.00000E+00
    0.40039E+05        -0.12381E+07         0.00000E+00
    0.00000E+00         0.00000E+00         0.41742E+06
 
    0.32355E+07         0.11339E+06         0.00000E+00
    0.11339E+06        -0.12375E+07         0.00000E+00
    0.00000E+00         0.00000E+00         0.39960E+06
 
    0.31460E+07         0.18403E+06         0.00000E+00
    0.18403E+06        -0.12364E+07         0.00000E+00
    0.00000E+00         0.00000E+00         0.38191E+06
 
    0.30568E+07         0.25207E+06         0.00000E+00
    0.25207E+06        -0.12350E+07         0.00000E+00
    0.00000E+00         0.00000E+00         0.36436E+06
 
    0.29679E+07         0.31763E+06         0.00000E+00
    0.31763E+06        -0.12332E+07         0.00000E+00
    0.00000E+00         0.00000E+00         0.34695E+06
 
    0.28796E+07         0.38083E+06         0.00000E+00
    0.38083E+06        -0.12310E+07         0.00000E+00
    0.00000E+00         0.00000E+00         0.32971E+06
 
    0.27919E+07         0.44178E+06         0.00000E+00
    0.44178E+06        -0.12287E+07         0.00000E+00
    0.00000E+00         0.00000E+00         0.31264E+06
 
    0.27048E+07         0.50060E+06         0.00000E+00
    0.50060E+06        -0.12261E+07         0.00000E+00
    0.00000E+00         0.00000E+00         0.29575E+06
 
    0.26185E+07         0.55740E+06         0.00000E+00
    0.55740E+06        -0.12232E+07         0.00000E+00
    0.00000E+00         0.00000E+00         0.27905E+06
 
    0.25330E+07         0.61229E+06         0.00000E+00
    0.61229E+06        -0.12202E+07         0.00000E+00
    0.00000E+00         0.00000E+00         0.26255E+06
 
    0.24483E+07         0.66537E+06         0.00000E+00
    0.66537E+06        -0.12170E+07         0.00000E+00
    0.00000E+00         0.00000E+00         0.24626E+06
 
    0.23646E+07         0.71676E+06         0.00000E+00
    0.71676E+06        -0.12137E+07         0.00000E+00
    0.00000E+00         0.00000E+00         0.23018E+06
 
    0.22817E+07         0.76654E+06         0.00000E+00
    0.76654E+06        -0.12101E+07         0.00000E+00
    0.00000E+00         0.00000E+00         0.21432E+06
 
    0.21999E+07         0.81483E+06         0.00000E+00
    0.81483E+06        -0.12064E+07         0.00000E+00
    0.00000E+00         0.00000E+00         0.19869E+06
 
    0.21190E+07         0.86170E+06         0.00000E+00
    0.86170E+06        -0.12026E+07         0.00000E+00
    0.00000E+00         0.00000E+00         0.18329E+06
 
    0.20392E+07         0.90726E+06         0.00000E+00
    0.90726E+06        -0.11986E+07         0.00000E+00
    0.00000E+00         0.00000E+00         0.16812E+06
 
    0.19603E+07         0.95159E+06         0.00000E+00
    0.95159E+06        -0.11943E+07         0.00000E+00
    0.00000E+00         0.00000E+00         0.15320E+06
 
    0.18825E+07         0.99476E+06         0.00000E+00
    0.99476E+06        -0.11899E+07         0.00000E+00
    0.00000E+00         0.00000E+00         0.13852E+06
 
    0.18057E+07         0.10369E+07         0.00000E+00
    0.10369E+07        -0.11853E+07         0.00000E+00
    0.00000E+00         0.00000E+00         0.12408E+06
 
    0.17300E+07         0.10780E+07         0.00000E+00
    0.10780E+07        -0.11804E+07         0.00000E+00
    0.00000E+00         0.00000E+00         0.10990E+06
 
    0.16552E+07         0.11182E+07         0.00000E+00
    0.11182E+07        -0.11753E+07         0.00000E+00
    0.00000E+00         0.00000E+00         0.95974E+05
 
    0.15814E+07         0.11575E+07         0.00000E+00
    0.11575E+07        -0.11699E+07         0.00000E+00
    0.00000E+00         0.00000E+00         0.82301E+05
 
    0.15087E+07         0.11960E+07         0.00000E+00
    0.11960E+07        -0.11642E+07         0.00000E+00
    0.00000E+00         0.00000E+00         0.68886E+05
 
    0.14369E+07         0.12338E+07         0.00000E+00
    0.12338E+07        -0.11582E+07         0.00000E+00
    0.00000E+00         0.00000E+00         0.55730E+05
 
    0.13660E+07         0.12709E+07         0.00000E+00
    0.12709E+07        -0.11518E+07         0.00000E+00
    0.00000E+00         0.00000E+00         0.42835E+05
 
    0.12961E+07         0.13073E+07         0.00000E+00
    0.13073E+07        -0.11451E+07         0.00000E+00
    0.00000E+00         0.00000E+00         0.30202E+05
 
    0.12270E+07         0.13432E+07         0.00000E+00
    0.13432E+07        -0.11379E+07         0.00000E+00
    0.00000E+00         0.00000E+00         0.17832E+05
 
    0.11589E+07         0.13785E+07         0.00000E+00
    0.13785E+07        -0.11302E+07         0.00000E+00
    0.00000E+00         0.00000E+00         0.57253E+04
 
    0.10916E+07         0.14133E+07         0.00000E+00
    0.14133E+07        -0.11221E+07         0.00000E+00
    0.00000E+00         0.00000E+00        -0.61168E+04
 
    0.10251E+07         0.14477E+07         0.00000E+00
    0.14477E+07        -0.11135E+07         0.00000E+00
    0.00000E+00         0.00000E+00        -0.17694E+05
 
    0.95937E+06         0.14816E+07         0.00000E+00
    0.14816E+07        -0.11044E+07         0.00000E+00
    0.00000E+00         0.00000E+00        -0.29007E+05
 
    0.89443E+06         0.15150E+07         0.00000E+00
    0.15150E+07        -0.10947E+07         0.00000E+00
    0.00000E+00         0.00000E+00        -0.40054E+05
 
    0.83024E+06         0.15481E+07         0.00000E+00
    0.15481E+07        -0.10844E+07         0.00000E+00
    0.00000E+00         0.00000E+00        -0.50836E+05
 
    0.76676E+06         0.15808E+07         0.00000E+00
    0.15808E+07        -0.10735E+07         0.00000E+00
    0.00000E+00         0.00000E+00        -0.61353E+05
 
    0.70396E+06         0.16131E+07         0.00000E+00
    0.16131E+07        -0.10620E+07         0.00000E+00
    0.00000E+00         0.00000E+00        -0.71604E+05
 
    0.64182E+06         0.16451E+07         0.00000E+00
    0.16451E+07        -0.10498E+07         0.00000E+00
    0.00000E+00         0.00000E+00        -0.81591E+05
 
    0.58032E+06         0.16768E+07         0.00000E+00
    0.16768E+07        -0.10369E+07         0.00000E+00
    0.00000E+00         0.00000E+00        -0.91313E+05
 
    0.51943E+06         0.17082E+07         0.00000E+00
    0.17082E+07        -0.10233E+07         0.00000E+00
    0.00000E+00         0.00000E+00        -0.10077E+06
 
    0.45913E+06         0.17393E+07         0.00000E+00
    0.17393E+07        -0.10089E+07         0.00000E+00
    0.00000E+00         0.00000E+00        -0.10996E+06
 
    0.39940E+06         0.17701E+07         0.00000E+00
    0.17701E+07        -0.99385E+06         0.00000E+00
    0.00000E+00         0.00000E+00        -0.11889E+06
 
    0.34023E+06         0.18006E+07         0.00000E+00
    0.18006E+07        -0.97799E+06         0.00000E+00
    0.00000E+00         0.00000E+00        -0.12755E+06
 
    0.28159E+06         0.18308E+07         0.00000E+00
    0.18308E+07        -0.96135E+06         0.00000E+00
    0.00000E+00         0.00000E+00        -0.13595E+06
 
    0.22347E+06         0.18607E+07         0.00000E+00
    0.18607E+07        -0.94391E+06         0.00000E+00
    0.00000E+00         0.00000E+00        -0.14409E+06
 
    0.16587E+06         0.18904E+07         0.00000E+00
    0.18904E+07        -0.92566E+06         0.00000E+00
    0.00000E+00         0.00000E+00        -0.15196E+06
 
    0.10876E+06         0.19197E+07         0.00000E+00
    0.19197E+07        -0.90659E+06         0.00000E+00
    0.00000E+00         0.00000E+00        -0.15957E+06
 
    0.52145E+05         0.19489E+07         0.00000E+00
    0.19489E+07        -0.88669E+06         0.00000E+00
    0.00000E+00         0.00000E+00        -0.16691E+06
 
   -0.39849E+04         0.19777E+07         0.00000E+00
    0.19777E+07        -0.86596E+06         0.00000E+00
    0.00000E+00         0.00000E+00        -0.17399E+06
 
   -0.59633E+05         0.20063E+07         0.00000E+00
    0.20063E+07        -0.84439E+06         0.00000E+00
    0.00000E+00         0.00000E+00        -0.18080E+06
 
   -0.11480E+06         0.20347E+07         0.00000E+00
    0.20347E+07        -0.82197E+06         0.00000E+00
    0.00000E+00         0.00000E+00        -0.18736E+06
 
   -0.16949E+06         0.20628E+07         0.00000E+00
    0.20628E+07        -0.79872E+06         0.00000E+00
    0.00000E+00         0.00000E+00        -0.19364E+06
 
    0.34715E+07         0.41391E+05         0.00000E+00
    0.41391E+05        -0.14711E+07         0.00000E+00
    0.00000E+00         0.00000E+00         0.40009E+06
 
    0.33671E+07         0.11662E+06         0.00000E+00
    0.11662E+06        -0.14707E+07         0.00000E+00
    0.00000E+00         0.00000E+00         0.37928E+06
 
    0.32636E+07         0.18883E+06         0.00000E+00
    0.18883E+06        -0.14702E+07         0.00000E+00
    0.00000E+00         0.00000E+00         0.35870E+06
 
    0.31611E+07         0.25818E+06         0.00000E+00
    0.25818E+06        -0.14694E+07         0.00000E+00
    0.00000E+00         0.00000E+00         0.33834E+06
 
    0.30597E+07         0.32483E+06         0.00000E+00
    0.32483E+06        -0.14686E+07         0.00000E+00
    0.00000E+00         0.00000E+00         0.31821E+06
 
    0.29594E+07         0.38893E+06         0.00000E+00
    0.38893E+06        -0.14677E+07         0.00000E+00
    0.00000E+00         0.00000E+00         0.29834E+06
 
    0.28603E+07         0.45064E+06         0.00000E+00
    0.45064E+06        -0.14667E+07         0.00000E+00
    0.00000E+00         0.00000E+00         0.27873E+06
 
    0.27626E+07         0.51009E+06         0.00000E+00
    0.51009E+06        -0.14657E+07         0.00000E+00
    0.00000E+00         0.00000E+00         0.25938E+06
 
    0.26663E+07         0.56743E+06         0.00000E+00
    0.56743E+06        -0.14647E+07         0.00000E+00
    0.00000E+00         0.00000E+00         0.24031E+06
 
    0.25714E+07         0.62281E+06         0.00000E+00
    0.62281E+06        -0.14638E+07         0.00000E+00
    0.00000E+00         0.00000E+00         0.22152E+06
 
    0.24779E+07         0.67635E+06         0.00000E+00
    0.67635E+06        -0.14628E+07         0.00000E+00
    0.00000E+00         0.00000E+00         0.20302E+06
 
    0.23859E+07         0.72818E+06         0.00000E+00
    0.72818E+06        -0.14618E+07         0.00000E+00
    0.00000E+00         0.00000E+00         0.18482E+06
 
    0.22954E+07         0.77843E+06         0.00000E+00
    0.77843E+06        -0.14608E+07         0.00000E+00
    0.00000E+00         0.00000E+00         0.16691E+06
 
    0.22063E+07         0.82723E+06         0.00000E+00
    0.82723E+06        -0.14598E+07         0.00000E+00
    0.00000E+00         0.00000E+00         0.14931E+06
 
    0.21188E+07         0.87467E+06         0.00000E+00
    0.87467E+06        -0.14587E+07         0.00000E+00
    0.00000E+00         0.00000E+00         0.13202E+06
 
    0.20328E+07         0.92088E+06         0.00000E+00
    0.92088E+06        -0.14576E+07         0.00000E+00
    0.00000E+00         0.00000E+00         0.11504E+06
 
    0.19482E+07         0.96595E+06         0.00000E+00
    0.96595E+06        -0.14564E+07         0.00000E+00
    0.00000E+00         0.00000E+00         0.98367E+05
 
    0.18652E+07         0.10100E+07         0.00000E+00
    0.10100E+07        -0.14551E+07         0.00000E+00
    0.00000E+00         0.00000E+00         0.82013E+05
 
    0.17835E+07         0.10531E+07         0.00000E+00
    0.10531E+07        -0.14536E+07         0.00000E+00
    0.00000E+00         0.00000E+00         0.65975E+05
 
    0.17033E+07         0.10953E+07         0.00000E+00
    0.10953E+07        -0.14520E+07         0.00000E+00
    0.00000E+00         0.00000E+00         0.50256E+05
 
    0.16244E+07         0.11367E+07         0.00000E+00
    0.11367E+07        -0.14501E+07         0.00000E+00
    0.00000E+00         0.00000E+00         0.34855E+05
 
    0.15469E+07         0.11775E+07         0.00000E+00
    0.11775E+07        -0.14480E+07         0.00000E+00
    0.00000E+00         0.00000E+00         0.19774E+05
 
    0.14706E+07         0.12176E+07         0.00000E+00
    0.12176E+07        -0.14456E+07         0.00000E+00
    0.00000E+00         0.00000E+00         0.50116E+04
 
    0.13957E+07         0.12571E+07         0.00000E+00
    0.12571E+07        -0.14428E+07         0.00000E+00
    0.00000E+00         0.00000E+00        -0.94312E+04
 
    0.13219E+07         0.12962E+07         0.00000E+00
    0.12962E+07        -0.14397E+07         0.00000E+00
    0.00000E+00         0.00000E+00        -0.23555E+05
 
    0.12493E+07         0.13347E+07         0.00000E+00
    0.13347E+07        -0.14361E+07         0.00000E+00
    0.00000E+00         0.00000E+00        -0.37361E+05
 
    0.11779E+07         0.13729E+07         0.00000E+00
    0.13729E+07        -0.14321E+07         0.00000E+00
    0.00000E+00         0.00000E+00        -0.50849E+05
 
    0.11075E+07         0.14106E+07         0.00000E+00
    0.14106E+07        -0.14276E+07         0.00000E+00
    0.00000E+00         0.00000E+00        -0.64021E+05
 
    0.10381E+07         0.14481E+07         0.00000E+00
    0.14481E+07        -0.14225E+07         0.00000E+00
    0.00000E+00         0.00000E+00        -0.76877E+05
 
    0.96974E+06         0.14852E+07         0.00000E+00
    0.14852E+07        -0.14168E+07         0.00000E+00
    0.00000E+00         0.00000E+00        -0.89419E+05
 
    0.90229E+06         0.15221E+07         0.00000E+00
    0.15221E+07        -0.14105E+07         0.00000E+00
    0.00000E+00         0.00000E+00        -0.10165E+06
 
    0.83573E+06         0.15587E+07         0.00000E+00
    0.15587E+07        -0.14036E+07         0.00000E+00
    0.00000E+00         0.00000E+00        -0.11357E+06
 
    0.77001E+06         0.15951E+07         0.00000E+00
    0.15951E+07        -0.13959E+07         0.00000E+00
    0.00000E+00         0.00000E+00        -0.12517E+06
 
    0.70508E+06         0.16313E+07         0.00000E+00
    0.16313E+07        -0.13874E+07         0.00000E+00
    0.00000E+00         0.00000E+00        -0.13647E+06
 
    0.64091E+06         0.16672E+07         0.00000E+00
    0.16672E+07        -0.13782E+07         0.00000E+00
    0.00000E+00         0.00000E+00        -0.14746E+06
 
    0.57745E+06         0.17030E+07         0.00000E+00
    0.17030E+07        -0.13682E+07         0.00000E+00
    0.00000E+00         0.00000E+00        -0.15814E+06
 
    0.51467E+06         0.17386E+07         0.00000E+00
    0.17386E+07        -0.13573E+07         0.00000E+00
    0.00000E+00         0.00000E+00        -0.16852E+06
 
    0.45253E+06         0.17740E+07         0.00000E+00
    0.17740E+07        -0.13455E+07         0.00000E+00
    0.00000E+00         0.00000E+00        -0.17859E+06
 
    0.39101E+06         0.18092E+07         0.00000E+00
    0.18092E+07        -0.13328E+07         0.00000E+00
    0.00000E+00         0.00000E+00        -0.18836E+06
 
    0.33007E+06         0.18442E+07         0.00000E+00
    0.18442E+07        -0.13192E+07         0.00000E+00
    0.00000E+00         0.00000E+00        -0.19783E+06
 
    0.26968E+06         0.18790E+07         0.00000E+00
    0.18790E+07        -0.13047E+07         0.00000E+00
    0.00000E+00         0.00000E+00        -0.20700E+06
 
    0.20983E+06         0.19136E+07         0.00000E+00
    0.19136E+07        -0.12891E+07         0.00000E+00
    0.00000E+00         0.00000E+00        -0.21586E+06
 
    0.15049E+06         0.19480E+07         0.00000E+00
    0.19480E+07        -0.12726E+07         0.00000E+00
    0.00000E+00         0.00000E+00        -0.22443E+06
 
    0.91651E+05         0.19822E+07         0.00000E+00
    0.19822E+07        -0.12551E+07         0.00000E+00
    0.00000E+00         0.00000E+00        -0.23269E+06
 
    0.33301E+05         0.20161E+07         0.00000E+00
    0.20161E+07        -0.12366E+07         0.00000E+00
    0.00000E+00         0.00000E+00        -0.24066E+06
 
   -0.24567E+05         0.20499E+07         0.00000E+00
    0.20499E+07        -0.12170E+07         0.00000E+00
    0.00000E+00         0.00000E+00        -0.24832E+06
 
   -0.81960E+05         0.20834E+07         0.00000E+00
    0.20834E+07        -0.11965E+07         0.00000E+00
    0.00000E+00         0.00000E+00        -0.25568E+06
 
   -0.13888E+06         0.21166E+07         0.00000E+00
    0.21166E+07        -0.11749E+07         0.00000E+00
    0.00000E+00         0.00000E+00        -0.26275E+06
 
   -0.19532E+06         0.21496E+07         0.00000E+00
    0.21496E+07        -0.11522E+07         0.00000E+00
    0.00000E+00         0.00000E+00        -0.26951E+06
 
   -0.25127E+06         0.21823E+07         0.00000E+00
    0.21823E+07        -0.11286E+07         0.00000E+00
    0.00000E+00         0.00000E+00        -0.27597E+06
 
    0.35807E+07         0.41999E+05         0.00000E+00
    0.41999E+05        -0.17479E+07         0.00000E+00
    0.00000E+00         0.00000E+00         0.36655E+06
 
    0.34601E+07         0.11764E+06         0.00000E+00
    0.11764E+06        -0.17479E+07         0.00000E+00
    0.00000E+00         0.00000E+00         0.34243E+06
 
    0.33412E+07         0.19000E+06         0.00000E+00
    0.19000E+06        -0.17480E+07         0.00000E+00
    0.00000E+00         0.00000E+00         0.31864E+06
 
    0.32243E+07         0.25927E+06         0.00000E+00
    0.25927E+06        -0.17483E+07         0.00000E+00
    0.00000E+00         0.00000E+00         0.29519E+06
 
    0.31093E+07         0.32565E+06         0.00000E+00
    0.32565E+06        -0.17488E+07         0.00000E+00
    0.00000E+00         0.00000E+00         0.27210E+06
 
    0.29963E+07         0.38935E+06         0.00000E+00
    0.38935E+06        -0.17495E+07         0.00000E+00
    0.00000E+00         0.00000E+00         0.24936E+06
 
    0.28855E+07         0.45055E+06         0.00000E+00
    0.45055E+06        -0.17505E+07         0.00000E+00
    0.00000E+00         0.00000E+00         0.22699E+06
 
    0.27767E+07         0.50944E+06         0.00000E+00
    0.50944E+06        -0.17517E+07         0.00000E+00
    0.00000E+00         0.00000E+00         0.20500E+06
 
    0.26702E+07         0.56620E+06         0.00000E+00
    0.56620E+06        -0.17532E+07         0.00000E+00
    0.00000E+00         0.00000E+00         0.18339E+06
 
    0.25658E+07         0.62100E+06         0.00000E+00
    0.62100E+06        -0.17550E+07         0.00000E+00
    0.00000E+00         0.00000E+00         0.16216E+06
 
    0.24635E+07         0.67401E+06         0.00000E+00
    0.67401E+06        -0.17569E+07         0.00000E+00
    0.00000E+00         0.00000E+00         0.14132E+06
 
    0.23635E+07         0.72538E+06         0.00000E+00
    0.72538E+06        -0.17591E+07         0.00000E+00
    0.00000E+00         0.00000E+00         0.12088E+06
 
    0.22656E+07         0.77527E+06         0.00000E+00
    0.77527E+06        -0.17615E+07         0.00000E+00
    0.00000E+00         0.00000E+00         0.10083E+06
 
    0.21699E+07         0.82382E+06         0.00000E+00
    0.82382E+06        -0.17640E+07         0.00000E+00
    0.00000E+00         0.00000E+00         0.81175E+05
 
    0.20763E+07         0.87116E+06         0.00000E+00
    0.87116E+06        -0.17667E+07         0.00000E+00
    0.00000E+00         0.00000E+00         0.61921E+05
 
    0.19847E+07         0.91743E+06         0.00000E+00
    0.91743E+06        -0.17694E+07         0.00000E+00
    0.00000E+00         0.00000E+00         0.43064E+05
 
    0.18952E+07         0.96275E+06         0.00000E+00
    0.96275E+06        -0.17721E+07         0.00000E+00
    0.00000E+00         0.00000E+00         0.24606E+05
 
    0.18076E+07         0.10072E+07         0.00000E+00
    0.10072E+07        -0.17749E+07         0.00000E+00
    0.00000E+00         0.00000E+00         0.65457E+04
 
    0.17220E+07         0.10510E+07         0.00000E+00
    0.10510E+07        -0.17775E+07         0.00000E+00
    0.00000E+00         0.00000E+00        -0.11119E+05
 
    0.16382E+07         0.10941E+07         0.00000E+00
    0.10941E+07        -0.17801E+07         0.00000E+00
    0.00000E+00         0.00000E+00        -0.28388E+05
 
    0.15561E+07         0.11366E+07         0.00000E+00
    0.11366E+07        -0.17825E+07         0.00000E+00
    0.00000E+00         0.00000E+00        -0.45265E+05
 
    0.14759E+07         0.11787E+07         0.00000E+00
    0.11787E+07        -0.17846E+07         0.00000E+00
    0.00000E+00         0.00000E+00        -0.61751E+05
 
    0.13972E+07         0.12204E+07         0.00000E+00
    0.12204E+07        -0.17865E+07         0.00000E+00
    0.00000E+00         0.00000E+00        -0.77850E+05
 
    0.13201E+07         0.12618E+07         0.00000E+00
    0.12618E+07        -0.17879E+07         0.00000E+00
    0.00000E+00         0.00000E+00        -0.93563E+05
 
    0.12446E+07         0.13030E+07         0.00000E+00
    0.13030E+07        -0.17890E+07         0.00000E+00
    0.00000E+00         0.00000E+00        -0.10889E+06
 
    0.11704E+07         0.13439E+07         0.00000E+00
    0.13439E+07        -0.17896E+07         0.00000E+00
    0.00000E+00         0.00000E+00        -0.12385E+06
 
    0.10976E+07         0.13846E+07         0.00000E+00
    0.13846E+07        -0.17897E+07         0.00000E+00
    0.00000E+00         0.00000E+00        -0.13842E+06
 
    0.10260E+07         0.14253E+07         0.00000E+00
    0.14253E+07        -0.17892E+07         0.00000E+00
    0.00000E+00         0.00000E+00        -0.15263E+06
 
    0.95568E+06         0.14658E+07         0.00000E+00
    0.14658E+07        -0.17880E+07         0.00000E+00
    0.00000E+00         0.00000E+00        -0.16646E+06
 
    0.88643E+06         0.15063E+07         0.00000E+00
    0.15063E+07        -0.17861E+07         0.00000E+00
    0.00000E+00         0.00000E+00        -0.17993E+06
 
    0.81824E+06         0.15468E+07         0.00000E+00
    0.15468E+07        -0.17835E+07         0.00000E+00
    0.00000E+00         0.00000E+00        -0.19304E+06
 
    0.75101E+06         0.15872E+07         0.00000E+00
    0.15872E+07        -0.17800E+07         0.00000E+00
    0.00000E+00         0.00000E+00        -0.20579E+06
 
    0.68469E+06         0.16277E+07         0.00000E+00
    0.16277E+07        -0.17756E+07         0.00000E+00
    0.00000E+00         0.00000E+00        -0.21819E+06
 
    0.61921E+06         0.16681E+07         0.00000E+00
    0.16681E+07        -0.17704E+07         0.00000E+00
    0.00000E+00         0.00000E+00        -0.23023E+06
 
    0.55451E+06         0.17085E+07         0.00000E+00
    0.17085E+07        -0.17641E+07         0.00000E+00
    0.00000E+00         0.00000E+00        -0.24193E+06
 
    0.49052E+06         0.17489E+07         0.00000E+00
    0.17489E+07        -0.17569E+07         0.00000E+00
    0.00000E+00         0.00000E+00        -0.25327E+06
 
    0.42720E+06         0.17893E+07         0.00000E+00
    0.17893E+07        -0.17486E+07         0.00000E+00
    0.00000E+00         0.00000E+00        -0.26428E+06
 
    0.36449E+06         0.18297E+07         0.00000E+00
    0.18297E+07        -0.17392E+07         0.00000E+00
    0.00000E+00         0.00000E+00        -0.27494E+06
 
    0.30235E+06         0.18700E+07         0.00000E+00
    0.18700E+07        -0.17287E+07         0.00000E+00
    0.00000E+00         0.00000E+00        -0.28526E+06
 
    0.24074E+06         0.19103E+07         0.00000E+00
    0.19103E+07        -0.17170E+07         0.00000E+00
    0.00000E+00         0.00000E+00        -0.29525E+06
 
    0.17962E+06         0.19505E+07         0.00000E+00
    0.19505E+07        -0.17041E+07         0.00000E+00
    0.00000E+00         0.00000E+00        -0.30490E+06
 
    0.11896E+06         0.19905E+07         0.00000E+00
    0.19905E+07        -0.16900E+07         0.00000E+00
    0.00000E+00         0.00000E+00        -0.31422E+06
 
    0.58741E+05         0.20305E+07         0.00000E+00
    0.20305E+07        -0.16747E+07         0.00000E+00
    0.00000E+00         0.00000E+00        -0.32320E+06
 
   -0.10620E+04         0.20703E+07         0.00000E+00
    0.20703E+07        -0.16582E+07         0.00000E+00
    0.00000E+00         0.00000E+00        -0.33185E+06
 
   -0.60460E+05         0.21099E+07         0.00000E+00
    0.21099E+07        -0.16404E+07         0.00000E+00
    0.00000E+00         0.00000E+00        -0.34017E+06
 
   -0.11946E+06         0.21493E+07         0.00000E+00
    0.21493E+07        -0.16213E+07         0.00000E+00
    0.00000E+00         0.00000E+00        -0.34816E+06
 
   -0.17807E+06         0.21885E+07         0.00000E+00
    0.21885E+07        -0.16010E+07         0.00000E+00
    0.00000E+00         0.00000E+00        -0.35582E+06
 
   -0.23628E+06         0.22274E+07         0.00000E+00
    0.22274E+07        -0.15794E+07         0.00000E+00
    0.00000E+00         0.00000E+00        -0.36314E+06
 
   -0.29408E+06         0.22661E+07         0.00000E+00
    0.22661E+07        -0.15566E+07         0.00000E+00
    0.00000E+00         0.00000E+00        -0.37013E+06
 
   -0.35145E+06         0.23044E+07         0.00000E+00
    0.23044E+07        -0.15325E+07         0.00000E+00
    0.00000E+00         0.00000E+00        -0.37679E+06
 
    0.36358E+07         0.41569E+05         0.00000E+00
    0.41569E+05        -0.20768E+07         0.00000E+00
    0.00000E+00         0.00000E+00         0.31179E+06
 
    0.34976E+07         0.11566E+06         0.00000E+00
    0.11566E+06        -0.20773E+07         0.00000E+00
    0.00000E+00         0.00000E+00         0.28406E+06
 
    0.33623E+07         0.18624E+06         0.00000E+00
    0.18624E+06        -0.20783E+07         0.00000E+00
    0.00000E+00         0.00000E+00         0.25679E+06
 
    0.32301E+07         0.25356E+06         0.00000E+00
    0.25356E+06        -0.20800E+07         0.00000E+00
    0.00000E+00         0.00000E+00         0.23002E+06
 
    0.31009E+07         0.31790E+06         0.00000E+00
    0.31790E+06        -0.20822E+07         0.00000E+00
    0.00000E+00         0.00000E+00         0.20373E+06
 
    0.29749E+07         0.37949E+06         0.00000E+00
    0.37949E+06        -0.20851E+07         0.00000E+00
    0.00000E+00         0.00000E+00         0.17795E+06
 
    0.28520E+07         0.43856E+06         0.00000E+00
    0.43856E+06        -0.20886E+07         0.00000E+00
    0.00000E+00         0.00000E+00         0.15266E+06
 
    0.27322E+07         0.49536E+06         0.00000E+00
    0.49536E+06        -0.20928E+07         0.00000E+00
    0.00000E+00         0.00000E+00         0.12789E+06
 
    0.26156E+07         0.55009E+06         0.00000E+00
    0.55009E+06        -0.20975E+07         0.00000E+00
    0.00000E+00         0.00000E+00         0.10362E+06
 
    0.25021E+07         0.60298E+06         0.00000E+00
    0.60298E+06        -0.21028E+07         0.00000E+00
    0.00000E+00         0.00000E+00         0.79868E+05
 
    0.23917E+07         0.65421E+06         0.00000E+00
    0.65421E+06        -0.21086E+07         0.00000E+00
    0.00000E+00         0.00000E+00         0.56624E+05
 
    0.22843E+07         0.70398E+06         0.00000E+00
    0.70398E+06        -0.21148E+07         0.00000E+00
    0.00000E+00         0.00000E+00         0.33889E+05
 
    0.21799E+07         0.75247E+06         0.00000E+00
    0.75247E+06        -0.21215E+07         0.00000E+00
    0.00000E+00         0.00000E+00         0.11663E+05
 
    0.20783E+07         0.79985E+06         0.00000E+00
    0.79985E+06        -0.21286E+07         0.00000E+00
    0.00000E+00         0.00000E+00        -0.10056E+05
 
    0.19796E+07         0.84628E+06         0.00000E+00
    0.84628E+06        -0.21360E+07         0.00000E+00
    0.00000E+00         0.00000E+00        -0.31272E+05
 
    0.18837E+07         0.89191E+06         0.00000E+00
    0.89191E+06        -0.21436E+07         0.00000E+00
    0.00000E+00         0.00000E+00        -0.51987E+05
 
    0.17904E+07         0.93688E+06         0.00000E+00
    0.93688E+06        -0.21514E+07         0.00000E+00
    0.00000E+00         0.00000E+00        -0.72207E+05
 
    0.16996E+07         0.98132E+06         0.00000E+00
    0.98132E+06        -0.21593E+07         0.00000E+00
    0.00000E+00         0.00000E+00        -0.91935E+05
 
    0.16113E+07         0.10253E+07         0.00000E+00
    0.10253E+07        -0.21672E+07         0.00000E+00
    0.00000E+00         0.00000E+00        -0.11118E+06
 
    0.15254E+07         0.10691E+07         0.00000E+00
    0.10691E+07        -0.21751E+07         0.00000E+00
    0.00000E+00         0.00000E+00        -0.12994E+06
 
    0.14417E+07         0.11126E+07         0.00000E+00
    0.11126E+07        -0.21828E+07         0.00000E+00
    0.00000E+00         0.00000E+00        -0.14823E+06
 
    0.13601E+07         0.11560E+07         0.00000E+00
    0.11560E+07        -0.21903E+07         0.00000E+00
    0.00000E+00         0.00000E+00        -0.16604E+06
 
    0.12805E+07         0.11993E+07         0.00000E+00
    0.11993E+07        -0.21975E+07         0.00000E+00
    0.00000E+00         0.00000E+00        -0.18340E+06
 
    0.12029E+07         0.12427E+07         0.00000E+00
    0.12427E+07        -0.22044E+07         0.00000E+00
    0.00000E+00         0.00000E+00        -0.20030E+06
 
    0.11270E+07         0.12862E+07         0.00000E+00
    0.12862E+07        -0.22107E+07         0.00000E+00
    0.00000E+00         0.00000E+00        -0.21675E+06
 
    0.10527E+07         0.13299E+07         0.00000E+00
    0.13299E+07        -0.22165E+07         0.00000E+00
    0.00000E+00         0.00000E+00        -0.23276E+06
 
    0.98006E+06         0.13737E+07         0.00000E+00
    0.13737E+07        -0.22217E+07         0.00000E+00
    0.00000E+00         0.00000E+00        -0.24834E+06
 
    0.90882E+06         0.14177E+07         0.00000E+00
    0.14177E+07        -0.22262E+07         0.00000E+00
    0.00000E+00         0.00000E+00        -0.26348E+06
 
    0.83890E+06         0.14621E+07         0.00000E+00
    0.14621E+07        -0.22299E+07         0.00000E+00
    0.00000E+00         0.00000E+00        -0.27820E+06
 
    0.77020E+06         0.15066E+07         0.00000E+00
    0.15066E+07        -0.22328E+07         0.00000E+00
    0.00000E+00         0.00000E+00        -0.29251E+06
 
    0.70261E+06         0.15515E+07         0.00000E+00
    0.15515E+07        -0.22347E+07         0.00000E+00
    0.00000E+00         0.00000E+00        -0.30641E+06
 
    0.63603E+06         0.15966E+07         0.00000E+00
    0.15966E+07        -0.22356E+07         0.00000E+00
    0.00000E+00         0.00000E+00        -0.31991E+06
 
    0.57036E+06         0.16420E+07         0.00000E+00
    0.16420E+07        -0.22354E+07         0.00000E+00
    0.00000E+00         0.00000E+00        -0.33300E+06
 
    0.50550E+06         0.16877E+07         0.00000E+00
    0.16877E+07        -0.22341E+07         0.00000E+00
    0.00000E+00         0.00000E+00        -0.34571E+06
 
    0.44137E+06         0.17336E+07         0.00000E+00
    0.17336E+07        -0.22315E+07         0.00000E+00
    0.00000E+00         0.00000E+00        -0.35803E+06
 
    0.37789E+06         0.17798E+07         0.00000E+00
    0.17798E+07        -0.22278E+07         0.00000E+00
    0.00000E+00         0.00000E+00        -0.36998E+06
 
    0.31498E+06         0.18262E+07         0.00000E+00
    0.18262E+07        -0.22227E+07         0.00000E+00
    0.00000E+00         0.00000E+00        -0.38154E+06
 
    0.25256E+06         0.18728E+07         0.00000E+00
    0.18728E+07        -0.22162E+07         0.00000E+00
    0.00000E+00         0.00000E+00        -0.39273E+06
 
    0.19058E+06         0.19195E+07         0.00000E+00
    0.19195E+07        -0.22084E+07         0.00000E+00
    0.00000E+00         0.00000E+00        -0.40356E+06
 
    0.12899E+06         0.19663E+07         0.00000E+00
    0.19663E+07        -0.21991E+07         0.00000E+00
    0.00000E+00         0.00000E+00        -0.41402E+06
 
    0.67720E+05         0.20131E+07         0.00000E+00
    0.20131E+07        -0.21883E+07         0.00000E+00
    0.00000E+00         0.00000E+00        -0.42412E+06
 
    0.67431E+04         0.20600E+07         0.00000E+00
    0.20600E+07        -0.21760E+07         0.00000E+00
    0.00000E+00         0.00000E+00        -0.43386E+06
 
   -0.53976E+05         0.21069E+07         0.00000E+00
    0.21069E+07        -0.21622E+07         0.00000E+00
    0.00000E+00         0.00000E+00        -0.44324E+06
 
   -0.11446E+06         0.21536E+07         0.00000E+00
    0.21536E+07        -0.21469E+07         0.00000E+00
    0.00000E+00         0.00000E+00        -0.45227E+06
 
   -0.17473E+06         0.22003E+07         0.00000E+00
    0.22003E+07        -0.21300E+07         0.00000E+00
    0.00000E+00         0.00000E+00        -0.46094E+06
 
   -0.23480E+06         0.22467E+07         0.00000E+00
    0.22467E+07        -0.21115E+07         0.00000E+00
    0.00000E+00         0.00000E+00        -0.46926E+06
 
   -0.29465E+06         0.22929E+07         0.00000E+00
    0.22929E+07        -0.20914E+07         0.00000E+00
    0.00000E+00         0.00000E+00        -0.47722E+06
 
   -0.35429E+06         0.23389E+07         0.00000E+00
    0.23389E+07        -0.20698E+07         0.00000E+00
    0.00000E+00         0.00000E+00        -0.48483E+06
 
   -0.41369E+06         0.23845E+07         0.00000E+00
    0.23845E+07        -0.20467E+07         0.00000E+00
    0.00000E+00         0.00000E+00        -0.49207E+06
 
   -0.47282E+06         0.24297E+07         0.00000E+00
    0.24297E+07        -0.20220E+07         0.00000E+00
    0.00000E+00         0.00000E+00        -0.49896E+06
 
    0.36156E+07         0.39751E+05         0.00000E+00
    0.39751E+05        -0.24677E+07         0.00000E+00
    0.00000E+00         0.00000E+00         0.22958E+06
 
    0.34587E+07         0.10970E+06         0.00000E+00
    0.10970E+06        -0.24688E+07         0.00000E+00
    0.00000E+00         0.00000E+00         0.19798E+06
 
    0.33062E+07         0.17600E+06         0.00000E+00
    0.17600E+06        -0.24710E+07         0.00000E+00
    0.00000E+00         0.00000E+00         0.16705E+06
 
    0.31583E+07         0.23900E+06         0.00000E+00
    0.23900E+06        -0.24744E+07         0.00000E+00
    0.00000E+00         0.00000E+00         0.13678E+06
 
    0.30148E+07         0.29901E+06         0.00000E+00
    0.29901E+06        -0.24789E+07         0.00000E+00
    0.00000E+00         0.00000E+00         0.10717E+06
 
    0.28758E+07         0.35632E+06         0.00000E+00
    0.35632E+06        -0.24846E+07         0.00000E+00
    0.00000E+00         0.00000E+00         0.78238E+05
 
    0.27412E+07         0.41123E+06         0.00000E+00
    0.41123E+06        -0.24913E+07         0.00000E+00
    0.00000E+00         0.00000E+00         0.49971E+05
 
    0.26110E+07         0.46401E+06         0.00000E+00
    0.46401E+06        -0.24991E+07         0.00000E+00
    0.00000E+00         0.00000E+00         0.22370E+05
 
    0.24851E+07         0.51493E+06         0.00000E+00
    0.51493E+06        -0.25079E+07         0.00000E+00
    0.00000E+00         0.00000E+00        -0.45677E+04
 
    0.23634E+07         0.56425E+06         0.00000E+00
    0.56425E+06        -0.25176E+07         0.00000E+00
    0.00000E+00         0.00000E+00        -0.30846E+05
 
    0.22459E+07         0.61219E+06         0.00000E+00
    0.61219E+06        -0.25283E+07         0.00000E+00
    0.00000E+00         0.00000E+00        -0.56470E+05
 
    0.21324E+07         0.65898E+06         0.00000E+00
    0.65898E+06        -0.25397E+07         0.00000E+00
    0.00000E+00         0.00000E+00        -0.81445E+05
 
    0.20229E+07         0.70483E+06         0.00000E+00
    0.70483E+06        -0.25518E+07         0.00000E+00
    0.00000E+00         0.00000E+00        -0.10578E+06
 
    0.19171E+07         0.74995E+06         0.00000E+00
    0.74995E+06        -0.25645E+07         0.00000E+00
    0.00000E+00         0.00000E+00        -0.12948E+06
 
    0.18150E+07         0.79450E+06         0.00000E+00
    0.79450E+06        -0.25778E+07         0.00000E+00
    0.00000E+00         0.00000E+00        -0.15256E+06
 
    0.17164E+07         0.83867E+06         0.00000E+00
    0.83867E+06        -0.25915E+07         0.00000E+00
    0.00000E+00         0.00000E+00        -0.17502E+06
 
    0.16212E+07         0.88261E+06         0.00000E+00
    0.88261E+06        -0.26055E+07         0.00000E+00
    0.00000E+00         0.00000E+00        -0.19687E+06
 
    0.15291E+07         0.92647E+06         0.00000E+00
    0.92647E+06        -0.26198E+07         0.00000E+00
    0.00000E+00         0.00000E+00        -0.21813E+06
 
    0.14401E+07         0.97037E+06         0.00000E+00
    0.97037E+06        -0.26341E+07         0.00000E+00
    0.00000E+00         0.00000E+00        -0.23880E+06
 
    0.13541E+07         0.10144E+07         0.00000E+00
    0.10144E+07        -0.26485E+07         0.00000E+00
    0.00000E+00         0.00000E+00        -0.25889E+06
 
    0.12707E+07         0.10588E+07         0.00000E+00
    0.10588E+07        -0.26628E+07         0.00000E+00
    0.00000E+00         0.00000E+00        -0.27843E+06
 
    0.11899E+07         0.11034E+07         0.00000E+00
    0.11034E+07        -0.26769E+07         0.00000E+00
    0.00000E+00         0.00000E+00        -0.29741E+06
 
    0.11115E+07         0.11486E+07         0.00000E+00
    0.11486E+07        -0.26907E+07         0.00000E+00
    0.00000E+00         0.00000E+00        -0.31585E+06
 
    0.10353E+07         0.11942E+07         0.00000E+00
    0.11942E+07        -0.27041E+07         0.00000E+00
    0.00000E+00         0.00000E+00        -0.33376E+06
 
    0.96111E+06         0.12404E+07         0.00000E+00
    0.12404E+07        -0.27169E+07         0.00000E+00
    0.00000E+00         0.00000E+00        -0.35115E+06
 
    0.88885E+06         0.12873E+07         0.00000E+00
    0.12873E+07        -0.27291E+07         0.00000E+00
    0.00000E+00         0.00000E+00        -0.36804E+06
 
    0.81831E+06         0.13347E+07         0.00000E+00
    0.13347E+07        -0.27405E+07         0.00000E+00
    0.00000E+00         0.00000E+00        -0.38443E+06
 
    0.74933E+06         0.13829E+07         0.00000E+00
    0.13829E+07        -0.27511E+07         0.00000E+00
    0.00000E+00         0.00000E+00        -0.40034E+06
 
    0.68177E+06         0.14317E+07         0.00000E+00
    0.14317E+07        -0.27607E+07         0.00000E+00
    0.00000E+00         0.00000E+00        -0.41578E+06
 
    0.61546E+06         0.14813E+07         0.00000E+00
    0.14813E+07        -0.27693E+07         0.00000E+00
    0.00000E+00         0.00000E+00        -0.43076E+06
 
    0.55025E+06         0.15315E+07         0.00000E+00
    0.15315E+07        -0.27767E+07         0.00000E+00
    0.00000E+00         0.00000E+00        -0.44529E+06
 
    0.48602E+06         0.15824E+07         0.00000E+00
    0.15824E+07        -0.27829E+07         0.00000E+00
    0.00000E+00         0.00000E+00        -0.45937E+06
 
    0.42261E+06         0.16340E+07         0.00000E+00
    0.16340E+07        -0.27877E+07         0.00000E+00
    0.00000E+00         0.00000E+00        -0.47302E+06
 
    0.35991E+06         0.16862E+07         0.00000E+00
    0.16862E+07        -0.27912E+07         0.00000E+00
    0.00000E+00         0.00000E+00        -0.48626E+06
 
    0.29779E+06         0.17390E+07         0.00000E+00
    0.17390E+07        -0.27932E+07         0.00000E+00
    0.00000E+00         0.00000E+00        -0.49907E+06
 
    0.23614E+06         0.17923E+07         0.00000E+00
    0.17923E+07        -0.27936E+07         0.00000E+00
    0.00000E+00         0.00000E+00        -0.51149E+06
 
    0.17485E+06         0.18461E+07         0.00000E+00
    0.18461E+07        -0.27924E+07         0.00000E+00
    0.00000E+00         0.00000E+00        -0.52350E+06
 
    0.11384E+06         0.19004E+07         0.00000E+00
    0.19004E+07        -0.27894E+07         0.00000E+00
    0.00000E+00         0.00000E+00        -0.53512E+06
 
    0.52999E+05         0.19550E+07         0.00000E+00
    0.19550E+07        -0.27848E+07         0.00000E+00
    0.00000E+00         0.00000E+00        -0.54636E+06
 
   -0.77309E+04         0.20100E+07         0.00000E+00
    0.20100E+07        -0.27784E+07         0.00000E+00
    0.00000E+00         0.00000E+00        -0.55722E+06
 
   -0.68422E+05         0.20652E+07         0.00000E+00
    0.20652E+07        -0.27701E+07         0.00000E+00
    0.00000E+00         0.00000E+00        -0.56770E+06
 
   -0.12913E+06         0.21205E+07         0.00000E+00
    0.21205E+07        -0.27599E+07         0.00000E+00
    0.00000E+00         0.00000E+00        -0.57781E+06
 
   -0.18990E+06         0.21760E+07         0.00000E+00
    0.21760E+07        -0.27479E+07         0.00000E+00
    0.00000E+00         0.00000E+00        -0.58756E+06
 
   -0.25077E+06         0.22314E+07         0.00000E+00
    0.22314E+07        -0.27339E+07         0.00000E+00
    0.00000E+00         0.00000E+00        -0.59694E+06
 
   -0.31175E+06         0.22867E+07         0.00000E+00
    0.22867E+07        -0.27180E+07         0.00000E+00
    0.00000E+00         0.00000E+00        -0.60595E+06
 
   -0.37285E+06         0.23419E+07         0.00000E+00
    0.23419E+07        -0.27002E+07         0.00000E+00
    0.00000E+00         0.00000E+00        -0.61461E+06
 
   -0.43409E+06         0.23968E+07         0.00000E+00
    0.23968E+07        -0.26804E+07         0.00000E+00
    0.00000E+00         0.00000E+00        -0.62289E+06
 
   -0.49543E+06         0.24514E+07         0.00000E+00
    0.24514E+07        -0.26587E+07         0.00000E+00
    0.00000E+00         0.00000E+00        -0.63082E+06
 
   -0.55686E+06         0.25056E+07         0.00000E+00
    0.25056E+07        -0.26350E+07         0.00000E+00
    0.00000E+00         0.00000E+00        -0.63838E+06
 
   -0.61833E+06         0.25592E+07         0.00000E+00
    0.25592E+07        -0.26095E+07         0.00000E+00
    0.00000E+00         0.00000E+00        -0.64556E+06
 
    0.34933E+07         0.36132E+05         0.00000E+00
    0.36132E+05        -0.29321E+07         0.00000E+00
    0.00000E+00         0.00000E+00         0.11225E+06
 
    0.33173E+07         0.98644E+05         0.00000E+00
    0.98644E+05        -0.29339E+07         0.00000E+00
    0.00000E+00         0.00000E+00         0.76674E+05
 
    0.31476E+07         0.15754E+06         0.00000E+00
    0.15754E+06        -0.29377E+07         0.00000E+00
    0.00000E+00         0.00000E+00         0.41981E+05
 
    0.29841E+07         0.21322E+06         0.00000E+00
    0.21322E+06        -0.29433E+07         0.00000E+00
    0.00000E+00         0.00000E+00         0.81714E+04
 
    0.28268E+07         0.26606E+06         0.00000E+00
    0.26606E+06        -0.29506E+07         0.00000E+00
    0.00000E+00         0.00000E+00        -0.24760E+05
 
    0.26756E+07         0.31643E+06         0.00000E+00
    0.31643E+06        -0.29597E+07         0.00000E+00
    0.00000E+00         0.00000E+00        -0.56818E+05
 
    0.25304E+07         0.36467E+06         0.00000E+00
    0.36467E+06        -0.29705E+07         0.00000E+00
    0.00000E+00         0.00000E+00        -0.88012E+05
 
    0.23911E+07         0.41111E+06         0.00000E+00
    0.41111E+06        -0.29828E+07         0.00000E+00
    0.00000E+00         0.00000E+00        -0.11835E+06
 
    0.22574E+07         0.45607E+06         0.00000E+00
    0.45607E+06        -0.29966E+07         0.00000E+00
    0.00000E+00         0.00000E+00        -0.14784E+06
 
    0.21293E+07         0.49983E+06         0.00000E+00
    0.49983E+06        -0.30118E+07         0.00000E+00
    0.00000E+00         0.00000E+00        -0.17650E+06
 
    0.20067E+07         0.54268E+06         0.00000E+00
    0.54268E+06        -0.30283E+07         0.00000E+00
    0.00000E+00         0.00000E+00        -0.20433E+06
 
    0.18892E+07         0.58487E+06         0.00000E+00
    0.58487E+06        -0.30460E+07         0.00000E+00
    0.00000E+00         0.00000E+00        -0.23136E+06
 
    0.17767E+07         0.62664E+06         0.00000E+00
    0.62664E+06        -0.30646E+07         0.00000E+00
    0.00000E+00         0.00000E+00        -0.25759E+06
 
    0.16690E+07         0.66821E+06         0.00000E+00
    0.66821E+06        -0.30842E+07         0.00000E+00
    0.00000E+00         0.00000E+00        -0.28305E+06
 
    0.15659E+07         0.70980E+06         0.00000E+00
    0.70980E+06        -0.31046E+07         0.00000E+00
    0.00000E+00         0.00000E+00        -0.30774E+06
 
    0.14672E+07         0.75158E+06         0.00000E+00
    0.75158E+06        -0.31256E+07         0.00000E+00
    0.00000E+00         0.00000E+00        -0.33169E+06
 
    0.13726E+07         0.79374E+06         0.00000E+00
    0.79374E+06        -0.31472E+07         0.00000E+00
    0.00000E+00         0.00000E+00        -0.35491E+06
 
    0.12820E+07         0.83642E+06         0.00000E+00
    0.83642E+06        -0.31691E+07         0.00000E+00
    0.00000E+00         0.00000E+00        -0.37742E+06
 
    0.11950E+07         0.87977E+06         0.00000E+00
    0.87977E+06        -0.31912E+07         0.00000E+00
    0.00000E+00         0.00000E+00        -0.39923E+06
 
    0.11115E+07         0.92390E+06         0.00000E+00
    0.92390E+06        -0.32134E+07         0.00000E+00
    0.00000E+00         0.00000E+00        -0.42037E+06
 
    0.10313E+07         0.96894E+06         0.00000E+00
    0.96894E+06        -0.32355E+07         0.00000E+00
    0.00000E+00         0.00000E+00        -0.44085E+06
 
    0.95397E+06         0.10150E+07         0.00000E+00
    0.10150E+07        -0.32575E+07         0.00000E+00
    0.00000E+00         0.00000E+00        -0.46070E+06
 
    0.87944E+06         0.10621E+07         0.00000E+00
    0.10621E+07        -0.32790E+07         0.00000E+00
    0.00000E+00         0.00000E+00        -0.47992E+06
 
    0.80743E+06         0.11103E+07         0.00000E+00
    0.11103E+07        -0.33001E+07         0.00000E+00
    0.00000E+00         0.00000E+00        -0.49854E+06
 
    0.73772E+06         0.11597E+07         0.00000E+00
    0.11597E+07        -0.33206E+07         0.00000E+00
    0.00000E+00         0.00000E+00        -0.51658E+06
 
    0.67007E+06         0.12103E+07         0.00000E+00
    0.12103E+07        -0.33403E+07         0.00000E+00
    0.00000E+00         0.00000E+00        -0.53405E+06
 
    0.60426E+06         0.12622E+07         0.00000E+00
    0.12622E+07        -0.33591E+07         0.00000E+00
    0.00000E+00         0.00000E+00        -0.55097E+06
 
    0.54009E+06         0.13153E+07         0.00000E+00
    0.13153E+07        -0.33769E+07         0.00000E+00
    0.00000E+00         0.00000E+00        -0.56736E+06
 
    0.47733E+06         0.13697E+07         0.00000E+00
    0.13697E+07        -0.33935E+07         0.00000E+00
    0.00000E+00         0.00000E+00        -0.58324E+06
 
    0.41578E+06         0.14253E+07         0.00000E+00
    0.14253E+07        -0.34088E+07         0.00000E+00
    0.00000E+00         0.00000E+00        -0.59861E+06
 
    0.35524E+06         0.14821E+07         0.00000E+00
    0.14821E+07        -0.34228E+07         0.00000E+00
    0.00000E+00         0.00000E+00        -0.61351E+06
 
    0.29553E+06         0.15402E+07         0.00000E+00
    0.15402E+07        -0.34352E+07         0.00000E+00
    0.00000E+00         0.00000E+00        -0.62793E+06
 
    0.23646E+06         0.15993E+07         0.00000E+00
    0.15993E+07        -0.34460E+07         0.00000E+00
    0.00000E+00         0.00000E+00        -0.64191E+06
 
    0.17787E+06         0.16595E+07         0.00000E+00
    0.16595E+07        -0.34551E+07         0.00000E+00
    0.00000E+00         0.00000E+00        -0.65544E+06
 
    0.11958E+06         0.17208E+07         0.00000E+00
    0.17208E+07        -0.34623E+07         0.00000E+00
    0.00000E+00         0.00000E+00        -0.66854E+06
 
    0.61450E+05         0.17829E+07         0.00000E+00
    0.17829E+07        -0.34676E+07         0.00000E+00
    0.00000E+00         0.00000E+00        -0.68123E+06
 
    0.33362E+04         0.18460E+07         0.00000E+00
    0.18460E+07        -0.34709E+07         0.00000E+00
    0.00000E+00         0.00000E+00        -0.69352E+06
 
   -0.54890E+05         0.19098E+07         0.00000E+00
    0.19098E+07        -0.34722E+07         0.00000E+00
    0.00000E+00         0.00000E+00        -0.70541E+06
 
   -0.11335E+06         0.19743E+07         0.00000E+00
    0.19743E+07        -0.34713E+07         0.00000E+00
    0.00000E+00         0.00000E+00        -0.71692E+06
 
   -0.17213E+06         0.20393E+07         0.00000E+00
    0.20393E+07        -0.34681E+07         0.00000E+00
    0.00000E+00         0.00000E+00        -0.72805E+06
 
   -0.23135E+06         0.21048E+07         0.00000E+00
    0.21048E+07        -0.34627E+07         0.00000E+00
    0.00000E+00         0.00000E+00        -0.73882E+06
 
   -0.29106E+06         0.21706E+07         0.00000E+00
    0.21706E+07        -0.34550E+07         0.00000E+00
    0.00000E+00         0.00000E+00        -0.74922E+06
 
   -0.35133E+06         0.22367E+07         0.00000E+00
    0.22367E+07        -0.34450E+07         0.00000E+00
    0.00000E+00         0.00000E+00        -0.75926E+06
 
   -0.41222E+06         0.23029E+07         0.00000E+00
    0.23029E+07        -0.34325E+07         0.00000E+00
    0.00000E+00         0.00000E+00        -0.76895E+06
 
   -0.47375E+06         0.23690E+07         0.00000E+00
    0.23690E+07        -0.34177E+07         0.00000E+00
    0.00000E+00         0.00000E+00        -0.77829E+06
 
   -0.53593E+06         0.24350E+07         0.00000E+00
    0.24350E+07        -0.34005E+07         0.00000E+00
    0.00000E+00         0.00000E+00        -0.78728E+06
 
   -0.59877E+06         0.25007E+07         0.00000E+00
    0.25007E+07        -0.33808E+07         0.00000E+00
    0.00000E+00         0.00000E+00        -0.79592E+06
 
   -0.66225E+06         0.25660E+07         0.00000E+00
    0.25660E+07        -0.33588E+07         0.00000E+00
    0.00000E+00         0.00000E+00        -0.80421E+06
 
   -0.72633E+06         0.26307E+07         0.00000E+00
    0.26307E+07        -0.33344E+07         0.00000E+00
    0.00000E+00         0.00000E+00        -0.81214E+06
 
   -0.79097E+06         0.26948E+07         0.00000E+00
    0.26948E+07        -0.33076E+07         0.00000E+00
    0.00000E+00         0.00000E+00        -0.81972E+06
 
    0.32365E+07         0.30242E+05         0.00000E+00
    0.30242E+05        -0.34839E+07         0.00000E+00
    0.00000E+00         0.00000E+00        -0.49482E+05
 
    0.30417E+07         0.81255E+05         0.00000E+00
    0.81255E+05        -0.34867E+07         0.00000E+00
    0.00000E+00         0.00000E+00        -0.89001E+05
 
    0.28555E+07         0.12888E+06         0.00000E+00
    0.12888E+06        -0.34923E+07         0.00000E+00
    0.00000E+00         0.00000E+00        -0.12736E+06
 
    0.26777E+07         0.17360E+06         0.00000E+00
    0.17360E+06        -0.35006E+07         0.00000E+00
    0.00000E+00         0.00000E+00        -0.16458E+06
 
    0.25081E+07         0.21586E+06         0.00000E+00
    0.21586E+06        -0.35114E+07         0.00000E+00
    0.00000E+00         0.00000E+00        -0.20066E+06
 
    0.23465E+07         0.25609E+06         0.00000E+00
    0.25609E+06        -0.35246E+07         0.00000E+00
    0.00000E+00         0.00000E+00        -0.23563E+06
 
    0.21927E+07         0.29469E+06         0.00000E+00
    0.29469E+06        -0.35402E+07         0.00000E+00
    0.00000E+00         0.00000E+00        -0.26951E+06
 
    0.20465E+07         0.33205E+06         0.00000E+00
    0.33205E+06        -0.35580E+07         0.00000E+00
    0.00000E+00         0.00000E+00        -0.30230E+06
 
    0.19076E+07         0.36853E+06         0.00000E+00
    0.36853E+06        -0.35778E+07         0.00000E+00
    0.00000E+00         0.00000E+00        -0.33404E+06
 
    0.17758E+07         0.40445E+06         0.00000E+00
    0.40445E+06        -0.35995E+07         0.00000E+00
    0.00000E+00         0.00000E+00        -0.36474E+06
 
    0.16509E+07         0.44014E+06         0.00000E+00
    0.44014E+06        -0.36230E+07         0.00000E+00
    0.00000E+00         0.00000E+00        -0.39442E+06
 
    0.15324E+07         0.47587E+06         0.00000E+00
    0.47587E+06        -0.36480E+07         0.00000E+00
    0.00000E+00         0.00000E+00        -0.42312E+06
 
    0.14202E+07         0.51193E+06         0.00000E+00
    0.51193E+06        -0.36745E+07         0.00000E+00
    0.00000E+00         0.00000E+00        -0.45086E+06
 
    0.13139E+07         0.54855E+06         0.00000E+00
    0.54855E+06        -0.37021E+07         0.00000E+00
    0.00000E+00         0.00000E+00        -0.47765E+06
 
    0.12132E+07         0.58596E+06         0.00000E+00
    0.58596E+06        -0.37308E+07         0.00000E+00
    0.00000E+00         0.00000E+00        -0.50353E+06
 
    0.11178E+07         0.62436E+06         0.00000E+00
    0.62436E+06        -0.37604E+07         0.00000E+00
    0.00000E+00         0.00000E+00        -0.52852E+06
 
    0.10275E+07         0.66393E+06         0.00000E+00
    0.66393E+06        -0.37907E+07         0.00000E+00
    0.00000E+00         0.00000E+00        -0.55265E+06
 
    0.94175E+06         0.70483E+06         0.00000E+00
    0.70483E+06        -0.38215E+07         0.00000E+00
    0.00000E+00         0.00000E+00        -0.57595E+06
 
    0.86039E+06         0.74722E+06         0.00000E+00
    0.74722E+06        -0.38526E+07         0.00000E+00
    0.00000E+00         0.00000E+00        -0.59844E+06
 
    0.78308E+06         0.79120E+06         0.00000E+00
    0.79120E+06        -0.38838E+07         0.00000E+00
    0.00000E+00         0.00000E+00        -0.62015E+06
 
    0.70948E+06         0.83689E+06         0.00000E+00
    0.83689E+06        -0.39151E+07         0.00000E+00
    0.00000E+00         0.00000E+00        -0.64112E+06
 
    0.63928E+06         0.88437E+06         0.00000E+00
    0.88437E+06        -0.39460E+07         0.00000E+00
    0.00000E+00         0.00000E+00        -0.66135E+06
 
    0.57216E+06         0.93372E+06         0.00000E+00
    0.93372E+06        -0.39766E+07         0.00000E+00
    0.00000E+00         0.00000E+00        -0.68089E+06
 
    0.50783E+06         0.98498E+06         0.00000E+00
    0.98498E+06        -0.40066E+07         0.00000E+00
    0.00000E+00         0.00000E+00        -0.69976E+06
 
    0.44597E+06         0.10382E+07         0.00000E+00
    0.10382E+07        -0.40359E+07         0.00000E+00
    0.00000E+00         0.00000E+00        -0.71798E+06
 
    0.38629E+06         0.10934E+07         0.00000E+00
    0.10934E+07        -0.40642E+07         0.00000E+00
    0.00000E+00         0.00000E+00        -0.73559E+06
 
    0.32850E+06         0.11506E+07         0.00000E+00
    0.11506E+07        -0.40915E+07         0.00000E+00
    0.00000E+00         0.00000E+00        -0.75260E+06
 
    0.27230E+06         0.12097E+07         0.00000E+00
    0.12097E+07        -0.41175E+07         0.00000E+00
    0.00000E+00         0.00000E+00        -0.76904E+06
 
    0.21744E+06         0.12708E+07         0.00000E+00
    0.12708E+07        -0.41421E+07         0.00000E+00
    0.00000E+00         0.00000E+00        -0.78493E+06
 
    0.16363E+06         0.13338E+07         0.00000E+00
    0.13338E+07        -0.41652E+07         0.00000E+00
    0.00000E+00         0.00000E+00        -0.80031E+06
 
    0.11062E+06         0.13987E+07         0.00000E+00
    0.13987E+07        -0.41865E+07         0.00000E+00
    0.00000E+00         0.00000E+00        -0.81518E+06
 
    0.58162E+05         0.14653E+07         0.00000E+00
    0.14653E+07        -0.42061E+07         0.00000E+00
    0.00000E+00         0.00000E+00        -0.82958E+06
 
    0.60231E+04         0.15337E+07         0.00000E+00
    0.15337E+07        -0.42236E+07         0.00000E+00
    0.00000E+00         0.00000E+00        -0.84352E+06
 
   -0.46024E+05         0.16038E+07         0.00000E+00
    0.16038E+07        -0.42391E+07         0.00000E+00
    0.00000E+00         0.00000E+00        -0.85702E+06
 
   -0.98192E+05         0.16753E+07         0.00000E+00
    0.16753E+07        -0.42523E+07         0.00000E+00
    0.00000E+00         0.00000E+00        -0.87011E+06
 
   -0.15068E+06         0.17483E+07         0.00000E+00
    0.17483E+07        -0.42633E+07         0.00000E+00
    0.00000E+00         0.00000E+00        -0.88279E+06
 
   -0.20368E+06         0.18226E+07         0.00000E+00
    0.18226E+07        -0.42717E+07         0.00000E+00
    0.00000E+00         0.00000E+00        -0.89508E+06
 
   -0.25735E+06         0.18981E+07         0.00000E+00
    0.18981E+07        -0.42777E+07         0.00000E+00
    0.00000E+00         0.00000E+00        -0.90700E+06
 
   -0.31186E+06         0.19747E+07         0.00000E+00
    0.19747E+07        -0.42810E+07         0.00000E+00
    0.00000E+00         0.00000E+00        -0.91857E+06
 
   -0.36734E+06         0.20521E+07         0.00000E+00
    0.20521E+07        -0.42816E+07         0.00000E+00
    0.00000E+00         0.00000E+00        -0.92979E+06
 
   -0.42391E+06         0.21303E+07         0.00000E+00
    0.21303E+07        -0.42794E+07         0.00000E+00
    0.00000E+00         0.00000E+00        -0.94067E+06
 
   -0.48170E+06         0.22091E+07         0.00000E+00
    0.22091E+07        -0.42745E+07         0.00000E+00
    0.00000E+00         0.00000E+00        -0.95123E+06
 
   -0.54077E+06         0.22883E+07         0.00000E+00
    0.22883E+07        -0.42666E+07         0.00000E+00
    0.00000E+00         0.00000E+00        -0.96147E+06
 
   -0.60121E+06         0.23677E+07         0.00000E+00
    0.23677E+07        -0.42558E+07         0.00000E+00
    0.00000E+00         0.00000E+00        -0.97140E+06
 
   -0.66306E+06         0.24471E+07         0.00000E+00
    0.24471E+07        -0.42420E+07         0.00000E+00
    0.00000E+00         0.00000E+00        -0.98102E+06
 
   -0.72634E+06         0.25265E+07         0.00000E+00
    0.25265E+07        -0.42253E+07         0.00000E+00
    0.00000E+00         0.00000E+00        -0.99033E+06
 
   -0.79108E+06         0.26055E+07         0.00000E+00
    0.26055E+07        -0.42056E+07         0.00000E+00
    0.00000E+00         0.00000E+00        -0.99934E+06
 
   -0.85725E+06         0.26841E+07         0.00000E+00
    0.26841E+07        -0.41830E+07         0.00000E+00
    0.00000E+00         0.00000E+00        -0.10081E+07
 
   -0.92482E+06         0.27619E+07         0.00000E+00
    0.27619E+07        -0.41574E+07         0.00000E+00
    0.00000E+00         0.00000E+00        -0.10165E+07
 
   -0.99373E+06         0.28388E+07         0.00000E+00
    0.28388E+07        -0.41290E+07         0.00000E+00
    0.00000E+00         0.00000E+00        -0.10245E+07
 
    0.28055E+07         0.21570E+05         0.00000E+00
    0.21570E+05        -0.41396E+07         0.00000E+00
    0.00000E+00         0.00000E+00        -0.26681E+06
 
    0.25937E+07         0.56187E+05         0.00000E+00
    0.56187E+05        -0.41436E+07         0.00000E+00
    0.00000E+00         0.00000E+00        -0.30998E+06
 
    0.23931E+07         0.87944E+05         0.00000E+00
    0.87944E+05        -0.41514E+07         0.00000E+00
    0.00000E+00         0.00000E+00        -0.35168E+06
 
    0.22033E+07         0.11739E+06         0.00000E+00
    0.11739E+06        -0.41628E+07         0.00000E+00
    0.00000E+00         0.00000E+00        -0.39191E+06
 
    0.20241E+07         0.14506E+06         0.00000E+00
    0.14506E+06        -0.41777E+07         0.00000E+00
    0.00000E+00         0.00000E+00        -0.43072E+06
 
    0.18552E+07         0.17143E+06         0.00000E+00
    0.17143E+06        -0.41959E+07         0.00000E+00
    0.00000E+00         0.00000E+00        -0.46813E+06
 
    0.16962E+07         0.19698E+06         0.00000E+00
    0.19698E+06        -0.42171E+07         0.00000E+00
    0.00000E+00         0.00000E+00        -0.50418E+06
 
    0.15467E+07         0.22213E+06         0.00000E+00
    0.22213E+06        -0.42412E+07         0.00000E+00
    0.00000E+00         0.00000E+00        -0.53889E+06
 
    0.14064E+07         0.24728E+06         0.00000E+00
    0.24728E+06        -0.42680E+07         0.00000E+00
    0.00000E+00         0.00000E+00        -0.57231E+06
 
    0.12749E+07         0.27280E+06         0.00000E+00
    0.27280E+06        -0.42972E+07         0.00000E+00
    0.00000E+00         0.00000E+00        -0.60446E+06
 
    0.11518E+07         0.29904E+06         0.00000E+00
    0.29904E+06        -0.43287E+07         0.00000E+00
    0.00000E+00         0.00000E+00        -0.63538E+06
 
    0.10366E+07         0.32631E+06         0.00000E+00
    0.32631E+06        -0.43622E+07         0.00000E+00
    0.00000E+00         0.00000E+00        -0.66511E+06
 
    0.92904E+06         0.35490E+06         0.00000E+00
    0.35490E+06        -0.43975E+07         0.00000E+00
    0.00000E+00         0.00000E+00        -0.69369E+06
 
    0.82858E+06         0.38507E+06         0.00000E+00
    0.38507E+06        -0.44343E+07         0.00000E+00
    0.00000E+00         0.00000E+00        -0.72115E+06
 
    0.73482E+06         0.41705E+06         0.00000E+00
    0.41705E+06        -0.44725E+07         0.00000E+00
    0.00000E+00         0.00000E+00        -0.74754E+06
 
    0.64734E+06         0.45105E+06         0.00000E+00
    0.45105E+06        -0.45118E+07         0.00000E+00
    0.00000E+00         0.00000E+00        -0.77289E+06
 
    0.56572E+06         0.48725E+06         0.00000E+00
    0.48725E+06        -0.45519E+07         0.00000E+00
    0.00000E+00         0.00000E+00        -0.79724E+06
 
    0.48953E+06         0.52581E+06         0.00000E+00
    0.52581E+06        -0.45927E+07         0.00000E+00
    0.00000E+00         0.00000E+00        -0.82063E+06
 
    0.41834E+06         0.56687E+06         0.00000E+00
    0.56687E+06        -0.46339E+07         0.00000E+00
    0.00000E+00         0.00000E+00        -0.84310E+06
 
    0.35173E+06         0.61055E+06         0.00000E+00
    0.61055E+06        -0.46752E+07         0.00000E+00
    0.00000E+00         0.00000E+00        -0.86469E+06
 
    0.28930E+06         0.65694E+06         0.00000E+00
    0.65694E+06        -0.47165E+07         0.00000E+00
    0.00000E+00         0.00000E+00        -0.88544E+06
 
    0.23063E+06         0.70611E+06         0.00000E+00
    0.70611E+06        -0.47575E+07         0.00000E+00
    0.00000E+00         0.00000E+00        -0.90538E+06
 
    0.17531E+06         0.75811E+06         0.00000E+00
    0.75811E+06        -0.47981E+07         0.00000E+00
    0.00000E+00         0.00000E+00        -0.92456E+06
 
    0.12295E+06         0.81299E+06         0.00000E+00
    0.81299E+06        -0.48380E+07         0.00000E+00
    0.00000E+00         0.00000E+00        -0.94300E+06
 
    0.73165E+05         0.87076E+06         0.00000E+00
    0.87076E+06        -0.48769E+07         0.00000E+00
    0.00000E+00         0.00000E+00        -0.96076E+06
 
    0.25569E+05         0.93142E+06         0.00000E+00
    0.93142E+06        -0.49148E+07         0.00000E+00
    0.00000E+00         0.00000E+00        -0.97785E+06
 
   -0.20205E+05         0.99496E+06         0.00000E+00
    0.99496E+06        -0.49514E+07         0.00000E+00
    0.00000E+00         0.00000E+00        -0.99432E+06
 
   -0.64520E+05         0.10613E+07         0.00000E+00
    0.10613E+07        -0.49865E+07         0.00000E+00
    0.00000E+00         0.00000E+00        -0.10102E+07
 
   -0.10772E+06         0.11305E+07         0.00000E+00
    0.11305E+07        -0.50199E+07         0.00000E+00
    0.00000E+00         0.00000E+00        -0.10255E+07
 
   -0.15016E+06         0.12024E+07         0.00000E+00
    0.12024E+07        -0.50515E+07         0.00000E+00
    0.00000E+00         0.00000E+00        -0.10403E+07
 
   -0.19215E+06         0.12769E+07         0.00000E+00
    0.12769E+07        -0.50811E+07         0.00000E+00
    0.00000E+00         0.00000E+00        -0.10546E+07
 
   -0.23400E+06         0.13540E+07         0.00000E+00
    0.13540E+07        -0.51085E+07         0.00000E+00
    0.00000E+00         0.00000E+00        -0.10685E+07
 
   -0.27603E+06         0.14335E+07         0.00000E+00
    0.14335E+07        -0.51335E+07         0.00000E+00
    0.00000E+00         0.00000E+00        -0.10819E+07
 
   -0.31852E+06         0.15153E+07         0.00000E+00
    0.15153E+07        -0.51560E+07         0.00000E+00
    0.00000E+00         0.00000E+00        -0.10949E+07
 
   -0.36174E+06         0.15994E+07         0.00000E+00
    0.15994E+07        -0.51759E+07         0.00000E+00
    0.00000E+00         0.00000E+00        -0.11075E+07
 
   -0.40594E+06         0.16854E+07         0.00000E+00
    0.16854E+07        -0.51930E+07         0.00000E+00
    0.00000E+00         0.00000E+00        -0.11198E+07
 
   -0.45138E+06         0.17734E+07         0.00000E+00
    0.17734E+07        -0.52071E+07         0.00000E+00
    0.00000E+00         0.00000E+00        -0.11317E+07
 
   -0.49828E+06         0.18630E+07         0.00000E+00
    0.18630E+07        -0.52183E+07         0.00000E+00
    0.00000E+00         0.00000E+00        -0.11433E+07
 
   -0.54683E+06         0.19542E+07         0.00000E+00
    0.19542E+07        -0.52263E+07         0.00000E+00
    0.00000E+00         0.00000E+00        -0.11546E+07
 
   -0.59724E+06         0.20467E+07         0.00000E+00
    0.20467E+07        -0.52310E+07         0.00000E+00
    0.00000E+00         0.00000E+00        -0.11656E+07
 
   -0.64967E+06         0.21403E+07         0.00000E+00
    0.21403E+07        -0.52324E+07         0.00000E+00
    0.00000E+00         0.00000E+00        -0.11764E+07
 
   -0.70428E+06         0.22348E+07         0.00000E+00
    0.22348E+07        -0.52303E+07         0.00000E+00
    0.00000E+00         0.00000E+00        -0.11869E+07
 
   -0.76117E+06         0.23300E+07         0.00000E+00
    0.23300E+07        -0.52248E+07         0.00000E+00
    0.00000E+00         0.00000E+00        -0.11972E+07
 
   -0.82047E+06         0.24256E+07         0.00000E+00
    0.24256E+07        -0.52157E+07         0.00000E+00
    0.00000E+00         0.00000E+00        -0.12072E+07
 
   -0.88225E+06         0.25214E+07         0.00000E+00
    0.25214E+07        -0.52030E+07         0.00000E+00
    0.00000E+00         0.00000E+00        -0.12171E+07
 
   -0.94657E+06         0.26172E+07         0.00000E+00
    0.26172E+07        -0.51867E+07         0.00000E+00
    0.00000E+00         0.00000E+00        -0.12267E+07
 
   -0.10135E+07         0.27126E+07         0.00000E+00
    0.27126E+07        -0.51668E+07         0.00000E+00
    0.00000E+00         0.00000E+00        -0.12361E+07
 
   -0.10829E+07         0.28075E+07         0.00000E+00
    0.28075E+07        -0.51432E+07         0.00000E+00
    0.00000E+00         0.00000E+00        -0.12452E+07
 
   -0.11549E+07         0.29015E+07         0.00000E+00
    0.29015E+07        -0.51160E+07         0.00000E+00
    0.00000E+00         0.00000E+00        -0.12542E+07
 
   -0.12294E+07         0.29945E+07         0.00000E+00
    0.29945E+07        -0.50853E+07         0.00000E+00
    0.00000E+00         0.00000E+00        -0.12629E+07
 
    0.21535E+07         0.95712E+04         0.00000E+00
    0.95712E+04        -0.49187E+07         0.00000E+00
    0.00000E+00         0.00000E+00        -0.55305E+06
 
    0.19279E+07         0.22066E+05         0.00000E+00
    0.22066E+05        -0.49242E+07         0.00000E+00
    0.00000E+00         0.00000E+00        -0.59925E+06
 
    0.17166E+07         0.32617E+05         0.00000E+00
    0.32617E+05        -0.49345E+07         0.00000E+00
    0.00000E+00         0.00000E+00        -0.64358E+06
 
    0.15191E+07         0.41857E+05         0.00000E+00
    0.41857E+05        -0.49496E+07         0.00000E+00
    0.00000E+00         0.00000E+00        -0.68611E+06
 
    0.13348E+07         0.50377E+05         0.00000E+00
    0.50377E+05        -0.49691E+07         0.00000E+00
    0.00000E+00         0.00000E+00        -0.72687E+06
 
    0.11633E+07         0.58727E+05         0.00000E+00
    0.58727E+05        -0.49928E+07         0.00000E+00
    0.00000E+00         0.00000E+00        -0.76591E+06
 
    0.10040E+07         0.67420E+05         0.00000E+00
    0.67420E+05        -0.50205E+07         0.00000E+00
    0.00000E+00         0.00000E+00        -0.80328E+06
 
    0.85654E+06         0.76926E+05         0.00000E+00
    0.76926E+05        -0.50517E+07         0.00000E+00
    0.00000E+00         0.00000E+00        -0.83903E+06
 
    0.72021E+06         0.87679E+05         0.00000E+00
    0.87679E+05        -0.50863E+07         0.00000E+00
    0.00000E+00         0.00000E+00        -0.87322E+06
 
    0.59451E+06         0.10008E+06         0.00000E+00
    0.10008E+06        -0.51239E+07         0.00000E+00
    0.00000E+00         0.00000E+00        -0.90589E+06
 
    0.47887E+06         0.11448E+06         0.00000E+00
    0.11448E+06        -0.51643E+07         0.00000E+00
    0.00000E+00         0.00000E+00        -0.93710E+06
 
    0.37273E+06         0.13121E+06         0.00000E+00
    0.13121E+06        -0.52072E+07         0.00000E+00
    0.00000E+00         0.00000E+00        -0.96689E+06
 
    0.27552E+06         0.15057E+06         0.00000E+00
    0.15057E+06        -0.52522E+07         0.00000E+00
    0.00000E+00         0.00000E+00        -0.99534E+06
 
    0.18667E+06         0.17281E+06         0.00000E+00
    0.17281E+06        -0.52991E+07         0.00000E+00
    0.00000E+00         0.00000E+00        -0.10225E+07
 
    0.10563E+06         0.19817E+06         0.00000E+00
    0.19817E+06        -0.53476E+07         0.00000E+00
    0.00000E+00         0.00000E+00        -0.10484E+07
 
    0.31821E+05         0.22683E+06         0.00000E+00
    0.22683E+06        -0.53973E+07         0.00000E+00
    0.00000E+00         0.00000E+00        -0.10731E+07
 
   -0.35302E+05         0.25898E+06         0.00000E+00
    0.25898E+06        -0.54480E+07         0.00000E+00
    0.00000E+00         0.00000E+00        -0.10967E+07
 
   -0.96292E+05         0.29476E+06         0.00000E+00
    0.29476E+06        -0.54995E+07         0.00000E+00
    0.00000E+00         0.00000E+00        -0.11192E+07
 
   -0.15169E+06         0.33428E+06         0.00000E+00
    0.33428E+06        -0.55514E+07         0.00000E+00
    0.00000E+00         0.00000E+00        -0.11406E+07
 
   -0.20203E+06         0.37764E+06         0.00000E+00
    0.37764E+06        -0.56035E+07         0.00000E+00
    0.00000E+00         0.00000E+00        -0.11611E+07
 
   -0.24784E+06         0.42491E+06         0.00000E+00
    0.42491E+06        -0.56555E+07         0.00000E+00
    0.00000E+00         0.00000E+00        -0.11807E+07
 
   -0.28963E+06         0.47614E+06         0.00000E+00
    0.47614E+06        -0.57072E+07         0.00000E+00
    0.00000E+00         0.00000E+00        -0.11994E+07
 
   -0.32790E+06         0.53136E+06         0.00000E+00
    0.53136E+06        -0.57583E+07         0.00000E+00
    0.00000E+00         0.00000E+00        -0.12172E+07
 
   -0.36315E+06         0.59058E+06         0.00000E+00
    0.59058E+06        -0.58086E+07         0.00000E+00
    0.00000E+00         0.00000E+00        -0.12343E+07
 
   -0.39585E+06         0.65378E+06         0.00000E+00
    0.65378E+06        -0.58578E+07         0.00000E+00
    0.00000E+00         0.00000E+00        -0.12507E+07
 
   -0.42648E+06         0.72093E+06         0.00000E+00
    0.72093E+06        -0.59056E+07         0.00000E+00
    0.00000E+00         0.00000E+00        -0.12664E+07
 
   -0.45548E+06         0.79200E+06         0.00000E+00
    0.79200E+06        -0.59520E+07         0.00000E+00
    0.00000E+00         0.00000E+00        -0.12815E+07
 
   -0.48331E+06         0.86691E+06         0.00000E+00
    0.86691E+06        -0.59967E+07         0.00000E+00
    0.00000E+00         0.00000E+00        -0.12960E+07
 
   -0.51038E+06         0.94558E+06         0.00000E+00
    0.94558E+06        -0.60393E+07         0.00000E+00
    0.00000E+00         0.00000E+00        -0.13099E+07
 
   -0.53712E+06         0.10279E+07         0.00000E+00
    0.10279E+07        -0.60799E+07         0.00000E+00
    0.00000E+00         0.00000E+00        -0.13234E+07
 
   -0.56393E+06         0.11138E+07         0.00000E+00
    0.11138E+07        -0.61180E+07         0.00000E+00
    0.00000E+00         0.00000E+00        -0.13364E+07
 
   -0.59120E+06         0.12032E+07         0.00000E+00
    0.12032E+07        -0.61537E+07         0.00000E+00
    0.00000E+00         0.00000E+00        -0.13490E+07
 
   -0.61930E+06         0.12958E+07         0.00000E+00
    0.12958E+07        -0.61866E+07         0.00000E+00
    0.00000E+00         0.00000E+00        -0.13612E+07
 
   -0.64858E+06         0.13916E+07         0.00000E+00
    0.13916E+07        -0.62166E+07         0.00000E+00
    0.00000E+00         0.00000E+00        -0.13730E+07
 
   -0.67940E+06         0.14903E+07         0.00000E+00
    0.14903E+07        -0.62435E+07         0.00000E+00
    0.00000E+00         0.00000E+00        -0.13846E+07
 
   -0.71208E+06         0.15918E+07         0.00000E+00
    0.15918E+07        -0.62671E+07         0.00000E+00
    0.00000E+00         0.00000E+00        -0.13958E+07
 
   -0.74692E+06         0.16959E+07         0.00000E+00
    0.16959E+07        -0.62874E+07         0.00000E+00
    0.00000E+00         0.00000E+00        -0.14069E+07
 
   -0.78423E+06         0.18023E+07         0.00000E+00
    0.18023E+07        -0.63041E+07         0.00000E+00
    0.00000E+00         0.00000E+00        -0.14177E+07
 
   -0.82427E+06         0.19109E+07         0.00000E+00
    0.19109E+07        -0.63171E+07         0.00000E+00
    0.00000E+00         0.00000E+00        -0.14283E+07
 
   -0.86729E+06         0.20213E+07         0.00000E+00
    0.20213E+07        -0.63262E+07         0.00000E+00
    0.00000E+00         0.00000E+00        -0.14387E+07
 
   -0.91354E+06         0.21334E+07         0.00000E+00
    0.21334E+07        -0.63314E+07         0.00000E+00
    0.00000E+00         0.00000E+00        -0.14490E+07
 
   -0.96321E+06         0.22468E+07         0.00000E+00
    0.22468E+07        -0.63326E+07         0.00000E+00
    0.00000E+00         0.00000E+00        -0.14592E+07
 
   -0.10165E+07         0.23613E+07         0.00000E+00
    0.23613E+07        -0.63296E+07         0.00000E+00
    0.00000E+00         0.00000E+00        -0.14692E+07
 
   -0.10736E+07         0.24765E+07         0.00000E+00
    0.24765E+07        -0.63223E+07         0.00000E+00
    0.00000E+00         0.00000E+00        -0.14792E+07
 
   -0.11345E+07         0.25922E+07         0.00000E+00
    0.25922E+07        -0.63107E+07         0.00000E+00
    0.00000E+00         0.00000E+00        -0.14890E+07
 
   -0.11995E+07         0.27079E+07         0.00000E+00
    0.27079E+07        -0.62947E+07         0.00000E+00
    0.00000E+00         0.00000E+00        -0.14988E+07
 
   -0.12685E+07         0.28235E+07         0.00000E+00
    0.28235E+07        -0.62743E+07         0.00000E+00
    0.00000E+00         0.00000E+00        -0.15086E+07
 
   -0.13417E+07         0.29384E+07         0.00000E+00
    0.29384E+07        -0.62495E+07         0.00000E+00
    0.00000E+00         0.00000E+00        -0.15182E+07
 
   -0.14190E+07         0.30524E+07         0.00000E+00
    0.30524E+07        -0.62202E+07         0.00000E+00
    0.00000E+00         0.00000E+00        -0.15278E+07
 
   -0.15004E+07         0.31651E+07         0.00000E+00
    0.31651E+07        -0.61865E+07         0.00000E+00
    0.00000E+00         0.00000E+00        -0.15374E+07
 
    0.12253E+07        -0.62975E+04         0.00000E+00
   -0.62975E+04        -0.58446E+07         0.00000E+00
    0.00000E+00         0.00000E+00        -0.92385E+06
 
    0.99171E+06        -0.22435E+05         0.00000E+00
   -0.22435E+05        -0.58516E+07         0.00000E+00
    0.00000E+00         0.00000E+00        -0.97198E+06
 
    0.77574E+06        -0.39077E+05         0.00000E+00
   -0.39077E+05        -0.58649E+07         0.00000E+00
    0.00000E+00         0.00000E+00        -0.10178E+07
 
    0.57676E+06        -0.55523E+05         0.00000E+00
   -0.55523E+05        -0.58840E+07         0.00000E+00
    0.00000E+00         0.00000E+00        -0.10615E+07
 
    0.39406E+06        -0.71124E+05         0.00000E+00
   -0.71124E+05        -0.59087E+07         0.00000E+00
    0.00000E+00         0.00000E+00        -0.11029E+07
 
    0.22689E+06        -0.85284E+05         0.00000E+00
   -0.85284E+05        -0.59386E+07         0.00000E+00
    0.00000E+00         0.00000E+00        -0.11423E+07
 
    0.74511E+05        -0.97458E+05         0.00000E+00
   -0.97458E+05        -0.59732E+07         0.00000E+00
    0.00000E+00         0.00000E+00        -0.11797E+07
 
   -0.63821E+05        -0.10715E+06         0.00000E+00
   -0.10715E+06        -0.60122E+07         0.00000E+00
    0.00000E+00         0.00000E+00        -0.12152E+07
 
   -0.18887E+06        -0.11391E+06         0.00000E+00
   -0.11391E+06        -0.60552E+07         0.00000E+00
    0.00000E+00         0.00000E+00        -0.12488E+07
 
   -0.30138E+06        -0.11734E+06         0.00000E+00
   -0.11734E+06        -0.61018E+07         0.00000E+00
    0.00000E+00         0.00000E+00        -0.12806E+07
 
   -0.40213E+06        -0.11708E+06         0.00000E+00
   -0.11708E+06        -0.61516E+07         0.00000E+00
    0.00000E+00         0.00000E+00        -0.13107E+07
 
   -0.49187E+06        -0.11282E+06         0.00000E+00
   -0.11282E+06        -0.62043E+07         0.00000E+00
    0.00000E+00         0.00000E+00        -0.13392E+07
 
   -0.57133E+06        -0.10428E+06         0.00000E+00
   -0.10428E+06        -0.62594E+07         0.00000E+00
    0.00000E+00         0.00000E+00        -0.13662E+07
 
   -0.64127E+06        -0.91218E+05         0.00000E+00
   -0.91218E+05        -0.63167E+07         0.00000E+00
    0.00000E+00         0.00000E+00        -0.13916E+07
 
   -0.70240E+06        -0.73444E+05         0.00000E+00
   -0.73444E+05        -0.63757E+07         0.00000E+00
    0.00000E+00         0.00000E+00        -0.14156E+07
 
   -0.75544E+06        -0.50787E+05         0.00000E+00
   -0.50787E+05        -0.64361E+07         0.00000E+00
    0.00000E+00         0.00000E+00        -0.14383E+07
 
   -0.80110E+06        -0.23111E+05         0.00000E+00
   -0.23111E+05        -0.64976E+07         0.00000E+00
    0.00000E+00         0.00000E+00        -0.14597E+07
 
   -0.84006E+06         0.96914E+04         0.00000E+00
    0.96914E+04        -0.65598E+07         0.00000E+00
    0.00000E+00         0.00000E+00        -0.14800E+07
 
   -0.87299E+06         0.47698E+05         0.00000E+00
    0.47698E+05        -0.66225E+07         0.00000E+00
    0.00000E+00         0.00000E+00        -0.14991E+07
 
   -0.90054E+06         0.90962E+05         0.00000E+00
    0.90962E+05        -0.66853E+07         0.00000E+00
    0.00000E+00         0.00000E+00        -0.15172E+07
 
   -0.92336E+06         0.13951E+06         0.00000E+00
    0.13951E+06        -0.67479E+07         0.00000E+00
    0.00000E+00         0.00000E+00        -0.15342E+07
 
   -0.94206E+06         0.19336E+06         0.00000E+00
    0.19336E+06        -0.68100E+07         0.00000E+00
    0.00000E+00         0.00000E+00        -0.15504E+07
 
   -0.95725E+06         0.25250E+06         0.00000E+00
    0.25250E+06        -0.68714E+07         0.00000E+00
    0.00000E+00         0.00000E+00        -0.15657E+07
 
   -0.96951E+06         0.31689E+06         0.00000E+00
    0.31689E+06        -0.69318E+07         0.00000E+00
    0.00000E+00         0.00000E+00        -0.15803E+07
 
   -0.97941E+06         0.38648E+06         0.00000E+00
    0.38648E+06        -0.69910E+07         0.00000E+00
    0.00000E+00         0.00000E+00        -0.15941E+07
 
   -0.98752E+06         0.46122E+06         0.00000E+00
    0.46122E+06        -0.70486E+07         0.00000E+00
    0.00000E+00         0.00000E+00        -0.16072E+07
 
   -0.99435E+06         0.54101E+06         0.00000E+00
    0.54101E+06        -0.71045E+07         0.00000E+00
    0.00000E+00         0.00000E+00        -0.16198E+07
 
   -0.10004E+07         0.62577E+06         0.00000E+00
    0.62577E+06        -0.71584E+07         0.00000E+00
    0.00000E+00         0.00000E+00        -0.16318E+07
 
   -0.10063E+07         0.71538E+06         0.00000E+00
    0.71538E+06        -0.72101E+07         0.00000E+00
    0.00000E+00         0.00000E+00        -0.16433E+07
 
   -0.10124E+07         0.80972E+06         0.00000E+00
    0.80972E+06        -0.72594E+07         0.00000E+00
    0.00000E+00         0.00000E+00        -0.16544E+07
 
   -0.10193E+07         0.90865E+06         0.00000E+00
    0.90865E+06        -0.73060E+07         0.00000E+00
    0.00000E+00         0.00000E+00        -0.16651E+07
 
   -0.10273E+07         0.10120E+07         0.00000E+00
    0.10120E+07        -0.73498E+07         0.00000E+00
    0.00000E+00         0.00000E+00        -0.16754E+07
 
   -0.10370E+07         0.11196E+07         0.00000E+00
    0.11196E+07        -0.73906E+07         0.00000E+00
    0.00000E+00         0.00000E+00        -0.16855E+07
 
   -0.10488E+07         0.12313E+07         0.00000E+00
    0.12313E+07        -0.74280E+07         0.00000E+00
    0.00000E+00         0.00000E+00        -0.16954E+07
 
   -0.10631E+07         0.13469E+07         0.00000E+00
    0.13469E+07        -0.74620E+07         0.00000E+00
    0.00000E+00         0.00000E+00        -0.17050E+07
 
   -0.10803E+07         0.14661E+07         0.00000E+00
    0.14661E+07        -0.74923E+07         0.00000E+00
    0.00000E+00         0.00000E+00        -0.17145E+07
 
   -0.11008E+07         0.15888E+07         0.00000E+00
    0.15888E+07        -0.75188E+07         0.00000E+00
    0.00000E+00         0.00000E+00        -0.17239E+07
 
   -0.11249E+07         0.17146E+07         0.00000E+00
    0.17146E+07        -0.75413E+07         0.00000E+00
    0.00000E+00         0.00000E+00        -0.17332E+07
 
   -0.11531E+07         0.18434E+07         0.00000E+00
    0.18434E+07        -0.75595E+07         0.00000E+00
    0.00000E+00         0.00000E+00        -0.17425E+07
 
   -0.11857E+07         0.19747E+07         0.00000E+00
    0.19747E+07        -0.75734E+07         0.00000E+00
    0.00000E+00         0.00000E+00        -0.17518E+07
 
   -0.12229E+07         0.21084E+07         0.00000E+00
    0.21084E+07        -0.75827E+07         0.00000E+00
    0.00000E+00         0.00000E+00        -0.17611E+07
 
   -0.12652E+07         0.22441E+07         0.00000E+00
    0.22441E+07        -0.75873E+07         0.00000E+00
    0.00000E+00         0.00000E+00        -0.17705E+07
 
   -0.13126E+07         0.23813E+07         0.00000E+00
    0.23813E+07        -0.75870E+07         0.00000E+00
    0.00000E+00         0.00000E+00        -0.17799E+07
 
   -0.13656E+07         0.25199E+07         0.00000E+00
    0.25199E+07        -0.75817E+07         0.00000E+00
    0.00000E+00         0.00000E+00        -0.17895E+07
 
   -0.14243E+07         0.26593E+07         0.00000E+00
    0.26593E+07        -0.75714E+07         0.00000E+00
    0.00000E+00         0.00000E+00        -0.17991E+07
 
   -0.14889E+07         0.27991E+07         0.00000E+00
    0.27991E+07        -0.75558E+07         0.00000E+00
    0.00000E+00         0.00000E+00        -0.18089E+07
 
   -0.15595E+07         0.29390E+07         0.00000E+00
    0.29390E+07        -0.75349E+07         0.00000E+00
    0.00000E+00         0.00000E+00        -0.18189E+07
 
   -0.16364E+07         0.30784E+07         0.00000E+00
    0.30784E+07        -0.75087E+07         0.00000E+00
    0.00000E+00         0.00000E+00        -0.18290E+07
 
   -0.17194E+07         0.32170E+07         0.00000E+00
    0.32170E+07        -0.74770E+07         0.00000E+00
    0.00000E+00         0.00000E+00        -0.18393E+07
 
   -0.18088E+07         0.33541E+07         0.00000E+00
    0.33541E+07        -0.74399E+07         0.00000E+00
    0.00000E+00         0.00000E+00        -0.18497E+07
 
   -0.42243E+05        -0.26558E+05         0.00000E+00
   -0.26558E+05        -0.69448E+07         0.00000E+00
    0.00000E+00         0.00000E+00        -0.13974E+07
 
   -0.27534E+06        -0.78490E+05         0.00000E+00
   -0.78490E+05        -0.69536E+07         0.00000E+00
    0.00000E+00         0.00000E+00        -0.14458E+07
 
   -0.48695E+06        -0.12881E+06         0.00000E+00
   -0.12881E+06        -0.69700E+07         0.00000E+00
    0.00000E+00         0.00000E+00        -0.14914E+07
 
   -0.67809E+06        -0.17676E+06         0.00000E+00
   -0.17676E+06        -0.69936E+07         0.00000E+00
    0.00000E+00         0.00000E+00        -0.15343E+07
 
   -0.84976E+06        -0.22165E+06         0.00000E+00
   -0.22165E+06        -0.70238E+07         0.00000E+00
    0.00000E+00         0.00000E+00        -0.15747E+07
 
   -0.10030E+07        -0.26288E+06         0.00000E+00
   -0.26288E+06        -0.70601E+07         0.00000E+00
    0.00000E+00         0.00000E+00        -0.16126E+07
 
   -0.11388E+07        -0.29987E+06         0.00000E+00
   -0.29987E+06        -0.71020E+07         0.00000E+00
    0.00000E+00         0.00000E+00        -0.16482E+07
 
   -0.12583E+07        -0.33215E+06         0.00000E+00
   -0.33215E+06        -0.71490E+07         0.00000E+00
    0.00000E+00         0.00000E+00        -0.16815E+07
 
   -0.13623E+07        -0.35928E+06         0.00000E+00
   -0.35928E+06        -0.72005E+07         0.00000E+00
    0.00000E+00         0.00000E+00        -0.17126E+07
 
   -0.14521E+07        -0.38089E+06         0.00000E+00
   -0.38089E+06        -0.72562E+07         0.00000E+00
    0.00000E+00         0.00000E+00        -0.17416E+07
 
   -0.15285E+07        -0.39667E+06         0.00000E+00
   -0.39667E+06        -0.73154E+07         0.00000E+00
    0.00000E+00         0.00000E+00        -0.17688E+07
 
   -0.15925E+07        -0.40634E+06         0.00000E+00
   -0.40634E+06        -0.73776E+07         0.00000E+00
    0.00000E+00         0.00000E+00        -0.17940E+07
 
   -0.16451E+07        -0.40970E+06         0.00000E+00
   -0.40970E+06        -0.74426E+07         0.00000E+00
    0.00000E+00         0.00000E+00        -0.18175E+07
 
   -0.16872E+07        -0.40656E+06         0.00000E+00
   -0.40656E+06        -0.75097E+07         0.00000E+00
    0.00000E+00         0.00000E+00        -0.18394E+07
 
   -0.17198E+07        -0.39679E+06         0.00000E+00
   -0.39679E+06        -0.75787E+07         0.00000E+00
    0.00000E+00         0.00000E+00        -0.18597E+07
 
   -0.17437E+07        -0.38029E+06         0.00000E+00
   -0.38029E+06        -0.76490E+07         0.00000E+00
    0.00000E+00         0.00000E+00        -0.18785E+07
 
   -0.17597E+07        -0.35701E+06         0.00000E+00
   -0.35701E+06        -0.77203E+07         0.00000E+00
    0.00000E+00         0.00000E+00        -0.18960E+07
 
   -0.17688E+07        -0.32690E+06         0.00000E+00
   -0.32690E+06        -0.77922E+07         0.00000E+00
    0.00000E+00         0.00000E+00        -0.19122E+07
 
   -0.17717E+07        -0.28996E+06         0.00000E+00
   -0.28996E+06        -0.78644E+07         0.00000E+00
    0.00000E+00         0.00000E+00        -0.19272E+07
 
   -0.17691E+07        -0.24621E+06         0.00000E+00
   -0.24621E+06        -0.79366E+07         0.00000E+00
    0.00000E+00         0.00000E+00        -0.19411E+07
 
   -0.17619E+07        -0.19567E+06         0.00000E+00
   -0.19567E+06        -0.80084E+07         0.00000E+00
    0.00000E+00         0.00000E+00        -0.19541E+07
 
   -0.17507E+07        -0.13841E+06         0.00000E+00
   -0.13841E+06        -0.80796E+07         0.00000E+00
    0.00000E+00         0.00000E+00        -0.19661E+07
 
   -0.17362E+07        -0.74492E+05         0.00000E+00
   -0.74492E+05        -0.81498E+07         0.00000E+00
    0.00000E+00         0.00000E+00        -0.19772E+07
 
   -0.17192E+07        -0.40045E+04         0.00000E+00
   -0.40045E+04        -0.82189E+07         0.00000E+00
    0.00000E+00         0.00000E+00        -0.19876E+07
 
   -0.17001E+07         0.72956E+05         0.00000E+00
    0.72956E+05        -0.82865E+07         0.00000E+00
    0.00000E+00         0.00000E+00        -0.19973E+07
 
   -0.16798E+07         0.15628E+06         0.00000E+00
    0.15628E+06        -0.83524E+07         0.00000E+00
    0.00000E+00         0.00000E+00        -0.20064E+07
 
   -0.16586E+07         0.24586E+06         0.00000E+00
    0.24586E+06        -0.84164E+07         0.00000E+00
    0.00000E+00         0.00000E+00        -0.20150E+07
 
   -0.16374E+07         0.34155E+06         0.00000E+00
    0.34155E+06        -0.84783E+07         0.00000E+00
    0.00000E+00         0.00000E+00        -0.20231E+07
 
   -0.16165E+07         0.44323E+06         0.00000E+00
    0.44323E+06        -0.85378E+07         0.00000E+00
    0.00000E+00         0.00000E+00        -0.20309E+07
 
   -0.15967E+07         0.55074E+06         0.00000E+00
    0.55074E+06        -0.85946E+07         0.00000E+00
    0.00000E+00         0.00000E+00        -0.20383E+07
 
   -0.15783E+07         0.66393E+06         0.00000E+00
    0.66393E+06        -0.86487E+07         0.00000E+00
    0.00000E+00         0.00000E+00        -0.20454E+07
 
   -0.15620E+07         0.78263E+06         0.00000E+00
    0.78263E+06        -0.86997E+07         0.00000E+00
    0.00000E+00         0.00000E+00        -0.20523E+07
 
   -0.15482E+07         0.90665E+06         0.00000E+00
    0.90665E+06        -0.87475E+07         0.00000E+00
    0.00000E+00         0.00000E+00        -0.20591E+07
 
   -0.15376E+07         0.10358E+07         0.00000E+00
    0.10358E+07        -0.87918E+07         0.00000E+00
    0.00000E+00         0.00000E+00        -0.20659E+07
 
   -0.15305E+07         0.11699E+07         0.00000E+00
    0.11699E+07        -0.88324E+07         0.00000E+00
    0.00000E+00         0.00000E+00        -0.20726E+07
 
   -0.15274E+07         0.13087E+07         0.00000E+00
    0.13087E+07        -0.88691E+07         0.00000E+00
    0.00000E+00         0.00000E+00        -0.20793E+07
 
   -0.15289E+07         0.14519E+07         0.00000E+00
    0.14519E+07        -0.89016E+07         0.00000E+00
    0.00000E+00         0.00000E+00        -0.20861E+07
 
   -0.15355E+07         0.15993E+07         0.00000E+00
    0.15993E+07        -0.89298E+07         0.00000E+00
    0.00000E+00         0.00000E+00        -0.20931E+07
 
   -0.15475E+07         0.17507E+07         0.00000E+00
    0.17507E+07        -0.89534E+07         0.00000E+00
    0.00000E+00         0.00000E+00        -0.21002E+07
 
   -0.15654E+07         0.19056E+07         0.00000E+00
    0.19056E+07        -0.89722E+07         0.00000E+00
    0.00000E+00         0.00000E+00        -0.21075E+07
 
   -0.15897E+07         0.20638E+07         0.00000E+00
    0.20638E+07        -0.89860E+07         0.00000E+00
    0.00000E+00         0.00000E+00        -0.21151E+07
 
   -0.16208E+07         0.22249E+07         0.00000E+00
    0.22249E+07        -0.89944E+07         0.00000E+00
    0.00000E+00         0.00000E+00        -0.21230E+07
 
   -0.16590E+07         0.23884E+07         0.00000E+00
    0.23884E+07        -0.89974E+07         0.00000E+00
    0.00000E+00         0.00000E+00        -0.21313E+07
 
   -0.17048E+07         0.25541E+07         0.00000E+00
    0.25541E+07        -0.89947E+07         0.00000E+00
    0.00000E+00         0.00000E+00        -0.21399E+07
 
   -0.17586E+07         0.27214E+07         0.00000E+00
    0.27214E+07        -0.89861E+07         0.00000E+00
    0.00000E+00         0.00000E+00        -0.21489E+07
 
   -0.18205E+07         0.28898E+07         0.00000E+00
    0.28898E+07        -0.89714E+07         0.00000E+00
    0.00000E+00         0.00000E+00        -0.21584E+07
 
   -0.18910E+07         0.30588E+07         0.00000E+00
    0.30588E+07        -0.89504E+07         0.00000E+00
    0.00000E+00         0.00000E+00        -0.21683E+07
 
   -0.19702E+07         0.32278E+07         0.00000E+00
    0.32278E+07        -0.89231E+07         0.00000E+00
    0.00000E+00         0.00000E+00        -0.21786E+07
 
   -0.20584E+07         0.33963E+07         0.00000E+00
    0.33963E+07        -0.88891E+07         0.00000E+00
    0.00000E+00         0.00000E+00        -0.21895E+07
 
   -0.21557E+07         0.35636E+07         0.00000E+00
    0.35636E+07        -0.88486E+07         0.00000E+00
    0.00000E+00         0.00000E+00        -0.22009E+07
 
   -0.17211E+07        -0.51692E+05         0.00000E+00
   -0.51692E+05        -0.82522E+07         0.00000E+00
    0.00000E+00         0.00000E+00        -0.19947E+07
 
   -0.19411E+07        -0.14703E+06         0.00000E+00
   -0.14703E+06        -0.82629E+07         0.00000E+00
    0.00000E+00         0.00000E+00        -0.20408E+07
 
   -0.21355E+07        -0.23774E+06         0.00000E+00
   -0.23774E+06        -0.82827E+07         0.00000E+00
    0.00000E+00         0.00000E+00        -0.20836E+07
 
   -0.23058E+07        -0.32304E+06         0.00000E+00
   -0.32304E+06        -0.83108E+07         0.00000E+00
    0.00000E+00         0.00000E+00        -0.21233E+07
 
   -0.24533E+07        -0.40223E+06         0.00000E+00
   -0.40223E+06        -0.83467E+07         0.00000E+00
    0.00000E+00         0.00000E+00        -0.21600E+07
 
   -0.25795E+07        -0.47472E+06         0.00000E+00
   -0.47472E+06        -0.83895E+07         0.00000E+00
    0.00000E+00         0.00000E+00        -0.21938E+07
 
   -0.26858E+07        -0.53998E+06         0.00000E+00
   -0.53998E+06        -0.84385E+07         0.00000E+00
    0.00000E+00         0.00000E+00        -0.22249E+07
 
   -0.27736E+07        -0.59757E+06         0.00000E+00
   -0.59757E+06        -0.84932E+07         0.00000E+00
    0.00000E+00         0.00000E+00        -0.22534E+07
 
   -0.28442E+07        -0.64715E+06         0.00000E+00
   -0.64715E+06        -0.85528E+07         0.00000E+00
    0.00000E+00         0.00000E+00        -0.22794E+07
 
   -0.28990E+07        -0.68843E+06         0.00000E+00
   -0.68843E+06        -0.86166E+07         0.00000E+00
    0.00000E+00         0.00000E+00        -0.23031E+07
 
   -0.29391E+07        -0.72120E+06         0.00000E+00
   -0.72120E+06        -0.86841E+07         0.00000E+00
    0.00000E+00         0.00000E+00        -0.23247E+07
 
   -0.29660E+07        -0.74529E+06         0.00000E+00
   -0.74529E+06        -0.87547E+07         0.00000E+00
    0.00000E+00         0.00000E+00        -0.23442E+07
 
   -0.29808E+07        -0.76061E+06         0.00000E+00
   -0.76061E+06        -0.88279E+07         0.00000E+00
    0.00000E+00         0.00000E+00        -0.23617E+07
 
   -0.29846E+07        -0.76711E+06         0.00000E+00
   -0.76711E+06        -0.89031E+07         0.00000E+00
    0.00000E+00         0.00000E+00        -0.23775E+07
 
   -0.29786E+07        -0.76479E+06         0.00000E+00
   -0.76479E+06        -0.89798E+07         0.00000E+00
    0.00000E+00         0.00000E+00        -0.23917E+07
 
   -0.29638E+07        -0.75368E+06         0.00000E+00
   -0.75368E+06        -0.90576E+07         0.00000E+00
    0.00000E+00         0.00000E+00        -0.24043E+07
 
   -0.29412E+07        -0.73384E+06         0.00000E+00
   -0.73384E+06        -0.91362E+07         0.00000E+00
    0.00000E+00         0.00000E+00        -0.24155E+07
 
   -0.29119E+07        -0.70537E+06         0.00000E+00
   -0.70537E+06        -0.92150E+07         0.00000E+00
    0.00000E+00         0.00000E+00        -0.24254E+07
 
   -0.28766E+07        -0.66838E+06         0.00000E+00
   -0.66838E+06        -0.92938E+07         0.00000E+00
    0.00000E+00         0.00000E+00        -0.24341E+07
 
   -0.28363E+07        -0.62299E+06         0.00000E+00
   -0.62299E+06        -0.93722E+07         0.00000E+00
    0.00000E+00         0.00000E+00        -0.24417E+07
 
   -0.27917E+07        -0.56934E+06         0.00000E+00
   -0.56934E+06        -0.94500E+07         0.00000E+00
    0.00000E+00         0.00000E+00        -0.24484E+07
 
   -0.27438E+07        -0.50759E+06         0.00000E+00
   -0.50759E+06        -0.95269E+07         0.00000E+00
    0.00000E+00         0.00000E+00        -0.24541E+07
 
   -0.26931E+07        -0.43789E+06         0.00000E+00
   -0.43789E+06        -0.96027E+07         0.00000E+00
    0.00000E+00         0.00000E+00        -0.24592E+07
 
   -0.26404E+07        -0.36038E+06         0.00000E+00
   -0.36038E+06        -0.96770E+07         0.00000E+00
    0.00000E+00         0.00000E+00        -0.24635E+07
 
   -0.25865E+07        -0.27524E+06         0.00000E+00
   -0.27524E+06        -0.97498E+07         0.00000E+00
    0.00000E+00         0.00000E+00        -0.24672E+07
 
   -0.25318E+07        -0.18261E+06         0.00000E+00
   -0.18261E+06        -0.98207E+07         0.00000E+00
    0.00000E+00         0.00000E+00        -0.24705E+07
 
   -0.24771E+07        -0.82653E+05         0.00000E+00
   -0.82653E+05        -0.98897E+07         0.00000E+00
    0.00000E+00         0.00000E+00        -0.24734E+07
 
   -0.24230E+07         0.24487E+05         0.00000E+00
    0.24487E+05        -0.99565E+07         0.00000E+00
    0.00000E+00         0.00000E+00        -0.24759E+07
 
   -0.23700E+07         0.13866E+06         0.00000E+00
    0.13866E+06        -0.10021E+08         0.00000E+00
    0.00000E+00         0.00000E+00        -0.24782E+07
 
   -0.23187E+07         0.25971E+06         0.00000E+00
    0.25971E+06        -0.10083E+08         0.00000E+00
    0.00000E+00         0.00000E+00        -0.24803E+07
 
   -0.22697E+07         0.38749E+06         0.00000E+00
    0.38749E+06        -0.10142E+08         0.00000E+00
    0.00000E+00         0.00000E+00        -0.24823E+07
 
   -0.22237E+07         0.52185E+06         0.00000E+00
    0.52185E+06        -0.10198E+08         0.00000E+00
    0.00000E+00         0.00000E+00        -0.24843E+07
 
   -0.21810E+07         0.66263E+06         0.00000E+00
    0.66263E+06        -0.10251E+08         0.00000E+00
    0.00000E+00         0.00000E+00        -0.24864E+07
 
   -0.21424E+07         0.80966E+06         0.00000E+00
    0.80966E+06        -0.10301E+08         0.00000E+00
    0.00000E+00         0.00000E+00        -0.24886E+07
 
   -0.21084E+07         0.96277E+06         0.00000E+00
    0.96277E+06        -0.10347E+08         0.00000E+00
    0.00000E+00         0.00000E+00        -0.24910E+07
 
   -0.20795E+07         0.11218E+07         0.00000E+00
    0.11218E+07        -0.10389E+08         0.00000E+00
    0.00000E+00         0.00000E+00        -0.24937E+07
 
   -0.20564E+07         0.12865E+07         0.00000E+00
    0.12865E+07        -0.10427E+08         0.00000E+00
    0.00000E+00         0.00000E+00        -0.24967E+07
 
   -0.20396E+07         0.14566E+07         0.00000E+00
    0.14566E+07        -0.10461E+08         0.00000E+00
    0.00000E+00         0.00000E+00        -0.25000E+07
 
   -0.20297E+07         0.16319E+07         0.00000E+00
    0.16319E+07        -0.10490E+08         0.00000E+00
    0.00000E+00         0.00000E+00        -0.25039E+07
 
   -0.20273E+07         0.18121E+07         0.00000E+00
    0.18121E+07        -0.10514E+08         0.00000E+00
    0.00000E+00         0.00000E+00        -0.25082E+07
 
   -0.20331E+07         0.19970E+07         0.00000E+00
    0.19970E+07        -0.10532E+08         0.00000E+00
    0.00000E+00         0.00000E+00        -0.25131E+07
 
   -0.20475E+07         0.21860E+07         0.00000E+00
    0.21860E+07        -0.10546E+08         0.00000E+00
    0.00000E+00         0.00000E+00        -0.25186E+07
 
   -0.20711E+07         0.23789E+07         0.00000E+00
    0.23789E+07        -0.10553E+08         0.00000E+00
    0.00000E+00         0.00000E+00        -0.25248E+07
 
   -0.21047E+07         0.25752E+07         0.00000E+00
    0.25752E+07        -0.10554E+08         0.00000E+00
    0.00000E+00         0.00000E+00        -0.25317E+07
 
   -0.21486E+07         0.27743E+07         0.00000E+00
    0.27743E+07        -0.10548E+08         0.00000E+00
    0.00000E+00         0.00000E+00        -0.25393E+07
 
   -0.22034E+07         0.29758E+07         0.00000E+00
    0.29758E+07        -0.10536E+08         0.00000E+00
    0.00000E+00         0.00000E+00        -0.25478E+07
 
   -0.22697E+07         0.31791E+07         0.00000E+00
    0.31791E+07        -0.10516E+08         0.00000E+00
    0.00000E+00         0.00000E+00        -0.25571E+07
 
   -0.23479E+07         0.33834E+07         0.00000E+00
    0.33834E+07        -0.10489E+08         0.00000E+00
    0.00000E+00         0.00000E+00        -0.25673E+07
 
   -0.24385E+07         0.35881E+07         0.00000E+00
    0.35881E+07        -0.10454E+08         0.00000E+00
    0.00000E+00         0.00000E+00        -0.25784E+07
 
   -0.25418E+07         0.37925E+07         0.00000E+00
    0.37925E+07        -0.10410E+08         0.00000E+00
    0.00000E+00         0.00000E+00        -0.25904E+07
 
   -0.38915E+07        -0.82153E+05         0.00000E+00
   -0.82153E+05        -0.98058E+07         0.00000E+00
    0.00000E+00         0.00000E+00        -0.27395E+07
 
   -0.40804E+07        -0.22866E+06         0.00000E+00
   -0.22866E+06        -0.98185E+07         0.00000E+00
    0.00000E+00         0.00000E+00        -0.27798E+07
 
   -0.42397E+07        -0.36634E+06         0.00000E+00
   -0.36634E+06        -0.98418E+07         0.00000E+00
    0.00000E+00         0.00000E+00        -0.28163E+07
 
   -0.43711E+07        -0.49436E+06         0.00000E+00
   -0.49436E+06        -0.98745E+07         0.00000E+00
    0.00000E+00         0.00000E+00        -0.28491E+07
 
   -0.44766E+07        -0.61211E+06         0.00000E+00
   -0.61211E+06        -0.99158E+07         0.00000E+00
    0.00000E+00         0.00000E+00        -0.28785E+07
 
   -0.45583E+07        -0.71905E+06         0.00000E+00
   -0.71905E+06        -0.99646E+07         0.00000E+00
    0.00000E+00         0.00000E+00        -0.29046E+07
 
   -0.46180E+07        -0.81478E+06         0.00000E+00
   -0.81478E+06        -0.10020E+08         0.00000E+00
    0.00000E+00         0.00000E+00        -0.29276E+07
 
   -0.46575E+07        -0.89900E+06         0.00000E+00
   -0.89900E+06        -0.10081E+08         0.00000E+00
    0.00000E+00         0.00000E+00        -0.29477E+07
 
   -0.46786E+07        -0.97152E+06         0.00000E+00
   -0.97152E+06        -0.10147E+08         0.00000E+00
    0.00000E+00         0.00000E+00        -0.29651E+07
 
   -0.46831E+07        -0.10322E+07         0.00000E+00
   -0.10322E+07        -0.10217E+08         0.00000E+00
    0.00000E+00         0.00000E+00        -0.29800E+07
 
   -0.46726E+07        -0.10811E+07         0.00000E+00
   -0.10811E+07        -0.10290E+08         0.00000E+00
    0.00000E+00         0.00000E+00        -0.29926E+07
 
   -0.46487E+07        -0.11183E+07         0.00000E+00
   -0.11183E+07        -0.10366E+08         0.00000E+00
    0.00000E+00         0.00000E+00        -0.30030E+07
 
   -0.46128E+07        -0.11439E+07         0.00000E+00
   -0.11439E+07        -0.10444E+08         0.00000E+00
    0.00000E+00         0.00000E+00        -0.30114E+07
 
   -0.45664E+07        -0.11580E+07         0.00000E+00
   -0.11580E+07        -0.10524E+08         0.00000E+00
    0.00000E+00         0.00000E+00        -0.30180E+07
 
   -0.45108E+07        -0.11609E+07         0.00000E+00
   -0.11609E+07        -0.10604E+08         0.00000E+00
    0.00000E+00         0.00000E+00        -0.30229E+07
 
   -0.44472E+07        -0.11529E+07         0.00000E+00
   -0.11529E+07        -0.10684E+08         0.00000E+00
    0.00000E+00         0.00000E+00        -0.30263E+07
 
   -0.43767E+07        -0.11342E+07         0.00000E+00
   -0.11342E+07        -0.10765E+08         0.00000E+00
    0.00000E+00         0.00000E+00        -0.30283E+07
 
   -0.43003E+07        -0.11051E+07         0.00000E+00
   -0.11051E+07        -0.10845E+08         0.00000E+00
    0.00000E+00         0.00000E+00        -0.30291E+07
 
   -0.42191E+07        -0.10660E+07         0.00000E+00
   -0.10660E+07        -0.10925E+08         0.00000E+00
    0.00000E+00         0.00000E+00        -0.30288E+07
 
   -0.41339E+07        -0.10171E+07         0.00000E+00
   -0.10171E+07        -0.11004E+08         0.00000E+00
    0.00000E+00         0.00000E+00        -0.30275E+07
 
   -0.40455E+07        -0.95865E+06         0.00000E+00
   -0.95865E+06        -0.11081E+08         0.00000E+00
    0.00000E+00         0.00000E+00        -0.30254E+07
 
   -0.39548E+07        -0.89105E+06         0.00000E+00
   -0.89105E+06        -0.11158E+08         0.00000E+00
    0.00000E+00         0.00000E+00        -0.30225E+07
 
   -0.38624E+07        -0.81453E+06         0.00000E+00
   -0.81453E+06        -0.11233E+08         0.00000E+00
    0.00000E+00         0.00000E+00        -0.30191E+07
 
   -0.37689E+07        -0.72931E+06         0.00000E+00
   -0.72931E+06        -0.11307E+08         0.00000E+00
    0.00000E+00         0.00000E+00        -0.30151E+07
 
   -0.36750E+07        -0.63563E+06         0.00000E+00
   -0.63563E+06        -0.11379E+08         0.00000E+00
    0.00000E+00         0.00000E+00        -0.30107E+07
 
   -0.35814E+07        -0.53369E+06         0.00000E+00
   -0.53369E+06        -0.11449E+08         0.00000E+00
    0.00000E+00         0.00000E+00        -0.30060E+07
 
   -0.34884E+07        -0.42367E+06         0.00000E+00
   -0.42367E+06        -0.11517E+08         0.00000E+00
    0.00000E+00         0.00000E+00        -0.30011E+07
 
   -0.33968E+07        -0.30572E+06         0.00000E+00
   -0.30572E+06        -0.11584E+08         0.00000E+00
    0.00000E+00         0.00000E+00        -0.29961E+07
 
   -0.33071E+07        -0.17997E+06         0.00000E+00
   -0.17997E+06        -0.11648E+08         0.00000E+00
    0.00000E+00         0.00000E+00        -0.29910E+07
 
   -0.32197E+07        -0.46546E+05         0.00000E+00
   -0.46546E+05        -0.11710E+08         0.00000E+00
    0.00000E+00         0.00000E+00        -0.29860E+07
 
   -0.31352E+07         0.94462E+05         0.00000E+00
    0.94462E+05        -0.11770E+08         0.00000E+00
    0.00000E+00         0.00000E+00        -0.29811E+07
 
   -0.30542E+07         0.24297E+06         0.00000E+00
    0.24297E+06        -0.11828E+08         0.00000E+00
    0.00000E+00         0.00000E+00        -0.29764E+07
 
   -0.29773E+07         0.39890E+06         0.00000E+00
    0.39890E+06        -0.11883E+08         0.00000E+00
    0.00000E+00         0.00000E+00        -0.29720E+07
 
   -0.29050E+07         0.56218E+06         0.00000E+00
    0.56218E+06        -0.11935E+08         0.00000E+00
    0.00000E+00         0.00000E+00        -0.29680E+07
 
   -0.28379E+07         0.73274E+06         0.00000E+00
    0.73274E+06        -0.11984E+08         0.00000E+00
    0.00000E+00         0.00000E+00        -0.29645E+07
 
   -0.27768E+07         0.91050E+06         0.00000E+00
    0.91050E+06        -0.12031E+08         0.00000E+00
    0.00000E+00         0.00000E+00        -0.29615E+07
 
   -0.27222E+07         0.10954E+07         0.00000E+00
    0.10954E+07        -0.12073E+08         0.00000E+00
    0.00000E+00         0.00000E+00        -0.29591E+07
 
   -0.26749E+07         0.12872E+07         0.00000E+00
    0.12872E+07        -0.12112E+08         0.00000E+00
    0.00000E+00         0.00000E+00        -0.29573E+07
 
   -0.26357E+07         0.14859E+07         0.00000E+00
    0.14859E+07        -0.12146E+08         0.00000E+00
    0.00000E+00         0.00000E+00        -0.29564E+07
 
   -0.26052E+07         0.16913E+07         0.00000E+00
    0.16913E+07        -0.12176E+08         0.00000E+00
    0.00000E+00         0.00000E+00        -0.29563E+07
 
   -0.25843E+07         0.19032E+07         0.00000E+00
    0.19032E+07        -0.12201E+08         0.00000E+00
    0.00000E+00         0.00000E+00        -0.29570E+07
 
   -0.25738E+07         0.21212E+07         0.00000E+00
    0.21212E+07        -0.12220E+08         0.00000E+00
    0.00000E+00         0.00000E+00        -0.29588E+07
 
   -0.25745E+07         0.23451E+07         0.00000E+00
    0.23451E+07        -0.12234E+08         0.00000E+00
    0.00000E+00         0.00000E+00        -0.29617E+07
 
   -0.25874E+07         0.25744E+07         0.00000E+00
    0.25744E+07        -0.12241E+08         0.00000E+00
    0.00000E+00         0.00000E+00        -0.29656E+07
 
   -0.26132E+07         0.28087E+07         0.00000E+00
    0.28087E+07        -0.12241E+08         0.00000E+00
    0.00000E+00         0.00000E+00        -0.29708E+07
 
   -0.26529E+07         0.30475E+07         0.00000E+00
    0.30475E+07        -0.12233E+08         0.00000E+00
    0.00000E+00         0.00000E+00        -0.29772E+07
 
   -0.27073E+07         0.32901E+07         0.00000E+00
    0.32901E+07        -0.12218E+08         0.00000E+00
    0.00000E+00         0.00000E+00        -0.29850E+07
 
   -0.27773E+07         0.35358E+07         0.00000E+00
    0.35358E+07        -0.12193E+08         0.00000E+00
    0.00000E+00         0.00000E+00        -0.29941E+07
 
   -0.28636E+07         0.37838E+07         0.00000E+00
    0.37838E+07        -0.12160E+08         0.00000E+00
    0.00000E+00         0.00000E+00        -0.30047E+07
 
   -0.29671E+07         0.40331E+07         0.00000E+00
    0.40331E+07        -0.12117E+08         0.00000E+00
    0.00000E+00         0.00000E+00        -0.30168E+07
 
   -0.66419E+07        -0.11846E+06         0.00000E+00
   -0.11846E+06        -0.11652E+08         0.00000E+00
    0.00000E+00         0.00000E+00        -0.36588E+07
 
   -0.67747E+07        -0.32375E+06         0.00000E+00
   -0.32375E+06        -0.11667E+08         0.00000E+00
    0.00000E+00         0.00000E+00        -0.36883E+07
 
   -0.68735E+07        -0.51413E+06         0.00000E+00
   -0.51413E+06        -0.11694E+08         0.00000E+00
    0.00000E+00         0.00000E+00        -0.37134E+07
 
   -0.69412E+07        -0.68909E+06         0.00000E+00
   -0.68909E+06        -0.11731E+08         0.00000E+00
    0.00000E+00         0.00000E+00        -0.37344E+07
 
   -0.69804E+07        -0.84800E+06         0.00000E+00
   -0.84800E+06        -0.11777E+08         0.00000E+00
    0.00000E+00         0.00000E+00        -0.37514E+07
 
   -0.69939E+07        -0.99049E+06         0.00000E+00
   -0.99049E+06        -0.11830E+08         0.00000E+00
    0.00000E+00         0.00000E+00        -0.37648E+07
 
   -0.69843E+07        -0.11164E+07         0.00000E+00
   -0.11164E+07        -0.11890E+08         0.00000E+00
    0.00000E+00         0.00000E+00        -0.37749E+07
 
   -0.69541E+07        -0.12258E+07         0.00000E+00
   -0.12258E+07        -0.11955E+08         0.00000E+00
    0.00000E+00         0.00000E+00        -0.37818E+07
 
   -0.69056E+07        -0.13188E+07         0.00000E+00
   -0.13188E+07        -0.12024E+08         0.00000E+00
    0.00000E+00         0.00000E+00        -0.37859E+07
 
   -0.68411E+07        -0.13957E+07         0.00000E+00
   -0.13957E+07        -0.12096E+08         0.00000E+00
    0.00000E+00         0.00000E+00        -0.37875E+07
 
   -0.67626E+07        -0.14568E+07         0.00000E+00
   -0.14568E+07        -0.12170E+08         0.00000E+00
    0.00000E+00         0.00000E+00        -0.37866E+07
 
   -0.66722E+07        -0.15027E+07         0.00000E+00
   -0.15027E+07        -0.12246E+08         0.00000E+00
    0.00000E+00         0.00000E+00        -0.37836E+07
 
   -0.65716E+07        -0.15338E+07         0.00000E+00
   -0.15338E+07        -0.12322E+08         0.00000E+00
    0.00000E+00         0.00000E+00        -0.37787E+07
 
   -0.64624E+07        -0.15507E+07         0.00000E+00
   -0.15507E+07        -0.12398E+08         0.00000E+00
    0.00000E+00         0.00000E+00        -0.37721E+07
 
   -0.63460E+07        -0.15542E+07         0.00000E+00
   -0.15542E+07        -0.12474E+08         0.00000E+00
    0.00000E+00         0.00000E+00        -0.37640E+07
 
   -0.62238E+07        -0.15447E+07         0.00000E+00
   -0.15447E+07        -0.12549E+08         0.00000E+00
    0.00000E+00         0.00000E+00        -0.37545E+07
 
   -0.60970E+07        -0.15229E+07         0.00000E+00
   -0.15229E+07        -0.12623E+08         0.00000E+00
    0.00000E+00         0.00000E+00        -0.37439E+07
 
   -0.59665E+07        -0.14894E+07         0.00000E+00
   -0.14894E+07        -0.12695E+08         0.00000E+00
    0.00000E+00         0.00000E+00        -0.37323E+07
 
   -0.58333E+07        -0.14448E+07         0.00000E+00
   -0.14448E+07        -0.12766E+08         0.00000E+00
    0.00000E+00         0.00000E+00        -0.37199E+07
 
   -0.56981E+07        -0.13896E+07         0.00000E+00
   -0.13896E+07        -0.12835E+08         0.00000E+00
    0.00000E+00         0.00000E+00        -0.37067E+07
 
   -0.55616E+07        -0.13244E+07         0.00000E+00
   -0.13244E+07        -0.12903E+08         0.00000E+00
    0.00000E+00         0.00000E+00        -0.36930E+07
 
   -0.54245E+07        -0.12496E+07         0.00000E+00
   -0.12496E+07        -0.12970E+08         0.00000E+00
    0.00000E+00         0.00000E+00        -0.36788E+07
 
   -0.52873E+07        -0.11655E+07         0.00000E+00
   -0.11655E+07        -0.13034E+08         0.00000E+00
    0.00000E+00         0.00000E+00        -0.36643E+07
 
   -0.51504E+07        -0.10726E+07         0.00000E+00
   -0.10726E+07        -0.13098E+08         0.00000E+00
    0.00000E+00         0.00000E+00        -0.36496E+07
 
   -0.50142E+07        -0.97105E+06         0.00000E+00
   -0.97105E+06        -0.13159E+08         0.00000E+00
    0.00000E+00         0.00000E+00        -0.36347E+07
 
   -0.48793E+07        -0.86115E+06         0.00000E+00
   -0.86115E+06        -0.13220E+08         0.00000E+00
    0.00000E+00         0.00000E+00        -0.36198E+07
 
   -0.47458E+07        -0.74305E+06         0.00000E+00
   -0.74305E+06        -0.13279E+08         0.00000E+00
    0.00000E+00         0.00000E+00        -0.36050E+07
 
   -0.46143E+07        -0.61689E+06         0.00000E+00
   -0.61689E+06        -0.13337E+08         0.00000E+00
    0.00000E+00         0.00000E+00        -0.35903E+07
 
   -0.44851E+07        -0.48273E+06         0.00000E+00
   -0.48273E+06        -0.13394E+08         0.00000E+00
    0.00000E+00         0.00000E+00        -0.35758E+07
 
   -0.43586E+07        -0.34059E+06         0.00000E+00
   -0.34059E+06        -0.13449E+08         0.00000E+00
    0.00000E+00         0.00000E+00        -0.35616E+07
 
   -0.42351E+07        -0.19046E+06         0.00000E+00
   -0.19046E+06        -0.13504E+08         0.00000E+00
    0.00000E+00         0.00000E+00        -0.35478E+07
 
   -0.41151E+07        -0.32284E+05         0.00000E+00
   -0.32284E+05        -0.13557E+08         0.00000E+00
    0.00000E+00         0.00000E+00        -0.35345E+07
 
   -0.39992E+07         0.13404E+06         0.00000E+00
    0.13404E+06        -0.13609E+08         0.00000E+00
    0.00000E+00         0.00000E+00        -0.35217E+07
 
   -0.38877E+07         0.30862E+06         0.00000E+00
    0.30862E+06        -0.13660E+08         0.00000E+00
    0.00000E+00         0.00000E+00        -0.35096E+07
 
   -0.37814E+07         0.49160E+06         0.00000E+00
    0.49160E+06        -0.13709E+08         0.00000E+00
    0.00000E+00         0.00000E+00        -0.34982E+07
 
   -0.36809E+07         0.68312E+06         0.00000E+00
    0.68312E+06        -0.13757E+08         0.00000E+00
    0.00000E+00         0.00000E+00        -0.34876E+07
 
   -0.35869E+07         0.88333E+06         0.00000E+00
    0.88333E+06        -0.13802E+08         0.00000E+00
    0.00000E+00         0.00000E+00        -0.34778E+07
 
   -0.35002E+07         0.10924E+07         0.00000E+00
    0.10924E+07        -0.13845E+08         0.00000E+00
    0.00000E+00         0.00000E+00        -0.34691E+07
 
   -0.34217E+07         0.13104E+07         0.00000E+00
    0.13104E+07        -0.13885E+08         0.00000E+00
    0.00000E+00         0.00000E+00        -0.34614E+07
 
   -0.33525E+07         0.15374E+07         0.00000E+00
    0.15374E+07        -0.13922E+08         0.00000E+00
    0.00000E+00         0.00000E+00        -0.34550E+07
 
   -0.32935E+07         0.17734E+07         0.00000E+00
    0.17734E+07        -0.13955E+08         0.00000E+00
    0.00000E+00         0.00000E+00        -0.34498E+07
 
   -0.32459E+07         0.20184E+07         0.00000E+00
    0.20184E+07        -0.13984E+08         0.00000E+00
    0.00000E+00         0.00000E+00        -0.34459E+07
 
   -0.32109E+07         0.22723E+07         0.00000E+00
    0.22723E+07        -0.14007E+08         0.00000E+00
    0.00000E+00         0.00000E+00        -0.34435E+07
 
   -0.31897E+07         0.25349E+07         0.00000E+00
    0.25349E+07        -0.14024E+08         0.00000E+00
    0.00000E+00         0.00000E+00        -0.34428E+07
 
   -0.31838E+07         0.28059E+07         0.00000E+00
    0.28059E+07        -0.14034E+08         0.00000E+00
    0.00000E+00         0.00000E+00        -0.34436E+07
 
   -0.31944E+07         0.30848E+07         0.00000E+00
    0.30848E+07        -0.14037E+08         0.00000E+00
    0.00000E+00         0.00000E+00        -0.34463E+07
 
   -0.32231E+07         0.33711E+07         0.00000E+00
    0.33711E+07        -0.14031E+08         0.00000E+00
    0.00000E+00         0.00000E+00        -0.34509E+07
 
   -0.32712E+07         0.36641E+07         0.00000E+00
    0.36641E+07        -0.14016E+08         0.00000E+00
    0.00000E+00         0.00000E+00        -0.34574E+07
 
   -0.33401E+07         0.39628E+07         0.00000E+00
    0.39628E+07        -0.13990E+08         0.00000E+00
    0.00000E+00         0.00000E+00        -0.34660E+07
 
   -0.34314E+07         0.42665E+07         0.00000E+00
    0.42665E+07        -0.13953E+08         0.00000E+00
    0.00000E+00         0.00000E+00        -0.34768E+07
 
   -0.10069E+08        -0.16139E+06         0.00000E+00
   -0.16139E+06        -0.13846E+08         0.00000E+00
    0.00000E+00         0.00000E+00        -0.47831E+07
 
   -0.10110E+08        -0.43216E+06         0.00000E+00
   -0.43216E+06        -0.13863E+08         0.00000E+00
    0.00000E+00         0.00000E+00        -0.47945E+07
 
   -0.10112E+08        -0.67992E+06         0.00000E+00
   -0.67992E+06        -0.13894E+08         0.00000E+00
    0.00000E+00         0.00000E+00        -0.48012E+07
 
   -0.10081E+08        -0.90329E+06         0.00000E+00
   -0.90329E+06        -0.13934E+08         0.00000E+00
    0.00000E+00         0.00000E+00        -0.48031E+07
 
   -0.10020E+08        -0.11023E+07         0.00000E+00
   -0.11023E+07        -0.13983E+08         0.00000E+00
    0.00000E+00         0.00000E+00        -0.48007E+07
 
   -0.99334E+07        -0.12772E+07         0.00000E+00
   -0.12772E+07        -0.14039E+08         0.00000E+00
    0.00000E+00         0.00000E+00        -0.47945E+07
 
   -0.98246E+07        -0.14285E+07         0.00000E+00
   -0.14285E+07        -0.14099E+08         0.00000E+00
    0.00000E+00         0.00000E+00        -0.47848E+07
 
   -0.96970E+07        -0.15566E+07         0.00000E+00
   -0.15566E+07        -0.14163E+08         0.00000E+00
    0.00000E+00         0.00000E+00        -0.47720E+07
 
   -0.95539E+07        -0.16625E+07         0.00000E+00
   -0.16625E+07        -0.14229E+08         0.00000E+00
    0.00000E+00         0.00000E+00        -0.47565E+07
 
   -0.93980E+07        -0.17470E+07         0.00000E+00
   -0.17470E+07        -0.14295E+08         0.00000E+00
    0.00000E+00         0.00000E+00        -0.47386E+07
 
   -0.92320E+07        -0.18113E+07         0.00000E+00
   -0.18113E+07        -0.14361E+08         0.00000E+00
    0.00000E+00         0.00000E+00        -0.47185E+07
 
   -0.90583E+07        -0.18566E+07         0.00000E+00
   -0.18566E+07        -0.14425E+08         0.00000E+00
    0.00000E+00         0.00000E+00        -0.46967E+07
 
   -0.88788E+07        -0.18841E+07         0.00000E+00
   -0.18841E+07        -0.14488E+08         0.00000E+00
    0.00000E+00         0.00000E+00        -0.46733E+07
 
   -0.86952E+07        -0.18952E+07         0.00000E+00
   -0.18952E+07        -0.14548E+08         0.00000E+00
    0.00000E+00         0.00000E+00        -0.46487E+07
 
   -0.85090E+07        -0.18910E+07         0.00000E+00
   -0.18910E+07        -0.14606E+08         0.00000E+00
    0.00000E+00         0.00000E+00        -0.46230E+07
 
   -0.83214E+07        -0.18729E+07         0.00000E+00
   -0.18729E+07        -0.14661E+08         0.00000E+00
    0.00000E+00         0.00000E+00        -0.45965E+07
 
   -0.81333E+07        -0.18417E+07         0.00000E+00
   -0.18417E+07        -0.14714E+08         0.00000E+00
    0.00000E+00         0.00000E+00        -0.45694E+07
 
   -0.79453E+07        -0.17987E+07         0.00000E+00
   -0.17987E+07        -0.14764E+08         0.00000E+00
    0.00000E+00         0.00000E+00        -0.45418E+07
 
   -0.77582E+07        -0.17446E+07         0.00000E+00
   -0.17446E+07        -0.14811E+08         0.00000E+00
    0.00000E+00         0.00000E+00        -0.45139E+07
 
   -0.75723E+07        -0.16804E+07         0.00000E+00
   -0.16804E+07        -0.14857E+08         0.00000E+00
    0.00000E+00         0.00000E+00        -0.44858E+07
 
   -0.73880E+07        -0.16066E+07         0.00000E+00
   -0.16066E+07        -0.14900E+08         0.00000E+00
    0.00000E+00         0.00000E+00        -0.44577E+07
 
   -0.72054E+07        -0.15240E+07         0.00000E+00
   -0.15240E+07        -0.14942E+08         0.00000E+00
    0.00000E+00         0.00000E+00        -0.44295E+07
 
   -0.70247E+07        -0.14330E+07         0.00000E+00
   -0.14330E+07        -0.14983E+08         0.00000E+00
    0.00000E+00         0.00000E+00        -0.44015E+07
 
   -0.68461E+07        -0.13340E+07         0.00000E+00
   -0.13340E+07        -0.15023E+08         0.00000E+00
    0.00000E+00         0.00000E+00        -0.43737E+07
 
   -0.66695E+07        -0.12273E+07         0.00000E+00
   -0.12273E+07        -0.15061E+08         0.00000E+00
    0.00000E+00         0.00000E+00        -0.43462E+07
 
   -0.64950E+07        -0.11131E+07         0.00000E+00
   -0.11131E+07        -0.15100E+08         0.00000E+00
    0.00000E+00         0.00000E+00        -0.43190E+07
 
   -0.63226E+07        -0.99159E+06         0.00000E+00
   -0.99159E+06        -0.15138E+08         0.00000E+00
    0.00000E+00         0.00000E+00        -0.42922E+07
 
   -0.61525E+07        -0.86276E+06         0.00000E+00
   -0.86276E+06        -0.15177E+08         0.00000E+00
    0.00000E+00         0.00000E+00        -0.42659E+07
 
   -0.59845E+07        -0.72658E+06         0.00000E+00
   -0.72658E+06        -0.15216E+08         0.00000E+00
    0.00000E+00         0.00000E+00        -0.42401E+07
 
   -0.58188E+07        -0.58292E+06         0.00000E+00
   -0.58292E+06        -0.15255E+08         0.00000E+00
    0.00000E+00         0.00000E+00        -0.42148E+07
 
   -0.56555E+07        -0.43159E+06         0.00000E+00
   -0.43159E+06        -0.15296E+08         0.00000E+00
    0.00000E+00         0.00000E+00        -0.41903E+07
 
   -0.54949E+07        -0.27230E+06         0.00000E+00
   -0.27230E+06        -0.15337E+08         0.00000E+00
    0.00000E+00         0.00000E+00        -0.41664E+07
 
   -0.53370E+07        -0.10473E+06         0.00000E+00
   -0.10473E+06        -0.15379E+08         0.00000E+00
    0.00000E+00         0.00000E+00        -0.41433E+07
 
   -0.51823E+07         0.71528E+05         0.00000E+00
    0.71528E+05        -0.15423E+08         0.00000E+00
    0.00000E+00         0.00000E+00        -0.41210E+07
 
   -0.50312E+07         0.25694E+06         0.00000E+00
    0.25694E+06        -0.15467E+08         0.00000E+00
    0.00000E+00         0.00000E+00        -0.40996E+07
 
   -0.48842E+07         0.45203E+06         0.00000E+00
    0.45203E+06        -0.15512E+08         0.00000E+00
    0.00000E+00         0.00000E+00        -0.40793E+07
 
   -0.47420E+07         0.65733E+06         0.00000E+00
    0.65733E+06        -0.15558E+08         0.00000E+00
    0.00000E+00         0.00000E+00        -0.40600E+07
 
   -0.46054E+07         0.87344E+06         0.00000E+00
    0.87344E+06        -0.15604E+08         0.00000E+00
    0.00000E+00         0.00000E+00        -0.40420E+07
 
   -0.44755E+07         0.11009E+07         0.00000E+00
    0.11009E+07        -0.15650E+08         0.00000E+00
    0.00000E+00         0.00000E+00        -0.40252E+07
 
   -0.43533E+07         0.13404E+07         0.00000E+00
    0.13404E+07        -0.15696E+08         0.00000E+00
    0.00000E+00         0.00000E+00        -0.40099E+07
 
   -0.42403E+07         0.15923E+07         0.00000E+00
    0.15923E+07        -0.15740E+08         0.00000E+00
    0.00000E+00         0.00000E+00        -0.39961E+07
 
   -0.41379E+07         0.18572E+07         0.00000E+00
    0.18572E+07        -0.15782E+08         0.00000E+00
    0.00000E+00         0.00000E+00        -0.39840E+07
 
   -0.40479E+07         0.21354E+07         0.00000E+00
    0.21354E+07        -0.15821E+08         0.00000E+00
    0.00000E+00         0.00000E+00        -0.39738E+07
 
   -0.39721E+07         0.24271E+07         0.00000E+00
    0.24271E+07        -0.15855E+08         0.00000E+00
    0.00000E+00         0.00000E+00        -0.39655E+07
 
   -0.39125E+07         0.27324E+07         0.00000E+00
    0.27324E+07        -0.15884E+08         0.00000E+00
    0.00000E+00         0.00000E+00        -0.39594E+07
 
   -0.38711E+07         0.30512E+07         0.00000E+00
    0.30512E+07        -0.15906E+08         0.00000E+00
    0.00000E+00         0.00000E+00        -0.39555E+07
 
   -0.38502E+07         0.33833E+07         0.00000E+00
    0.33833E+07        -0.15920E+08         0.00000E+00
    0.00000E+00         0.00000E+00        -0.39541E+07
 
   -0.38524E+07         0.37283E+07         0.00000E+00
    0.37283E+07        -0.15924E+08         0.00000E+00
    0.00000E+00         0.00000E+00        -0.39553E+07
 
   -0.38802E+07         0.40857E+07         0.00000E+00
    0.40857E+07        -0.15917E+08         0.00000E+00
    0.00000E+00         0.00000E+00        -0.39595E+07
 
   -0.39356E+07         0.44534E+07         0.00000E+00
    0.44534E+07        -0.15896E+08         0.00000E+00
    0.00000E+00         0.00000E+00        -0.39663E+07
 
   -0.14280E+08        -0.21276E+06         0.00000E+00
   -0.21276E+06        -0.16453E+08         0.00000E+00
    0.00000E+00         0.00000E+00        -0.61465E+07
 
   -0.14173E+08        -0.55542E+06         0.00000E+00
   -0.55542E+06        -0.16476E+08         0.00000E+00
    0.00000E+00         0.00000E+00        -0.61297E+07
 
   -0.14024E+08        -0.85893E+06         0.00000E+00
   -0.85893E+06        -0.16507E+08         0.00000E+00
    0.00000E+00         0.00000E+00        -0.61064E+07
 
   -0.13843E+08        -0.11265E+07         0.00000E+00
   -0.11265E+07        -0.16549E+08         0.00000E+00
    0.00000E+00         0.00000E+00        -0.60784E+07
 
   -0.13635E+08        -0.13585E+07         0.00000E+00
   -0.13585E+07        -0.16597E+08         0.00000E+00
    0.00000E+00         0.00000E+00        -0.60464E+07
 
   -0.13404E+08        -0.15554E+07         0.00000E+00
   -0.15554E+07        -0.16650E+08         0.00000E+00
    0.00000E+00         0.00000E+00        -0.60107E+07
 
   -0.13155E+08        -0.17184E+07         0.00000E+00
   -0.17184E+07        -0.16703E+08         0.00000E+00
    0.00000E+00         0.00000E+00        -0.59718E+07
 
   -0.12895E+08        -0.18493E+07         0.00000E+00
   -0.18493E+07        -0.16755E+08         0.00000E+00
    0.00000E+00         0.00000E+00        -0.59301E+07
 
   -0.12627E+08        -0.19507E+07         0.00000E+00
   -0.19507E+07        -0.16804E+08         0.00000E+00
    0.00000E+00         0.00000E+00        -0.58863E+07
 
   -0.12356E+08        -0.20252E+07         0.00000E+00
   -0.20252E+07        -0.16848E+08         0.00000E+00
    0.00000E+00         0.00000E+00        -0.58408E+07
 
   -0.12083E+08        -0.20755E+07         0.00000E+00
   -0.20755E+07        -0.16887E+08         0.00000E+00
    0.00000E+00         0.00000E+00        -0.57941E+07
 
   -0.11812E+08        -0.21041E+07         0.00000E+00
   -0.21041E+07        -0.16921E+08         0.00000E+00
    0.00000E+00         0.00000E+00        -0.57467E+07
 
   -0.11545E+08        -0.21137E+07         0.00000E+00
   -0.21137E+07        -0.16949E+08         0.00000E+00
    0.00000E+00         0.00000E+00        -0.56987E+07
 
   -0.11281E+08        -0.21064E+07         0.00000E+00
   -0.21064E+07        -0.16972E+08         0.00000E+00
    0.00000E+00         0.00000E+00        -0.56506E+07
 
   -0.11023E+08        -0.20842E+07         0.00000E+00
   -0.20842E+07        -0.16990E+08         0.00000E+00
    0.00000E+00         0.00000E+00        -0.56026E+07
 
   -0.10770E+08        -0.20490E+07         0.00000E+00
   -0.20490E+07        -0.17004E+08         0.00000E+00
    0.00000E+00         0.00000E+00        -0.55548E+07
 
   -0.10523E+08        -0.20023E+07         0.00000E+00
   -0.20023E+07        -0.17014E+08         0.00000E+00
    0.00000E+00         0.00000E+00        -0.55074E+07
 
   -0.10282E+08        -0.19454E+07         0.00000E+00
   -0.19454E+07        -0.17020E+08         0.00000E+00
    0.00000E+00         0.00000E+00        -0.54605E+07
 
   -0.10047E+08        -0.18795E+07         0.00000E+00
   -0.18795E+07        -0.17025E+08         0.00000E+00
    0.00000E+00         0.00000E+00        -0.54142E+07
 
   -0.98163E+07        -0.18055E+07         0.00000E+00
   -0.18055E+07        -0.17027E+08         0.00000E+00
    0.00000E+00         0.00000E+00        -0.53686E+07
 
   -0.95910E+07        -0.17242E+07         0.00000E+00
   -0.17242E+07        -0.17028E+08         0.00000E+00
    0.00000E+00         0.00000E+00        -0.53238E+07
 
   -0.93702E+07        -0.16362E+07         0.00000E+00
   -0.16362E+07        -0.17028E+08         0.00000E+00
    0.00000E+00         0.00000E+00        -0.52797E+07
 
   -0.91536E+07        -0.15420E+07         0.00000E+00
   -0.15420E+07        -0.17028E+08         0.00000E+00
    0.00000E+00         0.00000E+00        -0.52363E+07
 
   -0.89406E+07        -0.14419E+07         0.00000E+00
   -0.14419E+07        -0.17029E+08         0.00000E+00
    0.00000E+00         0.00000E+00        -0.51938E+07
 
   -0.87308E+07        -0.13362E+07         0.00000E+00
   -0.13362E+07        -0.17030E+08         0.00000E+00
    0.00000E+00         0.00000E+00        -0.51521E+07
 
   -0.85237E+07        -0.12250E+07         0.00000E+00
   -0.12250E+07        -0.17033E+08         0.00000E+00
    0.00000E+00         0.00000E+00        -0.51113E+07
 
   -0.83188E+07        -0.11084E+07         0.00000E+00
   -0.11084E+07        -0.17037E+08         0.00000E+00
    0.00000E+00         0.00000E+00        -0.50712E+07
 
   -0.81158E+07        -0.98615E+06         0.00000E+00
   -0.98615E+06        -0.17044E+08         0.00000E+00
    0.00000E+00         0.00000E+00        -0.50320E+07
 
   -0.79142E+07        -0.85816E+06         0.00000E+00
   -0.85816E+06        -0.17054E+08         0.00000E+00
    0.00000E+00         0.00000E+00        -0.49936E+07
 
   -0.77137E+07        -0.72412E+06         0.00000E+00
   -0.72412E+06        -0.17067E+08         0.00000E+00
    0.00000E+00         0.00000E+00        -0.49560E+07
 
   -0.75138E+07        -0.58364E+06         0.00000E+00
   -0.58364E+06        -0.17083E+08         0.00000E+00
    0.00000E+00         0.00000E+00        -0.49193E+07
 
   -0.73144E+07        -0.43624E+06         0.00000E+00
   -0.43624E+06        -0.17103E+08         0.00000E+00
    0.00000E+00         0.00000E+00        -0.48834E+07
 
   -0.71153E+07        -0.28132E+06         0.00000E+00
   -0.28132E+06        -0.17127E+08         0.00000E+00
    0.00000E+00         0.00000E+00        -0.48484E+07
 
   -0.69164E+07        -0.11817E+06         0.00000E+00
   -0.11817E+06        -0.17155E+08         0.00000E+00
    0.00000E+00         0.00000E+00        -0.48143E+07
 
   -0.67176E+07         0.54034E+05         0.00000E+00
    0.54034E+05        -0.17188E+08         0.00000E+00
    0.00000E+00         0.00000E+00        -0.47811E+07
 
   -0.65191E+07         0.23622E+06         0.00000E+00
    0.23622E+06        -0.17226E+08         0.00000E+00
    0.00000E+00         0.00000E+00        -0.47489E+07
 
   -0.63213E+07         0.42946E+06         0.00000E+00
    0.42946E+06        -0.17268E+08         0.00000E+00
    0.00000E+00         0.00000E+00        -0.47178E+07
 
   -0.61246E+07         0.63493E+06         0.00000E+00
    0.63493E+06        -0.17314E+08         0.00000E+00
    0.00000E+00         0.00000E+00        -0.46878E+07
 
   -0.59298E+07         0.85392E+06         0.00000E+00
    0.85392E+06        -0.17366E+08         0.00000E+00
    0.00000E+00         0.00000E+00        -0.46591E+07
 
   -0.57380E+07         0.10878E+07         0.00000E+00
    0.10878E+07        -0.17421E+08         0.00000E+00
    0.00000E+00         0.00000E+00        -0.46317E+07
 
   -0.55504E+07         0.13381E+07         0.00000E+00
    0.13381E+07        -0.17479E+08         0.00000E+00
    0.00000E+00         0.00000E+00        -0.46060E+07
 
   -0.53691E+07         0.16063E+07         0.00000E+00
    0.16063E+07        -0.17541E+08         0.00000E+00
    0.00000E+00         0.00000E+00        -0.45820E+07
 
   -0.51961E+07         0.18939E+07         0.00000E+00
    0.18939E+07        -0.17604E+08         0.00000E+00
    0.00000E+00         0.00000E+00        -0.45600E+07
 
   -0.50342E+07         0.22022E+07         0.00000E+00
    0.22022E+07        -0.17667E+08         0.00000E+00
    0.00000E+00         0.00000E+00        -0.45402E+07
 
   -0.48865E+07         0.25323E+07         0.00000E+00
    0.25323E+07        -0.17728E+08         0.00000E+00
    0.00000E+00         0.00000E+00        -0.45228E+07
 
   -0.47564E+07         0.28848E+07         0.00000E+00
    0.28848E+07        -0.17785E+08         0.00000E+00
    0.00000E+00         0.00000E+00        -0.45082E+07
 
   -0.46475E+07         0.32600E+07         0.00000E+00
    0.32600E+07        -0.17835E+08         0.00000E+00
    0.00000E+00         0.00000E+00        -0.44964E+07
 
   -0.45628E+07         0.36574E+07         0.00000E+00
    0.36574E+07        -0.17875E+08         0.00000E+00
    0.00000E+00         0.00000E+00        -0.44876E+07
 
   -0.45059E+07         0.40772E+07         0.00000E+00
    0.40772E+07        -0.17904E+08         0.00000E+00
    0.00000E+00         0.00000E+00        -0.44820E+07
 
   -0.44837E+07         0.45217E+07         0.00000E+00
    0.45217E+07        -0.17923E+08         0.00000E+00
    0.00000E+00         0.00000E+00        -0.44813E+07
 
   -0.19383E+08        -0.27596E+06         0.00000E+00
   -0.27596E+06        -0.19554E+08         0.00000E+00
    0.00000E+00         0.00000E+00        -0.77876E+07
 
   -0.19040E+08        -0.68487E+06         0.00000E+00
   -0.68487E+06        -0.19568E+08         0.00000E+00
    0.00000E+00         0.00000E+00        -0.77217E+07
 
   -0.18661E+08        -0.10439E+07         0.00000E+00
   -0.10439E+07        -0.19608E+08         0.00000E+00
    0.00000E+00         0.00000E+00        -0.76537E+07
 
   -0.18248E+08        -0.13430E+07         0.00000E+00
   -0.13430E+07        -0.19654E+08         0.00000E+00
    0.00000E+00         0.00000E+00        -0.75803E+07
 
   -0.17814E+08        -0.15826E+07         0.00000E+00
   -0.15826E+07        -0.19696E+08         0.00000E+00
    0.00000E+00         0.00000E+00        -0.75022E+07
 
   -0.17373E+08        -0.17679E+07         0.00000E+00
   -0.17679E+07        -0.19730E+08         0.00000E+00
    0.00000E+00         0.00000E+00        -0.74206E+07
 
   -0.16933E+08        -0.19058E+07         0.00000E+00
   -0.19058E+07        -0.19752E+08         0.00000E+00
    0.00000E+00         0.00000E+00        -0.73371E+07
 
   -0.16503E+08        -0.20033E+07         0.00000E+00
   -0.20033E+07        -0.19761E+08         0.00000E+00
    0.00000E+00         0.00000E+00        -0.72528E+07
 
   -0.16086E+08        -0.20670E+07         0.00000E+00
   -0.20670E+07        -0.19758E+08         0.00000E+00
    0.00000E+00         0.00000E+00        -0.71688E+07
 
   -0.15684E+08        -0.21026E+07         0.00000E+00
   -0.21026E+07        -0.19744E+08         0.00000E+00
    0.00000E+00         0.00000E+00        -0.70856E+07
 
   -0.15300E+08        -0.21149E+07         0.00000E+00
   -0.21149E+07        -0.19719E+08         0.00000E+00
    0.00000E+00         0.00000E+00        -0.70038E+07
 
   -0.14933E+08        -0.21082E+07         0.00000E+00
   -0.21082E+07        -0.19685E+08         0.00000E+00
    0.00000E+00         0.00000E+00        -0.69236E+07
 
   -0.14583E+08        -0.20858E+07         0.00000E+00
   -0.20858E+07        -0.19644E+08         0.00000E+00
    0.00000E+00         0.00000E+00        -0.68454E+07
 
   -0.14249E+08        -0.20505E+07         0.00000E+00
   -0.20505E+07        -0.19596E+08         0.00000E+00
    0.00000E+00         0.00000E+00        -0.67691E+07
 
   -0.13931E+08        -0.20046E+07         0.00000E+00
   -0.20046E+07        -0.19544E+08         0.00000E+00
    0.00000E+00         0.00000E+00        -0.66950E+07
 
   -0.13626E+08        -0.19500E+07         0.00000E+00
   -0.19500E+07        -0.19488E+08         0.00000E+00
    0.00000E+00         0.00000E+00        -0.66229E+07
 
   -0.13335E+08        -0.18881E+07         0.00000E+00
   -0.18881E+07        -0.19430E+08         0.00000E+00
    0.00000E+00         0.00000E+00        -0.65529E+07
 
   -0.13055E+08        -0.18201E+07         0.00000E+00
   -0.18201E+07        -0.19370E+08         0.00000E+00
    0.00000E+00         0.00000E+00        -0.64850E+07
 
   -0.12785E+08        -0.17470E+07         0.00000E+00
   -0.17470E+07        -0.19310E+08         0.00000E+00
    0.00000E+00         0.00000E+00        -0.64190E+07
 
   -0.12525E+08        -0.16695E+07         0.00000E+00
   -0.16695E+07        -0.19250E+08         0.00000E+00
    0.00000E+00         0.00000E+00        -0.63550E+07
 
   -0.12272E+08        -0.15883E+07         0.00000E+00
   -0.15883E+07        -0.19192E+08         0.00000E+00
    0.00000E+00         0.00000E+00        -0.62928E+07
 
   -0.12027E+08        -0.15036E+07         0.00000E+00
   -0.15036E+07        -0.19135E+08         0.00000E+00
    0.00000E+00         0.00000E+00        -0.62323E+07
 
   -0.11787E+08        -0.14158E+07         0.00000E+00
   -0.14158E+07        -0.19080E+08         0.00000E+00
    0.00000E+00         0.00000E+00        -0.61734E+07
 
   -0.11552E+08        -0.13250E+07         0.00000E+00
   -0.13250E+07        -0.19029E+08         0.00000E+00
    0.00000E+00         0.00000E+00        -0.61162E+07
 
   -0.11321E+08        -0.12313E+07         0.00000E+00
   -0.12313E+07        -0.18981E+08         0.00000E+00
    0.00000E+00         0.00000E+00        -0.60603E+07
 
   -0.11092E+08        -0.11347E+07         0.00000E+00
   -0.11347E+07        -0.18937E+08         0.00000E+00
    0.00000E+00         0.00000E+00        -0.60059E+07
 
   -0.10865E+08        -0.10350E+07         0.00000E+00
   -0.10350E+07        -0.18898E+08         0.00000E+00
    0.00000E+00         0.00000E+00        -0.59527E+07
 
   -0.10639E+08        -0.93212E+06         0.00000E+00
   -0.93212E+06        -0.18864E+08         0.00000E+00
    0.00000E+00         0.00000E+00        -0.59006E+07
 
   -0.10413E+08        -0.82566E+06         0.00000E+00
   -0.82566E+06        -0.18835E+08         0.00000E+00
    0.00000E+00         0.00000E+00        -0.58497E+07
 
   -0.10186E+08        -0.71525E+06         0.00000E+00
   -0.71525E+06        -0.18813E+08         0.00000E+00
    0.00000E+00         0.00000E+00        -0.57998E+07
 
   -0.99574E+07        -0.60043E+06         0.00000E+00
   -0.60043E+06        -0.18797E+08         0.00000E+00
    0.00000E+00         0.00000E+00        -0.57508E+07
 
   -0.97261E+07        -0.48059E+06         0.00000E+00
   -0.48059E+06        -0.18787E+08         0.00000E+00
    0.00000E+00         0.00000E+00        -0.57027E+07
 
   -0.94915E+07        -0.35503E+06         0.00000E+00
   -0.35503E+06        -0.18785E+08         0.00000E+00
    0.00000E+00         0.00000E+00        -0.56554E+07
 
   -0.92528E+07        -0.22291E+06         0.00000E+00
   -0.22291E+06        -0.18791E+08         0.00000E+00
    0.00000E+00         0.00000E+00        -0.56087E+07
 
   -0.90092E+07        -0.83233E+05         0.00000E+00
   -0.83233E+05        -0.18805E+08         0.00000E+00
    0.00000E+00         0.00000E+00        -0.55628E+07
 
   -0.87603E+07         0.65172E+05         0.00000E+00
    0.65172E+05        -0.18827E+08         0.00000E+00
    0.00000E+00         0.00000E+00        -0.55175E+07
 
   -0.85053E+07         0.22368E+06         0.00000E+00
    0.22368E+06        -0.18859E+08         0.00000E+00
    0.00000E+00         0.00000E+00        -0.54728E+07
 
   -0.82440E+07         0.39391E+06         0.00000E+00
    0.39391E+06        -0.18900E+08         0.00000E+00
    0.00000E+00         0.00000E+00        -0.54288E+07
 
   -0.79760E+07         0.57775E+06         0.00000E+00
    0.57775E+06        -0.18951E+08         0.00000E+00
    0.00000E+00         0.00000E+00        -0.53854E+07
 
   -0.77014E+07         0.77741E+06         0.00000E+00
    0.77741E+06        -0.19012E+08         0.00000E+00
    0.00000E+00         0.00000E+00        -0.53427E+07
 
   -0.74204E+07         0.99546E+06         0.00000E+00
    0.99546E+06        -0.19084E+08         0.00000E+00
    0.00000E+00         0.00000E+00        -0.53008E+07
 
   -0.71342E+07         0.12349E+07         0.00000E+00
    0.12349E+07        -0.19165E+08         0.00000E+00
    0.00000E+00         0.00000E+00        -0.52599E+07
 
   -0.68441E+07         0.14991E+07         0.00000E+00
    0.14991E+07        -0.19258E+08         0.00000E+00
    0.00000E+00         0.00000E+00        -0.52203E+07
 
   -0.65528E+07         0.17919E+07         0.00000E+00
    0.17919E+07        -0.19359E+08         0.00000E+00
    0.00000E+00         0.00000E+00        -0.51824E+07
 
   -0.62641E+07         0.21174E+07         0.00000E+00
    0.21174E+07        -0.19469E+08         0.00000E+00
    0.00000E+00         0.00000E+00        -0.51466E+07
 
   -0.59836E+07         0.24798E+07         0.00000E+00
    0.24798E+07        -0.19585E+08         0.00000E+00
    0.00000E+00         0.00000E+00        -0.51137E+07
 
   -0.57186E+07         0.28829E+07         0.00000E+00
    0.28829E+07        -0.19703E+08         0.00000E+00
    0.00000E+00         0.00000E+00        -0.50843E+07
 
   -0.54780E+07         0.33288E+07         0.00000E+00
    0.33288E+07        -0.19817E+08         0.00000E+00
    0.00000E+00         0.00000E+00        -0.50591E+07
 
   -0.52693E+07         0.38156E+07         0.00000E+00
    0.38156E+07        -0.19920E+08         0.00000E+00
    0.00000E+00         0.00000E+00        -0.50378E+07
 
   -0.50898E+07         0.43336E+07         0.00000E+00
    0.43336E+07        -0.19995E+08         0.00000E+00
    0.00000E+00         0.00000E+00        -0.50170E+07
 
   -0.25510E+08        -0.36396E+06         0.00000E+00
   -0.36396E+06        -0.23228E+08         0.00000E+00
    0.00000E+00         0.00000E+00        -0.97476E+07
 
   -0.24751E+08        -0.86731E+06         0.00000E+00
   -0.86731E+06        -0.23316E+08         0.00000E+00
    0.00000E+00         0.00000E+00        -0.96134E+07
 
   -0.23937E+08        -0.12147E+07         0.00000E+00
   -0.12147E+07        -0.23355E+08         0.00000E+00
    0.00000E+00         0.00000E+00        -0.94584E+07
 
   -0.23137E+08        -0.14487E+07         0.00000E+00
   -0.14487E+07        -0.23352E+08         0.00000E+00
    0.00000E+00         0.00000E+00        -0.92978E+07
 
   -0.22381E+08        -0.16008E+07         0.00000E+00
   -0.16008E+07        -0.23312E+08         0.00000E+00
    0.00000E+00         0.00000E+00        -0.91384E+07
 
   -0.21677E+08        -0.16938E+07         0.00000E+00
   -0.16938E+07        -0.23242E+08         0.00000E+00
    0.00000E+00         0.00000E+00        -0.89838E+07
 
   -0.21028E+08        -0.17441E+07         0.00000E+00
   -0.17441E+07        -0.23149E+08         0.00000E+00
    0.00000E+00         0.00000E+00        -0.88354E+07
 
   -0.20431E+08        -0.17633E+07         0.00000E+00
   -0.17633E+07        -0.23038E+08         0.00000E+00
    0.00000E+00         0.00000E+00        -0.86938E+07
 
   -0.19882E+08        -0.17600E+07         0.00000E+00
   -0.17600E+07        -0.22913E+08         0.00000E+00
    0.00000E+00         0.00000E+00        -0.85590E+07
 
   -0.19376E+08        -0.17400E+07         0.00000E+00
   -0.17400E+07        -0.22779E+08         0.00000E+00
    0.00000E+00         0.00000E+00        -0.84310E+07
 
   -0.18909E+08        -0.17080E+07         0.00000E+00
   -0.17080E+07        -0.22637E+08         0.00000E+00
    0.00000E+00         0.00000E+00        -0.83093E+07
 
   -0.18477E+08        -0.16670E+07         0.00000E+00
   -0.16670E+07        -0.22491E+08         0.00000E+00
    0.00000E+00         0.00000E+00        -0.81937E+07
 
   -0.18075E+08        -0.16195E+07         0.00000E+00
   -0.16195E+07        -0.22344E+08         0.00000E+00
    0.00000E+00         0.00000E+00        -0.80837E+07
 
   -0.17700E+08        -0.15672E+07         0.00000E+00
   -0.15672E+07        -0.22195E+08         0.00000E+00
    0.00000E+00         0.00000E+00        -0.79790E+07
 
   -0.17348E+08        -0.15114E+07         0.00000E+00
   -0.15114E+07        -0.22048E+08         0.00000E+00
    0.00000E+00         0.00000E+00        -0.78792E+07
 
   -0.17017E+08        -0.14531E+07         0.00000E+00
   -0.14531E+07        -0.21902E+08         0.00000E+00
    0.00000E+00         0.00000E+00        -0.77840E+07
 
   -0.16704E+08        -0.13929E+07         0.00000E+00
   -0.13929E+07        -0.21760E+08         0.00000E+00
    0.00000E+00         0.00000E+00        -0.76929E+07
 
   -0.16407E+08        -0.13313E+07         0.00000E+00
   -0.13313E+07        -0.21622E+08         0.00000E+00
    0.00000E+00         0.00000E+00        -0.76058E+07
 
   -0.16123E+08        -0.12687E+07         0.00000E+00
   -0.12687E+07        -0.21488E+08         0.00000E+00
    0.00000E+00         0.00000E+00        -0.75222E+07
 
   -0.15850E+08        -0.12053E+07         0.00000E+00
   -0.12053E+07        -0.21359E+08         0.00000E+00
    0.00000E+00         0.00000E+00        -0.74419E+07
 
   -0.15587E+08        -0.11413E+07         0.00000E+00
   -0.11413E+07        -0.21236E+08         0.00000E+00
    0.00000E+00         0.00000E+00        -0.73646E+07
 
   -0.15332E+08        -0.10768E+07         0.00000E+00
   -0.10768E+07        -0.21119E+08         0.00000E+00
    0.00000E+00         0.00000E+00        -0.72900E+07
 
   -0.15083E+08        -0.10117E+07         0.00000E+00
   -0.10117E+07        -0.21008E+08         0.00000E+00
    0.00000E+00         0.00000E+00        -0.72180E+07
 
   -0.14838E+08        -0.94596E+06         0.00000E+00
   -0.94596E+06        -0.20903E+08         0.00000E+00
    0.00000E+00         0.00000E+00        -0.71483E+07
 
   -0.14598E+08        -0.87956E+06         0.00000E+00
   -0.87956E+06        -0.20806E+08         0.00000E+00
    0.00000E+00         0.00000E+00        -0.70807E+07
 
   -0.14359E+08        -0.81232E+06         0.00000E+00
   -0.81232E+06        -0.20715E+08         0.00000E+00
    0.00000E+00         0.00000E+00        -0.70149E+07
 
   -0.14121E+08        -0.74406E+06         0.00000E+00
   -0.74406E+06        -0.20633E+08         0.00000E+00
    0.00000E+00         0.00000E+00        -0.69508E+07
 
   -0.13883E+08        -0.67455E+06         0.00000E+00
   -0.67455E+06        -0.20558E+08         0.00000E+00
    0.00000E+00         0.00000E+00        -0.68882E+07
 
   -0.13643E+08        -0.60351E+06         0.00000E+00
   -0.60351E+06        -0.20491E+08         0.00000E+00
    0.00000E+00         0.00000E+00        -0.68268E+07
 
   -0.13400E+08        -0.53059E+06         0.00000E+00
   -0.53059E+06        -0.20433E+08         0.00000E+00
    0.00000E+00         0.00000E+00        -0.67666E+07
 
   -0.13153E+08        -0.45541E+06         0.00000E+00
   -0.45541E+06        -0.20383E+08         0.00000E+00
    0.00000E+00         0.00000E+00        -0.67073E+07
 
   -0.12901E+08        -0.37748E+06         0.00000E+00
   -0.37748E+06        -0.20343E+08         0.00000E+00
    0.00000E+00         0.00000E+00        -0.66487E+07
 
   -0.12641E+08        -0.29625E+06         0.00000E+00
   -0.29625E+06        -0.20312E+08         0.00000E+00
    0.00000E+00         0.00000E+00        -0.65907E+07
 
   -0.12373E+08        -0.21105E+06         0.00000E+00
   -0.21105E+06        -0.20292E+08         0.00000E+00
    0.00000E+00         0.00000E+00        -0.65330E+07
 
   -0.12095E+08        -0.12108E+06         0.00000E+00
   -0.12108E+06        -0.20283E+08         0.00000E+00
    0.00000E+00         0.00000E+00        -0.64756E+07
 
   -0.11806E+08        -0.25382E+05         0.00000E+00
   -0.25382E+05        -0.20285E+08         0.00000E+00
    0.00000E+00         0.00000E+00        -0.64182E+07
 
   -0.11504E+08         0.77190E+05         0.00000E+00
    0.77190E+05        -0.20299E+08         0.00000E+00
    0.00000E+00         0.00000E+00        -0.63606E+07
 
   -0.11187E+08         0.18805E+06         0.00000E+00
    0.18805E+06        -0.20326E+08         0.00000E+00
    0.00000E+00         0.00000E+00        -0.63026E+07
 
   -0.10853E+08         0.30891E+06         0.00000E+00
    0.30891E+06        -0.20367E+08         0.00000E+00
    0.00000E+00         0.00000E+00        -0.62440E+07
 
   -0.10500E+08         0.44192E+06         0.00000E+00
    0.44192E+06        -0.20424E+08         0.00000E+00
    0.00000E+00         0.00000E+00        -0.61847E+07
 
   -0.10125E+08         0.58975E+06         0.00000E+00
    0.58975E+06        -0.20497E+08         0.00000E+00
    0.00000E+00         0.00000E+00        -0.61244E+07
 
   -0.97277E+07         0.75576E+06         0.00000E+00
    0.75576E+06        -0.20588E+08         0.00000E+00
    0.00000E+00         0.00000E+00        -0.60631E+07
 
   -0.93042E+07         0.94425E+06         0.00000E+00
    0.94425E+06        -0.20698E+08         0.00000E+00
    0.00000E+00         0.00000E+00        -0.60005E+07
 
   -0.88531E+07         0.11607E+07         0.00000E+00
    0.11607E+07        -0.20830E+08         0.00000E+00
    0.00000E+00         0.00000E+00        -0.59366E+07
 
   -0.83732E+07         0.14124E+07         0.00000E+00
    0.14124E+07        -0.20985E+08         0.00000E+00
    0.00000E+00         0.00000E+00        -0.58716E+07
 
   -0.78648E+07         0.17088E+07         0.00000E+00
    0.17088E+07        -0.21164E+08         0.00000E+00
    0.00000E+00         0.00000E+00        -0.58059E+07
 
   -0.73319E+07         0.20622E+07         0.00000E+00
    0.20622E+07        -0.21370E+08         0.00000E+00
    0.00000E+00         0.00000E+00        -0.57404E+07
 
   -0.67850E+07         0.24894E+07         0.00000E+00
    0.24894E+07        -0.21603E+08         0.00000E+00
    0.00000E+00         0.00000E+00        -0.56776E+07
 
   -0.62493E+07         0.30122E+07         0.00000E+00
    0.30122E+07        -0.21862E+08         0.00000E+00
    0.00000E+00         0.00000E+00        -0.56223E+07
 
   -0.57805E+07         0.36581E+07         0.00000E+00
    0.36581E+07        -0.22144E+08         0.00000E+00
    0.00000E+00         0.00000E+00        -0.55848E+07
 
   -0.32474E+08        -0.58253E+06         0.00000E+00
   -0.58253E+06        -0.27722E+08         0.00000E+00
    0.00000E+00         0.00000E+00        -0.12039E+08
 
   -0.30723E+08        -0.73700E+06         0.00000E+00
   -0.73700E+06        -0.27527E+08         0.00000E+00
    0.00000E+00         0.00000E+00        -0.11650E+08
 
   -0.29299E+08        -0.80523E+06         0.00000E+00
   -0.80523E+06        -0.27287E+08         0.00000E+00
    0.00000E+00         0.00000E+00        -0.11317E+08
 
   -0.28109E+08        -0.82859E+06         0.00000E+00
   -0.82859E+06        -0.27022E+08         0.00000E+00
    0.00000E+00         0.00000E+00        -0.11026E+08
 
   -0.27096E+08        -0.82794E+06         0.00000E+00
   -0.82794E+06        -0.26742E+08         0.00000E+00
    0.00000E+00         0.00000E+00        -0.10768E+08
 
   -0.26220E+08        -0.81420E+06         0.00000E+00
   -0.81420E+06        -0.26457E+08         0.00000E+00
    0.00000E+00         0.00000E+00        -0.10536E+08
 
   -0.25453E+08        -0.79324E+06         0.00000E+00
   -0.79324E+06        -0.26172E+08         0.00000E+00
    0.00000E+00         0.00000E+00        -0.10325E+08
 
   -0.24774E+08        -0.76835E+06         0.00000E+00
   -0.76835E+06        -0.25889E+08         0.00000E+00
    0.00000E+00         0.00000E+00        -0.10133E+08
 
   -0.24168E+08        -0.74137E+06         0.00000E+00
   -0.74137E+06        -0.25611E+08         0.00000E+00
    0.00000E+00         0.00000E+00        -0.99558E+07
 
   -0.23622E+08        -0.71338E+06         0.00000E+00
   -0.71338E+06        -0.25341E+08         0.00000E+00
    0.00000E+00         0.00000E+00        -0.97925E+07
 
   -0.23126E+08        -0.68503E+06         0.00000E+00
   -0.68503E+06        -0.25079E+08         0.00000E+00
    0.00000E+00         0.00000E+00        -0.96410E+07
 
   -0.22674E+08        -0.65669E+06         0.00000E+00
   -0.65669E+06        -0.24825E+08         0.00000E+00
    0.00000E+00         0.00000E+00        -0.94998E+07
 
   -0.22257E+08        -0.62857E+06         0.00000E+00
   -0.62857E+06        -0.24581E+08         0.00000E+00
    0.00000E+00         0.00000E+00        -0.93677E+07
 
   -0.21872E+08        -0.60081E+06         0.00000E+00
   -0.60081E+06        -0.24346E+08         0.00000E+00
    0.00000E+00         0.00000E+00        -0.92437E+07
 
   -0.21514E+08        -0.57348E+06         0.00000E+00
   -0.57348E+06        -0.24121E+08         0.00000E+00
    0.00000E+00         0.00000E+00        -0.91270E+07
 
   -0.21178E+08        -0.54659E+06         0.00000E+00
   -0.54659E+06        -0.23905E+08         0.00000E+00
    0.00000E+00         0.00000E+00        -0.90168E+07
 
   -0.20862E+08        -0.52015E+06         0.00000E+00
   -0.52015E+06        -0.23700E+08         0.00000E+00
    0.00000E+00         0.00000E+00        -0.89124E+07
 
   -0.20563E+08        -0.49414E+06         0.00000E+00
   -0.49414E+06        -0.23503E+08         0.00000E+00
    0.00000E+00         0.00000E+00        -0.88133E+07
 
   -0.20277E+08        -0.46854E+06         0.00000E+00
   -0.46854E+06        -0.23317E+08         0.00000E+00
    0.00000E+00         0.00000E+00        -0.87189E+07
 
   -0.20004E+08        -0.44330E+06         0.00000E+00
   -0.44330E+06        -0.23140E+08         0.00000E+00
    0.00000E+00         0.00000E+00        -0.86287E+07
 
   -0.19740E+08        -0.41838E+06         0.00000E+00
   -0.41838E+06        -0.22972E+08         0.00000E+00
    0.00000E+00         0.00000E+00        -0.85424E+07
 
   -0.19484E+08        -0.39371E+06         0.00000E+00
   -0.39371E+06        -0.22814E+08         0.00000E+00
    0.00000E+00         0.00000E+00        -0.84596E+07
 
   -0.19234E+08        -0.36925E+06         0.00000E+00
   -0.36925E+06        -0.22666E+08         0.00000E+00
    0.00000E+00         0.00000E+00        -0.83798E+07
 
   -0.18988E+08        -0.34491E+06         0.00000E+00
   -0.34491E+06        -0.22526E+08         0.00000E+00
    0.00000E+00         0.00000E+00        -0.83029E+07
 
   -0.18745E+08        -0.32063E+06         0.00000E+00
   -0.32063E+06        -0.22397E+08         0.00000E+00
    0.00000E+00         0.00000E+00        -0.82284E+07
 
   -0.18504E+08        -0.29632E+06         0.00000E+00
   -0.29632E+06        -0.22276E+08         0.00000E+00
    0.00000E+00         0.00000E+00        -0.81561E+07
 
   -0.18263E+08        -0.27189E+06         0.00000E+00
   -0.27189E+06        -0.22166E+08         0.00000E+00
    0.00000E+00         0.00000E+00        -0.80857E+07
 
   -0.18021E+08        -0.24723E+06         0.00000E+00
   -0.24723E+06        -0.22064E+08         0.00000E+00
    0.00000E+00         0.00000E+00        -0.80170E+07
 
   -0.17775E+08        -0.22222E+06         0.00000E+00
   -0.22222E+06        -0.21973E+08         0.00000E+00
    0.00000E+00         0.00000E+00        -0.79497E+07
 
   -0.17526E+08        -0.19674E+06         0.00000E+00
   -0.19674E+06        -0.21891E+08         0.00000E+00
    0.00000E+00         0.00000E+00        -0.78834E+07
 
   -0.17270E+08        -0.17062E+06         0.00000E+00
   -0.17062E+06        -0.21820E+08         0.00000E+00
    0.00000E+00         0.00000E+00        -0.78181E+07
 
   -0.17008E+08        -0.14369E+06         0.00000E+00
   -0.14369E+06        -0.21759E+08         0.00000E+00
    0.00000E+00         0.00000E+00        -0.77534E+07
 
   -0.16736E+08        -0.11573E+06         0.00000E+00
   -0.11573E+06        -0.21709E+08         0.00000E+00
    0.00000E+00         0.00000E+00        -0.76890E+07
 
   -0.16453E+08        -0.86514E+05         0.00000E+00
   -0.86514E+05        -0.21670E+08         0.00000E+00
    0.00000E+00         0.00000E+00        -0.76247E+07
 
   -0.16158E+08        -0.55732E+05         0.00000E+00
   -0.55732E+05        -0.21644E+08         0.00000E+00
    0.00000E+00         0.00000E+00        -0.75602E+07
 
   -0.15847E+08        -0.23030E+05         0.00000E+00
   -0.23030E+05        -0.21629E+08         0.00000E+00
    0.00000E+00         0.00000E+00        -0.74952E+07
 
   -0.15518E+08         0.12029E+05         0.00000E+00
    0.12029E+05        -0.21628E+08         0.00000E+00
    0.00000E+00         0.00000E+00        -0.74293E+07
 
   -0.15169E+08         0.49990E+05         0.00000E+00
    0.49990E+05        -0.21642E+08         0.00000E+00
    0.00000E+00         0.00000E+00        -0.73621E+07
 
   -0.14796E+08         0.91535E+05         0.00000E+00
    0.91535E+05        -0.21671E+08         0.00000E+00
    0.00000E+00         0.00000E+00        -0.72933E+07
 
   -0.14395E+08         0.13754E+06         0.00000E+00
    0.13754E+06        -0.21717E+08         0.00000E+00
    0.00000E+00         0.00000E+00        -0.72223E+07
 
   -0.13961E+08         0.18913E+06         0.00000E+00
    0.18913E+06        -0.21782E+08         0.00000E+00
    0.00000E+00         0.00000E+00        -0.71486E+07
 
   -0.13488E+08         0.24782E+06         0.00000E+00
    0.24782E+06        -0.21869E+08         0.00000E+00
    0.00000E+00         0.00000E+00        -0.70715E+07
 
   -0.12970E+08         0.31562E+06         0.00000E+00
    0.31562E+06        -0.21980E+08         0.00000E+00
    0.00000E+00         0.00000E+00        -0.69901E+07
 
   -0.12398E+08         0.39534E+06         0.00000E+00
    0.39534E+06        -0.22120E+08         0.00000E+00
    0.00000E+00         0.00000E+00        -0.69035E+07
 
   -0.11760E+08         0.49097E+06         0.00000E+00
    0.49097E+06        -0.22292E+08         0.00000E+00
    0.00000E+00         0.00000E+00        -0.68103E+07
 
   -0.11041E+08         0.60835E+06         0.00000E+00
    0.60835E+06        -0.22503E+08         0.00000E+00
    0.00000E+00         0.00000E+00        -0.67088E+07
 
   -0.10222E+08         0.75636E+06         0.00000E+00
    0.75636E+06        -0.22762E+08         0.00000E+00
    0.00000E+00         0.00000E+00        -0.65967E+07
 
   -0.92734E+07         0.94917E+06         0.00000E+00
    0.94917E+06        -0.23079E+08         0.00000E+00
    0.00000E+00         0.00000E+00        -0.64705E+07
 
   -0.81548E+07         0.12104E+07         0.00000E+00
    0.12104E+07        -0.23470E+08         0.00000E+00
    0.00000E+00         0.00000E+00        -0.63250E+07
 
   -0.68015E+07         0.15818E+07         0.00000E+00
    0.15818E+07        -0.23956E+08         0.00000E+00
    0.00000E+00         0.00000E+00        -0.61515E+07
 
TENSORS stresstot double 
   -0.47732E+08        -0.41331E+06         0.00000E+00
   -0.41331E+06        -0.50007E+08         0.00000E+00
    0.00000E+00         0.00000E+00        -0.57728E+08
 
   -0.48477E+08        -0.45681E+06         0.00000E+00
   -0.45681E+06        -0.50116E+08         0.00000E+00
    0.00000E+00         0.00000E+00        -0.58523E+08
 
   -0.49151E+08        -0.47487E+06         0.00000E+00
   -0.47487E+06        -0.50242E+08         0.00000E+00
    0.00000E+00         0.00000E+00        -0.59221E+08
 
   -0.49757E+08        -0.48025E+06         0.00000E+00
   -0.48025E+06        -0.50379E+08         0.00000E+00
    0.00000E+00         0.00000E+00        -0.59837E+08
 
   -0.50298E+08        -0.48065E+06         0.00000E+00
   -0.48065E+06        -0.50524E+08         0.00000E+00
    0.00000E+00         0.00000E+00        -0.60385E+08
 
   -0.50779E+08        -0.48162E+06         0.00000E+00
   -0.48162E+06        -0.50674E+08         0.00000E+00
    0.00000E+00         0.00000E+00        -0.60875E+08
 
   -0.51219E+08        -0.48787E+06         0.00000E+00
   -0.48787E+06        -0.50837E+08         0.00000E+00
    0.00000E+00         0.00000E+00        -0.61292E+08
 
   -0.51670E+08        -0.49796E+06         0.00000E+00
   -0.49796E+06        -0.51032E+08         0.00000E+00
    0.00000E+00         0.00000E+00        -0.61573E+08
 
   -0.52123E+08        -0.49665E+06         0.00000E+00
   -0.49665E+06        -0.51219E+08         0.00000E+00
    0.00000E+00         0.00000E+00        -0.61718E+08
 
   -0.52527E+08        -0.48662E+06         0.00000E+00
   -0.48662E+06        -0.51403E+08         0.00000E+00
    0.00000E+00         0.00000E+00        -0.61835E+08
 
   -0.52887E+08        -0.47205E+06         0.00000E+00
   -0.47205E+06        -0.51583E+08         0.00000E+00
    0.00000E+00         0.00000E+00        -0.61943E+08
 
   -0.53211E+08        -0.45501E+06         0.00000E+00
   -0.45501E+06        -0.51757E+08         0.00000E+00
    0.00000E+00         0.00000E+00        -0.62043E+08
 
   -0.53506E+08        -0.43668E+06         0.00000E+00
   -0.43668E+06        -0.51926E+08         0.00000E+00
    0.00000E+00         0.00000E+00        -0.62136E+08
 
   -0.53776E+08        -0.41779E+06         0.00000E+00
   -0.41779E+06        -0.52089E+08         0.00000E+00
    0.00000E+00         0.00000E+00        -0.62222E+08
 
   -0.54025E+08        -0.39873E+06         0.00000E+00
   -0.39873E+06        -0.52245E+08         0.00000E+00
    0.00000E+00         0.00000E+00        -0.62303E+08
 
   -0.54257E+08        -0.37976E+06         0.00000E+00
   -0.37976E+06        -0.52394E+08         0.00000E+00
    0.00000E+00         0.00000E+00        -0.62380E+08
 
   -0.54474E+08        -0.36101E+06         0.00000E+00
   -0.36101E+06        -0.52537E+08         0.00000E+00
    0.00000E+00         0.00000E+00        -0.62452E+08
 
   -0.54680E+08        -0.34253E+06         0.00000E+00
   -0.34253E+06        -0.52672E+08         0.00000E+00
    0.00000E+00         0.00000E+00        -0.62520E+08
 
   -0.54874E+08        -0.32436E+06         0.00000E+00
   -0.32436E+06        -0.52801E+08         0.00000E+00
    0.00000E+00         0.00000E+00        -0.62584E+08
 
   -0.55060E+08        -0.30649E+06         0.00000E+00
   -0.30649E+06        -0.52923E+08         0.00000E+00
    0.00000E+00         0.00000E+00        -0.62646E+08
 
   -0.55239E+08        -0.28891E+06         0.00000E+00
   -0.28891E+06        -0.53039E+08         0.00000E+00
    0.00000E+00         0.00000E+00        -0.62705E+08
 
   -0.55413E+08        -0.27158E+06         0.00000E+00
   -0.27158E+06        -0.53147E+08         0.00000E+00
    0.00000E+00         0.00000E+00        -0.62761E+08
 
   -0.55581E+08        -0.25445E+06         0.00000E+00
   -0.25445E+06        -0.53250E+08         0.00000E+00
    0.00000E+00         0.00000E+00        -0.62816E+08
 
   -0.55747E+08        -0.23748E+06         0.00000E+00
   -0.23748E+06        -0.53345E+08         0.00000E+00
    0.00000E+00         0.00000E+00        -0.62868E+08
 
   -0.55910E+08        -0.22062E+06         0.00000E+00
   -0.22062E+06        -0.53434E+08         0.00000E+00
    0.00000E+00         0.00000E+00        -0.62918E+08
 
   -0.56072E+08        -0.20380E+06         0.00000E+00
   -0.20380E+06        -0.53517E+08         0.00000E+00
    0.00000E+00         0.00000E+00        -0.62967E+08
 
   -0.56234E+08        -0.18695E+06         0.00000E+00
   -0.18695E+06        -0.53593E+08         0.00000E+00
    0.00000E+00         0.00000E+00        -0.63015E+08
 
   -0.56397E+08        -0.17000E+06         0.00000E+00
   -0.17000E+06        -0.53663E+08         0.00000E+00
    0.00000E+00         0.00000E+00        -0.63061E+08
 
   -0.56561E+08        -0.15287E+06         0.00000E+00
   -0.15287E+06        -0.53725E+08         0.00000E+00
    0.00000E+00         0.00000E+00        -0.63107E+08
 
   -0.56728E+08        -0.13546E+06         0.00000E+00
   -0.13546E+06        -0.53781E+08         0.00000E+00
    0.00000E+00         0.00000E+00        -0.63151E+08
 
   -0.56899E+08        -0.11766E+06         0.00000E+00
   -0.11766E+06        -0.53831E+08         0.00000E+00
    0.00000E+00         0.00000E+00        -0.63195E+08
 
   -0.57075E+08        -0.99363E+05         0.00000E+00
   -0.99363E+05        -0.53873E+08         0.00000E+00
    0.00000E+00         0.00000E+00        -0.63239E+08
 
   -0.57256E+08        -0.80413E+05         0.00000E+00
   -0.80413E+05        -0.53907E+08         0.00000E+00
    0.00000E+00         0.00000E+00        -0.63282E+08
 
   -0.57445E+08        -0.60646E+05         0.00000E+00
   -0.60646E+05        -0.53934E+08         0.00000E+00
    0.00000E+00         0.00000E+00        -0.63325E+08
 
   -0.57642E+08        -0.39862E+05         0.00000E+00
   -0.39862E+05        -0.53953E+08         0.00000E+00
    0.00000E+00         0.00000E+00        -0.63369E+08
 
   -0.57850E+08        -0.17823E+05         0.00000E+00
   -0.17823E+05        -0.53964E+08         0.00000E+00
    0.00000E+00         0.00000E+00        -0.63412E+08
 
   -0.58069E+08         0.57670E+04         0.00000E+00
    0.57670E+04        -0.53965E+08         0.00000E+00
    0.00000E+00         0.00000E+00        -0.63456E+08
 
   -0.58302E+08         0.31271E+05         0.00000E+00
    0.31271E+05        -0.53957E+08         0.00000E+00
    0.00000E+00         0.00000E+00        -0.63501E+08
 
   -0.58551E+08         0.59145E+05         0.00000E+00
    0.59145E+05        -0.53939E+08         0.00000E+00
    0.00000E+00         0.00000E+00        -0.63547E+08
 
   -0.58818E+08         0.89973E+05         0.00000E+00
    0.89973E+05        -0.53908E+08         0.00000E+00
    0.00000E+00         0.00000E+00        -0.63595E+08
 
   -0.59107E+08         0.12451E+06         0.00000E+00
    0.12451E+06        -0.53865E+08         0.00000E+00
    0.00000E+00         0.00000E+00        -0.63644E+08
 
   -0.59422E+08         0.16376E+06         0.00000E+00
    0.16376E+06        -0.53808E+08         0.00000E+00
    0.00000E+00         0.00000E+00        -0.63695E+08
 
   -0.59767E+08         0.20907E+06         0.00000E+00
    0.20907E+06        -0.53735E+08         0.00000E+00
    0.00000E+00         0.00000E+00        -0.63750E+08
 
   -0.60148E+08         0.26231E+06         0.00000E+00
    0.26231E+06        -0.53642E+08         0.00000E+00
    0.00000E+00         0.00000E+00        -0.63808E+08
 
   -0.60573E+08         0.32614E+06         0.00000E+00
    0.32614E+06        -0.53528E+08         0.00000E+00
    0.00000E+00         0.00000E+00        -0.63870E+08
 
   -0.61052E+08         0.40445E+06         0.00000E+00
    0.40445E+06        -0.53387E+08         0.00000E+00
    0.00000E+00         0.00000E+00        -0.63937E+08
 
   -0.61598E+08         0.50316E+06         0.00000E+00
    0.50316E+06        -0.53215E+08         0.00000E+00
    0.00000E+00         0.00000E+00        -0.64012E+08
 
   -0.62229E+08         0.63171E+06         0.00000E+00
    0.63171E+06        -0.53004E+08         0.00000E+00
    0.00000E+00         0.00000E+00        -0.64096E+08
 
   -0.62974E+08         0.80585E+06         0.00000E+00
    0.80585E+06        -0.52744E+08         0.00000E+00
    0.00000E+00         0.00000E+00        -0.64193E+08
 
   -0.63876E+08         0.10534E+07         0.00000E+00
    0.10534E+07        -0.52421E+08         0.00000E+00
    0.00000E+00         0.00000E+00        -0.64309E+08
 
   -0.49081E+08        -0.14478E+06         0.00000E+00
   -0.14478E+06        -0.49922E+08         0.00000E+00
    0.00000E+00         0.00000E+00        -0.59100E+08
 
   -0.49373E+08        -0.45584E+06         0.00000E+00
   -0.45584E+06        -0.49860E+08         0.00000E+00
    0.00000E+00         0.00000E+00        -0.59145E+08
 
   -0.49758E+08        -0.68290E+06         0.00000E+00
   -0.68290E+06        -0.49845E+08         0.00000E+00
    0.00000E+00         0.00000E+00        -0.59220E+08
 
   -0.50177E+08        -0.84732E+06         0.00000E+00
   -0.84732E+06        -0.49867E+08         0.00000E+00
    0.00000E+00         0.00000E+00        -0.59308E+08
 
   -0.50599E+08        -0.96609E+06         0.00000E+00
   -0.96609E+06        -0.49919E+08         0.00000E+00
    0.00000E+00         0.00000E+00        -0.59402E+08
 
   -0.51012E+08        -0.10525E+07         0.00000E+00
   -0.10525E+07        -0.49993E+08         0.00000E+00
    0.00000E+00         0.00000E+00        -0.59500E+08
 
   -0.51411E+08        -0.11159E+07         0.00000E+00
   -0.11159E+07        -0.50073E+08         0.00000E+00
    0.00000E+00         0.00000E+00        -0.59596E+08
 
   -0.51788E+08        -0.11562E+07         0.00000E+00
   -0.11562E+07        -0.50129E+08         0.00000E+00
    0.00000E+00         0.00000E+00        -0.59682E+08
 
   -0.52150E+08        -0.11738E+07         0.00000E+00
   -0.11738E+07        -0.50205E+08         0.00000E+00
    0.00000E+00         0.00000E+00        -0.59770E+08
 
   -0.52491E+08        -0.11733E+07         0.00000E+00
   -0.11733E+07        -0.50289E+08         0.00000E+00
    0.00000E+00         0.00000E+00        -0.59855E+08
 
   -0.52810E+08        -0.11599E+07         0.00000E+00
   -0.11599E+07        -0.50379E+08         0.00000E+00
    0.00000E+00         0.00000E+00        -0.59937E+08
 
   -0.53106E+08        -0.11372E+07         0.00000E+00
   -0.11372E+07        -0.50472E+08         0.00000E+00
    0.00000E+00         0.00000E+00        -0.60015E+08
 
   -0.53383E+08        -0.11080E+07         0.00000E+00
   -0.11080E+07        -0.50568E+08         0.00000E+00
    0.00000E+00         0.00000E+00        -0.60089E+08
 
   -0.53641E+08        -0.10740E+07         0.00000E+00
   -0.10740E+07        -0.50665E+08         0.00000E+00
    0.00000E+00         0.00000E+00        -0.60160E+08
 
   -0.53882E+08        -0.10368E+07         0.00000E+00
   -0.10368E+07        -0.50762E+08         0.00000E+00
    0.00000E+00         0.00000E+00        -0.60228E+08
 
   -0.54109E+08        -0.99714E+06         0.00000E+00
   -0.99714E+06        -0.50858E+08         0.00000E+00
    0.00000E+00         0.00000E+00        -0.60292E+08
 
   -0.54323E+08        -0.95586E+06         0.00000E+00
   -0.95586E+06        -0.50952E+08         0.00000E+00
    0.00000E+00         0.00000E+00        -0.60354E+08
 
   -0.54526E+08        -0.91345E+06         0.00000E+00
   -0.91345E+06        -0.51044E+08         0.00000E+00
    0.00000E+00         0.00000E+00        -0.60413E+08
 
   -0.54720E+08        -0.87023E+06         0.00000E+00
   -0.87023E+06        -0.51134E+08         0.00000E+00
    0.00000E+00         0.00000E+00        -0.60470E+08
 
   -0.54905E+08        -0.82645E+06         0.00000E+00
   -0.82645E+06        -0.51220E+08         0.00000E+00
    0.00000E+00         0.00000E+00        -0.60524E+08
 
   -0.55084E+08        -0.78226E+06         0.00000E+00
   -0.78226E+06        -0.51303E+08         0.00000E+00
    0.00000E+00         0.00000E+00        -0.60576E+08
 
   -0.55257E+08        -0.73772E+06         0.00000E+00
   -0.73772E+06        -0.51382E+08         0.00000E+00
    0.00000E+00         0.00000E+00        -0.60627E+08
 
   -0.55426E+08        -0.69288E+06         0.00000E+00
   -0.69288E+06        -0.51457E+08         0.00000E+00
    0.00000E+00         0.00000E+00        -0.60675E+08
 
   -0.55591E+08        -0.64771E+06         0.00000E+00
   -0.64771E+06        -0.51527E+08         0.00000E+00
    0.00000E+00         0.00000E+00        -0.60722E+08
 
   -0.55753E+08        -0.60215E+06         0.00000E+00
   -0.60215E+06        -0.51593E+08         0.00000E+00
    0.00000E+00         0.00000E+00        -0.60768E+08
 
   -0.55914E+08        -0.55611E+06         0.00000E+00
   -0.55611E+06        -0.51654E+08         0.00000E+00
    0.00000E+00         0.00000E+00        -0.60812E+08
 
   -0.56074E+08        -0.50947E+06         0.00000E+00
   -0.50947E+06        -0.51710E+08         0.00000E+00
    0.00000E+00         0.00000E+00        -0.60856E+08
 
   -0.56234E+08        -0.46208E+06         0.00000E+00
   -0.46208E+06        -0.51761E+08         0.00000E+00
    0.00000E+00         0.00000E+00        -0.60898E+08
 
   -0.56395E+08        -0.41374E+06         0.00000E+00
   -0.41374E+06        -0.51806E+08         0.00000E+00
    0.00000E+00         0.00000E+00        -0.60939E+08
 
   -0.56558E+08        -0.36422E+06         0.00000E+00
   -0.36422E+06        -0.51845E+08         0.00000E+00
    0.00000E+00         0.00000E+00        -0.60979E+08
 
   -0.56723E+08        -0.31326E+06         0.00000E+00
   -0.31326E+06        -0.51879E+08         0.00000E+00
    0.00000E+00         0.00000E+00        -0.61019E+08
 
   -0.56892E+08        -0.26052E+06         0.00000E+00
   -0.26052E+06        -0.51907E+08         0.00000E+00
    0.00000E+00         0.00000E+00        -0.61059E+08
 
   -0.57066E+08        -0.20565E+06         0.00000E+00
   -0.20565E+06        -0.51928E+08         0.00000E+00
    0.00000E+00         0.00000E+00        -0.61098E+08
 
   -0.57245E+08        -0.14818E+06         0.00000E+00
   -0.14818E+06        -0.51942E+08         0.00000E+00
    0.00000E+00         0.00000E+00        -0.61136E+08
 
   -0.57431E+08        -0.87582E+05         0.00000E+00
   -0.87582E+05        -0.51949E+08         0.00000E+00
    0.00000E+00         0.00000E+00        -0.61175E+08
 
   -0.57624E+08        -0.23219E+05         0.00000E+00
   -0.23219E+05        -0.51948E+08         0.00000E+00
    0.00000E+00         0.00000E+00        -0.61213E+08
 
   -0.57826E+08         0.45682E+05         0.00000E+00
    0.45682E+05        -0.51939E+08         0.00000E+00
    0.00000E+00         0.00000E+00        -0.61252E+08
 
   -0.58037E+08         0.12006E+06         0.00000E+00
    0.12006E+06        -0.51921E+08         0.00000E+00
    0.00000E+00         0.00000E+00        -0.61291E+08
 
   -0.58260E+08         0.20107E+06         0.00000E+00
    0.20107E+06        -0.51894E+08         0.00000E+00
    0.00000E+00         0.00000E+00        -0.61330E+08
 
   -0.58496E+08         0.29014E+06         0.00000E+00
    0.29014E+06        -0.51857E+08         0.00000E+00
    0.00000E+00         0.00000E+00        -0.61369E+08
 
   -0.58745E+08         0.38904E+06         0.00000E+00
    0.38904E+06        -0.51809E+08         0.00000E+00
    0.00000E+00         0.00000E+00        -0.61410E+08
 
   -0.59011E+08         0.50003E+06         0.00000E+00
    0.50003E+06        -0.51748E+08         0.00000E+00
    0.00000E+00         0.00000E+00        -0.61451E+08
 
   -0.59293E+08         0.62595E+06         0.00000E+00
    0.62595E+06        -0.51675E+08         0.00000E+00
    0.00000E+00         0.00000E+00        -0.61492E+08
 
   -0.59593E+08         0.77051E+06         0.00000E+00
    0.77051E+06        -0.51588E+08         0.00000E+00
    0.00000E+00         0.00000E+00        -0.61535E+08
 
   -0.59913E+08         0.93848E+06         0.00000E+00
    0.93848E+06        -0.51485E+08         0.00000E+00
    0.00000E+00         0.00000E+00        -0.61578E+08
 
   -0.60252E+08         0.11362E+07         0.00000E+00
    0.11362E+07        -0.51365E+08         0.00000E+00
    0.00000E+00         0.00000E+00        -0.61622E+08
 
   -0.60607E+08         0.13719E+07         0.00000E+00
    0.13719E+07        -0.51228E+08         0.00000E+00
    0.00000E+00         0.00000E+00        -0.61666E+08
 
   -0.60971E+08         0.16567E+07         0.00000E+00
    0.16567E+07        -0.51073E+08         0.00000E+00
    0.00000E+00         0.00000E+00        -0.61708E+08
 
   -0.61327E+08         0.20052E+07         0.00000E+00
    0.20052E+07        -0.50901E+08         0.00000E+00
    0.00000E+00         0.00000E+00        -0.61745E+08
 
   -0.61639E+08         0.24357E+07         0.00000E+00
    0.24357E+07        -0.50714E+08         0.00000E+00
    0.00000E+00         0.00000E+00        -0.61769E+08
 
   -0.50403E+08        -0.14555E+06         0.00000E+00
   -0.14555E+06        -0.50031E+08         0.00000E+00
    0.00000E+00         0.00000E+00        -0.57912E+08
 
   -0.50586E+08        -0.38305E+06         0.00000E+00
   -0.38305E+06        -0.50040E+08         0.00000E+00
    0.00000E+00         0.00000E+00        -0.57951E+08
 
   -0.50784E+08        -0.60840E+06         0.00000E+00
   -0.60840E+06        -0.50025E+08         0.00000E+00
    0.00000E+00         0.00000E+00        -0.57987E+08
 
   -0.51006E+08        -0.80691E+06         0.00000E+00
   -0.80691E+06        -0.50000E+08         0.00000E+00
    0.00000E+00         0.00000E+00        -0.58027E+08
 
   -0.51250E+08        -0.97330E+06         0.00000E+00
   -0.97330E+06        -0.49973E+08         0.00000E+00
    0.00000E+00         0.00000E+00        -0.58070E+08
 
   -0.51508E+08        -0.11068E+07         0.00000E+00
   -0.11068E+07        -0.49948E+08         0.00000E+00
    0.00000E+00         0.00000E+00        -0.58117E+08
 
   -0.51771E+08        -0.12090E+07         0.00000E+00
   -0.12090E+07        -0.49929E+08         0.00000E+00
    0.00000E+00         0.00000E+00        -0.58166E+08
 
   -0.52036E+08        -0.12855E+07         0.00000E+00
   -0.12855E+07        -0.49923E+08         0.00000E+00
    0.00000E+00         0.00000E+00        -0.58217E+08
 
   -0.52297E+08        -0.13408E+07         0.00000E+00
   -0.13408E+07        -0.49920E+08         0.00000E+00
    0.00000E+00         0.00000E+00        -0.58269E+08
 
   -0.52553E+08        -0.13767E+07         0.00000E+00
   -0.13767E+07        -0.49924E+08         0.00000E+00
    0.00000E+00         0.00000E+00        -0.58321E+08
 
   -0.52802E+08        -0.13954E+07         0.00000E+00
   -0.13954E+07        -0.49933E+08         0.00000E+00
    0.00000E+00         0.00000E+00        -0.58373E+08
 
   -0.53043E+08        -0.13995E+07         0.00000E+00
   -0.13995E+07        -0.49949E+08         0.00000E+00
    0.00000E+00         0.00000E+00        -0.58424E+08
 
   -0.53276E+08        -0.13913E+07         0.00000E+00
   -0.13913E+07        -0.49970E+08         0.00000E+00
    0.00000E+00         0.00000E+00        -0.58475E+08
 
   -0.53499E+08        -0.13729E+07         0.00000E+00
   -0.13729E+07        -0.49996E+08         0.00000E+00
    0.00000E+00         0.00000E+00        -0.58525E+08
 
   -0.53713E+08        -0.13462E+07         0.00000E+00
   -0.13462E+07        -0.50025E+08         0.00000E+00
    0.00000E+00         0.00000E+00        -0.58573E+08
 
   -0.53919E+08        -0.13126E+07         0.00000E+00
   -0.13126E+07        -0.50058E+08         0.00000E+00
    0.00000E+00         0.00000E+00        -0.58621E+08
 
   -0.54116E+08        -0.12732E+07         0.00000E+00
   -0.12732E+07        -0.50092E+08         0.00000E+00
    0.00000E+00         0.00000E+00        -0.58667E+08
 
   -0.54305E+08        -0.12292E+07         0.00000E+00
   -0.12292E+07        -0.50129E+08         0.00000E+00
    0.00000E+00         0.00000E+00        -0.58712E+08
 
   -0.54488E+08        -0.11811E+07         0.00000E+00
   -0.11811E+07        -0.50166E+08         0.00000E+00
    0.00000E+00         0.00000E+00        -0.58756E+08
 
   -0.54664E+08        -0.11298E+07         0.00000E+00
   -0.11298E+07        -0.50203E+08         0.00000E+00
    0.00000E+00         0.00000E+00        -0.58799E+08
 
   -0.54835E+08        -0.10756E+07         0.00000E+00
   -0.10756E+07        -0.50240E+08         0.00000E+00
    0.00000E+00         0.00000E+00        -0.58841E+08
 
   -0.55001E+08        -0.10189E+07         0.00000E+00
   -0.10189E+07        -0.50276E+08         0.00000E+00
    0.00000E+00         0.00000E+00        -0.58881E+08
 
   -0.55163E+08        -0.95995E+06         0.00000E+00
   -0.95995E+06        -0.50311E+08         0.00000E+00
    0.00000E+00         0.00000E+00        -0.58920E+08
 
   -0.55321E+08        -0.89889E+06         0.00000E+00
   -0.89889E+06        -0.50344E+08         0.00000E+00
    0.00000E+00         0.00000E+00        -0.58959E+08
 
   -0.55478E+08        -0.83582E+06         0.00000E+00
   -0.83582E+06        -0.50375E+08         0.00000E+00
    0.00000E+00         0.00000E+00        -0.58996E+08
 
   -0.55632E+08        -0.77074E+06         0.00000E+00
   -0.77074E+06        -0.50403E+08         0.00000E+00
    0.00000E+00         0.00000E+00        -0.59033E+08
 
   -0.55784E+08        -0.70359E+06         0.00000E+00
   -0.70359E+06        -0.50428E+08         0.00000E+00
    0.00000E+00         0.00000E+00        -0.59068E+08
 
   -0.55937E+08        -0.63425E+06         0.00000E+00
   -0.63425E+06        -0.50450E+08         0.00000E+00
    0.00000E+00         0.00000E+00        -0.59103E+08
 
   -0.56089E+08        -0.56254E+06         0.00000E+00
   -0.56254E+06        -0.50469E+08         0.00000E+00
    0.00000E+00         0.00000E+00        -0.59137E+08
 
   -0.56241E+08        -0.48821E+06         0.00000E+00
   -0.48821E+06        -0.50484E+08         0.00000E+00
    0.00000E+00         0.00000E+00        -0.59171E+08
 
   -0.56395E+08        -0.41095E+06         0.00000E+00
   -0.41095E+06        -0.50494E+08         0.00000E+00
    0.00000E+00         0.00000E+00        -0.59203E+08
 
   -0.56550E+08        -0.33037E+06         0.00000E+00
   -0.33037E+06        -0.50500E+08         0.00000E+00
    0.00000E+00         0.00000E+00        -0.59236E+08
 
   -0.56707E+08        -0.24600E+06         0.00000E+00
   -0.24600E+06        -0.50501E+08         0.00000E+00
    0.00000E+00         0.00000E+00        -0.59267E+08
 
   -0.56867E+08        -0.15729E+06         0.00000E+00
   -0.15729E+06        -0.50497E+08         0.00000E+00
    0.00000E+00         0.00000E+00        -0.59298E+08
 
   -0.57030E+08        -0.63568E+05         0.00000E+00
   -0.63568E+05        -0.50488E+08         0.00000E+00
    0.00000E+00         0.00000E+00        -0.59329E+08
 
   -0.57196E+08         0.35940E+05         0.00000E+00
    0.35940E+05        -0.50473E+08         0.00000E+00
    0.00000E+00         0.00000E+00        -0.59360E+08
 
   -0.57367E+08         0.14215E+06         0.00000E+00
    0.14215E+06        -0.50452E+08         0.00000E+00
    0.00000E+00         0.00000E+00        -0.59389E+08
 
   -0.57542E+08         0.25614E+06         0.00000E+00
    0.25614E+06        -0.50424E+08         0.00000E+00
    0.00000E+00         0.00000E+00        -0.59419E+08
 
   -0.57721E+08         0.37916E+06         0.00000E+00
    0.37916E+06        -0.50391E+08         0.00000E+00
    0.00000E+00         0.00000E+00        -0.59448E+08
 
   -0.57904E+08         0.51269E+06         0.00000E+00
    0.51269E+06        -0.50350E+08         0.00000E+00
    0.00000E+00         0.00000E+00        -0.59476E+08
 
   -0.58092E+08         0.65845E+06         0.00000E+00
    0.65845E+06        -0.50302E+08         0.00000E+00
    0.00000E+00         0.00000E+00        -0.59504E+08
 
   -0.58283E+08         0.81840E+06         0.00000E+00
    0.81840E+06        -0.50248E+08         0.00000E+00
    0.00000E+00         0.00000E+00        -0.59532E+08
 
   -0.58476E+08         0.99483E+06         0.00000E+00
    0.99483E+06        -0.50186E+08         0.00000E+00
    0.00000E+00         0.00000E+00        -0.59558E+08
 
   -0.58671E+08         0.11903E+07         0.00000E+00
    0.11903E+07        -0.50119E+08         0.00000E+00
    0.00000E+00         0.00000E+00        -0.59583E+08
 
   -0.58863E+08         0.14075E+07         0.00000E+00
    0.14075E+07        -0.50045E+08         0.00000E+00
    0.00000E+00         0.00000E+00        -0.59607E+08
 
   -0.59050E+08         0.16492E+07         0.00000E+00
    0.16492E+07        -0.49968E+08         0.00000E+00
    0.00000E+00         0.00000E+00        -0.59629E+08
 
   -0.59227E+08         0.19181E+07         0.00000E+00
    0.19181E+07        -0.49890E+08         0.00000E+00
    0.00000E+00         0.00000E+00        -0.59649E+08
 
   -0.59387E+08         0.22153E+07         0.00000E+00
    0.22153E+07        -0.49813E+08         0.00000E+00
    0.00000E+00         0.00000E+00        -0.59666E+08
 
   -0.59526E+08         0.25398E+07         0.00000E+00
    0.25398E+07        -0.49745E+08         0.00000E+00
    0.00000E+00         0.00000E+00        -0.59680E+08
 
   -0.59645E+08         0.28850E+07         0.00000E+00
    0.28850E+07        -0.49695E+08         0.00000E+00
    0.00000E+00         0.00000E+00        -0.59694E+08
 
   -0.51597E+08        -0.13707E+06         0.00000E+00
   -0.13707E+06        -0.50001E+08         0.00000E+00
    0.00000E+00         0.00000E+00        -0.56906E+08
 
   -0.51663E+08        -0.34879E+06         0.00000E+00
   -0.34879E+06        -0.49990E+08         0.00000E+00
    0.00000E+00         0.00000E+00        -0.56917E+08
 
   -0.51751E+08        -0.53624E+06         0.00000E+00
   -0.53624E+06        -0.49977E+08         0.00000E+00
    0.00000E+00         0.00000E+00        -0.56931E+08
 
   -0.51855E+08        -0.70398E+06         0.00000E+00
   -0.70398E+06        -0.49959E+08         0.00000E+00
    0.00000E+00         0.00000E+00        -0.56949E+08
 
   -0.51975E+08        -0.85261E+06         0.00000E+00
   -0.85261E+06        -0.49934E+08         0.00000E+00
    0.00000E+00         0.00000E+00        -0.56968E+08
 
   -0.52109E+08        -0.98201E+06         0.00000E+00
   -0.98201E+06        -0.49906E+08         0.00000E+00
    0.00000E+00         0.00000E+00        -0.56989E+08
 
   -0.52256E+08        -0.10924E+07         0.00000E+00
   -0.10924E+07        -0.49876E+08         0.00000E+00
    0.00000E+00         0.00000E+00        -0.57012E+08
 
   -0.52413E+08        -0.11833E+07         0.00000E+00
   -0.11833E+07        -0.49843E+08         0.00000E+00
    0.00000E+00         0.00000E+00        -0.57037E+08
 
   -0.52577E+08        -0.12555E+07         0.00000E+00
   -0.12555E+07        -0.49813E+08         0.00000E+00
    0.00000E+00         0.00000E+00        -0.57064E+08
 
   -0.52746E+08        -0.13107E+07         0.00000E+00
   -0.13107E+07        -0.49784E+08         0.00000E+00
    0.00000E+00         0.00000E+00        -0.57092E+08
 
   -0.52918E+08        -0.13502E+07         0.00000E+00
   -0.13502E+07        -0.49757E+08         0.00000E+00
    0.00000E+00         0.00000E+00        -0.57121E+08
 
   -0.53091E+08        -0.13753E+07         0.00000E+00
   -0.13753E+07        -0.49733E+08         0.00000E+00
    0.00000E+00         0.00000E+00        -0.57151E+08
 
   -0.53264E+08        -0.13874E+07         0.00000E+00
   -0.13874E+07        -0.49711E+08         0.00000E+00
    0.00000E+00         0.00000E+00        -0.57181E+08
 
   -0.53436E+08        -0.13878E+07         0.00000E+00
   -0.13878E+07        -0.49693E+08         0.00000E+00
    0.00000E+00         0.00000E+00        -0.57212E+08
 
   -0.53605E+08        -0.13777E+07         0.00000E+00
   -0.13777E+07        -0.49678E+08         0.00000E+00
    0.00000E+00         0.00000E+00        -0.57243E+08
 
   -0.53772E+08        -0.13583E+07         0.00000E+00
   -0.13583E+07        -0.49666E+08         0.00000E+00
    0.00000E+00         0.00000E+00        -0.57273E+08
 
   -0.53936E+08        -0.13306E+07         0.00000E+00
   -0.13306E+07        -0.49656E+08         0.00000E+00
    0.00000E+00         0.00000E+00        -0.57304E+08
 
   -0.54096E+08        -0.12955E+07         0.00000E+00
   -0.12955E+07        -0.49648E+08         0.00000E+00
    0.00000E+00         0.00000E+00        -0.57335E+08
 
   -0.54254E+08        -0.12540E+07         0.00000E+00
   -0.12540E+07        -0.49642E+08         0.00000E+00
    0.00000E+00         0.00000E+00        -0.57365E+08
 
   -0.54408E+08        -0.12065E+07         0.00000E+00
   -0.12065E+07        -0.49638E+08         0.00000E+00
    0.00000E+00         0.00000E+00        -0.57395E+08
 
   -0.54559E+08        -0.11539E+07         0.00000E+00
   -0.11539E+07        -0.49635E+08         0.00000E+00
    0.00000E+00         0.00000E+00        -0.57425E+08
 
   -0.54707E+08        -0.10964E+07         0.00000E+00
   -0.10964E+07        -0.49632E+08         0.00000E+00
    0.00000E+00         0.00000E+00        -0.57454E+08
 
   -0.54853E+08        -0.10344E+07         0.00000E+00
   -0.10344E+07        -0.49630E+08         0.00000E+00
    0.00000E+00         0.00000E+00        -0.57482E+08
 
   -0.54996E+08        -0.96838E+06         0.00000E+00
   -0.96838E+06        -0.49628E+08         0.00000E+00
    0.00000E+00         0.00000E+00        -0.57511E+08
 
   -0.55137E+08        -0.89836E+06         0.00000E+00
   -0.89836E+06        -0.49625E+08         0.00000E+00
    0.00000E+00         0.00000E+00        -0.57538E+08
 
   -0.55276E+08        -0.82451E+06         0.00000E+00
   -0.82451E+06        -0.49622E+08         0.00000E+00
    0.00000E+00         0.00000E+00        -0.57565E+08
 
   -0.55414E+08        -0.74686E+06         0.00000E+00
   -0.74686E+06        -0.49617E+08         0.00000E+00
    0.00000E+00         0.00000E+00        -0.57592E+08
 
   -0.55551E+08        -0.66539E+06         0.00000E+00
   -0.66539E+06        -0.49611E+08         0.00000E+00
    0.00000E+00         0.00000E+00        -0.57618E+08
 
   -0.55686E+08        -0.57999E+06         0.00000E+00
   -0.57999E+06        -0.49603E+08         0.00000E+00
    0.00000E+00         0.00000E+00        -0.57644E+08
 
   -0.55821E+08        -0.49048E+06         0.00000E+00
   -0.49048E+06        -0.49594E+08         0.00000E+00
    0.00000E+00         0.00000E+00        -0.57669E+08
 
   -0.55955E+08        -0.39662E+06         0.00000E+00
   -0.39662E+06        -0.49582E+08         0.00000E+00
    0.00000E+00         0.00000E+00        -0.57693E+08
 
   -0.56089E+08        -0.29811E+06         0.00000E+00
   -0.29811E+06        -0.49568E+08         0.00000E+00
    0.00000E+00         0.00000E+00        -0.57717E+08
 
   -0.56222E+08        -0.19455E+06         0.00000E+00
   -0.19455E+06        -0.49551E+08         0.00000E+00
    0.00000E+00         0.00000E+00        -0.57741E+08
 
   -0.56356E+08        -0.85481E+05         0.00000E+00
   -0.85481E+05        -0.49532E+08         0.00000E+00
    0.00000E+00         0.00000E+00        -0.57763E+08
 
   -0.56489E+08         0.29632E+05         0.00000E+00
    0.29632E+05        -0.49509E+08         0.00000E+00
    0.00000E+00         0.00000E+00        -0.57786E+08
 
   -0.56622E+08         0.15141E+06         0.00000E+00
    0.15141E+06        -0.49484E+08         0.00000E+00
    0.00000E+00         0.00000E+00        -0.57807E+08
 
   -0.56754E+08         0.28055E+06         0.00000E+00
    0.28055E+06        -0.49455E+08         0.00000E+00
    0.00000E+00         0.00000E+00        -0.57828E+08
 
   -0.56886E+08         0.41784E+06         0.00000E+00
    0.41784E+06        -0.49424E+08         0.00000E+00
    0.00000E+00         0.00000E+00        -0.57848E+08
 
   -0.57017E+08         0.56413E+06         0.00000E+00
    0.56413E+06        -0.49389E+08         0.00000E+00
    0.00000E+00         0.00000E+00        -0.57867E+08
 
   -0.57145E+08         0.72034E+06         0.00000E+00
    0.72034E+06        -0.49352E+08         0.00000E+00
    0.00000E+00         0.00000E+00        -0.57885E+08
 
   -0.57270E+08         0.88747E+06         0.00000E+00
    0.88747E+06        -0.49313E+08         0.00000E+00
    0.00000E+00         0.00000E+00        -0.57902E+08
 
   -0.57392E+08         0.10665E+07         0.00000E+00
    0.10665E+07        -0.49271E+08         0.00000E+00
    0.00000E+00         0.00000E+00        -0.57918E+08
 
   -0.57507E+08         0.12584E+07         0.00000E+00
    0.12584E+07        -0.49229E+08         0.00000E+00
    0.00000E+00         0.00000E+00        -0.57933E+08
 
   -0.57616E+08         0.14641E+07         0.00000E+00
    0.14641E+07        -0.49187E+08         0.00000E+00
    0.00000E+00         0.00000E+00        -0.57946E+08
 
   -0.57714E+08         0.16843E+07         0.00000E+00
    0.16843E+07        -0.49146E+08         0.00000E+00
    0.00000E+00         0.00000E+00        -0.57958E+08
 
   -0.57801E+08         0.19194E+07         0.00000E+00
    0.19194E+07        -0.49108E+08         0.00000E+00
    0.00000E+00         0.00000E+00        -0.57968E+08
 
   -0.57874E+08         0.21695E+07         0.00000E+00
    0.21695E+07        -0.49075E+08         0.00000E+00
    0.00000E+00         0.00000E+00        -0.57976E+08
 
   -0.57931E+08         0.24344E+07         0.00000E+00
    0.24344E+07        -0.49048E+08         0.00000E+00
    0.00000E+00         0.00000E+00        -0.57982E+08
 
   -0.57969E+08         0.27142E+07         0.00000E+00
    0.27142E+07        -0.49028E+08         0.00000E+00
    0.00000E+00         0.00000E+00        -0.57985E+08
 
   -0.57984E+08         0.30103E+07         0.00000E+00
    0.30103E+07        -0.49016E+08         0.00000E+00
    0.00000E+00         0.00000E+00        -0.57986E+08
 
   -0.52614E+08        -0.10286E+06         0.00000E+00
   -0.10286E+06        -0.50008E+08         0.00000E+00
    0.00000E+00         0.00000E+00        -0.56067E+08
 
   -0.52583E+08        -0.27708E+06         0.00000E+00
   -0.27708E+06        -0.49997E+08         0.00000E+00
    0.00000E+00         0.00000E+00        -0.56058E+08
 
   -0.52576E+08        -0.43614E+06         0.00000E+00
   -0.43614E+06        -0.49977E+08         0.00000E+00
    0.00000E+00         0.00000E+00        -0.56053E+08
 
   -0.52591E+08        -0.57931E+06         0.00000E+00
   -0.57931E+06        -0.49952E+08         0.00000E+00
    0.00000E+00         0.00000E+00        -0.56051E+08
 
   -0.52624E+08        -0.70711E+06         0.00000E+00
   -0.70711E+06        -0.49923E+08         0.00000E+00
    0.00000E+00         0.00000E+00        -0.56052E+08
 
   -0.52674E+08        -0.82006E+06         0.00000E+00
   -0.82006E+06        -0.49889E+08         0.00000E+00
    0.00000E+00         0.00000E+00        -0.56055E+08
 
   -0.52738E+08        -0.91846E+06         0.00000E+00
   -0.91846E+06        -0.49852E+08         0.00000E+00
    0.00000E+00         0.00000E+00        -0.56060E+08
 
   -0.52814E+08        -0.10029E+07         0.00000E+00
   -0.10029E+07        -0.49813E+08         0.00000E+00
    0.00000E+00         0.00000E+00        -0.56068E+08
 
   -0.52900E+08        -0.10737E+07         0.00000E+00
   -0.10737E+07        -0.49772E+08         0.00000E+00
    0.00000E+00         0.00000E+00        -0.56077E+08
 
   -0.52996E+08        -0.11312E+07         0.00000E+00
   -0.11312E+07        -0.49730E+08         0.00000E+00
    0.00000E+00         0.00000E+00        -0.56088E+08
 
   -0.53099E+08        -0.11758E+07         0.00000E+00
   -0.11758E+07        -0.49688E+08         0.00000E+00
    0.00000E+00         0.00000E+00        -0.56100E+08
 
   -0.53209E+08        -0.12084E+07         0.00000E+00
   -0.12084E+07        -0.49646E+08         0.00000E+00
    0.00000E+00         0.00000E+00        -0.56113E+08
 
   -0.53323E+08        -0.12295E+07         0.00000E+00
   -0.12295E+07        -0.49604E+08         0.00000E+00
    0.00000E+00         0.00000E+00        -0.56128E+08
 
   -0.53440E+08        -0.12397E+07         0.00000E+00
   -0.12397E+07        -0.49564E+08         0.00000E+00
    0.00000E+00         0.00000E+00        -0.56143E+08
 
   -0.53560E+08        -0.12399E+07         0.00000E+00
   -0.12399E+07        -0.49525E+08         0.00000E+00
    0.00000E+00         0.00000E+00        -0.56160E+08
 
   -0.53682E+08        -0.12307E+07         0.00000E+00
   -0.12307E+07        -0.49487E+08         0.00000E+00
    0.00000E+00         0.00000E+00        -0.56176E+08
 
   -0.53805E+08        -0.12127E+07         0.00000E+00
   -0.12127E+07        -0.49451E+08         0.00000E+00
    0.00000E+00         0.00000E+00        -0.56194E+08
 
   -0.53928E+08        -0.11866E+07         0.00000E+00
   -0.11866E+07        -0.49416E+08         0.00000E+00
    0.00000E+00         0.00000E+00        -0.56211E+08
 
   -0.54052E+08        -0.11529E+07         0.00000E+00
   -0.11529E+07        -0.49383E+08         0.00000E+00
    0.00000E+00         0.00000E+00        -0.56229E+08
 
   -0.54174E+08        -0.11122E+07         0.00000E+00
   -0.11122E+07        -0.49351E+08         0.00000E+00
    0.00000E+00         0.00000E+00        -0.56248E+08
 
   -0.54297E+08        -0.10649E+07         0.00000E+00
   -0.10649E+07        -0.49321E+08         0.00000E+00
    0.00000E+00         0.00000E+00        -0.56266E+08
 
   -0.54418E+08        -0.10115E+07         0.00000E+00
   -0.10115E+07        -0.49291E+08         0.00000E+00
    0.00000E+00         0.00000E+00        -0.56284E+08
 
   -0.54539E+08        -0.95225E+06         0.00000E+00
   -0.95225E+06        -0.49262E+08         0.00000E+00
    0.00000E+00         0.00000E+00        -0.56303E+08
 
   -0.54658E+08        -0.88748E+06         0.00000E+00
   -0.88748E+06        -0.49234E+08         0.00000E+00
    0.00000E+00         0.00000E+00        -0.56321E+08
 
   -0.54776E+08        -0.81740E+06         0.00000E+00
   -0.81740E+06        -0.49207E+08         0.00000E+00
    0.00000E+00         0.00000E+00        -0.56339E+08
 
   -0.54892E+08        -0.74217E+06         0.00000E+00
   -0.74217E+06        -0.49180E+08         0.00000E+00
    0.00000E+00         0.00000E+00        -0.56357E+08
 
   -0.55008E+08        -0.66189E+06         0.00000E+00
   -0.66189E+06        -0.49153E+08         0.00000E+00
    0.00000E+00         0.00000E+00        -0.56375E+08
 
   -0.55122E+08        -0.57660E+06         0.00000E+00
   -0.57660E+06        -0.49126E+08         0.00000E+00
    0.00000E+00         0.00000E+00        -0.56392E+08
 
   -0.55234E+08        -0.48629E+06         0.00000E+00
   -0.48629E+06        -0.49099E+08         0.00000E+00
    0.00000E+00         0.00000E+00        -0.56409E+08
 
   -0.55345E+08        -0.39089E+06         0.00000E+00
   -0.39089E+06        -0.49071E+08         0.00000E+00
    0.00000E+00         0.00000E+00        -0.56426E+08
 
   -0.55455E+08        -0.29028E+06         0.00000E+00
   -0.29028E+06        -0.49043E+08         0.00000E+00
    0.00000E+00         0.00000E+00        -0.56442E+08
 
   -0.55563E+08        -0.18430E+06         0.00000E+00
   -0.18430E+06        -0.49015E+08         0.00000E+00
    0.00000E+00         0.00000E+00        -0.56458E+08
 
   -0.55669E+08        -0.72732E+05         0.00000E+00
   -0.72732E+05        -0.48985E+08         0.00000E+00
    0.00000E+00         0.00000E+00        -0.56473E+08
 
   -0.55772E+08         0.44687E+05         0.00000E+00
    0.44687E+05        -0.48956E+08         0.00000E+00
    0.00000E+00         0.00000E+00        -0.56488E+08
 
   -0.55874E+08         0.16825E+06         0.00000E+00
    0.16825E+06        -0.48925E+08         0.00000E+00
    0.00000E+00         0.00000E+00        -0.56502E+08
 
   -0.55972E+08         0.29830E+06         0.00000E+00
    0.29830E+06        -0.48895E+08         0.00000E+00
    0.00000E+00         0.00000E+00        -0.56516E+08
 
   -0.56068E+08         0.43519E+06         0.00000E+00
    0.43519E+06        -0.48863E+08         0.00000E+00
    0.00000E+00         0.00000E+00        -0.56529E+08
 
   -0.56159E+08         0.57929E+06         0.00000E+00
    0.57929E+06        -0.48832E+08         0.00000E+00
    0.00000E+00         0.00000E+00        -0.56541E+08
 
   -0.56246E+08         0.73100E+06         0.00000E+00
    0.73100E+06        -0.48801E+08         0.00000E+00
    0.00000E+00         0.00000E+00        -0.56552E+08
 
   -0.56328E+08         0.89069E+06         0.00000E+00
    0.89069E+06        -0.48770E+08         0.00000E+00
    0.00000E+00         0.00000E+00        -0.56562E+08
 
   -0.56404E+08         0.10587E+07         0.00000E+00
    0.10587E+07        -0.48740E+08         0.00000E+00
    0.00000E+00         0.00000E+00        -0.56571E+08
 
   -0.56473E+08         0.12354E+07         0.00000E+00
    0.12354E+07        -0.48711E+08         0.00000E+00
    0.00000E+00         0.00000E+00        -0.56579E+08
 
   -0.56533E+08         0.14209E+07         0.00000E+00
    0.14209E+07        -0.48685E+08         0.00000E+00
    0.00000E+00         0.00000E+00        -0.56586E+08
 
   -0.56584E+08         0.16154E+07         0.00000E+00
    0.16154E+07        -0.48662E+08         0.00000E+00
    0.00000E+00         0.00000E+00        -0.56592E+08
 
   -0.56625E+08         0.18189E+07         0.00000E+00
    0.18189E+07        -0.48642E+08         0.00000E+00
    0.00000E+00         0.00000E+00        -0.56596E+08
 
   -0.56653E+08         0.20314E+07         0.00000E+00
    0.20314E+07        -0.48627E+08         0.00000E+00
    0.00000E+00         0.00000E+00        -0.56598E+08
 
   -0.56667E+08         0.22527E+07         0.00000E+00
    0.22527E+07        -0.48618E+08         0.00000E+00
    0.00000E+00         0.00000E+00        -0.56599E+08
 
   -0.56666E+08         0.24826E+07         0.00000E+00
    0.24826E+07        -0.48615E+08         0.00000E+00
    0.00000E+00         0.00000E+00        -0.56599E+08
 
   -0.56648E+08         0.27207E+07         0.00000E+00
    0.27207E+07        -0.48619E+08         0.00000E+00
    0.00000E+00         0.00000E+00        -0.56596E+08
 
   -0.56612E+08         0.29657E+07         0.00000E+00
    0.29657E+07        -0.48633E+08         0.00000E+00
    0.00000E+00         0.00000E+00        -0.56592E+08
 
   -0.53406E+08        -0.76841E+05         0.00000E+00
   -0.76841E+05        -0.50006E+08         0.00000E+00
    0.00000E+00         0.00000E+00        -0.55347E+08
 
   -0.53316E+08        -0.20927E+06         0.00000E+00
   -0.20927E+06        -0.49996E+08         0.00000E+00
    0.00000E+00         0.00000E+00        -0.55327E+08
 
   -0.53248E+08        -0.33227E+06         0.00000E+00
   -0.33227E+06        -0.49980E+08         0.00000E+00
    0.00000E+00         0.00000E+00        -0.55310E+08
 
   -0.53200E+08        -0.44546E+06         0.00000E+00
   -0.44546E+06        -0.49956E+08         0.00000E+00
    0.00000E+00         0.00000E+00        -0.55296E+08
 
   -0.53170E+08        -0.54837E+06         0.00000E+00
   -0.54837E+06        -0.49927E+08         0.00000E+00
    0.00000E+00         0.00000E+00        -0.55284E+08
 
   -0.53157E+08        -0.64078E+06         0.00000E+00
   -0.64078E+06        -0.49893E+08         0.00000E+00
    0.00000E+00         0.00000E+00        -0.55274E+08
 
   -0.53159E+08        -0.72266E+06         0.00000E+00
   -0.72266E+06        -0.49854E+08         0.00000E+00
    0.00000E+00         0.00000E+00        -0.55267E+08
 
   -0.53174E+08        -0.79402E+06         0.00000E+00
   -0.79402E+06        -0.49813E+08         0.00000E+00
    0.00000E+00         0.00000E+00        -0.55262E+08
 
   -0.53202E+08        -0.85498E+06         0.00000E+00
   -0.85498E+06        -0.49769E+08         0.00000E+00
    0.00000E+00         0.00000E+00        -0.55258E+08
 
   -0.53240E+08        -0.90574E+06         0.00000E+00
   -0.90574E+06        -0.49722E+08         0.00000E+00
    0.00000E+00         0.00000E+00        -0.55257E+08
 
   -0.53288E+08        -0.94652E+06         0.00000E+00
   -0.94652E+06        -0.49674E+08         0.00000E+00
    0.00000E+00         0.00000E+00        -0.55257E+08
 
   -0.53343E+08        -0.97753E+06         0.00000E+00
   -0.97753E+06        -0.49625E+08         0.00000E+00
    0.00000E+00         0.00000E+00        -0.55258E+08
 
   -0.53406E+08        -0.99908E+06         0.00000E+00
   -0.99908E+06        -0.49576E+08         0.00000E+00
    0.00000E+00         0.00000E+00        -0.55261E+08
 
   -0.53475E+08        -0.10115E+07         0.00000E+00
   -0.10115E+07        -0.49526E+08         0.00000E+00
    0.00000E+00         0.00000E+00        -0.55265E+08
 
   -0.53549E+08        -0.10151E+07         0.00000E+00
   -0.10151E+07        -0.49476E+08         0.00000E+00
    0.00000E+00         0.00000E+00        -0.55269E+08
 
   -0.53628E+08        -0.10102E+07         0.00000E+00
   -0.10102E+07        -0.49426E+08         0.00000E+00
    0.00000E+00         0.00000E+00        -0.55275E+08
 
   -0.53709E+08        -0.99720E+06         0.00000E+00
   -0.99720E+06        -0.49377E+08         0.00000E+00
    0.00000E+00         0.00000E+00        -0.55282E+08
 
   -0.53794E+08        -0.97647E+06         0.00000E+00
   -0.97647E+06        -0.49328E+08         0.00000E+00
    0.00000E+00         0.00000E+00        -0.55289E+08
 
   -0.53881E+08        -0.94833E+06         0.00000E+00
   -0.94833E+06        -0.49281E+08         0.00000E+00
    0.00000E+00         0.00000E+00        -0.55297E+08
 
   -0.53969E+08        -0.91311E+06         0.00000E+00
   -0.91311E+06        -0.49234E+08         0.00000E+00
    0.00000E+00         0.00000E+00        -0.55305E+08
 
   -0.54059E+08        -0.87112E+06         0.00000E+00
   -0.87112E+06        -0.49188E+08         0.00000E+00
    0.00000E+00         0.00000E+00        -0.55314E+08
 
   -0.54149E+08        -0.82264E+06         0.00000E+00
   -0.82264E+06        -0.49143E+08         0.00000E+00
    0.00000E+00         0.00000E+00        -0.55323E+08
 
   -0.54240E+08        -0.76792E+06         0.00000E+00
   -0.76792E+06        -0.49099E+08         0.00000E+00
    0.00000E+00         0.00000E+00        -0.55332E+08
 
   -0.54331E+08        -0.70718E+06         0.00000E+00
   -0.70718E+06        -0.49056E+08         0.00000E+00
    0.00000E+00         0.00000E+00        -0.55342E+08
 
   -0.54421E+08        -0.64060E+06         0.00000E+00
   -0.64060E+06        -0.49014E+08         0.00000E+00
    0.00000E+00         0.00000E+00        -0.55351E+08
 
   -0.54511E+08        -0.56834E+06         0.00000E+00
   -0.56834E+06        -0.48973E+08         0.00000E+00
    0.00000E+00         0.00000E+00        -0.55361E+08
 
   -0.54599E+08        -0.49052E+06         0.00000E+00
   -0.49052E+06        -0.48932E+08         0.00000E+00
    0.00000E+00         0.00000E+00        -0.55371E+08
 
   -0.54687E+08        -0.40722E+06         0.00000E+00
   -0.40722E+06        -0.48893E+08         0.00000E+00
    0.00000E+00         0.00000E+00        -0.55380E+08
 
   -0.54773E+08        -0.31850E+06         0.00000E+00
   -0.31850E+06        -0.48854E+08         0.00000E+00
    0.00000E+00         0.00000E+00        -0.55390E+08
 
   -0.54858E+08        -0.22437E+06         0.00000E+00
   -0.22437E+06        -0.48816E+08         0.00000E+00
    0.00000E+00         0.00000E+00        -0.55399E+08
 
   -0.54940E+08        -0.12484E+06         0.00000E+00
   -0.12484E+06        -0.48779E+08         0.00000E+00
    0.00000E+00         0.00000E+00        -0.55408E+08
 
   -0.55021E+08        -0.19871E+05         0.00000E+00
   -0.19871E+05        -0.48742E+08         0.00000E+00
    0.00000E+00         0.00000E+00        -0.55417E+08
 
   -0.55098E+08         0.90593E+05         0.00000E+00
    0.90593E+05        -0.48707E+08         0.00000E+00
    0.00000E+00         0.00000E+00        -0.55425E+08
 
   -0.55173E+08         0.20662E+06         0.00000E+00
    0.20662E+06        -0.48672E+08         0.00000E+00
    0.00000E+00         0.00000E+00        -0.55433E+08
 
   -0.55244E+08         0.32830E+06         0.00000E+00
    0.32830E+06        -0.48639E+08         0.00000E+00
    0.00000E+00         0.00000E+00        -0.55441E+08
 
   -0.55312E+08         0.45572E+06         0.00000E+00
    0.45572E+06        -0.48607E+08         0.00000E+00
    0.00000E+00         0.00000E+00        -0.55448E+08
 
   -0.55375E+08         0.58897E+06         0.00000E+00
    0.58897E+06        -0.48576E+08         0.00000E+00
    0.00000E+00         0.00000E+00        -0.55454E+08
 
   -0.55433E+08         0.72814E+06         0.00000E+00
    0.72814E+06        -0.48546E+08         0.00000E+00
    0.00000E+00         0.00000E+00        -0.55460E+08
 
   -0.55486E+08         0.87330E+06         0.00000E+00
    0.87330E+06        -0.48519E+08         0.00000E+00
    0.00000E+00         0.00000E+00        -0.55465E+08
 
   -0.55532E+08         0.10245E+07         0.00000E+00
    0.10245E+07        -0.48494E+08         0.00000E+00
    0.00000E+00         0.00000E+00        -0.55470E+08
 
   -0.55572E+08         0.11817E+07         0.00000E+00
    0.11817E+07        -0.48472E+08         0.00000E+00
    0.00000E+00         0.00000E+00        -0.55473E+08
 
   -0.55604E+08         0.13450E+07         0.00000E+00
    0.13450E+07        -0.48452E+08         0.00000E+00
    0.00000E+00         0.00000E+00        -0.55476E+08
 
   -0.55628E+08         0.15141E+07         0.00000E+00
    0.15141E+07        -0.48436E+08         0.00000E+00
    0.00000E+00         0.00000E+00        -0.55477E+08
 
   -0.55643E+08         0.16891E+07         0.00000E+00
    0.16891E+07        -0.48424E+08         0.00000E+00
    0.00000E+00         0.00000E+00        -0.55478E+08
 
   -0.55647E+08         0.18696E+07         0.00000E+00
    0.18696E+07        -0.48417E+08         0.00000E+00
    0.00000E+00         0.00000E+00        -0.55477E+08
 
   -0.55641E+08         0.20554E+07         0.00000E+00
    0.20554E+07        -0.48415E+08         0.00000E+00
    0.00000E+00         0.00000E+00        -0.55476E+08
 
   -0.55622E+08         0.22462E+07         0.00000E+00
    0.22462E+07        -0.48419E+08         0.00000E+00
    0.00000E+00         0.00000E+00        -0.55473E+08
 
   -0.55591E+08         0.24413E+07         0.00000E+00
    0.24413E+07        -0.48429E+08         0.00000E+00
    0.00000E+00         0.00000E+00        -0.55468E+08
 
   -0.55545E+08         0.26403E+07         0.00000E+00
    0.26403E+07        -0.48446E+08         0.00000E+00
    0.00000E+00         0.00000E+00        -0.55463E+08
 
   -0.55485E+08         0.28426E+07         0.00000E+00
    0.28426E+07        -0.48470E+08         0.00000E+00
    0.00000E+00         0.00000E+00        -0.55455E+08
 
   -0.53991E+08        -0.53311E+05         0.00000E+00
   -0.53311E+05        -0.50005E+08         0.00000E+00
    0.00000E+00         0.00000E+00        -0.54725E+08
 
   -0.53864E+08        -0.14835E+06         0.00000E+00
   -0.14835E+06        -0.49997E+08         0.00000E+00
    0.00000E+00         0.00000E+00        -0.54698E+08
 
   -0.53757E+08        -0.23757E+06         0.00000E+00
   -0.23757E+06        -0.49982E+08         0.00000E+00
    0.00000E+00         0.00000E+00        -0.54673E+08
 
   -0.53668E+08        -0.32051E+06         0.00000E+00
   -0.32051E+06        -0.49961E+08         0.00000E+00
    0.00000E+00         0.00000E+00        -0.54651E+08
 
   -0.53595E+08        -0.39684E+06         0.00000E+00
   -0.39684E+06        -0.49934E+08         0.00000E+00
    0.00000E+00         0.00000E+00        -0.54631E+08
 
   -0.53539E+08        -0.46622E+06         0.00000E+00
   -0.46622E+06        -0.49902E+08         0.00000E+00
    0.00000E+00         0.00000E+00        -0.54614E+08
 
   -0.53496E+08        -0.52839E+06         0.00000E+00
   -0.52839E+06        -0.49866E+08         0.00000E+00
    0.00000E+00         0.00000E+00        -0.54598E+08
 
   -0.53467E+08        -0.58317E+06         0.00000E+00
   -0.58317E+06        -0.49827E+08         0.00000E+00
    0.00000E+00         0.00000E+00        -0.54584E+08
 
   -0.53450E+08        -0.63043E+06         0.00000E+00
   -0.63043E+06        -0.49784E+08         0.00000E+00
    0.00000E+00         0.00000E+00        -0.54572E+08
 
   -0.53445E+08        -0.67010E+06         0.00000E+00
   -0.67010E+06        -0.49738E+08         0.00000E+00
    0.00000E+00         0.00000E+00        -0.54562E+08
 
   -0.53449E+08        -0.70218E+06         0.00000E+00
   -0.70218E+06        -0.49691E+08         0.00000E+00
    0.00000E+00         0.00000E+00        -0.54553E+08
 
   -0.53462E+08        -0.72669E+06         0.00000E+00
   -0.72669E+06        -0.49641E+08         0.00000E+00
    0.00000E+00         0.00000E+00        -0.54546E+08
 
   -0.53483E+08        -0.74370E+06         0.00000E+00
   -0.74370E+06        -0.49590E+08         0.00000E+00
    0.00000E+00         0.00000E+00        -0.54540E+08
 
   -0.53511E+08        -0.75331E+06         0.00000E+00
   -0.75331E+06        -0.49538E+08         0.00000E+00
    0.00000E+00         0.00000E+00        -0.54535E+08
 
   -0.53545E+08        -0.75565E+06         0.00000E+00
   -0.75565E+06        -0.49485E+08         0.00000E+00
    0.00000E+00         0.00000E+00        -0.54532E+08
 
   -0.53585E+08        -0.75084E+06         0.00000E+00
   -0.75084E+06        -0.49432E+08         0.00000E+00
    0.00000E+00         0.00000E+00        -0.54529E+08
 
   -0.53630E+08        -0.73905E+06         0.00000E+00
   -0.73905E+06        -0.49379E+08         0.00000E+00
    0.00000E+00         0.00000E+00        -0.54527E+08
 
   -0.53679E+08        -0.72045E+06         0.00000E+00
   -0.72045E+06        -0.49325E+08         0.00000E+00
    0.00000E+00         0.00000E+00        -0.54526E+08
 
   -0.53731E+08        -0.69521E+06         0.00000E+00
   -0.69521E+06        -0.49273E+08         0.00000E+00
    0.00000E+00         0.00000E+00        -0.54526E+08
 
   -0.53787E+08        -0.66351E+06         0.00000E+00
   -0.66351E+06        -0.49220E+08         0.00000E+00
    0.00000E+00         0.00000E+00        -0.54527E+08
 
   -0.53844E+08        -0.62551E+06         0.00000E+00
   -0.62551E+06        -0.49168E+08         0.00000E+00
    0.00000E+00         0.00000E+00        -0.54528E+08
 
   -0.53903E+08        -0.58139E+06         0.00000E+00
   -0.58139E+06        -0.49117E+08         0.00000E+00
    0.00000E+00         0.00000E+00        -0.54529E+08
 
   -0.53964E+08        -0.53131E+06         0.00000E+00
   -0.53131E+06        -0.49067E+08         0.00000E+00
    0.00000E+00         0.00000E+00        -0.54532E+08
 
   -0.54025E+08        -0.47542E+06         0.00000E+00
   -0.47542E+06        -0.49017E+08         0.00000E+00
    0.00000E+00         0.00000E+00        -0.54534E+08
 
   -0.54087E+08        -0.41385E+06         0.00000E+00
   -0.41385E+06        -0.48969E+08         0.00000E+00
    0.00000E+00         0.00000E+00        -0.54537E+08
 
   -0.54149E+08        -0.34674E+06         0.00000E+00
   -0.34674E+06        -0.48922E+08         0.00000E+00
    0.00000E+00         0.00000E+00        -0.54540E+08
 
   -0.54210E+08        -0.27419E+06         0.00000E+00
   -0.27419E+06        -0.48876E+08         0.00000E+00
    0.00000E+00         0.00000E+00        -0.54543E+08
 
   -0.54271E+08        -0.19632E+06         0.00000E+00
   -0.19632E+06        -0.48831E+08         0.00000E+00
    0.00000E+00         0.00000E+00        -0.54546E+08
 
   -0.54330E+08        -0.11319E+06         0.00000E+00
   -0.11319E+06        -0.48788E+08         0.00000E+00
    0.00000E+00         0.00000E+00        -0.54549E+08
 
   -0.54389E+08        -0.24900E+05         0.00000E+00
   -0.24900E+05        -0.48746E+08         0.00000E+00
    0.00000E+00         0.00000E+00        -0.54552E+08
 
   -0.54445E+08         0.68499E+05         0.00000E+00
    0.68499E+05        -0.48705E+08         0.00000E+00
    0.00000E+00         0.00000E+00        -0.54555E+08
 
   -0.54499E+08         0.16694E+06         0.00000E+00
    0.16694E+06        -0.48666E+08         0.00000E+00
    0.00000E+00         0.00000E+00        -0.54558E+08
 
   -0.54550E+08         0.27039E+06         0.00000E+00
    0.27039E+06        -0.48629E+08         0.00000E+00
    0.00000E+00         0.00000E+00        -0.54561E+08
 
   -0.54598E+08         0.37877E+06         0.00000E+00
    0.37877E+06        -0.48593E+08         0.00000E+00
    0.00000E+00         0.00000E+00        -0.54564E+08
 
   -0.54643E+08         0.49205E+06         0.00000E+00
    0.49205E+06        -0.48560E+08         0.00000E+00
    0.00000E+00         0.00000E+00        -0.54566E+08
 
   -0.54684E+08         0.61017E+06         0.00000E+00
    0.61017E+06        -0.48529E+08         0.00000E+00
    0.00000E+00         0.00000E+00        -0.54568E+08
 
   -0.54721E+08         0.73306E+06         0.00000E+00
    0.73306E+06        -0.48500E+08         0.00000E+00
    0.00000E+00         0.00000E+00        -0.54570E+08
 
   -0.54753E+08         0.86065E+06         0.00000E+00
    0.86065E+06        -0.48474E+08         0.00000E+00
    0.00000E+00         0.00000E+00        -0.54571E+08
 
   -0.54779E+08         0.99283E+06         0.00000E+00
    0.99283E+06        -0.48450E+08         0.00000E+00
    0.00000E+00         0.00000E+00        -0.54571E+08
 
   -0.54800E+08         0.11295E+07         0.00000E+00
    0.11295E+07        -0.48430E+08         0.00000E+00
    0.00000E+00         0.00000E+00        -0.54571E+08
 
   -0.54814E+08         0.12705E+07         0.00000E+00
    0.12705E+07        -0.48413E+08         0.00000E+00
    0.00000E+00         0.00000E+00        -0.54571E+08
 
   -0.54822E+08         0.14156E+07         0.00000E+00
    0.14156E+07        -0.48400E+08         0.00000E+00
    0.00000E+00         0.00000E+00        -0.54570E+08
 
   -0.54822E+08         0.15646E+07         0.00000E+00
    0.15646E+07        -0.48390E+08         0.00000E+00
    0.00000E+00         0.00000E+00        -0.54568E+08
 
   -0.54813E+08         0.17173E+07         0.00000E+00
    0.17173E+07        -0.48385E+08         0.00000E+00
    0.00000E+00         0.00000E+00        -0.54565E+08
 
   -0.54797E+08         0.18734E+07         0.00000E+00
    0.18734E+07        -0.48385E+08         0.00000E+00
    0.00000E+00         0.00000E+00        -0.54562E+08
 
   -0.54771E+08         0.20324E+07         0.00000E+00
    0.20324E+07        -0.48390E+08         0.00000E+00
    0.00000E+00         0.00000E+00        -0.54558E+08
 
   -0.54735E+08         0.21939E+07         0.00000E+00
    0.21939E+07        -0.48400E+08         0.00000E+00
    0.00000E+00         0.00000E+00        -0.54552E+08
 
   -0.54689E+08         0.23576E+07         0.00000E+00
    0.23576E+07        -0.48415E+08         0.00000E+00
    0.00000E+00         0.00000E+00        -0.54546E+08
 
   -0.54632E+08         0.25227E+07         0.00000E+00
    0.25227E+07        -0.48437E+08         0.00000E+00
    0.00000E+00         0.00000E+00        -0.54539E+08
 
   -0.54564E+08         0.26888E+07         0.00000E+00
    0.26888E+07        -0.48466E+08         0.00000E+00
    0.00000E+00         0.00000E+00        -0.54531E+08
 
   -0.54390E+08        -0.33492E+05         0.00000E+00
   -0.33492E+05        -0.50004E+08         0.00000E+00
    0.00000E+00         0.00000E+00        -0.54182E+08
 
   -0.54243E+08        -0.95187E+05         0.00000E+00
   -0.95187E+05        -0.49997E+08         0.00000E+00
    0.00000E+00         0.00000E+00        -0.54152E+08
 
   -0.54113E+08        -0.15389E+06         0.00000E+00
   -0.15389E+06        -0.49984E+08         0.00000E+00
    0.00000E+00         0.00000E+00        -0.54123E+08
 
   -0.53998E+08        -0.20908E+06         0.00000E+00
   -0.20908E+06        -0.49966E+08         0.00000E+00
    0.00000E+00         0.00000E+00        -0.54096E+08
 
   -0.53899E+08        -0.26031E+06         0.00000E+00
   -0.26031E+06        -0.49943E+08         0.00000E+00
    0.00000E+00         0.00000E+00        -0.54072E+08
 
   -0.53814E+08        -0.30719E+06         0.00000E+00
   -0.30719E+06        -0.49915E+08         0.00000E+00
    0.00000E+00         0.00000E+00        -0.54049E+08
 
   -0.53741E+08        -0.34940E+06         0.00000E+00
   -0.34940E+06        -0.49883E+08         0.00000E+00
    0.00000E+00         0.00000E+00        -0.54028E+08
 
   -0.53681E+08        -0.38667E+06         0.00000E+00
   -0.38667E+06        -0.49847E+08         0.00000E+00
    0.00000E+00         0.00000E+00        -0.54009E+08
 
   -0.53632E+08        -0.41874E+06         0.00000E+00
   -0.41874E+06        -0.49808E+08         0.00000E+00
    0.00000E+00         0.00000E+00        -0.53992E+08
 
   -0.53594E+08        -0.44546E+06         0.00000E+00
   -0.44546E+06        -0.49766E+08         0.00000E+00
    0.00000E+00         0.00000E+00        -0.53976E+08
 
   -0.53565E+08        -0.46666E+06         0.00000E+00
   -0.46666E+06        -0.49722E+08         0.00000E+00
    0.00000E+00         0.00000E+00        -0.53961E+08
 
   -0.53546E+08        -0.48223E+06         0.00000E+00
   -0.48223E+06        -0.49676E+08         0.00000E+00
    0.00000E+00         0.00000E+00        -0.53948E+08
 
   -0.53534E+08        -0.49212E+06         0.00000E+00
   -0.49212E+06        -0.49627E+08         0.00000E+00
    0.00000E+00         0.00000E+00        -0.53936E+08
 
   -0.53529E+08        -0.49628E+06         0.00000E+00
   -0.49628E+06        -0.49578E+08         0.00000E+00
    0.00000E+00         0.00000E+00        -0.53925E+08
 
   -0.53532E+08        -0.49469E+06         0.00000E+00
   -0.49469E+06        -0.49528E+08         0.00000E+00
    0.00000E+00         0.00000E+00        -0.53915E+08
 
   -0.53540E+08        -0.48737E+06         0.00000E+00
   -0.48737E+06        -0.49476E+08         0.00000E+00
    0.00000E+00         0.00000E+00        -0.53907E+08
 
   -0.53553E+08        -0.47434E+06         0.00000E+00
   -0.47434E+06        -0.49424E+08         0.00000E+00
    0.00000E+00         0.00000E+00        -0.53899E+08
 
   -0.53571E+08        -0.45566E+06         0.00000E+00
   -0.45566E+06        -0.49372E+08         0.00000E+00
    0.00000E+00         0.00000E+00        -0.53892E+08
 
   -0.53593E+08        -0.43137E+06         0.00000E+00
   -0.43137E+06        -0.49320E+08         0.00000E+00
    0.00000E+00         0.00000E+00        -0.53886E+08
 
   -0.53619E+08        -0.40156E+06         0.00000E+00
   -0.40156E+06        -0.49268E+08         0.00000E+00
    0.00000E+00         0.00000E+00        -0.53881E+08
 
   -0.53647E+08        -0.36629E+06         0.00000E+00
   -0.36629E+06        -0.49216E+08         0.00000E+00
    0.00000E+00         0.00000E+00        -0.53876E+08
 
   -0.53678E+08        -0.32567E+06         0.00000E+00
   -0.32567E+06        -0.49165E+08         0.00000E+00
    0.00000E+00         0.00000E+00        -0.53872E+08
 
   -0.53710E+08        -0.27977E+06         0.00000E+00
   -0.27977E+06        -0.49115E+08         0.00000E+00
    0.00000E+00         0.00000E+00        -0.53869E+08
 
   -0.53745E+08        -0.22870E+06         0.00000E+00
   -0.22870E+06        -0.49065E+08         0.00000E+00
    0.00000E+00         0.00000E+00        -0.53866E+08
 
   -0.53780E+08        -0.17254E+06         0.00000E+00
   -0.17254E+06        -0.49017E+08         0.00000E+00
    0.00000E+00         0.00000E+00        -0.53863E+08
 
   -0.53816E+08        -0.11139E+06         0.00000E+00
   -0.11139E+06        -0.48969E+08         0.00000E+00
    0.00000E+00         0.00000E+00        -0.53861E+08
 
   -0.53851E+08        -0.45354E+05         0.00000E+00
   -0.45354E+05        -0.48923E+08         0.00000E+00
    0.00000E+00         0.00000E+00        -0.53858E+08
 
   -0.53887E+08         0.25483E+05         0.00000E+00
    0.25483E+05        -0.48879E+08         0.00000E+00
    0.00000E+00         0.00000E+00        -0.53857E+08
 
   -0.53922E+08         0.10102E+06         0.00000E+00
    0.10102E+06        -0.48835E+08         0.00000E+00
    0.00000E+00         0.00000E+00        -0.53855E+08
 
   -0.53956E+08         0.18117E+06         0.00000E+00
    0.18117E+06        -0.48794E+08         0.00000E+00
    0.00000E+00         0.00000E+00        -0.53853E+08
 
   -0.53988E+08         0.26582E+06         0.00000E+00
    0.26582E+06        -0.48754E+08         0.00000E+00
    0.00000E+00         0.00000E+00        -0.53852E+08
 
   -0.54019E+08         0.35489E+06         0.00000E+00
    0.35489E+06        -0.48717E+08         0.00000E+00
    0.00000E+00         0.00000E+00        -0.53851E+08
 
   -0.54047E+08         0.44826E+06         0.00000E+00
    0.44826E+06        -0.48681E+08         0.00000E+00
    0.00000E+00         0.00000E+00        -0.53849E+08
 
   -0.54072E+08         0.54582E+06         0.00000E+00
    0.54582E+06        -0.48648E+08         0.00000E+00
    0.00000E+00         0.00000E+00        -0.53848E+08
 
   -0.54095E+08         0.64747E+06         0.00000E+00
    0.64747E+06        -0.48617E+08         0.00000E+00
    0.00000E+00         0.00000E+00        -0.53846E+08
 
   -0.54114E+08         0.75306E+06         0.00000E+00
    0.75306E+06        -0.48588E+08         0.00000E+00
    0.00000E+00         0.00000E+00        -0.53844E+08
 
   -0.54130E+08         0.86247E+06         0.00000E+00
    0.86247E+06        -0.48562E+08         0.00000E+00
    0.00000E+00         0.00000E+00        -0.53842E+08
 
   -0.54141E+08         0.97554E+06         0.00000E+00
    0.97554E+06        -0.48540E+08         0.00000E+00
    0.00000E+00         0.00000E+00        -0.53840E+08
 
   -0.54148E+08         0.10921E+07         0.00000E+00
    0.10921E+07        -0.48520E+08         0.00000E+00
    0.00000E+00         0.00000E+00        -0.53837E+08
 
   -0.54150E+08         0.12119E+07         0.00000E+00
    0.12119E+07        -0.48504E+08         0.00000E+00
    0.00000E+00         0.00000E+00        -0.53834E+08
 
   -0.54146E+08         0.13349E+07         0.00000E+00
    0.13349E+07        -0.48491E+08         0.00000E+00
    0.00000E+00         0.00000E+00        -0.53831E+08
 
   -0.54137E+08         0.14606E+07         0.00000E+00
    0.14606E+07        -0.48482E+08         0.00000E+00
    0.00000E+00         0.00000E+00        -0.53827E+08
 
   -0.54122E+08         0.15890E+07         0.00000E+00
    0.15890E+07        -0.48477E+08         0.00000E+00
    0.00000E+00         0.00000E+00        -0.53823E+08
 
   -0.54100E+08         0.17196E+07         0.00000E+00
    0.17196E+07        -0.48476E+08         0.00000E+00
    0.00000E+00         0.00000E+00        -0.53819E+08
 
   -0.54071E+08         0.18522E+07         0.00000E+00
    0.18522E+07        -0.48479E+08         0.00000E+00
    0.00000E+00         0.00000E+00        -0.53814E+08
 
   -0.54035E+08         0.19863E+07         0.00000E+00
    0.19863E+07        -0.48487E+08         0.00000E+00
    0.00000E+00         0.00000E+00        -0.53808E+08
 
   -0.53991E+08         0.21216E+07         0.00000E+00
    0.21216E+07        -0.48500E+08         0.00000E+00
    0.00000E+00         0.00000E+00        -0.53802E+08
 
   -0.53940E+08         0.22577E+07         0.00000E+00
    0.22577E+07        -0.48518E+08         0.00000E+00
    0.00000E+00         0.00000E+00        -0.53795E+08
 
   -0.53880E+08         0.23940E+07         0.00000E+00
    0.23940E+07        -0.48541E+08         0.00000E+00
    0.00000E+00         0.00000E+00        -0.53788E+08
 
   -0.53812E+08         0.25301E+07         0.00000E+00
    0.25301E+07        -0.48569E+08         0.00000E+00
    0.00000E+00         0.00000E+00        -0.53780E+08
 
   -0.54629E+08        -0.17007E+05         0.00000E+00
   -0.17007E+05        -0.50004E+08         0.00000E+00
    0.00000E+00         0.00000E+00        -0.53707E+08
 
   -0.54474E+08        -0.50295E+05         0.00000E+00
   -0.50295E+05        -0.49998E+08         0.00000E+00
    0.00000E+00         0.00000E+00        -0.53674E+08
 
   -0.54332E+08        -0.82546E+05         0.00000E+00
   -0.82546E+05        -0.49987E+08         0.00000E+00
    0.00000E+00         0.00000E+00        -0.53644E+08
 
   -0.54204E+08        -0.11327E+06         0.00000E+00
   -0.11327E+06        -0.49972E+08         0.00000E+00
    0.00000E+00         0.00000E+00        -0.53615E+08
 
   -0.54089E+08        -0.14203E+06         0.00000E+00
   -0.14203E+06        -0.49952E+08         0.00000E+00
    0.00000E+00         0.00000E+00        -0.53588E+08
 
   -0.53986E+08        -0.16842E+06         0.00000E+00
   -0.16842E+06        -0.49928E+08         0.00000E+00
    0.00000E+00         0.00000E+00        -0.53563E+08
 
   -0.53895E+08        -0.19207E+06         0.00000E+00
   -0.19207E+06        -0.49900E+08         0.00000E+00
    0.00000E+00         0.00000E+00        -0.53539E+08
 
   -0.53814E+08        -0.21266E+06         0.00000E+00
   -0.21266E+06        -0.49870E+08         0.00000E+00
    0.00000E+00         0.00000E+00        -0.53517E+08
 
   -0.53744E+08        -0.22993E+06         0.00000E+00
   -0.22993E+06        -0.49836E+08         0.00000E+00
    0.00000E+00         0.00000E+00        -0.53496E+08
 
   -0.53683E+08        -0.24361E+06         0.00000E+00
   -0.24361E+06        -0.49799E+08         0.00000E+00
    0.00000E+00         0.00000E+00        -0.53477E+08
 
   -0.53631E+08        -0.25351E+06         0.00000E+00
   -0.25351E+06        -0.49760E+08         0.00000E+00
    0.00000E+00         0.00000E+00        -0.53458E+08
 
   -0.53587E+08        -0.25944E+06         0.00000E+00
   -0.25944E+06        -0.49719E+08         0.00000E+00
    0.00000E+00         0.00000E+00        -0.53441E+08
 
   -0.53550E+08        -0.26127E+06         0.00000E+00
   -0.26127E+06        -0.49677E+08         0.00000E+00
    0.00000E+00         0.00000E+00        -0.53426E+08
 
   -0.53521E+08        -0.25886E+06         0.00000E+00
   -0.25886E+06        -0.49632E+08         0.00000E+00
    0.00000E+00         0.00000E+00        -0.53411E+08
 
   -0.53498E+08        -0.25212E+06         0.00000E+00
   -0.25212E+06        -0.49587E+08         0.00000E+00
    0.00000E+00         0.00000E+00        -0.53397E+08
 
   -0.53481E+08        -0.24100E+06         0.00000E+00
   -0.24100E+06        -0.49541E+08         0.00000E+00
    0.00000E+00         0.00000E+00        -0.53384E+08
 
   -0.53469E+08        -0.22543E+06         0.00000E+00
   -0.22543E+06        -0.49493E+08         0.00000E+00
    0.00000E+00         0.00000E+00        -0.53373E+08
 
   -0.53462E+08        -0.20538E+06         0.00000E+00
   -0.20538E+06        -0.49446E+08         0.00000E+00
    0.00000E+00         0.00000E+00        -0.53362E+08
 
   -0.53459E+08        -0.18086E+06         0.00000E+00
   -0.18086E+06        -0.49398E+08         0.00000E+00
    0.00000E+00         0.00000E+00        -0.53352E+08
 
   -0.53459E+08        -0.15185E+06         0.00000E+00
   -0.15185E+06        -0.49350E+08         0.00000E+00
    0.00000E+00         0.00000E+00        -0.53342E+08
 
   -0.53463E+08        -0.11838E+06         0.00000E+00
   -0.11838E+06        -0.49303E+08         0.00000E+00
    0.00000E+00         0.00000E+00        -0.53333E+08
 
   -0.53470E+08        -0.80472E+05         0.00000E+00
   -0.80472E+05        -0.49256E+08         0.00000E+00
    0.00000E+00         0.00000E+00        -0.53325E+08
 
   -0.53478E+08        -0.38167E+05         0.00000E+00
   -0.38167E+05        -0.49209E+08         0.00000E+00
    0.00000E+00         0.00000E+00        -0.53318E+08
 
   -0.53489E+08         0.84849E+04         0.00000E+00
    0.84849E+04        -0.49163E+08         0.00000E+00
    0.00000E+00         0.00000E+00        -0.53311E+08
 
   -0.53501E+08         0.59427E+05         0.00000E+00
    0.59427E+05        -0.49118E+08         0.00000E+00
    0.00000E+00         0.00000E+00        -0.53304E+08
 
   -0.53514E+08         0.11459E+06         0.00000E+00
    0.11459E+06        -0.49074E+08         0.00000E+00
    0.00000E+00         0.00000E+00        -0.53298E+08
 
   -0.53527E+08         0.17391E+06         0.00000E+00
    0.17391E+06        -0.49032E+08         0.00000E+00
    0.00000E+00         0.00000E+00        -0.53292E+08
 
   -0.53541E+08         0.23730E+06         0.00000E+00
    0.23730E+06        -0.48990E+08         0.00000E+00
    0.00000E+00         0.00000E+00        -0.53286E+08
 
   -0.53554E+08         0.30467E+06         0.00000E+00
    0.30467E+06        -0.48951E+08         0.00000E+00
    0.00000E+00         0.00000E+00        -0.53281E+08
 
   -0.53567E+08         0.37593E+06         0.00000E+00
    0.37593E+06        -0.48913E+08         0.00000E+00
    0.00000E+00         0.00000E+00        -0.53276E+08
 
   -0.53579E+08         0.45098E+06         0.00000E+00
    0.45098E+06        -0.48877E+08         0.00000E+00
    0.00000E+00         0.00000E+00        -0.53271E+08
 
   -0.53590E+08         0.52971E+06         0.00000E+00
    0.52971E+06        -0.48843E+08         0.00000E+00
    0.00000E+00         0.00000E+00        -0.53267E+08
 
   -0.53599E+08         0.61200E+06         0.00000E+00
    0.61200E+06        -0.48811E+08         0.00000E+00
    0.00000E+00         0.00000E+00        -0.53262E+08
 
   -0.53605E+08         0.69772E+06         0.00000E+00
    0.69772E+06        -0.48781E+08         0.00000E+00
    0.00000E+00         0.00000E+00        -0.53257E+08
 
   -0.53610E+08         0.78674E+06         0.00000E+00
    0.78674E+06        -0.48754E+08         0.00000E+00
    0.00000E+00         0.00000E+00        -0.53253E+08
 
   -0.53612E+08         0.87890E+06         0.00000E+00
    0.87890E+06        -0.48729E+08         0.00000E+00
    0.00000E+00         0.00000E+00        -0.53248E+08
 
   -0.53611E+08         0.97405E+06         0.00000E+00
    0.97405E+06        -0.48707E+08         0.00000E+00
    0.00000E+00         0.00000E+00        -0.53244E+08
 
   -0.53607E+08         0.10720E+07         0.00000E+00
    0.10720E+07        -0.48688E+08         0.00000E+00
    0.00000E+00         0.00000E+00        -0.53239E+08
 
   -0.53599E+08         0.11726E+07         0.00000E+00
    0.11726E+07        -0.48672E+08         0.00000E+00
    0.00000E+00         0.00000E+00        -0.53234E+08
 
   -0.53587E+08         0.12756E+07         0.00000E+00
    0.12756E+07        -0.48660E+08         0.00000E+00
    0.00000E+00         0.00000E+00        -0.53229E+08
 
   -0.53571E+08         0.13808E+07         0.00000E+00
    0.13808E+07        -0.48650E+08         0.00000E+00
    0.00000E+00         0.00000E+00        -0.53224E+08
 
   -0.53551E+08         0.14879E+07         0.00000E+00
    0.14879E+07        -0.48644E+08         0.00000E+00
    0.00000E+00         0.00000E+00        -0.53219E+08
 
   -0.53525E+08         0.15967E+07         0.00000E+00
    0.15967E+07        -0.48642E+08         0.00000E+00
    0.00000E+00         0.00000E+00        -0.53214E+08
 
   -0.53495E+08         0.17069E+07         0.00000E+00
    0.17069E+07        -0.48644E+08         0.00000E+00
    0.00000E+00         0.00000E+00        -0.53208E+08
 
   -0.53460E+08         0.18183E+07         0.00000E+00
    0.18183E+07        -0.48649E+08         0.00000E+00
    0.00000E+00         0.00000E+00        -0.53202E+08
 
   -0.53419E+08         0.19303E+07         0.00000E+00
    0.19303E+07        -0.48659E+08         0.00000E+00
    0.00000E+00         0.00000E+00        -0.53196E+08
 
   -0.53372E+08         0.20429E+07         0.00000E+00
    0.20429E+07        -0.48672E+08         0.00000E+00
    0.00000E+00         0.00000E+00        -0.53189E+08
 
   -0.53320E+08         0.21554E+07         0.00000E+00
    0.21554E+07        -0.48690E+08         0.00000E+00
    0.00000E+00         0.00000E+00        -0.53182E+08
 
   -0.53262E+08         0.22676E+07         0.00000E+00
    0.22676E+07        -0.48713E+08         0.00000E+00
    0.00000E+00         0.00000E+00        -0.53175E+08
 
   -0.53197E+08         0.23791E+07         0.00000E+00
    0.23791E+07        -0.48740E+08         0.00000E+00
    0.00000E+00         0.00000E+00        -0.53168E+08
 
   -0.54734E+08        -0.36808E+04         0.00000E+00
   -0.36808E+04        -0.50003E+08         0.00000E+00
    0.00000E+00         0.00000E+00        -0.53287E+08
 
   -0.54579E+08        -0.13439E+05         0.00000E+00
   -0.13439E+05        -0.49998E+08         0.00000E+00
    0.00000E+00         0.00000E+00        -0.53255E+08
 
   -0.54434E+08        -0.23562E+05         0.00000E+00
   -0.23562E+05        -0.49990E+08         0.00000E+00
    0.00000E+00         0.00000E+00        -0.53225E+08
 
   -0.54301E+08        -0.33586E+05         0.00000E+00
   -0.33586E+05        -0.49977E+08         0.00000E+00
    0.00000E+00         0.00000E+00        -0.53195E+08
 
   -0.54179E+08        -0.43087E+05         0.00000E+00
   -0.43087E+05        -0.49961E+08         0.00000E+00
    0.00000E+00         0.00000E+00        -0.53168E+08
 
   -0.54067E+08        -0.51673E+05         0.00000E+00
   -0.51673E+05        -0.49941E+08         0.00000E+00
    0.00000E+00         0.00000E+00        -0.53141E+08
 
   -0.53965E+08        -0.58988E+05         0.00000E+00
   -0.58988E+05        -0.49918E+08         0.00000E+00
    0.00000E+00         0.00000E+00        -0.53116E+08
 
   -0.53872E+08        -0.64704E+05         0.00000E+00
   -0.64704E+05        -0.49893E+08         0.00000E+00
    0.00000E+00         0.00000E+00        -0.53093E+08
 
   -0.53788E+08        -0.68528E+05         0.00000E+00
   -0.68528E+05        -0.49864E+08         0.00000E+00
    0.00000E+00         0.00000E+00        -0.53070E+08
 
   -0.53713E+08        -0.70194E+05         0.00000E+00
   -0.70194E+05        -0.49834E+08         0.00000E+00
    0.00000E+00         0.00000E+00        -0.53049E+08
 
   -0.53645E+08        -0.69466E+05         0.00000E+00
   -0.69466E+05        -0.49801E+08         0.00000E+00
    0.00000E+00         0.00000E+00        -0.53029E+08
 
   -0.53584E+08        -0.66137E+05         0.00000E+00
   -0.66137E+05        -0.49766E+08         0.00000E+00
    0.00000E+00         0.00000E+00        -0.53010E+08
 
   -0.53530E+08        -0.60022E+05         0.00000E+00
   -0.60022E+05        -0.49730E+08         0.00000E+00
    0.00000E+00         0.00000E+00        -0.52992E+08
 
   -0.53483E+08        -0.50964E+05         0.00000E+00
   -0.50964E+05        -0.49692E+08         0.00000E+00
    0.00000E+00         0.00000E+00        -0.52975E+08
 
   -0.53441E+08        -0.38828E+05         0.00000E+00
   -0.38828E+05        -0.49653E+08         0.00000E+00
    0.00000E+00         0.00000E+00        -0.52959E+08
 
   -0.53405E+08        -0.23500E+05         0.00000E+00
   -0.23500E+05        -0.49613E+08         0.00000E+00
    0.00000E+00         0.00000E+00        -0.52943E+08
 
   -0.53374E+08        -0.48874E+04         0.00000E+00
   -0.48874E+04        -0.49573E+08         0.00000E+00
    0.00000E+00         0.00000E+00        -0.52929E+08
 
   -0.53347E+08         0.17084E+05         0.00000E+00
    0.17084E+05        -0.49532E+08         0.00000E+00
    0.00000E+00         0.00000E+00        -0.52915E+08
 
   -0.53324E+08         0.42470E+05         0.00000E+00
    0.42470E+05        -0.49490E+08         0.00000E+00
    0.00000E+00         0.00000E+00        -0.52903E+08
 
   -0.53305E+08         0.71310E+05         0.00000E+00
    0.71310E+05        -0.49449E+08         0.00000E+00
    0.00000E+00         0.00000E+00        -0.52890E+08
 
   -0.53289E+08         0.10363E+06         0.00000E+00
    0.10363E+06        -0.49407E+08         0.00000E+00
    0.00000E+00         0.00000E+00        -0.52879E+08
 
   -0.53276E+08         0.13944E+06         0.00000E+00
    0.13944E+06        -0.49366E+08         0.00000E+00
    0.00000E+00         0.00000E+00        -0.52868E+08
 
   -0.53265E+08         0.17873E+06         0.00000E+00
    0.17873E+06        -0.49325E+08         0.00000E+00
    0.00000E+00         0.00000E+00        -0.52858E+08
 
   -0.53256E+08         0.22149E+06         0.00000E+00
    0.22149E+06        -0.49285E+08         0.00000E+00
    0.00000E+00         0.00000E+00        -0.52848E+08
 
   -0.53249E+08         0.26770E+06         0.00000E+00
    0.26770E+06        -0.49246E+08         0.00000E+00
    0.00000E+00         0.00000E+00        -0.52839E+08
 
   -0.53243E+08         0.31730E+06         0.00000E+00
    0.31730E+06        -0.49208E+08         0.00000E+00
    0.00000E+00         0.00000E+00        -0.52830E+08
 
   -0.53238E+08         0.37026E+06         0.00000E+00
    0.37026E+06        -0.49171E+08         0.00000E+00
    0.00000E+00         0.00000E+00        -0.52821E+08
 
   -0.53233E+08         0.42651E+06         0.00000E+00
    0.42651E+06        -0.49135E+08         0.00000E+00
    0.00000E+00         0.00000E+00        -0.52813E+08
 
   -0.53229E+08         0.48599E+06         0.00000E+00
    0.48599E+06        -0.49101E+08         0.00000E+00
    0.00000E+00         0.00000E+00        -0.52806E+08
 
   -0.53224E+08         0.54860E+06         0.00000E+00
    0.54860E+06        -0.49068E+08         0.00000E+00
    0.00000E+00         0.00000E+00        -0.52798E+08
 
   -0.53219E+08         0.61427E+06         0.00000E+00
    0.61427E+06        -0.49037E+08         0.00000E+00
    0.00000E+00         0.00000E+00        -0.52791E+08
 
   -0.53214E+08         0.68288E+06         0.00000E+00
    0.68288E+06        -0.49007E+08         0.00000E+00
    0.00000E+00         0.00000E+00        -0.52784E+08
 
   -0.53207E+08         0.75434E+06         0.00000E+00
    0.75434E+06        -0.48980E+08         0.00000E+00
    0.00000E+00         0.00000E+00        -0.52777E+08
 
   -0.53199E+08         0.82852E+06         0.00000E+00
    0.82852E+06        -0.48955E+08         0.00000E+00
    0.00000E+00         0.00000E+00        -0.52771E+08
 
   -0.53189E+08         0.90528E+06         0.00000E+00
    0.90528E+06        -0.48933E+08         0.00000E+00
    0.00000E+00         0.00000E+00        -0.52764E+08
 
   -0.53178E+08         0.98450E+06         0.00000E+00
    0.98450E+06        -0.48912E+08         0.00000E+00
    0.00000E+00         0.00000E+00        -0.52758E+08
 
   -0.53164E+08         0.10660E+07         0.00000E+00
    0.10660E+07        -0.48895E+08         0.00000E+00
    0.00000E+00         0.00000E+00        -0.52751E+08
 
   -0.53148E+08         0.11496E+07         0.00000E+00
    0.11496E+07        -0.48880E+08         0.00000E+00
    0.00000E+00         0.00000E+00        -0.52745E+08
 
   -0.53129E+08         0.12352E+07         0.00000E+00
    0.12352E+07        -0.48867E+08         0.00000E+00
    0.00000E+00         0.00000E+00        -0.52739E+08
 
   -0.53107E+08         0.13225E+07         0.00000E+00
    0.13225E+07        -0.48858E+08         0.00000E+00
    0.00000E+00         0.00000E+00        -0.52733E+08
 
   -0.53083E+08         0.14114E+07         0.00000E+00
    0.14114E+07        -0.48852E+08         0.00000E+00
    0.00000E+00         0.00000E+00        -0.52727E+08
 
   -0.53055E+08         0.15016E+07         0.00000E+00
    0.15016E+07        -0.48848E+08         0.00000E+00
    0.00000E+00         0.00000E+00        -0.52720E+08
 
   -0.53023E+08         0.15929E+07         0.00000E+00
    0.15929E+07        -0.48848E+08         0.00000E+00
    0.00000E+00         0.00000E+00        -0.52714E+08
 
   -0.52988E+08         0.16851E+07         0.00000E+00
    0.16851E+07        -0.48852E+08         0.00000E+00
    0.00000E+00         0.00000E+00        -0.52708E+08
 
   -0.52949E+08         0.17779E+07         0.00000E+00
    0.17779E+07        -0.48858E+08         0.00000E+00
    0.00000E+00         0.00000E+00        -0.52701E+08
 
   -0.52906E+08         0.18710E+07         0.00000E+00
    0.18710E+07        -0.48869E+08         0.00000E+00
    0.00000E+00         0.00000E+00        -0.52695E+08
 
   -0.52860E+08         0.19641E+07         0.00000E+00
    0.19641E+07        -0.48882E+08         0.00000E+00
    0.00000E+00         0.00000E+00        -0.52688E+08
 
   -0.52809E+08         0.20570E+07         0.00000E+00
    0.20570E+07        -0.48900E+08         0.00000E+00
    0.00000E+00         0.00000E+00        -0.52681E+08
 
   -0.52754E+08         0.21493E+07         0.00000E+00
    0.21493E+07        -0.48921E+08         0.00000E+00
    0.00000E+00         0.00000E+00        -0.52675E+08
 
   -0.52695E+08         0.22407E+07         0.00000E+00
    0.22407E+07        -0.48945E+08         0.00000E+00
    0.00000E+00         0.00000E+00        -0.52668E+08
 
   -0.54731E+08         0.67745E+04         0.00000E+00
    0.67745E+04        -0.50003E+08         0.00000E+00
    0.00000E+00         0.00000E+00        -0.52916E+08
 
   -0.54581E+08         0.15870E+05         0.00000E+00
    0.15870E+05        -0.49999E+08         0.00000E+00
    0.00000E+00         0.00000E+00        -0.52885E+08
 
   -0.54440E+08         0.23655E+05         0.00000E+00
    0.23655E+05        -0.49992E+08         0.00000E+00
    0.00000E+00         0.00000E+00        -0.52855E+08
 
   -0.54308E+08         0.30544E+05         0.00000E+00
    0.30544E+05        -0.49982E+08         0.00000E+00
    0.00000E+00         0.00000E+00        -0.52827E+08
 
   -0.54185E+08         0.36929E+05         0.00000E+00
    0.36929E+05        -0.49969E+08         0.00000E+00
    0.00000E+00         0.00000E+00        -0.52800E+08
 
   -0.54070E+08         0.43172E+05         0.00000E+00
    0.43172E+05        -0.49954E+08         0.00000E+00
    0.00000E+00         0.00000E+00        -0.52774E+08
 
   -0.53964E+08         0.49609E+05         0.00000E+00
    0.49609E+05        -0.49935E+08         0.00000E+00
    0.00000E+00         0.00000E+00        -0.52749E+08
 
   -0.53865E+08         0.56553E+05         0.00000E+00
    0.56553E+05        -0.49915E+08         0.00000E+00
    0.00000E+00         0.00000E+00        -0.52725E+08
 
   -0.53774E+08         0.64289E+05         0.00000E+00
    0.64289E+05        -0.49892E+08         0.00000E+00
    0.00000E+00         0.00000E+00        -0.52702E+08
 
   -0.53689E+08         0.73080E+05         0.00000E+00
    0.73080E+05        -0.49867E+08         0.00000E+00
    0.00000E+00         0.00000E+00        -0.52680E+08
 
   -0.53612E+08         0.83165E+05         0.00000E+00
    0.83165E+05        -0.49841E+08         0.00000E+00
    0.00000E+00         0.00000E+00        -0.52660E+08
 
   -0.53541E+08         0.94759E+05         0.00000E+00
    0.94759E+05        -0.49812E+08         0.00000E+00
    0.00000E+00         0.00000E+00        -0.52640E+08
 
   -0.53475E+08         0.10806E+06         0.00000E+00
    0.10806E+06        -0.49783E+08         0.00000E+00
    0.00000E+00         0.00000E+00        -0.52621E+08
 
   -0.53415E+08         0.12323E+06         0.00000E+00
    0.12323E+06        -0.49752E+08         0.00000E+00
    0.00000E+00         0.00000E+00        -0.52602E+08
 
   -0.53361E+08         0.14043E+06         0.00000E+00
    0.14043E+06        -0.49720E+08         0.00000E+00
    0.00000E+00         0.00000E+00        -0.52585E+08
 
   -0.53311E+08         0.15980E+06         0.00000E+00
    0.15980E+06        -0.49687E+08         0.00000E+00
    0.00000E+00         0.00000E+00        -0.52569E+08
 
   -0.53266E+08         0.18144E+06         0.00000E+00
    0.18144E+06        -0.49653E+08         0.00000E+00
    0.00000E+00         0.00000E+00        -0.52553E+08
 
   -0.53224E+08         0.20546E+06         0.00000E+00
    0.20546E+06        -0.49619E+08         0.00000E+00
    0.00000E+00         0.00000E+00        -0.52538E+08
 
   -0.53187E+08         0.23193E+06         0.00000E+00
    0.23193E+06        -0.49585E+08         0.00000E+00
    0.00000E+00         0.00000E+00        -0.52523E+08
 
   -0.53153E+08         0.26092E+06         0.00000E+00
    0.26092E+06        -0.49551E+08         0.00000E+00
    0.00000E+00         0.00000E+00        -0.52510E+08
 
   -0.53121E+08         0.29249E+06         0.00000E+00
    0.29249E+06        -0.49516E+08         0.00000E+00
    0.00000E+00         0.00000E+00        -0.52497E+08
 
   -0.53093E+08         0.32666E+06         0.00000E+00
    0.32666E+06        -0.49482E+08         0.00000E+00
    0.00000E+00         0.00000E+00        -0.52484E+08
 
   -0.53067E+08         0.36345E+06         0.00000E+00
    0.36345E+06        -0.49448E+08         0.00000E+00
    0.00000E+00         0.00000E+00        -0.52472E+08
 
   -0.53043E+08         0.40288E+06         0.00000E+00
    0.40288E+06        -0.49415E+08         0.00000E+00
    0.00000E+00         0.00000E+00        -0.52461E+08
 
   -0.53021E+08         0.44494E+06         0.00000E+00
    0.44494E+06        -0.49382E+08         0.00000E+00
    0.00000E+00         0.00000E+00        -0.52450E+08
 
   -0.53000E+08         0.48961E+06         0.00000E+00
    0.48961E+06        -0.49351E+08         0.00000E+00
    0.00000E+00         0.00000E+00        -0.52439E+08
 
   -0.52980E+08         0.53687E+06         0.00000E+00
    0.53687E+06        -0.49320E+08         0.00000E+00
    0.00000E+00         0.00000E+00        -0.52429E+08
 
   -0.52961E+08         0.58667E+06         0.00000E+00
    0.58667E+06        -0.49290E+08         0.00000E+00
    0.00000E+00         0.00000E+00        -0.52419E+08
 
   -0.52943E+08         0.63896E+06         0.00000E+00
    0.63896E+06        -0.49262E+08         0.00000E+00
    0.00000E+00         0.00000E+00        -0.52410E+08
 
   -0.52924E+08         0.69370E+06         0.00000E+00
    0.69370E+06        -0.49235E+08         0.00000E+00
    0.00000E+00         0.00000E+00        -0.52401E+08
 
   -0.52906E+08         0.75079E+06         0.00000E+00
    0.75079E+06        -0.49210E+08         0.00000E+00
    0.00000E+00         0.00000E+00        -0.52392E+08
 
   -0.52888E+08         0.81016E+06         0.00000E+00
    0.81016E+06        -0.49186E+08         0.00000E+00
    0.00000E+00         0.00000E+00        -0.52384E+08
 
   -0.52869E+08         0.87172E+06         0.00000E+00
    0.87172E+06        -0.49164E+08         0.00000E+00
    0.00000E+00         0.00000E+00        -0.52376E+08
 
   -0.52849E+08         0.93537E+06         0.00000E+00
    0.93537E+06        -0.49144E+08         0.00000E+00
    0.00000E+00         0.00000E+00        -0.52368E+08
 
   -0.52828E+08         0.10010E+07         0.00000E+00
    0.10010E+07        -0.49126E+08         0.00000E+00
    0.00000E+00         0.00000E+00        -0.52360E+08
 
   -0.52806E+08         0.10685E+07         0.00000E+00
    0.10685E+07        -0.49110E+08         0.00000E+00
    0.00000E+00         0.00000E+00        -0.52352E+08
 
   -0.52783E+08         0.11376E+07         0.00000E+00
    0.11376E+07        -0.49097E+08         0.00000E+00
    0.00000E+00         0.00000E+00        -0.52345E+08
 
   -0.52758E+08         0.12084E+07         0.00000E+00
    0.12084E+07        -0.49086E+08         0.00000E+00
    0.00000E+00         0.00000E+00        -0.52338E+08
 
   -0.52732E+08         0.12806E+07         0.00000E+00
    0.12806E+07        -0.49077E+08         0.00000E+00
    0.00000E+00         0.00000E+00        -0.52331E+08
 
   -0.52703E+08         0.13541E+07         0.00000E+00
    0.13541E+07        -0.49071E+08         0.00000E+00
    0.00000E+00         0.00000E+00        -0.52324E+08
 
   -0.52672E+08         0.14286E+07         0.00000E+00
    0.14286E+07        -0.49067E+08         0.00000E+00
    0.00000E+00         0.00000E+00        -0.52317E+08
 
   -0.52639E+08         0.15040E+07         0.00000E+00
    0.15040E+07        -0.49067E+08         0.00000E+00
    0.00000E+00         0.00000E+00        -0.52310E+08
 
   -0.52604E+08         0.15802E+07         0.00000E+00
    0.15802E+07        -0.49068E+08         0.00000E+00
    0.00000E+00         0.00000E+00        -0.52303E+08
 
   -0.52566E+08         0.16569E+07         0.00000E+00
    0.16569E+07        -0.49073E+08         0.00000E+00
    0.00000E+00         0.00000E+00        -0.52297E+08
 
   -0.52525E+08         0.17339E+07         0.00000E+00
    0.17339E+07        -0.49081E+08         0.00000E+00
    0.00000E+00         0.00000E+00        -0.52290E+08
 
   -0.52482E+08         0.18110E+07         0.00000E+00
    0.18110E+07        -0.49091E+08         0.00000E+00
    0.00000E+00         0.00000E+00        -0.52284E+08
 
   -0.52436E+08         0.18879E+07         0.00000E+00
    0.18879E+07        -0.49105E+08         0.00000E+00
    0.00000E+00         0.00000E+00        -0.52277E+08
 
   -0.52388E+08         0.19645E+07         0.00000E+00
    0.19645E+07        -0.49121E+08         0.00000E+00
    0.00000E+00         0.00000E+00        -0.52271E+08
 
   -0.52337E+08         0.20404E+07         0.00000E+00
    0.20404E+07        -0.49141E+08         0.00000E+00
    0.00000E+00         0.00000E+00        -0.52264E+08
 
   -0.52283E+08         0.21155E+07         0.00000E+00
    0.21155E+07        -0.49163E+08         0.00000E+00
    0.00000E+00         0.00000E+00        -0.52258E+08
 
   -0.54642E+08         0.14685E+05         0.00000E+00
    0.14685E+05        -0.50002E+08         0.00000E+00
    0.00000E+00         0.00000E+00        -0.52586E+08
 
   -0.54501E+08         0.38362E+05         0.00000E+00
    0.38362E+05        -0.49999E+08         0.00000E+00
    0.00000E+00         0.00000E+00        -0.52557E+08
 
   -0.54367E+08         0.60123E+05         0.00000E+00
    0.60123E+05        -0.49994E+08         0.00000E+00
    0.00000E+00         0.00000E+00        -0.52529E+08
 
   -0.54241E+08         0.80333E+05         0.00000E+00
    0.80333E+05        -0.49987E+08         0.00000E+00
    0.00000E+00         0.00000E+00        -0.52503E+08
 
   -0.54121E+08         0.99339E+05         0.00000E+00
    0.99339E+05        -0.49977E+08         0.00000E+00
    0.00000E+00         0.00000E+00        -0.52477E+08
 
   -0.54009E+08         0.11747E+06         0.00000E+00
    0.11747E+06        -0.49965E+08         0.00000E+00
    0.00000E+00         0.00000E+00        -0.52452E+08
 
   -0.53902E+08         0.13502E+06         0.00000E+00
    0.13502E+06        -0.49951E+08         0.00000E+00
    0.00000E+00         0.00000E+00        -0.52428E+08
 
   -0.53803E+08         0.15228E+06         0.00000E+00
    0.15228E+06        -0.49935E+08         0.00000E+00
    0.00000E+00         0.00000E+00        -0.52405E+08
 
   -0.53709E+08         0.16952E+06         0.00000E+00
    0.16952E+06        -0.49917E+08         0.00000E+00
    0.00000E+00         0.00000E+00        -0.52382E+08
 
   -0.53621E+08         0.18698E+06         0.00000E+00
    0.18698E+06        -0.49898E+08         0.00000E+00
    0.00000E+00         0.00000E+00        -0.52361E+08
 
   -0.53538E+08         0.20489E+06         0.00000E+00
    0.20489E+06        -0.49877E+08         0.00000E+00
    0.00000E+00         0.00000E+00        -0.52340E+08
 
   -0.53461E+08         0.22346E+06         0.00000E+00
    0.22346E+06        -0.49855E+08         0.00000E+00
    0.00000E+00         0.00000E+00        -0.52320E+08
 
   -0.53389E+08         0.24287E+06         0.00000E+00
    0.24287E+06        -0.49832E+08         0.00000E+00
    0.00000E+00         0.00000E+00        -0.52301E+08
 
   -0.53322E+08         0.26331E+06         0.00000E+00
    0.26331E+06        -0.49808E+08         0.00000E+00
    0.00000E+00         0.00000E+00        -0.52283E+08
 
   -0.53259E+08         0.28492E+06         0.00000E+00
    0.28492E+06        -0.49782E+08         0.00000E+00
    0.00000E+00         0.00000E+00        -0.52265E+08
 
   -0.53200E+08         0.30784E+06         0.00000E+00
    0.30784E+06        -0.49757E+08         0.00000E+00
    0.00000E+00         0.00000E+00        -0.52248E+08
 
   -0.53145E+08         0.33220E+06         0.00000E+00
    0.33220E+06        -0.49730E+08         0.00000E+00
    0.00000E+00         0.00000E+00        -0.52232E+08
 
   -0.53094E+08         0.35810E+06         0.00000E+00
    0.35810E+06        -0.49703E+08         0.00000E+00
    0.00000E+00         0.00000E+00        -0.52217E+08
 
   -0.53046E+08         0.38564E+06         0.00000E+00
    0.38564E+06        -0.49676E+08         0.00000E+00
    0.00000E+00         0.00000E+00        -0.52201E+08
 
   -0.53001E+08         0.41489E+06         0.00000E+00
    0.41489E+06        -0.49649E+08         0.00000E+00
    0.00000E+00         0.00000E+00        -0.52187E+08
 
   -0.52959E+08         0.44592E+06         0.00000E+00
    0.44592E+06        -0.49621E+08         0.00000E+00
    0.00000E+00         0.00000E+00        -0.52173E+08
 
   -0.52920E+08         0.47878E+06         0.00000E+00
    0.47878E+06        -0.49594E+08         0.00000E+00
    0.00000E+00         0.00000E+00        -0.52160E+08
 
   -0.52882E+08         0.51350E+06         0.00000E+00
    0.51350E+06        -0.49567E+08         0.00000E+00
    0.00000E+00         0.00000E+00        -0.52147E+08
 
   -0.52847E+08         0.55011E+06         0.00000E+00
    0.55011E+06        -0.49541E+08         0.00000E+00
    0.00000E+00         0.00000E+00        -0.52135E+08
 
   -0.52814E+08         0.58863E+06         0.00000E+00
    0.58863E+06        -0.49515E+08         0.00000E+00
    0.00000E+00         0.00000E+00        -0.52123E+08
 
   -0.52781E+08         0.62905E+06         0.00000E+00
    0.62905E+06        -0.49490E+08         0.00000E+00
    0.00000E+00         0.00000E+00        -0.52111E+08
 
   -0.52751E+08         0.67137E+06         0.00000E+00
    0.67137E+06        -0.49466E+08         0.00000E+00
    0.00000E+00         0.00000E+00        -0.52100E+08
 
   -0.52721E+08         0.71556E+06         0.00000E+00
    0.71556E+06        -0.49443E+08         0.00000E+00
    0.00000E+00         0.00000E+00        -0.52090E+08
 
   -0.52692E+08         0.76160E+06         0.00000E+00
    0.76160E+06        -0.49420E+08         0.00000E+00
    0.00000E+00         0.00000E+00        -0.52080E+08
 
   -0.52663E+08         0.80944E+06         0.00000E+00
    0.80944E+06        -0.49400E+08         0.00000E+00
    0.00000E+00         0.00000E+00        -0.52070E+08
 
   -0.52635E+08         0.85903E+06         0.00000E+00
    0.85903E+06        -0.49380E+08         0.00000E+00
    0.00000E+00         0.00000E+00        -0.52060E+08
 
   -0.52607E+08         0.91031E+06         0.00000E+00
    0.91031E+06        -0.49362E+08         0.00000E+00
    0.00000E+00         0.00000E+00        -0.52051E+08
 
   -0.52579E+08         0.96321E+06         0.00000E+00
    0.96321E+06        -0.49345E+08         0.00000E+00
    0.00000E+00         0.00000E+00        -0.52042E+08
 
   -0.52550E+08         0.10177E+07         0.00000E+00
    0.10177E+07        -0.49330E+08         0.00000E+00
    0.00000E+00         0.00000E+00        -0.52033E+08
 
   -0.52521E+08         0.10736E+07         0.00000E+00
    0.10736E+07        -0.49317E+08         0.00000E+00
    0.00000E+00         0.00000E+00        -0.52025E+08
 
   -0.52491E+08         0.11308E+07         0.00000E+00
    0.11308E+07        -0.49306E+08         0.00000E+00
    0.00000E+00         0.00000E+00        -0.52017E+08
 
   -0.52461E+08         0.11893E+07         0.00000E+00
    0.11893E+07        -0.49296E+08         0.00000E+00
    0.00000E+00         0.00000E+00        -0.52009E+08
 
   -0.52430E+08         0.12489E+07         0.00000E+00
    0.12489E+07        -0.49289E+08         0.00000E+00
    0.00000E+00         0.00000E+00        -0.52001E+08
 
   -0.52397E+08         0.13096E+07         0.00000E+00
    0.13096E+07        -0.49284E+08         0.00000E+00
    0.00000E+00         0.00000E+00        -0.51993E+08
 
   -0.52364E+08         0.13711E+07         0.00000E+00
    0.13711E+07        -0.49280E+08         0.00000E+00
    0.00000E+00         0.00000E+00        -0.51986E+08
 
   -0.52329E+08         0.14334E+07         0.00000E+00
    0.14334E+07        -0.49279E+08         0.00000E+00
    0.00000E+00         0.00000E+00        -0.51979E+08
 
   -0.52292E+08         0.14963E+07         0.00000E+00
    0.14963E+07        -0.49281E+08         0.00000E+00
    0.00000E+00         0.00000E+00        -0.51972E+08
 
   -0.52255E+08         0.15597E+07         0.00000E+00
    0.15597E+07        -0.49284E+08         0.00000E+00
    0.00000E+00         0.00000E+00        -0.51965E+08
 
   -0.52215E+08         0.16234E+07         0.00000E+00
    0.16234E+07        -0.49290E+08         0.00000E+00
    0.00000E+00         0.00000E+00        -0.51958E+08
 
   -0.52174E+08         0.16872E+07         0.00000E+00
    0.16872E+07        -0.49299E+08         0.00000E+00
    0.00000E+00         0.00000E+00        -0.51952E+08
 
   -0.52131E+08         0.17509E+07         0.00000E+00
    0.17509E+07        -0.49310E+08         0.00000E+00
    0.00000E+00         0.00000E+00        -0.51945E+08
 
   -0.52087E+08         0.18145E+07         0.00000E+00
    0.18145E+07        -0.49323E+08         0.00000E+00
    0.00000E+00         0.00000E+00        -0.51939E+08
 
   -0.52041E+08         0.18777E+07         0.00000E+00
    0.18777E+07        -0.49338E+08         0.00000E+00
    0.00000E+00         0.00000E+00        -0.51933E+08
 
   -0.51993E+08         0.19404E+07         0.00000E+00
    0.19404E+07        -0.49356E+08         0.00000E+00
    0.00000E+00         0.00000E+00        -0.51927E+08
 
   -0.51943E+08         0.20024E+07         0.00000E+00
    0.20024E+07        -0.49377E+08         0.00000E+00
    0.00000E+00         0.00000E+00        -0.51921E+08
 
   -0.54489E+08         0.20402E+05         0.00000E+00
    0.20402E+05        -0.50002E+08         0.00000E+00
    0.00000E+00         0.00000E+00        -0.52293E+08
 
   -0.54360E+08         0.54887E+05         0.00000E+00
    0.54887E+05        -0.50000E+08         0.00000E+00
    0.00000E+00         0.00000E+00        -0.52266E+08
 
   -0.54236E+08         0.87110E+05         0.00000E+00
    0.87110E+05        -0.49996E+08         0.00000E+00
    0.00000E+00         0.00000E+00        -0.52241E+08
 
   -0.54117E+08         0.11739E+06         0.00000E+00
    0.11739E+06        -0.49991E+08         0.00000E+00
    0.00000E+00         0.00000E+00        -0.52216E+08
 
   -0.54004E+08         0.14601E+06         0.00000E+00
    0.14601E+06        -0.49984E+08         0.00000E+00
    0.00000E+00         0.00000E+00        -0.52192E+08
 
   -0.53896E+08         0.17328E+06         0.00000E+00
    0.17328E+06        -0.49975E+08         0.00000E+00
    0.00000E+00         0.00000E+00        -0.52169E+08
 
   -0.53794E+08         0.19944E+06         0.00000E+00
    0.19944E+06        -0.49965E+08         0.00000E+00
    0.00000E+00         0.00000E+00        -0.52146E+08
 
   -0.53696E+08         0.22476E+06         0.00000E+00
    0.22476E+06        -0.49953E+08         0.00000E+00
    0.00000E+00         0.00000E+00        -0.52124E+08
 
   -0.53603E+08         0.24948E+06         0.00000E+00
    0.24948E+06        -0.49940E+08         0.00000E+00
    0.00000E+00         0.00000E+00        -0.52103E+08
 
   -0.53515E+08         0.27381E+06         0.00000E+00
    0.27381E+06        -0.49925E+08         0.00000E+00
    0.00000E+00         0.00000E+00        -0.52083E+08
 
   -0.53432E+08         0.29796E+06         0.00000E+00
    0.29796E+06        -0.49910E+08         0.00000E+00
    0.00000E+00         0.00000E+00        -0.52063E+08
 
   -0.53352E+08         0.32212E+06         0.00000E+00
    0.32212E+06        -0.49893E+08         0.00000E+00
    0.00000E+00         0.00000E+00        -0.52044E+08
 
   -0.53277E+08         0.34648E+06         0.00000E+00
    0.34648E+06        -0.49876E+08         0.00000E+00
    0.00000E+00         0.00000E+00        -0.52025E+08
 
   -0.53206E+08         0.37119E+06         0.00000E+00
    0.37119E+06        -0.49858E+08         0.00000E+00
    0.00000E+00         0.00000E+00        -0.52007E+08
 
   -0.53139E+08         0.39640E+06         0.00000E+00
    0.39640E+06        -0.49839E+08         0.00000E+00
    0.00000E+00         0.00000E+00        -0.51990E+08
 
   -0.53075E+08         0.42224E+06         0.00000E+00
    0.42224E+06        -0.49819E+08         0.00000E+00
    0.00000E+00         0.00000E+00        -0.51973E+08
 
   -0.53015E+08         0.44885E+06         0.00000E+00
    0.44885E+06        -0.49799E+08         0.00000E+00
    0.00000E+00         0.00000E+00        -0.51957E+08
 
   -0.52957E+08         0.47632E+06         0.00000E+00
    0.47632E+06        -0.49779E+08         0.00000E+00
    0.00000E+00         0.00000E+00        -0.51942E+08
 
   -0.52903E+08         0.50476E+06         0.00000E+00
    0.50476E+06        -0.49758E+08         0.00000E+00
    0.00000E+00         0.00000E+00        -0.51927E+08
 
   -0.52851E+08         0.53424E+06         0.00000E+00
    0.53424E+06        -0.49738E+08         0.00000E+00
    0.00000E+00         0.00000E+00        -0.51912E+08
 
   -0.52801E+08         0.56483E+06         0.00000E+00
    0.56483E+06        -0.49717E+08         0.00000E+00
    0.00000E+00         0.00000E+00        -0.51898E+08
 
   -0.52754E+08         0.59660E+06         0.00000E+00
    0.59660E+06        -0.49697E+08         0.00000E+00
    0.00000E+00         0.00000E+00        -0.51885E+08
 
   -0.52709E+08         0.62959E+06         0.00000E+00
    0.62959E+06        -0.49677E+08         0.00000E+00
    0.00000E+00         0.00000E+00        -0.51872E+08
 
   -0.52666E+08         0.66384E+06         0.00000E+00
    0.66384E+06        -0.49657E+08         0.00000E+00
    0.00000E+00         0.00000E+00        -0.51859E+08
 
   -0.52624E+08         0.69937E+06         0.00000E+00
    0.69937E+06        -0.49637E+08         0.00000E+00
    0.00000E+00         0.00000E+00        -0.51847E+08
 
   -0.52584E+08         0.73620E+06         0.00000E+00
    0.73620E+06        -0.49619E+08         0.00000E+00
    0.00000E+00         0.00000E+00        -0.51835E+08
 
   -0.52546E+08         0.77434E+06         0.00000E+00
    0.77434E+06        -0.49601E+08         0.00000E+00
    0.00000E+00         0.00000E+00        -0.51824E+08
 
   -0.52508E+08         0.81377E+06         0.00000E+00
    0.81377E+06        -0.49583E+08         0.00000E+00
    0.00000E+00         0.00000E+00        -0.51813E+08
 
   -0.52471E+08         0.85450E+06         0.00000E+00
    0.85450E+06        -0.49567E+08         0.00000E+00
    0.00000E+00         0.00000E+00        -0.51802E+08
 
   -0.52435E+08         0.89648E+06         0.00000E+00
    0.89648E+06        -0.49552E+08         0.00000E+00
    0.00000E+00         0.00000E+00        -0.51792E+08
 
   -0.52399E+08         0.93970E+06         0.00000E+00
    0.93970E+06        -0.49538E+08         0.00000E+00
    0.00000E+00         0.00000E+00        -0.51782E+08
 
   -0.52364E+08         0.98410E+06         0.00000E+00
    0.98410E+06        -0.49525E+08         0.00000E+00
    0.00000E+00         0.00000E+00        -0.51772E+08
 
   -0.52329E+08         0.10296E+07         0.00000E+00
    0.10296E+07        -0.49513E+08         0.00000E+00
    0.00000E+00         0.00000E+00        -0.51763E+08
 
   -0.52295E+08         0.10763E+07         0.00000E+00
    0.10763E+07        -0.49503E+08         0.00000E+00
    0.00000E+00         0.00000E+00        -0.51754E+08
 
   -0.52260E+08         0.11239E+07         0.00000E+00
    0.11239E+07        -0.49494E+08         0.00000E+00
    0.00000E+00         0.00000E+00        -0.51745E+08
 
   -0.52225E+08         0.11725E+07         0.00000E+00
    0.11725E+07        -0.49487E+08         0.00000E+00
    0.00000E+00         0.00000E+00        -0.51737E+08
 
   -0.52189E+08         0.12220E+07         0.00000E+00
    0.12220E+07        -0.49481E+08         0.00000E+00
    0.00000E+00         0.00000E+00        -0.51729E+08
 
   -0.52153E+08         0.12723E+07         0.00000E+00
    0.12723E+07        -0.49477E+08         0.00000E+00
    0.00000E+00         0.00000E+00        -0.51721E+08
 
   -0.52117E+08         0.13232E+07         0.00000E+00
    0.13232E+07        -0.49475E+08         0.00000E+00
    0.00000E+00         0.00000E+00        -0.51713E+08
 
   -0.52080E+08         0.13748E+07         0.00000E+00
    0.13748E+07        -0.49475E+08         0.00000E+00
    0.00000E+00         0.00000E+00        -0.51705E+08
 
   -0.52042E+08         0.14269E+07         0.00000E+00
    0.14269E+07        -0.49476E+08         0.00000E+00
    0.00000E+00         0.00000E+00        -0.51698E+08
 
   -0.52004E+08         0.14793E+07         0.00000E+00
    0.14793E+07        -0.49480E+08         0.00000E+00
    0.00000E+00         0.00000E+00        -0.51691E+08
 
   -0.51964E+08         0.15321E+07         0.00000E+00
    0.15321E+07        -0.49485E+08         0.00000E+00
    0.00000E+00         0.00000E+00        -0.51684E+08
 
   -0.51924E+08         0.15849E+07         0.00000E+00
    0.15849E+07        -0.49492E+08         0.00000E+00
    0.00000E+00         0.00000E+00        -0.51678E+08
 
   -0.51883E+08         0.16379E+07         0.00000E+00
    0.16379E+07        -0.49501E+08         0.00000E+00
    0.00000E+00         0.00000E+00        -0.51671E+08
 
   -0.51841E+08         0.16908E+07         0.00000E+00
    0.16908E+07        -0.49512E+08         0.00000E+00
    0.00000E+00         0.00000E+00        -0.51665E+08
 
   -0.51798E+08         0.17434E+07         0.00000E+00
    0.17434E+07        -0.49525E+08         0.00000E+00
    0.00000E+00         0.00000E+00        -0.51659E+08
 
   -0.51754E+08         0.17958E+07         0.00000E+00
    0.17958E+07        -0.49540E+08         0.00000E+00
    0.00000E+00         0.00000E+00        -0.51653E+08
 
   -0.51709E+08         0.18477E+07         0.00000E+00
    0.18477E+07        -0.49557E+08         0.00000E+00
    0.00000E+00         0.00000E+00        -0.51648E+08
 
   -0.51663E+08         0.18990E+07         0.00000E+00
    0.18990E+07        -0.49576E+08         0.00000E+00
    0.00000E+00         0.00000E+00        -0.51642E+08
 
   -0.54290E+08         0.24280E+05         0.00000E+00
    0.24280E+05        -0.50001E+08         0.00000E+00
    0.00000E+00         0.00000E+00        -0.52032E+08
 
   -0.54173E+08         0.66342E+05         0.00000E+00
    0.66342E+05        -0.50000E+08         0.00000E+00
    0.00000E+00         0.00000E+00        -0.52008E+08
 
   -0.54060E+08         0.10599E+06         0.00000E+00
    0.10599E+06        -0.49998E+08         0.00000E+00
    0.00000E+00         0.00000E+00        -0.51985E+08
 
   -0.53951E+08         0.14349E+06         0.00000E+00
    0.14349E+06        -0.49994E+08         0.00000E+00
    0.00000E+00         0.00000E+00        -0.51963E+08
 
   -0.53846E+08         0.17909E+06         0.00000E+00
    0.17909E+06        -0.49989E+08         0.00000E+00
    0.00000E+00         0.00000E+00        -0.51941E+08
 
   -0.53745E+08         0.21304E+06         0.00000E+00
    0.21304E+06        -0.49983E+08         0.00000E+00
    0.00000E+00         0.00000E+00        -0.51919E+08
 
   -0.53649E+08         0.24556E+06         0.00000E+00
    0.24556E+06        -0.49976E+08         0.00000E+00
    0.00000E+00         0.00000E+00        -0.51899E+08
 
   -0.53556E+08         0.27687E+06         0.00000E+00
    0.27687E+06        -0.49968E+08         0.00000E+00
    0.00000E+00         0.00000E+00        -0.51878E+08
 
   -0.53466E+08         0.30718E+06         0.00000E+00
    0.30718E+06        -0.49959E+08         0.00000E+00
    0.00000E+00         0.00000E+00        -0.51859E+08
 
   -0.53381E+08         0.33669E+06         0.00000E+00
    0.33669E+06        -0.49949E+08         0.00000E+00
    0.00000E+00         0.00000E+00        -0.51840E+08
 
   -0.53299E+08         0.36557E+06         0.00000E+00
    0.36557E+06        -0.49938E+08         0.00000E+00
    0.00000E+00         0.00000E+00        -0.51821E+08
 
   -0.53221E+08         0.39399E+06         0.00000E+00
    0.39399E+06        -0.49926E+08         0.00000E+00
    0.00000E+00         0.00000E+00        -0.51803E+08
 
   -0.53145E+08         0.42212E+06         0.00000E+00
    0.42212E+06        -0.49914E+08         0.00000E+00
    0.00000E+00         0.00000E+00        -0.51785E+08
 
   -0.53073E+08         0.45011E+06         0.00000E+00
    0.45011E+06        -0.49901E+08         0.00000E+00
    0.00000E+00         0.00000E+00        -0.51769E+08
 
   -0.53005E+08         0.47808E+06         0.00000E+00
    0.47808E+06        -0.49888E+08         0.00000E+00
    0.00000E+00         0.00000E+00        -0.51752E+08
 
   -0.52939E+08         0.50617E+06         0.00000E+00
    0.50617E+06        -0.49874E+08         0.00000E+00
    0.00000E+00         0.00000E+00        -0.51736E+08
 
   -0.52875E+08         0.53449E+06         0.00000E+00
    0.53449E+06        -0.49860E+08         0.00000E+00
    0.00000E+00         0.00000E+00        -0.51721E+08
 
   -0.52815E+08         0.56315E+06         0.00000E+00
    0.56315E+06        -0.49845E+08         0.00000E+00
    0.00000E+00         0.00000E+00        -0.51706E+08
 
   -0.52757E+08         0.59223E+06         0.00000E+00
    0.59223E+06        -0.49831E+08         0.00000E+00
    0.00000E+00         0.00000E+00        -0.51691E+08
 
   -0.52701E+08         0.62182E+06         0.00000E+00
    0.62182E+06        -0.49816E+08         0.00000E+00
    0.00000E+00         0.00000E+00        -0.51677E+08
 
   -0.52647E+08         0.65200E+06         0.00000E+00
    0.65200E+06        -0.49801E+08         0.00000E+00
    0.00000E+00         0.00000E+00        -0.51663E+08
 
   -0.52595E+08         0.68282E+06         0.00000E+00
    0.68282E+06        -0.49787E+08         0.00000E+00
    0.00000E+00         0.00000E+00        -0.51650E+08
 
   -0.52545E+08         0.71433E+06         0.00000E+00
    0.71433E+06        -0.49773E+08         0.00000E+00
    0.00000E+00         0.00000E+00        -0.51637E+08
 
   -0.52497E+08         0.74659E+06         0.00000E+00
    0.74659E+06        -0.49759E+08         0.00000E+00
    0.00000E+00         0.00000E+00        -0.51625E+08
 
   -0.52450E+08         0.77962E+06         0.00000E+00
    0.77962E+06        -0.49745E+08         0.00000E+00
    0.00000E+00         0.00000E+00        -0.51613E+08
 
   -0.52405E+08         0.81344E+06         0.00000E+00
    0.81344E+06        -0.49732E+08         0.00000E+00
    0.00000E+00         0.00000E+00        -0.51601E+08
 
   -0.52361E+08         0.84809E+06         0.00000E+00
    0.84809E+06        -0.49720E+08         0.00000E+00
    0.00000E+00         0.00000E+00        -0.51590E+08
 
   -0.52318E+08         0.88355E+06         0.00000E+00
    0.88355E+06        -0.49708E+08         0.00000E+00
    0.00000E+00         0.00000E+00        -0.51579E+08
 
   -0.52276E+08         0.91984E+06         0.00000E+00
    0.91984E+06        -0.49697E+08         0.00000E+00
    0.00000E+00         0.00000E+00        -0.51568E+08
 
   -0.52235E+08         0.95695E+06         0.00000E+00
    0.95695E+06        -0.49687E+08         0.00000E+00
    0.00000E+00         0.00000E+00        -0.51558E+08
 
   -0.52194E+08         0.99486E+06         0.00000E+00
    0.99486E+06        -0.49678E+08         0.00000E+00
    0.00000E+00         0.00000E+00        -0.51548E+08
 
   -0.52154E+08         0.10335E+07         0.00000E+00
    0.10335E+07        -0.49670E+08         0.00000E+00
    0.00000E+00         0.00000E+00        -0.51538E+08
 
   -0.52115E+08         0.10730E+07         0.00000E+00
    0.10730E+07        -0.49662E+08         0.00000E+00
    0.00000E+00         0.00000E+00        -0.51529E+08
 
   -0.52076E+08         0.11131E+07         0.00000E+00
    0.11131E+07        -0.49656E+08         0.00000E+00
    0.00000E+00         0.00000E+00        -0.51520E+08
 
   -0.52037E+08         0.11539E+07         0.00000E+00
    0.11539E+07        -0.49652E+08         0.00000E+00
    0.00000E+00         0.00000E+00        -0.51511E+08
 
   -0.51998E+08         0.11954E+07         0.00000E+00
    0.11954E+07        -0.49648E+08         0.00000E+00
    0.00000E+00         0.00000E+00        -0.51503E+08
 
   -0.51959E+08         0.12374E+07         0.00000E+00
    0.12374E+07        -0.49646E+08         0.00000E+00
    0.00000E+00         0.00000E+00        -0.51495E+08
 
   -0.51920E+08         0.12799E+07         0.00000E+00
    0.12799E+07        -0.49645E+08         0.00000E+00
    0.00000E+00         0.00000E+00        -0.51487E+08
 
   -0.51881E+08         0.13228E+07         0.00000E+00
    0.13228E+07        -0.49646E+08         0.00000E+00
    0.00000E+00         0.00000E+00        -0.51479E+08
 
   -0.51842E+08         0.13662E+07         0.00000E+00
    0.13662E+07        -0.49648E+08         0.00000E+00
    0.00000E+00         0.00000E+00        -0.51472E+08
 
   -0.51803E+08         0.14098E+07         0.00000E+00
    0.14098E+07        -0.49652E+08         0.00000E+00
    0.00000E+00         0.00000E+00        -0.51464E+08
 
   -0.51763E+08         0.14537E+07         0.00000E+00
    0.14537E+07        -0.49657E+08         0.00000E+00
    0.00000E+00         0.00000E+00        -0.51457E+08
 
   -0.51723E+08         0.14977E+07         0.00000E+00
    0.14977E+07        -0.49663E+08         0.00000E+00
    0.00000E+00         0.00000E+00        -0.51451E+08
 
   -0.51682E+08         0.15418E+07         0.00000E+00
    0.15418E+07        -0.49672E+08         0.00000E+00
    0.00000E+00         0.00000E+00        -0.51444E+08
 
   -0.51641E+08         0.15859E+07         0.00000E+00
    0.15859E+07        -0.49682E+08         0.00000E+00
    0.00000E+00         0.00000E+00        -0.51438E+08
 
   -0.51600E+08         0.16299E+07         0.00000E+00
    0.16299E+07        -0.49693E+08         0.00000E+00
    0.00000E+00         0.00000E+00        -0.51432E+08
 
   -0.51558E+08         0.16737E+07         0.00000E+00
    0.16737E+07        -0.49706E+08         0.00000E+00
    0.00000E+00         0.00000E+00        -0.51426E+08
 
   -0.51515E+08         0.17172E+07         0.00000E+00
    0.17172E+07        -0.49721E+08         0.00000E+00
    0.00000E+00         0.00000E+00        -0.51421E+08
 
   -0.51473E+08         0.17604E+07         0.00000E+00
    0.17604E+07        -0.49737E+08         0.00000E+00
    0.00000E+00         0.00000E+00        -0.51416E+08
 
   -0.51430E+08         0.18031E+07         0.00000E+00
    0.18031E+07        -0.49755E+08         0.00000E+00
    0.00000E+00         0.00000E+00        -0.51411E+08
 
   -0.54060E+08         0.26659E+05         0.00000E+00
    0.26659E+05        -0.50001E+08         0.00000E+00
    0.00000E+00         0.00000E+00        -0.51800E+08
 
   -0.53956E+08         0.73609E+05         0.00000E+00
    0.73609E+05        -0.50000E+08         0.00000E+00
    0.00000E+00         0.00000E+00        -0.51779E+08
 
   -0.53854E+08         0.11813E+06         0.00000E+00
    0.11813E+06        -0.49999E+08         0.00000E+00
    0.00000E+00         0.00000E+00        -0.51758E+08
 
   -0.53755E+08         0.16045E+06         0.00000E+00
    0.16045E+06        -0.49997E+08         0.00000E+00
    0.00000E+00         0.00000E+00        -0.51738E+08
 
   -0.53660E+08         0.20077E+06         0.00000E+00
    0.20077E+06        -0.49994E+08         0.00000E+00
    0.00000E+00         0.00000E+00        -0.51718E+08
 
   -0.53567E+08         0.23929E+06         0.00000E+00
    0.23929E+06        -0.49990E+08         0.00000E+00
    0.00000E+00         0.00000E+00        -0.51699E+08
 
   -0.53477E+08         0.27621E+06         0.00000E+00
    0.27621E+06        -0.49985E+08         0.00000E+00
    0.00000E+00         0.00000E+00        -0.51680E+08
 
   -0.53391E+08         0.31170E+06         0.00000E+00
    0.31170E+06        -0.49980E+08         0.00000E+00
    0.00000E+00         0.00000E+00        -0.51662E+08
 
   -0.53307E+08         0.34594E+06         0.00000E+00
    0.34594E+06        -0.49975E+08         0.00000E+00
    0.00000E+00         0.00000E+00        -0.51644E+08
 
   -0.53226E+08         0.37910E+06         0.00000E+00
    0.37910E+06        -0.49968E+08         0.00000E+00
    0.00000E+00         0.00000E+00        -0.51626E+08
 
   -0.53147E+08         0.41133E+06         0.00000E+00
    0.41133E+06        -0.49961E+08         0.00000E+00
    0.00000E+00         0.00000E+00        -0.51609E+08
 
   -0.53071E+08         0.44280E+06         0.00000E+00
    0.44280E+06        -0.49954E+08         0.00000E+00
    0.00000E+00         0.00000E+00        -0.51593E+08
 
   -0.52998E+08         0.47362E+06         0.00000E+00
    0.47362E+06        -0.49946E+08         0.00000E+00
    0.00000E+00         0.00000E+00        -0.51576E+08
 
   -0.52928E+08         0.50394E+06         0.00000E+00
    0.50394E+06        -0.49937E+08         0.00000E+00
    0.00000E+00         0.00000E+00        -0.51561E+08
 
   -0.52860E+08         0.53388E+06         0.00000E+00
    0.53388E+06        -0.49929E+08         0.00000E+00
    0.00000E+00         0.00000E+00        -0.51545E+08
 
   -0.52794E+08         0.56355E+06         0.00000E+00
    0.56355E+06        -0.49920E+08         0.00000E+00
    0.00000E+00         0.00000E+00        -0.51530E+08
 
   -0.52730E+08         0.59305E+06         0.00000E+00
    0.59305E+06        -0.49910E+08         0.00000E+00
    0.00000E+00         0.00000E+00        -0.51516E+08
 
   -0.52669E+08         0.62248E+06         0.00000E+00
    0.62248E+06        -0.49901E+08         0.00000E+00
    0.00000E+00         0.00000E+00        -0.51502E+08
 
   -0.52609E+08         0.65193E+06         0.00000E+00
    0.65193E+06        -0.49892E+08         0.00000E+00
    0.00000E+00         0.00000E+00        -0.51488E+08
 
   -0.52552E+08         0.68148E+06         0.00000E+00
    0.68148E+06        -0.49882E+08         0.00000E+00
    0.00000E+00         0.00000E+00        -0.51474E+08
 
   -0.52496E+08         0.71119E+06         0.00000E+00
    0.71119E+06        -0.49873E+08         0.00000E+00
    0.00000E+00         0.00000E+00        -0.51461E+08
 
   -0.52442E+08         0.74113E+06         0.00000E+00
    0.74113E+06        -0.49863E+08         0.00000E+00
    0.00000E+00         0.00000E+00        -0.51449E+08
 
   -0.52389E+08         0.77136E+06         0.00000E+00
    0.77136E+06        -0.49854E+08         0.00000E+00
    0.00000E+00         0.00000E+00        -0.51436E+08
 
   -0.52339E+08         0.80191E+06         0.00000E+00
    0.80191E+06        -0.49845E+08         0.00000E+00
    0.00000E+00         0.00000E+00        -0.51424E+08
 
   -0.52289E+08         0.83283E+06         0.00000E+00
    0.83283E+06        -0.49837E+08         0.00000E+00
    0.00000E+00         0.00000E+00        -0.51413E+08
 
   -0.52241E+08         0.86415E+06         0.00000E+00
    0.86415E+06        -0.49829E+08         0.00000E+00
    0.00000E+00         0.00000E+00        -0.51402E+08
 
   -0.52194E+08         0.89589E+06         0.00000E+00
    0.89589E+06        -0.49822E+08         0.00000E+00
    0.00000E+00         0.00000E+00        -0.51391E+08
 
   -0.52147E+08         0.92807E+06         0.00000E+00
    0.92807E+06        -0.49815E+08         0.00000E+00
    0.00000E+00         0.00000E+00        -0.51380E+08
 
   -0.52102E+08         0.96070E+06         0.00000E+00
    0.96070E+06        -0.49808E+08         0.00000E+00
    0.00000E+00         0.00000E+00        -0.51370E+08
 
   -0.52058E+08         0.99379E+06         0.00000E+00
    0.99379E+06        -0.49803E+08         0.00000E+00
    0.00000E+00         0.00000E+00        -0.51360E+08
 
   -0.52014E+08         0.10273E+07         0.00000E+00
    0.10273E+07        -0.49798E+08         0.00000E+00
    0.00000E+00         0.00000E+00        -0.51350E+08
 
   -0.51971E+08         0.10613E+07         0.00000E+00
    0.10613E+07        -0.49794E+08         0.00000E+00
    0.00000E+00         0.00000E+00        -0.51341E+08
 
   -0.51929E+08         0.10957E+07         0.00000E+00
    0.10957E+07        -0.49791E+08         0.00000E+00
    0.00000E+00         0.00000E+00        -0.51332E+08
 
   -0.51887E+08         0.11306E+07         0.00000E+00
    0.11306E+07        -0.49788E+08         0.00000E+00
    0.00000E+00         0.00000E+00        -0.51323E+08
 
   -0.51846E+08         0.11658E+07         0.00000E+00
    0.11658E+07        -0.49787E+08         0.00000E+00
    0.00000E+00         0.00000E+00        -0.51314E+08
 
   -0.51805E+08         0.12014E+07         0.00000E+00
    0.12014E+07        -0.49787E+08         0.00000E+00
    0.00000E+00         0.00000E+00        -0.51306E+08
 
   -0.51764E+08         0.12373E+07         0.00000E+00
    0.12373E+07        -0.49788E+08         0.00000E+00
    0.00000E+00         0.00000E+00        -0.51298E+08
 
   -0.51723E+08         0.12735E+07         0.00000E+00
    0.12735E+07        -0.49790E+08         0.00000E+00
    0.00000E+00         0.00000E+00        -0.51290E+08
 
   -0.51682E+08         0.13099E+07         0.00000E+00
    0.13099E+07        -0.49793E+08         0.00000E+00
    0.00000E+00         0.00000E+00        -0.51283E+08
 
   -0.51642E+08         0.13465E+07         0.00000E+00
    0.13465E+07        -0.49797E+08         0.00000E+00
    0.00000E+00         0.00000E+00        -0.51275E+08
 
   -0.51601E+08         0.13833E+07         0.00000E+00
    0.13833E+07        -0.49803E+08         0.00000E+00
    0.00000E+00         0.00000E+00        -0.51268E+08
 
   -0.51561E+08         0.14202E+07         0.00000E+00
    0.14202E+07        -0.49809E+08         0.00000E+00
    0.00000E+00         0.00000E+00        -0.51262E+08
 
   -0.51520E+08         0.14572E+07         0.00000E+00
    0.14572E+07        -0.49817E+08         0.00000E+00
    0.00000E+00         0.00000E+00        -0.51255E+08
 
   -0.51480E+08         0.14942E+07         0.00000E+00
    0.14942E+07        -0.49827E+08         0.00000E+00
    0.00000E+00         0.00000E+00        -0.51249E+08
 
   -0.51439E+08         0.15311E+07         0.00000E+00
    0.15311E+07        -0.49837E+08         0.00000E+00
    0.00000E+00         0.00000E+00        -0.51243E+08
 
   -0.51398E+08         0.15679E+07         0.00000E+00
    0.15679E+07        -0.49849E+08         0.00000E+00
    0.00000E+00         0.00000E+00        -0.51237E+08
 
   -0.51357E+08         0.16045E+07         0.00000E+00
    0.16045E+07        -0.49862E+08         0.00000E+00
    0.00000E+00         0.00000E+00        -0.51232E+08
 
   -0.51317E+08         0.16409E+07         0.00000E+00
    0.16409E+07        -0.49877E+08         0.00000E+00
    0.00000E+00         0.00000E+00        -0.51226E+08
 
   -0.51276E+08         0.16770E+07         0.00000E+00
    0.16770E+07        -0.49893E+08         0.00000E+00
    0.00000E+00         0.00000E+00        -0.51221E+08
 
   -0.51235E+08         0.17128E+07         0.00000E+00
    0.17128E+07        -0.49910E+08         0.00000E+00
    0.00000E+00         0.00000E+00        -0.51217E+08
 
   -0.53811E+08         0.27846E+05         0.00000E+00
    0.27846E+05        -0.50001E+08         0.00000E+00
    0.00000E+00         0.00000E+00        -0.51594E+08
 
   -0.53719E+08         0.77510E+05         0.00000E+00
    0.77510E+05        -0.50000E+08         0.00000E+00
    0.00000E+00         0.00000E+00        -0.51575E+08
 
   -0.53629E+08         0.12484E+06         0.00000E+00
    0.12484E+06        -0.50000E+08         0.00000E+00
    0.00000E+00         0.00000E+00        -0.51557E+08
 
   -0.53541E+08         0.17000E+06         0.00000E+00
    0.17000E+06        -0.49999E+08         0.00000E+00
    0.00000E+00         0.00000E+00        -0.51539E+08
 
   -0.53455E+08         0.21316E+06         0.00000E+00
    0.21316E+06        -0.49997E+08         0.00000E+00
    0.00000E+00         0.00000E+00        -0.51522E+08
 
   -0.53371E+08         0.25449E+06         0.00000E+00
    0.25449E+06        -0.49995E+08         0.00000E+00
    0.00000E+00         0.00000E+00        -0.51504E+08
 
   -0.53289E+08         0.29414E+06         0.00000E+00
    0.29414E+06        -0.49993E+08         0.00000E+00
    0.00000E+00         0.00000E+00        -0.51488E+08
 
   -0.53209E+08         0.33227E+06         0.00000E+00
    0.33227E+06        -0.49990E+08         0.00000E+00
    0.00000E+00         0.00000E+00        -0.51471E+08
 
   -0.53132E+08         0.36902E+06         0.00000E+00
    0.36902E+06        -0.49987E+08         0.00000E+00
    0.00000E+00         0.00000E+00        -0.51455E+08
 
   -0.53056E+08         0.40453E+06         0.00000E+00
    0.40453E+06        -0.49984E+08         0.00000E+00
    0.00000E+00         0.00000E+00        -0.51439E+08
 
   -0.52982E+08         0.43893E+06         0.00000E+00
    0.43893E+06        -0.49980E+08         0.00000E+00
    0.00000E+00         0.00000E+00        -0.51424E+08
 
   -0.52911E+08         0.47235E+06         0.00000E+00
    0.47235E+06        -0.49976E+08         0.00000E+00
    0.00000E+00         0.00000E+00        -0.51409E+08
 
   -0.52841E+08         0.50491E+06         0.00000E+00
    0.50491E+06        -0.49972E+08         0.00000E+00
    0.00000E+00         0.00000E+00        -0.51394E+08
 
   -0.52773E+08         0.53673E+06         0.00000E+00
    0.53673E+06        -0.49967E+08         0.00000E+00
    0.00000E+00         0.00000E+00        -0.51379E+08
 
   -0.52707E+08         0.56790E+06         0.00000E+00
    0.56790E+06        -0.49962E+08         0.00000E+00
    0.00000E+00         0.00000E+00        -0.51365E+08
 
   -0.52643E+08         0.59853E+06         0.00000E+00
    0.59853E+06        -0.49957E+08         0.00000E+00
    0.00000E+00         0.00000E+00        -0.51351E+08
 
   -0.52581E+08         0.62871E+06         0.00000E+00
    0.62871E+06        -0.49952E+08         0.00000E+00
    0.00000E+00         0.00000E+00        -0.51338E+08
 
   -0.52521E+08         0.65852E+06         0.00000E+00
    0.65852E+06        -0.49947E+08         0.00000E+00
    0.00000E+00         0.00000E+00        -0.51325E+08
 
   -0.52462E+08         0.68806E+06         0.00000E+00
    0.68806E+06        -0.49942E+08         0.00000E+00
    0.00000E+00         0.00000E+00        -0.51312E+08
 
   -0.52404E+08         0.71738E+06         0.00000E+00
    0.71738E+06        -0.49936E+08         0.00000E+00
    0.00000E+00         0.00000E+00        -0.51299E+08
 
   -0.52348E+08         0.74655E+06         0.00000E+00
    0.74655E+06        -0.49931E+08         0.00000E+00
    0.00000E+00         0.00000E+00        -0.51287E+08
 
   -0.52294E+08         0.77564E+06         0.00000E+00
    0.77564E+06        -0.49926E+08         0.00000E+00
    0.00000E+00         0.00000E+00        -0.51275E+08
 
   -0.52241E+08         0.80469E+06         0.00000E+00
    0.80469E+06        -0.49922E+08         0.00000E+00
    0.00000E+00         0.00000E+00        -0.51264E+08
 
   -0.52189E+08         0.83375E+06         0.00000E+00
    0.83375E+06        -0.49917E+08         0.00000E+00
    0.00000E+00         0.00000E+00        -0.51252E+08
 
   -0.52138E+08         0.86287E+06         0.00000E+00
    0.86287E+06        -0.49913E+08         0.00000E+00
    0.00000E+00         0.00000E+00        -0.51241E+08
 
   -0.52089E+08         0.89208E+06         0.00000E+00
    0.89208E+06        -0.49909E+08         0.00000E+00
    0.00000E+00         0.00000E+00        -0.51231E+08
 
   -0.52040E+08         0.92141E+06         0.00000E+00
    0.92141E+06        -0.49906E+08         0.00000E+00
    0.00000E+00         0.00000E+00        -0.51220E+08
 
   -0.51993E+08         0.95088E+06         0.00000E+00
    0.95088E+06        -0.49903E+08         0.00000E+00
    0.00000E+00         0.00000E+00        -0.51210E+08
 
   -0.51946E+08         0.98050E+06         0.00000E+00
    0.98050E+06        -0.49901E+08         0.00000E+00
    0.00000E+00         0.00000E+00        -0.51200E+08
 
   -0.51900E+08         0.10103E+07         0.00000E+00
    0.10103E+07        -0.49899E+08         0.00000E+00
    0.00000E+00         0.00000E+00        -0.51191E+08
 
   -0.51855E+08         0.10403E+07         0.00000E+00
    0.10403E+07        -0.49898E+08         0.00000E+00
    0.00000E+00         0.00000E+00        -0.51182E+08
 
   -0.51810E+08         0.10704E+07         0.00000E+00
    0.10704E+07        -0.49897E+08         0.00000E+00
    0.00000E+00         0.00000E+00        -0.51173E+08
 
   -0.51767E+08         0.11008E+07         0.00000E+00
    0.11008E+07        -0.49897E+08         0.00000E+00
    0.00000E+00         0.00000E+00        -0.51164E+08
 
   -0.51723E+08         0.11313E+07         0.00000E+00
    0.11313E+07        -0.49898E+08         0.00000E+00
    0.00000E+00         0.00000E+00        -0.51155E+08
 
   -0.51680E+08         0.11620E+07         0.00000E+00
    0.11620E+07        -0.49900E+08         0.00000E+00
    0.00000E+00         0.00000E+00        -0.51147E+08
 
   -0.51638E+08         0.11928E+07         0.00000E+00
    0.11928E+07        -0.49902E+08         0.00000E+00
    0.00000E+00         0.00000E+00        -0.51139E+08
 
   -0.51596E+08         0.12238E+07         0.00000E+00
    0.12238E+07        -0.49906E+08         0.00000E+00
    0.00000E+00         0.00000E+00        -0.51132E+08
 
   -0.51554E+08         0.12549E+07         0.00000E+00
    0.12549E+07        -0.49910E+08         0.00000E+00
    0.00000E+00         0.00000E+00        -0.51124E+08
 
   -0.51513E+08         0.12860E+07         0.00000E+00
    0.12860E+07        -0.49916E+08         0.00000E+00
    0.00000E+00         0.00000E+00        -0.51117E+08
 
   -0.51472E+08         0.13173E+07         0.00000E+00
    0.13173E+07        -0.49922E+08         0.00000E+00
    0.00000E+00         0.00000E+00        -0.51110E+08
 
   -0.51431E+08         0.13485E+07         0.00000E+00
    0.13485E+07        -0.49929E+08         0.00000E+00
    0.00000E+00         0.00000E+00        -0.51103E+08
 
   -0.51390E+08         0.13798E+07         0.00000E+00
    0.13798E+07        -0.49937E+08         0.00000E+00
    0.00000E+00         0.00000E+00        -0.51097E+08
 
   -0.51350E+08         0.14111E+07         0.00000E+00
    0.14111E+07        -0.49946E+08         0.00000E+00
    0.00000E+00         0.00000E+00        -0.51090E+08
 
   -0.51310E+08         0.14423E+07         0.00000E+00
    0.14423E+07        -0.49957E+08         0.00000E+00
    0.00000E+00         0.00000E+00        -0.51084E+08
 
   -0.51269E+08         0.14734E+07         0.00000E+00
    0.14734E+07        -0.49968E+08         0.00000E+00
    0.00000E+00         0.00000E+00        -0.51079E+08
 
   -0.51229E+08         0.15044E+07         0.00000E+00
    0.15044E+07        -0.49980E+08         0.00000E+00
    0.00000E+00         0.00000E+00        -0.51073E+08
 
   -0.51190E+08         0.15352E+07         0.00000E+00
    0.15352E+07        -0.49994E+08         0.00000E+00
    0.00000E+00         0.00000E+00        -0.51068E+08
 
   -0.51150E+08         0.15659E+07         0.00000E+00
    0.15659E+07        -0.50008E+08         0.00000E+00
    0.00000E+00         0.00000E+00        -0.51063E+08
 
   -0.51110E+08         0.15963E+07         0.00000E+00
    0.15963E+07        -0.50023E+08         0.00000E+00
    0.00000E+00         0.00000E+00        -0.51058E+08
 
   -0.51071E+08         0.16265E+07         0.00000E+00
    0.16265E+07        -0.50040E+08         0.00000E+00
    0.00000E+00         0.00000E+00        -0.51053E+08
 
   -0.53554E+08         0.28115E+05         0.00000E+00
    0.28115E+05        -0.50001E+08         0.00000E+00
    0.00000E+00         0.00000E+00        -0.51410E+08
 
   -0.53473E+08         0.78783E+05         0.00000E+00
    0.78783E+05        -0.50001E+08         0.00000E+00
    0.00000E+00         0.00000E+00        -0.51394E+08
 
   -0.53394E+08         0.12726E+06         0.00000E+00
    0.12726E+06        -0.50001E+08         0.00000E+00
    0.00000E+00         0.00000E+00        -0.51378E+08
 
   -0.53316E+08         0.17368E+06         0.00000E+00
    0.17368E+06        -0.50000E+08         0.00000E+00
    0.00000E+00         0.00000E+00        -0.51363E+08
 
   -0.53240E+08         0.21818E+06         0.00000E+00
    0.21818E+06        -0.50000E+08         0.00000E+00
    0.00000E+00         0.00000E+00        -0.51347E+08
 
   -0.53165E+08         0.26088E+06         0.00000E+00
    0.26088E+06        -0.50000E+08         0.00000E+00
    0.00000E+00         0.00000E+00        -0.51332E+08
 
   -0.53091E+08         0.30192E+06         0.00000E+00
    0.30192E+06        -0.49999E+08         0.00000E+00
    0.00000E+00         0.00000E+00        -0.51317E+08
 
   -0.53018E+08         0.34142E+06         0.00000E+00
    0.34142E+06        -0.49998E+08         0.00000E+00
    0.00000E+00         0.00000E+00        -0.51303E+08
 
   -0.52947E+08         0.37950E+06         0.00000E+00
    0.37950E+06        -0.49997E+08         0.00000E+00
    0.00000E+00         0.00000E+00        -0.51288E+08
 
   -0.52878E+08         0.41626E+06         0.00000E+00
    0.41626E+06        -0.49996E+08         0.00000E+00
    0.00000E+00         0.00000E+00        -0.51274E+08
 
   -0.52810E+08         0.45183E+06         0.00000E+00
    0.45183E+06        -0.49995E+08         0.00000E+00
    0.00000E+00         0.00000E+00        -0.51260E+08
 
   -0.52743E+08         0.48630E+06         0.00000E+00
    0.48630E+06        -0.49993E+08         0.00000E+00
    0.00000E+00         0.00000E+00        -0.51247E+08
 
   -0.52678E+08         0.51977E+06         0.00000E+00
    0.51977E+06        -0.49992E+08         0.00000E+00
    0.00000E+00         0.00000E+00        -0.51233E+08
 
   -0.52614E+08         0.55235E+06         0.00000E+00
    0.55235E+06        -0.49990E+08         0.00000E+00
    0.00000E+00         0.00000E+00        -0.51220E+08
 
   -0.52551E+08         0.58412E+06         0.00000E+00
    0.58412E+06        -0.49989E+08         0.00000E+00
    0.00000E+00         0.00000E+00        -0.51207E+08
 
   -0.52490E+08         0.61516E+06         0.00000E+00
    0.61516E+06        -0.49987E+08         0.00000E+00
    0.00000E+00         0.00000E+00        -0.51195E+08
 
   -0.52431E+08         0.64557E+06         0.00000E+00
    0.64557E+06        -0.49985E+08         0.00000E+00
    0.00000E+00         0.00000E+00        -0.51183E+08
 
   -0.52372E+08         0.67541E+06         0.00000E+00
    0.67541E+06        -0.49983E+08         0.00000E+00
    0.00000E+00         0.00000E+00        -0.51171E+08
 
   -0.52315E+08         0.70475E+06         0.00000E+00
    0.70475E+06        -0.49982E+08         0.00000E+00
    0.00000E+00         0.00000E+00        -0.51159E+08
 
   -0.52259E+08         0.73366E+06         0.00000E+00
    0.73366E+06        -0.49980E+08         0.00000E+00
    0.00000E+00         0.00000E+00        -0.51147E+08
 
   -0.52204E+08         0.76219E+06         0.00000E+00
    0.76219E+06        -0.49978E+08         0.00000E+00
    0.00000E+00         0.00000E+00        -0.51136E+08
 
   -0.52151E+08         0.79042E+06         0.00000E+00
    0.79042E+06        -0.49977E+08         0.00000E+00
    0.00000E+00         0.00000E+00        -0.51125E+08
 
   -0.52098E+08         0.81837E+06         0.00000E+00
    0.81837E+06        -0.49976E+08         0.00000E+00
    0.00000E+00         0.00000E+00        -0.51114E+08
 
   -0.52047E+08         0.84611E+06         0.00000E+00
    0.84611E+06        -0.49975E+08         0.00000E+00
    0.00000E+00         0.00000E+00        -0.51104E+08
 
   -0.51996E+08         0.87366E+06         0.00000E+00
    0.87366E+06        -0.49974E+08         0.00000E+00
    0.00000E+00         0.00000E+00        -0.51094E+08
 
   -0.51947E+08         0.90107E+06         0.00000E+00
    0.90107E+06        -0.49974E+08         0.00000E+00
    0.00000E+00         0.00000E+00        -0.51084E+08
 
   -0.51898E+08         0.92837E+06         0.00000E+00
    0.92837E+06        -0.49974E+08         0.00000E+00
    0.00000E+00         0.00000E+00        -0.51074E+08
 
   -0.51851E+08         0.95558E+06         0.00000E+00
    0.95558E+06        -0.49974E+08         0.00000E+00
    0.00000E+00         0.00000E+00        -0.51065E+08
 
   -0.51804E+08         0.98272E+06         0.00000E+00
    0.98272E+06        -0.49975E+08         0.00000E+00
    0.00000E+00         0.00000E+00        -0.51055E+08
 
   -0.51758E+08         0.10098E+07         0.00000E+00
    0.10098E+07        -0.49977E+08         0.00000E+00
    0.00000E+00         0.00000E+00        -0.51046E+08
 
   -0.51712E+08         0.10369E+07         0.00000E+00
    0.10369E+07        -0.49978E+08         0.00000E+00
    0.00000E+00         0.00000E+00        -0.51038E+08
 
   -0.51667E+08         0.10639E+07         0.00000E+00
    0.10639E+07        -0.49981E+08         0.00000E+00
    0.00000E+00         0.00000E+00        -0.51029E+08
 
   -0.51623E+08         0.10910E+07         0.00000E+00
    0.10910E+07        -0.49984E+08         0.00000E+00
    0.00000E+00         0.00000E+00        -0.51021E+08
 
   -0.51579E+08         0.11180E+07         0.00000E+00
    0.11180E+07        -0.49987E+08         0.00000E+00
    0.00000E+00         0.00000E+00        -0.51013E+08
 
   -0.51536E+08         0.11450E+07         0.00000E+00
    0.11450E+07        -0.49991E+08         0.00000E+00
    0.00000E+00         0.00000E+00        -0.51005E+08
 
   -0.51493E+08         0.11720E+07         0.00000E+00
    0.11720E+07        -0.49996E+08         0.00000E+00
    0.00000E+00         0.00000E+00        -0.50997E+08
 
   -0.51451E+08         0.11990E+07         0.00000E+00
    0.11990E+07        -0.50002E+08         0.00000E+00
    0.00000E+00         0.00000E+00        -0.50990E+08
 
   -0.51409E+08         0.12260E+07         0.00000E+00
    0.12260E+07        -0.50008E+08         0.00000E+00
    0.00000E+00         0.00000E+00        -0.50983E+08
 
   -0.51368E+08         0.12529E+07         0.00000E+00
    0.12529E+07        -0.50015E+08         0.00000E+00
    0.00000E+00         0.00000E+00        -0.50976E+08
 
   -0.51327E+08         0.12798E+07         0.00000E+00
    0.12798E+07        -0.50023E+08         0.00000E+00
    0.00000E+00         0.00000E+00        -0.50969E+08
 
   -0.51286E+08         0.13067E+07         0.00000E+00
    0.13067E+07        -0.50032E+08         0.00000E+00
    0.00000E+00         0.00000E+00        -0.50963E+08
 
   -0.51246E+08         0.13334E+07         0.00000E+00
    0.13334E+07        -0.50041E+08         0.00000E+00
    0.00000E+00         0.00000E+00        -0.50957E+08
 
   -0.51205E+08         0.13601E+07         0.00000E+00
    0.13601E+07        -0.50051E+08         0.00000E+00
    0.00000E+00         0.00000E+00        -0.50951E+08
 
   -0.51166E+08         0.13867E+07         0.00000E+00
    0.13867E+07        -0.50062E+08         0.00000E+00
    0.00000E+00         0.00000E+00        -0.50945E+08
 
   -0.51126E+08         0.14131E+07         0.00000E+00
    0.14131E+07        -0.50074E+08         0.00000E+00
    0.00000E+00         0.00000E+00        -0.50940E+08
 
   -0.51087E+08         0.14395E+07         0.00000E+00
    0.14395E+07        -0.50087E+08         0.00000E+00
    0.00000E+00         0.00000E+00        -0.50934E+08
 
   -0.51048E+08         0.14656E+07         0.00000E+00
    0.14656E+07        -0.50100E+08         0.00000E+00
    0.00000E+00         0.00000E+00        -0.50929E+08
 
   -0.51009E+08         0.14916E+07         0.00000E+00
    0.14916E+07        -0.50115E+08         0.00000E+00
    0.00000E+00         0.00000E+00        -0.50924E+08
 
   -0.50970E+08         0.15174E+07         0.00000E+00
    0.15174E+07        -0.50130E+08         0.00000E+00
    0.00000E+00         0.00000E+00        -0.50920E+08
 
   -0.50932E+08         0.15430E+07         0.00000E+00
    0.15430E+07        -0.50146E+08         0.00000E+00
    0.00000E+00         0.00000E+00        -0.50915E+08
 
   -0.53295E+08         0.27698E+05         0.00000E+00
    0.27698E+05        -0.50000E+08         0.00000E+00
    0.00000E+00         0.00000E+00        -0.51248E+08
 
   -0.53226E+08         0.78065E+05         0.00000E+00
    0.78065E+05        -0.50001E+08         0.00000E+00
    0.00000E+00         0.00000E+00        -0.51234E+08
 
   -0.53157E+08         0.12642E+06         0.00000E+00
    0.12642E+06        -0.50001E+08         0.00000E+00
    0.00000E+00         0.00000E+00        -0.51220E+08
 
   -0.53088E+08         0.17288E+06         0.00000E+00
    0.17288E+06        -0.50002E+08         0.00000E+00
    0.00000E+00         0.00000E+00        -0.51207E+08
 
   -0.53021E+08         0.21753E+06         0.00000E+00
    0.21753E+06        -0.50002E+08         0.00000E+00
    0.00000E+00         0.00000E+00        -0.51193E+08
 
   -0.52954E+08         0.26049E+06         0.00000E+00
    0.26049E+06        -0.50003E+08         0.00000E+00
    0.00000E+00         0.00000E+00        -0.51180E+08
 
   -0.52888E+08         0.30184E+06         0.00000E+00
    0.30184E+06        -0.50003E+08         0.00000E+00
    0.00000E+00         0.00000E+00        -0.51167E+08
 
   -0.52823E+08         0.34169E+06         0.00000E+00
    0.34169E+06        -0.50004E+08         0.00000E+00
    0.00000E+00         0.00000E+00        -0.51154E+08
 
   -0.52759E+08         0.38014E+06         0.00000E+00
    0.38014E+06        -0.50005E+08         0.00000E+00
    0.00000E+00         0.00000E+00        -0.51141E+08
 
   -0.52696E+08         0.41727E+06         0.00000E+00
    0.41727E+06        -0.50005E+08         0.00000E+00
    0.00000E+00         0.00000E+00        -0.51129E+08
 
   -0.52633E+08         0.45318E+06         0.00000E+00
    0.45318E+06        -0.50006E+08         0.00000E+00
    0.00000E+00         0.00000E+00        -0.51117E+08
 
   -0.52572E+08         0.48794E+06         0.00000E+00
    0.48794E+06        -0.50007E+08         0.00000E+00
    0.00000E+00         0.00000E+00        -0.51104E+08
 
   -0.52512E+08         0.52165E+06         0.00000E+00
    0.52165E+06        -0.50008E+08         0.00000E+00
    0.00000E+00         0.00000E+00        -0.51093E+08
 
   -0.52452E+08         0.55438E+06         0.00000E+00
    0.55438E+06        -0.50008E+08         0.00000E+00
    0.00000E+00         0.00000E+00        -0.51081E+08
 
   -0.52394E+08         0.58621E+06         0.00000E+00
    0.58621E+06        -0.50009E+08         0.00000E+00
    0.00000E+00         0.00000E+00        -0.51069E+08
 
   -0.52337E+08         0.61720E+06         0.00000E+00
    0.61720E+06        -0.50010E+08         0.00000E+00
    0.00000E+00         0.00000E+00        -0.51058E+08
 
   -0.52280E+08         0.64744E+06         0.00000E+00
    0.64744E+06        -0.50011E+08         0.00000E+00
    0.00000E+00         0.00000E+00        -0.51047E+08
 
   -0.52225E+08         0.67697E+06         0.00000E+00
    0.67697E+06        -0.50012E+08         0.00000E+00
    0.00000E+00         0.00000E+00        -0.51036E+08
 
   -0.52170E+08         0.70588E+06         0.00000E+00
    0.70588E+06        -0.50013E+08         0.00000E+00
    0.00000E+00         0.00000E+00        -0.51025E+08
 
   -0.52117E+08         0.73420E+06         0.00000E+00
    0.73420E+06        -0.50014E+08         0.00000E+00
    0.00000E+00         0.00000E+00        -0.51015E+08
 
   -0.52064E+08         0.76200E+06         0.00000E+00
    0.76200E+06        -0.50015E+08         0.00000E+00
    0.00000E+00         0.00000E+00        -0.51005E+08
 
   -0.52013E+08         0.78932E+06         0.00000E+00
    0.78932E+06        -0.50016E+08         0.00000E+00
    0.00000E+00         0.00000E+00        -0.50995E+08
 
   -0.51962E+08         0.81621E+06         0.00000E+00
    0.81621E+06        -0.50018E+08         0.00000E+00
    0.00000E+00         0.00000E+00        -0.50985E+08
 
   -0.51912E+08         0.84272E+06         0.00000E+00
    0.84272E+06        -0.50020E+08         0.00000E+00
    0.00000E+00         0.00000E+00        -0.50975E+08
 
   -0.51863E+08         0.86888E+06         0.00000E+00
    0.86888E+06        -0.50022E+08         0.00000E+00
    0.00000E+00         0.00000E+00        -0.50966E+08
 
   -0.51814E+08         0.89472E+06         0.00000E+00
    0.89472E+06        -0.50025E+08         0.00000E+00
    0.00000E+00         0.00000E+00        -0.50956E+08
 
   -0.51767E+08         0.92028E+06         0.00000E+00
    0.92028E+06        -0.50027E+08         0.00000E+00
    0.00000E+00         0.00000E+00        -0.50947E+08
 
   -0.51720E+08         0.94559E+06         0.00000E+00
    0.94559E+06        -0.50030E+08         0.00000E+00
    0.00000E+00         0.00000E+00        -0.50939E+08
 
   -0.51673E+08         0.97067E+06         0.00000E+00
    0.97067E+06        -0.50034E+08         0.00000E+00
    0.00000E+00         0.00000E+00        -0.50930E+08
 
   -0.51628E+08         0.99554E+06         0.00000E+00
    0.99554E+06        -0.50038E+08         0.00000E+00
    0.00000E+00         0.00000E+00        -0.50922E+08
 
   -0.51583E+08         0.10202E+07         0.00000E+00
    0.10202E+07        -0.50042E+08         0.00000E+00
    0.00000E+00         0.00000E+00        -0.50914E+08
 
   -0.51538E+08         0.10447E+07         0.00000E+00
    0.10447E+07        -0.50046E+08         0.00000E+00
    0.00000E+00         0.00000E+00        -0.50906E+08
 
   -0.51495E+08         0.10691E+07         0.00000E+00
    0.10691E+07        -0.50052E+08         0.00000E+00
    0.00000E+00         0.00000E+00        -0.50898E+08
 
   -0.51451E+08         0.10933E+07         0.00000E+00
    0.10933E+07        -0.50057E+08         0.00000E+00
    0.00000E+00         0.00000E+00        -0.50890E+08
 
   -0.51409E+08         0.11174E+07         0.00000E+00
    0.11174E+07        -0.50063E+08         0.00000E+00
    0.00000E+00         0.00000E+00        -0.50883E+08
 
   -0.51366E+08         0.11413E+07         0.00000E+00
    0.11413E+07        -0.50070E+08         0.00000E+00
    0.00000E+00         0.00000E+00        -0.50876E+08
 
   -0.51324E+08         0.11651E+07         0.00000E+00
    0.11651E+07        -0.50077E+08         0.00000E+00
    0.00000E+00         0.00000E+00        -0.50869E+08
 
   -0.51283E+08         0.11888E+07         0.00000E+00
    0.11888E+07        -0.50085E+08         0.00000E+00
    0.00000E+00         0.00000E+00        -0.50862E+08
 
   -0.51242E+08         0.12123E+07         0.00000E+00
    0.12123E+07        -0.50094E+08         0.00000E+00
    0.00000E+00         0.00000E+00        -0.50856E+08
 
   -0.51201E+08         0.12357E+07         0.00000E+00
    0.12357E+07        -0.50103E+08         0.00000E+00
    0.00000E+00         0.00000E+00        -0.50850E+08
 
   -0.51161E+08         0.12590E+07         0.00000E+00
    0.12590E+07        -0.50113E+08         0.00000E+00
    0.00000E+00         0.00000E+00        -0.50843E+08
 
   -0.51121E+08         0.12821E+07         0.00000E+00
    0.12821E+07        -0.50123E+08         0.00000E+00
    0.00000E+00         0.00000E+00        -0.50837E+08
 
   -0.51082E+08         0.13051E+07         0.00000E+00
    0.13051E+07        -0.50134E+08         0.00000E+00
    0.00000E+00         0.00000E+00        -0.50832E+08
 
   -0.51042E+08         0.13279E+07         0.00000E+00
    0.13279E+07        -0.50146E+08         0.00000E+00
    0.00000E+00         0.00000E+00        -0.50826E+08
 
   -0.51004E+08         0.13506E+07         0.00000E+00
    0.13506E+07        -0.50158E+08         0.00000E+00
    0.00000E+00         0.00000E+00        -0.50821E+08
 
   -0.50965E+08         0.13732E+07         0.00000E+00
    0.13732E+07        -0.50171E+08         0.00000E+00
    0.00000E+00         0.00000E+00        -0.50816E+08
 
   -0.50927E+08         0.13955E+07         0.00000E+00
    0.13955E+07        -0.50185E+08         0.00000E+00
    0.00000E+00         0.00000E+00        -0.50811E+08
 
   -0.50889E+08         0.14177E+07         0.00000E+00
    0.14177E+07        -0.50199E+08         0.00000E+00
    0.00000E+00         0.00000E+00        -0.50806E+08
 
   -0.50851E+08         0.14398E+07         0.00000E+00
    0.14398E+07        -0.50214E+08         0.00000E+00
    0.00000E+00         0.00000E+00        -0.50802E+08
 
   -0.50814E+08         0.14616E+07         0.00000E+00
    0.14616E+07        -0.50230E+08         0.00000E+00
    0.00000E+00         0.00000E+00        -0.50797E+08
 
   -0.53041E+08         0.26790E+05         0.00000E+00
    0.26790E+05        -0.50000E+08         0.00000E+00
    0.00000E+00         0.00000E+00        -0.51104E+08
 
   -0.52981E+08         0.75894E+05         0.00000E+00
    0.75894E+05        -0.50001E+08         0.00000E+00
    0.00000E+00         0.00000E+00        -0.51092E+08
 
   -0.52922E+08         0.12319E+06         0.00000E+00
    0.12319E+06        -0.50001E+08         0.00000E+00
    0.00000E+00         0.00000E+00        -0.51080E+08
 
   -0.52862E+08         0.16875E+06         0.00000E+00
    0.16875E+06        -0.50002E+08         0.00000E+00
    0.00000E+00         0.00000E+00        -0.51068E+08
 
   -0.52803E+08         0.21267E+06         0.00000E+00
    0.21267E+06        -0.50004E+08         0.00000E+00
    0.00000E+00         0.00000E+00        -0.51057E+08
 
   -0.52744E+08         0.25501E+06         0.00000E+00
    0.25501E+06        -0.50005E+08         0.00000E+00
    0.00000E+00         0.00000E+00        -0.51045E+08
 
   -0.52686E+08         0.29585E+06         0.00000E+00
    0.29585E+06        -0.50007E+08         0.00000E+00
    0.00000E+00         0.00000E+00        -0.51034E+08
 
   -0.52628E+08         0.33527E+06         0.00000E+00
    0.33527E+06        -0.50008E+08         0.00000E+00
    0.00000E+00         0.00000E+00        -0.51023E+08
 
   -0.52570E+08         0.37334E+06         0.00000E+00
    0.37334E+06        -0.50010E+08         0.00000E+00
    0.00000E+00         0.00000E+00        -0.51012E+08
 
   -0.52514E+08         0.41014E+06         0.00000E+00
    0.41014E+06        -0.50012E+08         0.00000E+00
    0.00000E+00         0.00000E+00        -0.51001E+08
 
   -0.52457E+08         0.44573E+06         0.00000E+00
    0.44573E+06        -0.50014E+08         0.00000E+00
    0.00000E+00         0.00000E+00        -0.50990E+08
 
   -0.52401E+08         0.48019E+06         0.00000E+00
    0.48019E+06        -0.50017E+08         0.00000E+00
    0.00000E+00         0.00000E+00        -0.50979E+08
 
   -0.52346E+08         0.51358E+06         0.00000E+00
    0.51358E+06        -0.50019E+08         0.00000E+00
    0.00000E+00         0.00000E+00        -0.50968E+08
 
   -0.52292E+08         0.54596E+06         0.00000E+00
    0.54596E+06        -0.50022E+08         0.00000E+00
    0.00000E+00         0.00000E+00        -0.50958E+08
 
   -0.52238E+08         0.57740E+06         0.00000E+00
    0.57740E+06        -0.50024E+08         0.00000E+00
    0.00000E+00         0.00000E+00        -0.50948E+08
 
   -0.52185E+08         0.60796E+06         0.00000E+00
    0.60796E+06        -0.50027E+08         0.00000E+00
    0.00000E+00         0.00000E+00        -0.50938E+08
 
   -0.52132E+08         0.63770E+06         0.00000E+00
    0.63770E+06        -0.50030E+08         0.00000E+00
    0.00000E+00         0.00000E+00        -0.50928E+08
 
   -0.52080E+08         0.66666E+06         0.00000E+00
    0.66666E+06        -0.50033E+08         0.00000E+00
    0.00000E+00         0.00000E+00        -0.50918E+08
 
   -0.52029E+08         0.69491E+06         0.00000E+00
    0.69491E+06        -0.50036E+08         0.00000E+00
    0.00000E+00         0.00000E+00        -0.50908E+08
 
   -0.51978E+08         0.72249E+06         0.00000E+00
    0.72249E+06        -0.50039E+08         0.00000E+00
    0.00000E+00         0.00000E+00        -0.50899E+08
 
   -0.51929E+08         0.74944E+06         0.00000E+00
    0.74944E+06        -0.50042E+08         0.00000E+00
    0.00000E+00         0.00000E+00        -0.50890E+08
 
   -0.51879E+08         0.77582E+06         0.00000E+00
    0.77582E+06        -0.50046E+08         0.00000E+00
    0.00000E+00         0.00000E+00        -0.50881E+08
 
   -0.51831E+08         0.80166E+06         0.00000E+00
    0.80166E+06        -0.50050E+08         0.00000E+00
    0.00000E+00         0.00000E+00        -0.50872E+08
 
   -0.51783E+08         0.82700E+06         0.00000E+00
    0.82700E+06        -0.50054E+08         0.00000E+00
    0.00000E+00         0.00000E+00        -0.50863E+08
 
   -0.51736E+08         0.85188E+06         0.00000E+00
    0.85188E+06        -0.50058E+08         0.00000E+00
    0.00000E+00         0.00000E+00        -0.50854E+08
 
   -0.51689E+08         0.87633E+06         0.00000E+00
    0.87633E+06        -0.50063E+08         0.00000E+00
    0.00000E+00         0.00000E+00        -0.50846E+08
 
   -0.51643E+08         0.90038E+06         0.00000E+00
    0.90038E+06        -0.50068E+08         0.00000E+00
    0.00000E+00         0.00000E+00        -0.50838E+08
 
   -0.51598E+08         0.92406E+06         0.00000E+00
    0.92406E+06        -0.50073E+08         0.00000E+00
    0.00000E+00         0.00000E+00        -0.50830E+08
 
   -0.51553E+08         0.94739E+06         0.00000E+00
    0.94739E+06        -0.50078E+08         0.00000E+00
    0.00000E+00         0.00000E+00        -0.50822E+08
 
   -0.51509E+08         0.97040E+06         0.00000E+00
    0.97040E+06        -0.50084E+08         0.00000E+00
    0.00000E+00         0.00000E+00        -0.50814E+08
 
   -0.51465E+08         0.99310E+06         0.00000E+00
    0.99310E+06        -0.50090E+08         0.00000E+00
    0.00000E+00         0.00000E+00        -0.50806E+08
 
   -0.51422E+08         0.10155E+07         0.00000E+00
    0.10155E+07        -0.50096E+08         0.00000E+00
    0.00000E+00         0.00000E+00        -0.50799E+08
 
   -0.51379E+08         0.10377E+07         0.00000E+00
    0.10377E+07        -0.50103E+08         0.00000E+00
    0.00000E+00         0.00000E+00        -0.50792E+08
 
   -0.51337E+08         0.10596E+07         0.00000E+00
    0.10596E+07        -0.50111E+08         0.00000E+00
    0.00000E+00         0.00000E+00        -0.50785E+08
 
   -0.51295E+08         0.10812E+07         0.00000E+00
    0.10812E+07        -0.50118E+08         0.00000E+00
    0.00000E+00         0.00000E+00        -0.50778E+08
 
   -0.51253E+08         0.11027E+07         0.00000E+00
    0.11027E+07        -0.50126E+08         0.00000E+00
    0.00000E+00         0.00000E+00        -0.50771E+08
 
   -0.51212E+08         0.11239E+07         0.00000E+00
    0.11239E+07        -0.50135E+08         0.00000E+00
    0.00000E+00         0.00000E+00        -0.50765E+08
 
   -0.51172E+08         0.11449E+07         0.00000E+00
    0.11449E+07        -0.50144E+08         0.00000E+00
    0.00000E+00         0.00000E+00        -0.50759E+08
 
   -0.51132E+08         0.11657E+07         0.00000E+00
    0.11657E+07        -0.50154E+08         0.00000E+00
    0.00000E+00         0.00000E+00        -0.50752E+08
 
   -0.51092E+08         0.11863E+07         0.00000E+00
    0.11863E+07        -0.50164E+08         0.00000E+00
    0.00000E+00         0.00000E+00        -0.50747E+08
 
   -0.51052E+08         0.12067E+07         0.00000E+00
    0.12067E+07        -0.50174E+08         0.00000E+00
    0.00000E+00         0.00000E+00        -0.50741E+08
 
   -0.51013E+08         0.12269E+07         0.00000E+00
    0.12269E+07        -0.50185E+08         0.00000E+00
    0.00000E+00         0.00000E+00        -0.50735E+08
 
   -0.50975E+08         0.12469E+07         0.00000E+00
    0.12469E+07        -0.50197E+08         0.00000E+00
    0.00000E+00         0.00000E+00        -0.50730E+08
 
   -0.50936E+08         0.12667E+07         0.00000E+00
    0.12667E+07        -0.50209E+08         0.00000E+00
    0.00000E+00         0.00000E+00        -0.50724E+08
 
   -0.50898E+08         0.12864E+07         0.00000E+00
    0.12864E+07        -0.50222E+08         0.00000E+00
    0.00000E+00         0.00000E+00        -0.50719E+08
 
   -0.50860E+08         0.13058E+07         0.00000E+00
    0.13058E+07        -0.50235E+08         0.00000E+00
    0.00000E+00         0.00000E+00        -0.50715E+08
 
   -0.50823E+08         0.13251E+07         0.00000E+00
    0.13251E+07        -0.50249E+08         0.00000E+00
    0.00000E+00         0.00000E+00        -0.50710E+08
 
   -0.50786E+08         0.13442E+07         0.00000E+00
    0.13442E+07        -0.50263E+08         0.00000E+00
    0.00000E+00         0.00000E+00        -0.50705E+08
 
   -0.50749E+08         0.13632E+07         0.00000E+00
    0.13632E+07        -0.50278E+08         0.00000E+00
    0.00000E+00         0.00000E+00        -0.50701E+08
 
   -0.50713E+08         0.13819E+07         0.00000E+00
    0.13819E+07        -0.50294E+08         0.00000E+00
    0.00000E+00         0.00000E+00        -0.50697E+08
 
   -0.52796E+08         0.25547E+05         0.00000E+00
    0.25547E+05        -0.50000E+08         0.00000E+00
    0.00000E+00         0.00000E+00        -0.50976E+08
 
   -0.52745E+08         0.72710E+05         0.00000E+00
    0.72710E+05        -0.50001E+08         0.00000E+00
    0.00000E+00         0.00000E+00        -0.50966E+08
 
   -0.52694E+08         0.11827E+06         0.00000E+00
    0.11827E+06        -0.50002E+08         0.00000E+00
    0.00000E+00         0.00000E+00        -0.50956E+08
 
   -0.52642E+08         0.16228E+06         0.00000E+00
    0.16228E+06        -0.50003E+08         0.00000E+00
    0.00000E+00         0.00000E+00        -0.50946E+08
 
   -0.52591E+08         0.20480E+06         0.00000E+00
    0.20480E+06        -0.50005E+08         0.00000E+00
    0.00000E+00         0.00000E+00        -0.50936E+08
 
   -0.52539E+08         0.24588E+06         0.00000E+00
    0.24588E+06        -0.50007E+08         0.00000E+00
    0.00000E+00         0.00000E+00        -0.50926E+08
 
   -0.52488E+08         0.28560E+06         0.00000E+00
    0.28560E+06        -0.50009E+08         0.00000E+00
    0.00000E+00         0.00000E+00        -0.50916E+08
 
   -0.52436E+08         0.32399E+06         0.00000E+00
    0.32399E+06        -0.50011E+08         0.00000E+00
    0.00000E+00         0.00000E+00        -0.50906E+08
 
   -0.52385E+08         0.36112E+06         0.00000E+00
    0.36112E+06        -0.50014E+08         0.00000E+00
    0.00000E+00         0.00000E+00        -0.50897E+08
 
   -0.52334E+08         0.39705E+06         0.00000E+00
    0.39705E+06        -0.50017E+08         0.00000E+00
    0.00000E+00         0.00000E+00        -0.50887E+08
 
   -0.52284E+08         0.43182E+06         0.00000E+00
    0.43182E+06        -0.50020E+08         0.00000E+00
    0.00000E+00         0.00000E+00        -0.50878E+08
 
   -0.52233E+08         0.46551E+06         0.00000E+00
    0.46551E+06        -0.50024E+08         0.00000E+00
    0.00000E+00         0.00000E+00        -0.50868E+08
 
   -0.52183E+08         0.49814E+06         0.00000E+00
    0.49814E+06        -0.50027E+08         0.00000E+00
    0.00000E+00         0.00000E+00        -0.50859E+08
 
   -0.52134E+08         0.52979E+06         0.00000E+00
    0.52979E+06        -0.50031E+08         0.00000E+00
    0.00000E+00         0.00000E+00        -0.50850E+08
 
   -0.52084E+08         0.56050E+06         0.00000E+00
    0.56050E+06        -0.50035E+08         0.00000E+00
    0.00000E+00         0.00000E+00        -0.50841E+08
 
   -0.52035E+08         0.59031E+06         0.00000E+00
    0.59031E+06        -0.50039E+08         0.00000E+00
    0.00000E+00         0.00000E+00        -0.50832E+08
 
   -0.51987E+08         0.61928E+06         0.00000E+00
    0.61928E+06        -0.50043E+08         0.00000E+00
    0.00000E+00         0.00000E+00        -0.50823E+08
 
   -0.51939E+08         0.64744E+06         0.00000E+00
    0.64744E+06        -0.50048E+08         0.00000E+00
    0.00000E+00         0.00000E+00        -0.50814E+08
 
   -0.51891E+08         0.67485E+06         0.00000E+00
    0.67485E+06        -0.50052E+08         0.00000E+00
    0.00000E+00         0.00000E+00        -0.50806E+08
 
   -0.51844E+08         0.70155E+06         0.00000E+00
    0.70155E+06        -0.50057E+08         0.00000E+00
    0.00000E+00         0.00000E+00        -0.50797E+08
 
   -0.51798E+08         0.72757E+06         0.00000E+00
    0.72757E+06        -0.50062E+08         0.00000E+00
    0.00000E+00         0.00000E+00        -0.50789E+08
 
   -0.51751E+08         0.75295E+06         0.00000E+00
    0.75295E+06        -0.50068E+08         0.00000E+00
    0.00000E+00         0.00000E+00        -0.50781E+08
 
   -0.51706E+08         0.77773E+06         0.00000E+00
    0.77773E+06        -0.50073E+08         0.00000E+00
    0.00000E+00         0.00000E+00        -0.50773E+08
 
   -0.51660E+08         0.80195E+06         0.00000E+00
    0.80195E+06        -0.50079E+08         0.00000E+00
    0.00000E+00         0.00000E+00        -0.50765E+08
 
   -0.51616E+08         0.82563E+06         0.00000E+00
    0.82563E+06        -0.50085E+08         0.00000E+00
    0.00000E+00         0.00000E+00        -0.50757E+08
 
   -0.51571E+08         0.84880E+06         0.00000E+00
    0.84880E+06        -0.50091E+08         0.00000E+00
    0.00000E+00         0.00000E+00        -0.50749E+08
 
   -0.51527E+08         0.87150E+06         0.00000E+00
    0.87150E+06        -0.50097E+08         0.00000E+00
    0.00000E+00         0.00000E+00        -0.50742E+08
 
   -0.51484E+08         0.89374E+06         0.00000E+00
    0.89374E+06        -0.50104E+08         0.00000E+00
    0.00000E+00         0.00000E+00        -0.50734E+08
 
   -0.51441E+08         0.91556E+06         0.00000E+00
    0.91556E+06        -0.50111E+08         0.00000E+00
    0.00000E+00         0.00000E+00        -0.50727E+08
 
   -0.51398E+08         0.93698E+06         0.00000E+00
    0.93698E+06        -0.50118E+08         0.00000E+00
    0.00000E+00         0.00000E+00        -0.50720E+08
 
   -0.51356E+08         0.95802E+06         0.00000E+00
    0.95802E+06        -0.50125E+08         0.00000E+00
    0.00000E+00         0.00000E+00        -0.50713E+08
 
   -0.51315E+08         0.97869E+06         0.00000E+00
    0.97869E+06        -0.50133E+08         0.00000E+00
    0.00000E+00         0.00000E+00        -0.50706E+08
 
   -0.51273E+08         0.99902E+06         0.00000E+00
    0.99902E+06        -0.50141E+08         0.00000E+00
    0.00000E+00         0.00000E+00        -0.50700E+08
 
   -0.51232E+08         0.10190E+07         0.00000E+00
    0.10190E+07        -0.50150E+08         0.00000E+00
    0.00000E+00         0.00000E+00        -0.50693E+08
 
   -0.51192E+08         0.10387E+07         0.00000E+00
    0.10387E+07        -0.50158E+08         0.00000E+00
    0.00000E+00         0.00000E+00        -0.50687E+08
 
   -0.51152E+08         0.10581E+07         0.00000E+00
    0.10581E+07        -0.50168E+08         0.00000E+00
    0.00000E+00         0.00000E+00        -0.50681E+08
 
   -0.51112E+08         0.10772E+07         0.00000E+00
    0.10772E+07        -0.50177E+08         0.00000E+00
    0.00000E+00         0.00000E+00        -0.50675E+08
 
   -0.51073E+08         0.10961E+07         0.00000E+00
    0.10961E+07        -0.50187E+08         0.00000E+00
    0.00000E+00         0.00000E+00        -0.50669E+08
 
   -0.51034E+08         0.11146E+07         0.00000E+00
    0.11146E+07        -0.50198E+08         0.00000E+00
    0.00000E+00         0.00000E+00        -0.50663E+08
 
   -0.50995E+08         0.11329E+07         0.00000E+00
    0.11329E+07        -0.50208E+08         0.00000E+00
    0.00000E+00         0.00000E+00        -0.50658E+08
 
   -0.50957E+08         0.11510E+07         0.00000E+00
    0.11510E+07        -0.50220E+08         0.00000E+00
    0.00000E+00         0.00000E+00        -0.50652E+08
 
   -0.50919E+08         0.11688E+07         0.00000E+00
    0.11688E+07        -0.50231E+08         0.00000E+00
    0.00000E+00         0.00000E+00        -0.50647E+08
 
   -0.50881E+08         0.11864E+07         0.00000E+00
    0.11864E+07        -0.50243E+08         0.00000E+00
    0.00000E+00         0.00000E+00        -0.50642E+08
 
   -0.50844E+08         0.12038E+07         0.00000E+00
    0.12038E+07        -0.50256E+08         0.00000E+00
    0.00000E+00         0.00000E+00        -0.50637E+08
 
   -0.50807E+08         0.12210E+07         0.00000E+00
    0.12210E+07        -0.50269E+08         0.00000E+00
    0.00000E+00         0.00000E+00        -0.50632E+08
 
   -0.50770E+08         0.12380E+07         0.00000E+00
    0.12380E+07        -0.50282E+08         0.00000E+00
    0.00000E+00         0.00000E+00        -0.50627E+08
 
   -0.50733E+08         0.12547E+07         0.00000E+00
    0.12547E+07        -0.50296E+08         0.00000E+00
    0.00000E+00         0.00000E+00        -0.50623E+08
 
   -0.50697E+08         0.12713E+07         0.00000E+00
    0.12713E+07        -0.50310E+08         0.00000E+00
    0.00000E+00         0.00000E+00        -0.50618E+08
 
   -0.50661E+08         0.12877E+07         0.00000E+00
    0.12877E+07        -0.50325E+08         0.00000E+00
    0.00000E+00         0.00000E+00        -0.50614E+08
 
   -0.50626E+08         0.13039E+07         0.00000E+00
    0.13039E+07        -0.50340E+08         0.00000E+00
    0.00000E+00         0.00000E+00        -0.50610E+08
 
   -0.52562E+08         0.24094E+05         0.00000E+00
    0.24094E+05        -0.50000E+08         0.00000E+00
    0.00000E+00         0.00000E+00        -0.50863E+08
 
   -0.52519E+08         0.68866E+05         0.00000E+00
    0.68866E+05        -0.50001E+08         0.00000E+00
    0.00000E+00         0.00000E+00        -0.50855E+08
 
   -0.52475E+08         0.11223E+06         0.00000E+00
    0.11223E+06        -0.50002E+08         0.00000E+00
    0.00000E+00         0.00000E+00        -0.50846E+08
 
   -0.52430E+08         0.15423E+06         0.00000E+00
    0.15423E+06        -0.50003E+08         0.00000E+00
    0.00000E+00         0.00000E+00        -0.50838E+08
 
   -0.52386E+08         0.19490E+06         0.00000E+00
    0.19490E+06        -0.50005E+08         0.00000E+00
    0.00000E+00         0.00000E+00        -0.50829E+08
 
   -0.52341E+08         0.23428E+06         0.00000E+00
    0.23428E+06        -0.50008E+08         0.00000E+00
    0.00000E+00         0.00000E+00        -0.50821E+08
 
   -0.52296E+08         0.27242E+06         0.00000E+00
    0.27242E+06        -0.50010E+08         0.00000E+00
    0.00000E+00         0.00000E+00        -0.50812E+08
 
   -0.52251E+08         0.30936E+06         0.00000E+00
    0.30936E+06        -0.50013E+08         0.00000E+00
    0.00000E+00         0.00000E+00        -0.50804E+08
 
   -0.52206E+08         0.34514E+06         0.00000E+00
    0.34514E+06        -0.50017E+08         0.00000E+00
    0.00000E+00         0.00000E+00        -0.50795E+08
 
   -0.52161E+08         0.37981E+06         0.00000E+00
    0.37981E+06        -0.50020E+08         0.00000E+00
    0.00000E+00         0.00000E+00        -0.50787E+08
 
   -0.52115E+08         0.41339E+06         0.00000E+00
    0.41339E+06        -0.50024E+08         0.00000E+00
    0.00000E+00         0.00000E+00        -0.50779E+08
 
   -0.52070E+08         0.44595E+06         0.00000E+00
    0.44595E+06        -0.50028E+08         0.00000E+00
    0.00000E+00         0.00000E+00        -0.50771E+08
 
   -0.52025E+08         0.47751E+06         0.00000E+00
    0.47751E+06        -0.50033E+08         0.00000E+00
    0.00000E+00         0.00000E+00        -0.50762E+08
 
   -0.51980E+08         0.50812E+06         0.00000E+00
    0.50812E+06        -0.50037E+08         0.00000E+00
    0.00000E+00         0.00000E+00        -0.50754E+08
 
   -0.51935E+08         0.53782E+06         0.00000E+00
    0.53782E+06        -0.50042E+08         0.00000E+00
    0.00000E+00         0.00000E+00        -0.50746E+08
 
   -0.51891E+08         0.56665E+06         0.00000E+00
    0.56665E+06        -0.50047E+08         0.00000E+00
    0.00000E+00         0.00000E+00        -0.50738E+08
 
   -0.51846E+08         0.59464E+06         0.00000E+00
    0.59464E+06        -0.50053E+08         0.00000E+00
    0.00000E+00         0.00000E+00        -0.50731E+08
 
   -0.51802E+08         0.62183E+06         0.00000E+00
    0.62183E+06        -0.50058E+08         0.00000E+00
    0.00000E+00         0.00000E+00        -0.50723E+08
 
   -0.51758E+08         0.64825E+06         0.00000E+00
    0.64825E+06        -0.50064E+08         0.00000E+00
    0.00000E+00         0.00000E+00        -0.50715E+08
 
   -0.51715E+08         0.67395E+06         0.00000E+00
    0.67395E+06        -0.50070E+08         0.00000E+00
    0.00000E+00         0.00000E+00        -0.50708E+08
 
   -0.51672E+08         0.69895E+06         0.00000E+00
    0.69895E+06        -0.50076E+08         0.00000E+00
    0.00000E+00         0.00000E+00        -0.50700E+08
 
   -0.51629E+08         0.72329E+06         0.00000E+00
    0.72329E+06        -0.50082E+08         0.00000E+00
    0.00000E+00         0.00000E+00        -0.50693E+08
 
   -0.51586E+08         0.74700E+06         0.00000E+00
    0.74700E+06        -0.50089E+08         0.00000E+00
    0.00000E+00         0.00000E+00        -0.50686E+08
 
   -0.51543E+08         0.77011E+06         0.00000E+00
    0.77011E+06        -0.50096E+08         0.00000E+00
    0.00000E+00         0.00000E+00        -0.50679E+08
 
   -0.51501E+08         0.79264E+06         0.00000E+00
    0.79264E+06        -0.50103E+08         0.00000E+00
    0.00000E+00         0.00000E+00        -0.50672E+08
 
   -0.51460E+08         0.81462E+06         0.00000E+00
    0.81462E+06        -0.50110E+08         0.00000E+00
    0.00000E+00         0.00000E+00        -0.50665E+08
 
   -0.51418E+08         0.83608E+06         0.00000E+00
    0.83608E+06        -0.50117E+08         0.00000E+00
    0.00000E+00         0.00000E+00        -0.50658E+08
 
   -0.51377E+08         0.85704E+06         0.00000E+00
    0.85704E+06        -0.50125E+08         0.00000E+00
    0.00000E+00         0.00000E+00        -0.50651E+08
 
   -0.51336E+08         0.87753E+06         0.00000E+00
    0.87753E+06        -0.50133E+08         0.00000E+00
    0.00000E+00         0.00000E+00        -0.50645E+08
 
   -0.51296E+08         0.89756E+06         0.00000E+00
    0.89756E+06        -0.50141E+08         0.00000E+00
    0.00000E+00         0.00000E+00        -0.50638E+08
 
   -0.51256E+08         0.91716E+06         0.00000E+00
    0.91716E+06        -0.50150E+08         0.00000E+00
    0.00000E+00         0.00000E+00        -0.50632E+08
 
   -0.51216E+08         0.93634E+06         0.00000E+00
    0.93634E+06        -0.50158E+08         0.00000E+00
    0.00000E+00         0.00000E+00        -0.50626E+08
 
   -0.51176E+08         0.95514E+06         0.00000E+00
    0.95514E+06        -0.50167E+08         0.00000E+00
    0.00000E+00         0.00000E+00        -0.50620E+08
 
   -0.51137E+08         0.97355E+06         0.00000E+00
    0.97355E+06        -0.50177E+08         0.00000E+00
    0.00000E+00         0.00000E+00        -0.50614E+08
 
   -0.51098E+08         0.99160E+06         0.00000E+00
    0.99160E+06        -0.50186E+08         0.00000E+00
    0.00000E+00         0.00000E+00        -0.50608E+08
 
   -0.51060E+08         0.10093E+07         0.00000E+00
    0.10093E+07        -0.50196E+08         0.00000E+00
    0.00000E+00         0.00000E+00        -0.50602E+08
 
   -0.51022E+08         0.10267E+07         0.00000E+00
    0.10267E+07        -0.50207E+08         0.00000E+00
    0.00000E+00         0.00000E+00        -0.50597E+08
 
   -0.50984E+08         0.10437E+07         0.00000E+00
    0.10437E+07        -0.50217E+08         0.00000E+00
    0.00000E+00         0.00000E+00        -0.50591E+08
 
   -0.50946E+08         0.10605E+07         0.00000E+00
    0.10605E+07        -0.50228E+08         0.00000E+00
    0.00000E+00         0.00000E+00        -0.50586E+08
 
   -0.50909E+08         0.10769E+07         0.00000E+00
    0.10769E+07        -0.50239E+08         0.00000E+00
    0.00000E+00         0.00000E+00        -0.50580E+08
 
   -0.50872E+08         0.10931E+07         0.00000E+00
    0.10931E+07        -0.50251E+08         0.00000E+00
    0.00000E+00         0.00000E+00        -0.50575E+08
 
   -0.50835E+08         0.11090E+07         0.00000E+00
    0.11090E+07        -0.50263E+08         0.00000E+00
    0.00000E+00         0.00000E+00        -0.50570E+08
 
   -0.50799E+08         0.11246E+07         0.00000E+00
    0.11246E+07        -0.50275E+08         0.00000E+00
    0.00000E+00         0.00000E+00        -0.50566E+08
 
   -0.50762E+08         0.11400E+07         0.00000E+00
    0.11400E+07        -0.50288E+08         0.00000E+00
    0.00000E+00         0.00000E+00        -0.50561E+08
 
   -0.50726E+08         0.11551E+07         0.00000E+00
    0.11551E+07        -0.50301E+08         0.00000E+00
    0.00000E+00         0.00000E+00        -0.50556E+08
 
   -0.50691E+08         0.11700E+07         0.00000E+00
    0.11700E+07        -0.50314E+08         0.00000E+00
    0.00000E+00         0.00000E+00        -0.50552E+08
 
   -0.50655E+08         0.11847E+07         0.00000E+00
    0.11847E+07        -0.50328E+08         0.00000E+00
    0.00000E+00         0.00000E+00        -0.50547E+08
 
   -0.50620E+08         0.11991E+07         0.00000E+00
    0.11991E+07        -0.50342E+08         0.00000E+00
    0.00000E+00         0.00000E+00        -0.50543E+08
 
   -0.50585E+08         0.12134E+07         0.00000E+00
    0.12134E+07        -0.50356E+08         0.00000E+00
    0.00000E+00         0.00000E+00        -0.50539E+08
 
   -0.50551E+08         0.12274E+07         0.00000E+00
    0.12274E+07        -0.50371E+08         0.00000E+00
    0.00000E+00         0.00000E+00        -0.50535E+08
 
   -0.52341E+08         0.22526E+05         0.00000E+00
    0.22526E+05        -0.50000E+08         0.00000E+00
    0.00000E+00         0.00000E+00        -0.50764E+08
 
   -0.52304E+08         0.64639E+05         0.00000E+00
    0.64639E+05        -0.50001E+08         0.00000E+00
    0.00000E+00         0.00000E+00        -0.50756E+08
 
   -0.52267E+08         0.10553E+06         0.00000E+00
    0.10553E+06        -0.50002E+08         0.00000E+00
    0.00000E+00         0.00000E+00        -0.50749E+08
 
   -0.52229E+08         0.14522E+06         0.00000E+00
    0.14522E+06        -0.50003E+08         0.00000E+00
    0.00000E+00         0.00000E+00        -0.50742E+08
 
   -0.52191E+08         0.18375E+06         0.00000E+00
    0.18375E+06        -0.50006E+08         0.00000E+00
    0.00000E+00         0.00000E+00        -0.50735E+08
 
   -0.52152E+08         0.22113E+06         0.00000E+00
    0.22113E+06        -0.50008E+08         0.00000E+00
    0.00000E+00         0.00000E+00        -0.50727E+08
 
   -0.52113E+08         0.25741E+06         0.00000E+00
    0.25741E+06        -0.50011E+08         0.00000E+00
    0.00000E+00         0.00000E+00        -0.50720E+08
 
   -0.52073E+08         0.29260E+06         0.00000E+00
    0.29260E+06        -0.50014E+08         0.00000E+00
    0.00000E+00         0.00000E+00        -0.50713E+08
 
   -0.52034E+08         0.32675E+06         0.00000E+00
    0.32675E+06        -0.50018E+08         0.00000E+00
    0.00000E+00         0.00000E+00        -0.50706E+08
 
   -0.51994E+08         0.35987E+06         0.00000E+00
    0.35987E+06        -0.50022E+08         0.00000E+00
    0.00000E+00         0.00000E+00        -0.50698E+08
 
   -0.51953E+08         0.39201E+06         0.00000E+00
    0.39201E+06        -0.50026E+08         0.00000E+00
    0.00000E+00         0.00000E+00        -0.50691E+08
 
   -0.51913E+08         0.42318E+06         0.00000E+00
    0.42318E+06        -0.50031E+08         0.00000E+00
    0.00000E+00         0.00000E+00        -0.50684E+08
 
   -0.51873E+08         0.45344E+06         0.00000E+00
    0.45344E+06        -0.50036E+08         0.00000E+00
    0.00000E+00         0.00000E+00        -0.50677E+08
 
   -0.51832E+08         0.48279E+06         0.00000E+00
    0.48279E+06        -0.50041E+08         0.00000E+00
    0.00000E+00         0.00000E+00        -0.50670E+08
 
   -0.51792E+08         0.51129E+06         0.00000E+00
    0.51129E+06        -0.50047E+08         0.00000E+00
    0.00000E+00         0.00000E+00        -0.50663E+08
 
   -0.51752E+08         0.53894E+06         0.00000E+00
    0.53894E+06        -0.50052E+08         0.00000E+00
    0.00000E+00         0.00000E+00        -0.50656E+08
 
   -0.51711E+08         0.56580E+06         0.00000E+00
    0.56580E+06        -0.50058E+08         0.00000E+00
    0.00000E+00         0.00000E+00        -0.50649E+08
 
   -0.51671E+08         0.59187E+06         0.00000E+00
    0.59187E+06        -0.50065E+08         0.00000E+00
    0.00000E+00         0.00000E+00        -0.50642E+08
 
   -0.51631E+08         0.61721E+06         0.00000E+00
    0.61721E+06        -0.50071E+08         0.00000E+00
    0.00000E+00         0.00000E+00        -0.50636E+08
 
   -0.51591E+08         0.64182E+06         0.00000E+00
    0.64182E+06        -0.50078E+08         0.00000E+00
    0.00000E+00         0.00000E+00        -0.50629E+08
 
   -0.51551E+08         0.66574E+06         0.00000E+00
    0.66574E+06        -0.50084E+08         0.00000E+00
    0.00000E+00         0.00000E+00        -0.50622E+08
 
   -0.51511E+08         0.68900E+06         0.00000E+00
    0.68900E+06        -0.50092E+08         0.00000E+00
    0.00000E+00         0.00000E+00        -0.50616E+08
 
   -0.51471E+08         0.71161E+06         0.00000E+00
    0.71161E+06        -0.50099E+08         0.00000E+00
    0.00000E+00         0.00000E+00        -0.50609E+08
 
   -0.51432E+08         0.73362E+06         0.00000E+00
    0.73362E+06        -0.50106E+08         0.00000E+00
    0.00000E+00         0.00000E+00        -0.50603E+08
 
   -0.51393E+08         0.75503E+06         0.00000E+00
    0.75503E+06        -0.50114E+08         0.00000E+00
    0.00000E+00         0.00000E+00        -0.50597E+08
 
   -0.51354E+08         0.77588E+06         0.00000E+00
    0.77588E+06        -0.50122E+08         0.00000E+00
    0.00000E+00         0.00000E+00        -0.50590E+08
 
   -0.51315E+08         0.79619E+06         0.00000E+00
    0.79619E+06        -0.50130E+08         0.00000E+00
    0.00000E+00         0.00000E+00        -0.50584E+08
 
   -0.51276E+08         0.81597E+06         0.00000E+00
    0.81597E+06        -0.50139E+08         0.00000E+00
    0.00000E+00         0.00000E+00        -0.50578E+08
 
   -0.51238E+08         0.83525E+06         0.00000E+00
    0.83525E+06        -0.50147E+08         0.00000E+00
    0.00000E+00         0.00000E+00        -0.50572E+08
 
   -0.51200E+08         0.85405E+06         0.00000E+00
    0.85405E+06        -0.50156E+08         0.00000E+00
    0.00000E+00         0.00000E+00        -0.50566E+08
 
   -0.51162E+08         0.87238E+06         0.00000E+00
    0.87238E+06        -0.50165E+08         0.00000E+00
    0.00000E+00         0.00000E+00        -0.50561E+08
 
   -0.51124E+08         0.89027E+06         0.00000E+00
    0.89027E+06        -0.50175E+08         0.00000E+00
    0.00000E+00         0.00000E+00        -0.50555E+08
 
   -0.51087E+08         0.90773E+06         0.00000E+00
    0.90773E+06        -0.50184E+08         0.00000E+00
    0.00000E+00         0.00000E+00        -0.50549E+08
 
   -0.51049E+08         0.92479E+06         0.00000E+00
    0.92479E+06        -0.50194E+08         0.00000E+00
    0.00000E+00         0.00000E+00        -0.50544E+08
 
   -0.51012E+08         0.94144E+06         0.00000E+00
    0.94144E+06        -0.50204E+08         0.00000E+00
    0.00000E+00         0.00000E+00        -0.50539E+08
 
   -0.50976E+08         0.95772E+06         0.00000E+00
    0.95772E+06        -0.50215E+08         0.00000E+00
    0.00000E+00         0.00000E+00        -0.50533E+08
 
   -0.50939E+08         0.97363E+06         0.00000E+00
    0.97363E+06        -0.50225E+08         0.00000E+00
    0.00000E+00         0.00000E+00        -0.50528E+08
 
   -0.50903E+08         0.98919E+06         0.00000E+00
    0.98919E+06        -0.50236E+08         0.00000E+00
    0.00000E+00         0.00000E+00        -0.50523E+08
 
   -0.50867E+08         0.10044E+07         0.00000E+00
    0.10044E+07        -0.50247E+08         0.00000E+00
    0.00000E+00         0.00000E+00        -0.50518E+08
 
   -0.50831E+08         0.10193E+07         0.00000E+00
    0.10193E+07        -0.50259E+08         0.00000E+00
    0.00000E+00         0.00000E+00        -0.50513E+08
 
   -0.50796E+08         0.10339E+07         0.00000E+00
    0.10339E+07        -0.50271E+08         0.00000E+00
    0.00000E+00         0.00000E+00        -0.50509E+08
 
   -0.50760E+08         0.10482E+07         0.00000E+00
    0.10482E+07        -0.50283E+08         0.00000E+00
    0.00000E+00         0.00000E+00        -0.50504E+08
 
   -0.50725E+08         0.10622E+07         0.00000E+00
    0.10622E+07        -0.50295E+08         0.00000E+00
    0.00000E+00         0.00000E+00        -0.50499E+08
 
   -0.50690E+08         0.10759E+07         0.00000E+00
    0.10759E+07        -0.50308E+08         0.00000E+00
    0.00000E+00         0.00000E+00        -0.50495E+08
 
   -0.50656E+08         0.10893E+07         0.00000E+00
    0.10893E+07        -0.50321E+08         0.00000E+00
    0.00000E+00         0.00000E+00        -0.50490E+08
 
   -0.50621E+08         0.11025E+07         0.00000E+00
    0.11025E+07        -0.50334E+08         0.00000E+00
    0.00000E+00         0.00000E+00        -0.50486E+08
 
   -0.50587E+08         0.11154E+07         0.00000E+00
    0.11154E+07        -0.50347E+08         0.00000E+00
    0.00000E+00         0.00000E+00        -0.50482E+08
 
   -0.50553E+08         0.11281E+07         0.00000E+00
    0.11281E+07        -0.50361E+08         0.00000E+00
    0.00000E+00         0.00000E+00        -0.50478E+08
 
   -0.50519E+08         0.11406E+07         0.00000E+00
    0.11406E+07        -0.50375E+08         0.00000E+00
    0.00000E+00         0.00000E+00        -0.50474E+08
 
   -0.50485E+08         0.11529E+07         0.00000E+00
    0.11529E+07        -0.50390E+08         0.00000E+00
    0.00000E+00         0.00000E+00        -0.50470E+08
 
   -0.52135E+08         0.20916E+05         0.00000E+00
    0.20916E+05        -0.50000E+08         0.00000E+00
    0.00000E+00         0.00000E+00        -0.50675E+08
 
   -0.52104E+08         0.60239E+05         0.00000E+00
    0.60239E+05        -0.50001E+08         0.00000E+00
    0.00000E+00         0.00000E+00        -0.50669E+08
 
   -0.52072E+08         0.98508E+05         0.00000E+00
    0.98508E+05        -0.50002E+08         0.00000E+00
    0.00000E+00         0.00000E+00        -0.50663E+08
 
   -0.52040E+08         0.13574E+06         0.00000E+00
    0.13574E+06        -0.50004E+08         0.00000E+00
    0.00000E+00         0.00000E+00        -0.50657E+08
 
   -0.52007E+08         0.17195E+06         0.00000E+00
    0.17195E+06        -0.50006E+08         0.00000E+00
    0.00000E+00         0.00000E+00        -0.50651E+08
 
   -0.51973E+08         0.20716E+06         0.00000E+00
    0.20716E+06        -0.50008E+08         0.00000E+00
    0.00000E+00         0.00000E+00        -0.50645E+08
 
   -0.51939E+08         0.24139E+06         0.00000E+00
    0.24139E+06        -0.50011E+08         0.00000E+00
    0.00000E+00         0.00000E+00        -0.50639E+08
 
   -0.51905E+08         0.27466E+06         0.00000E+00
    0.27466E+06        -0.50015E+08         0.00000E+00
    0.00000E+00         0.00000E+00        -0.50632E+08
 
   -0.51870E+08         0.30698E+06         0.00000E+00
    0.30698E+06        -0.50019E+08         0.00000E+00
    0.00000E+00         0.00000E+00        -0.50626E+08
 
   -0.51834E+08         0.33839E+06         0.00000E+00
    0.33839E+06        -0.50023E+08         0.00000E+00
    0.00000E+00         0.00000E+00        -0.50620E+08
 
   -0.51799E+08         0.36890E+06         0.00000E+00
    0.36890E+06        -0.50027E+08         0.00000E+00
    0.00000E+00         0.00000E+00        -0.50614E+08
 
   -0.51763E+08         0.39853E+06         0.00000E+00
    0.39853E+06        -0.50032E+08         0.00000E+00
    0.00000E+00         0.00000E+00        -0.50608E+08
 
   -0.51727E+08         0.42732E+06         0.00000E+00
    0.42732E+06        -0.50038E+08         0.00000E+00
    0.00000E+00         0.00000E+00        -0.50601E+08
 
   -0.51691E+08         0.45527E+06         0.00000E+00
    0.45527E+06        -0.50043E+08         0.00000E+00
    0.00000E+00         0.00000E+00        -0.50595E+08
 
   -0.51655E+08         0.48242E+06         0.00000E+00
    0.48242E+06        -0.50049E+08         0.00000E+00
    0.00000E+00         0.00000E+00        -0.50589E+08
 
   -0.51618E+08         0.50878E+06         0.00000E+00
    0.50878E+06        -0.50055E+08         0.00000E+00
    0.00000E+00         0.00000E+00        -0.50583E+08
 
   -0.51582E+08         0.53439E+06         0.00000E+00
    0.53439E+06        -0.50061E+08         0.00000E+00
    0.00000E+00         0.00000E+00        -0.50577E+08
 
   -0.51545E+08         0.55926E+06         0.00000E+00
    0.55926E+06        -0.50068E+08         0.00000E+00
    0.00000E+00         0.00000E+00        -0.50571E+08
 
   -0.51509E+08         0.58341E+06         0.00000E+00
    0.58341E+06        -0.50075E+08         0.00000E+00
    0.00000E+00         0.00000E+00        -0.50565E+08
 
   -0.51472E+08         0.60687E+06         0.00000E+00
    0.60687E+06        -0.50082E+08         0.00000E+00
    0.00000E+00         0.00000E+00        -0.50559E+08
 
   -0.51436E+08         0.62966E+06         0.00000E+00
    0.62966E+06        -0.50089E+08         0.00000E+00
    0.00000E+00         0.00000E+00        -0.50553E+08
 
   -0.51399E+08         0.65181E+06         0.00000E+00
    0.65181E+06        -0.50097E+08         0.00000E+00
    0.00000E+00         0.00000E+00        -0.50548E+08
 
   -0.51363E+08         0.67332E+06         0.00000E+00
    0.67332E+06        -0.50104E+08         0.00000E+00
    0.00000E+00         0.00000E+00        -0.50542E+08
 
   -0.51326E+08         0.69423E+06         0.00000E+00
    0.69423E+06        -0.50112E+08         0.00000E+00
    0.00000E+00         0.00000E+00        -0.50536E+08
 
   -0.51290E+08         0.71455E+06         0.00000E+00
    0.71455E+06        -0.50120E+08         0.00000E+00
    0.00000E+00         0.00000E+00        -0.50531E+08
 
   -0.51253E+08         0.73431E+06         0.00000E+00
    0.73431E+06        -0.50129E+08         0.00000E+00
    0.00000E+00         0.00000E+00        -0.50525E+08
 
   -0.51217E+08         0.75352E+06         0.00000E+00
    0.75352E+06        -0.50137E+08         0.00000E+00
    0.00000E+00         0.00000E+00        -0.50519E+08
 
   -0.51181E+08         0.77220E+06         0.00000E+00
    0.77220E+06        -0.50146E+08         0.00000E+00
    0.00000E+00         0.00000E+00        -0.50514E+08
 
   -0.51145E+08         0.79036E+06         0.00000E+00
    0.79036E+06        -0.50155E+08         0.00000E+00
    0.00000E+00         0.00000E+00        -0.50509E+08
 
   -0.51110E+08         0.80804E+06         0.00000E+00
    0.80804E+06        -0.50164E+08         0.00000E+00
    0.00000E+00         0.00000E+00        -0.50503E+08
 
   -0.51074E+08         0.82524E+06         0.00000E+00
    0.82524E+06        -0.50174E+08         0.00000E+00
    0.00000E+00         0.00000E+00        -0.50498E+08
 
   -0.51039E+08         0.84197E+06         0.00000E+00
    0.84197E+06        -0.50184E+08         0.00000E+00
    0.00000E+00         0.00000E+00        -0.50493E+08
 
   -0.51003E+08         0.85827E+06         0.00000E+00
    0.85827E+06        -0.50194E+08         0.00000E+00
    0.00000E+00         0.00000E+00        -0.50488E+08
 
   -0.50968E+08         0.87413E+06         0.00000E+00
    0.87413E+06        -0.50204E+08         0.00000E+00
    0.00000E+00         0.00000E+00        -0.50483E+08
 
   -0.50933E+08         0.88958E+06         0.00000E+00
    0.88958E+06        -0.50214E+08         0.00000E+00
    0.00000E+00         0.00000E+00        -0.50478E+08
 
   -0.50898E+08         0.90463E+06         0.00000E+00
    0.90463E+06        -0.50225E+08         0.00000E+00
    0.00000E+00         0.00000E+00        -0.50473E+08
 
   -0.50864E+08         0.91929E+06         0.00000E+00
    0.91929E+06        -0.50235E+08         0.00000E+00
    0.00000E+00         0.00000E+00        -0.50468E+08
 
   -0.50829E+08         0.93359E+06         0.00000E+00
    0.93359E+06        -0.50246E+08         0.00000E+00
    0.00000E+00         0.00000E+00        -0.50464E+08
 
   -0.50795E+08         0.94752E+06         0.00000E+00
    0.94752E+06        -0.50258E+08         0.00000E+00
    0.00000E+00         0.00000E+00        -0.50459E+08
 
   -0.50761E+08         0.96110E+06         0.00000E+00
    0.96110E+06        -0.50269E+08         0.00000E+00
    0.00000E+00         0.00000E+00        -0.50454E+08
 
   -0.50727E+08         0.97435E+06         0.00000E+00
    0.97435E+06        -0.50281E+08         0.00000E+00
    0.00000E+00         0.00000E+00        -0.50450E+08
 
   -0.50693E+08         0.98727E+06         0.00000E+00
    0.98727E+06        -0.50293E+08         0.00000E+00
    0.00000E+00         0.00000E+00        -0.50446E+08
 
   -0.50659E+08         0.99989E+06         0.00000E+00
    0.99989E+06        -0.50305E+08         0.00000E+00
    0.00000E+00         0.00000E+00        -0.50441E+08
 
   -0.50626E+08         0.10122E+07         0.00000E+00
    0.10122E+07        -0.50318E+08         0.00000E+00
    0.00000E+00         0.00000E+00        -0.50437E+08
 
   -0.50593E+08         0.10242E+07         0.00000E+00
    0.10242E+07        -0.50331E+08         0.00000E+00
    0.00000E+00         0.00000E+00        -0.50433E+08
 
   -0.50559E+08         0.10360E+07         0.00000E+00
    0.10360E+07        -0.50344E+08         0.00000E+00
    0.00000E+00         0.00000E+00        -0.50429E+08
 
   -0.50526E+08         0.10474E+07         0.00000E+00
    0.10474E+07        -0.50357E+08         0.00000E+00
    0.00000E+00         0.00000E+00        -0.50425E+08
 
   -0.50494E+08         0.10587E+07         0.00000E+00
    0.10587E+07        -0.50370E+08         0.00000E+00
    0.00000E+00         0.00000E+00        -0.50421E+08
 
   -0.50461E+08         0.10696E+07         0.00000E+00
    0.10696E+07        -0.50384E+08         0.00000E+00
    0.00000E+00         0.00000E+00        -0.50418E+08
 
   -0.50428E+08         0.10804E+07         0.00000E+00
    0.10804E+07        -0.50398E+08         0.00000E+00
    0.00000E+00         0.00000E+00        -0.50414E+08
 
   -0.51943E+08         0.19317E+05         0.00000E+00
    0.19317E+05        -0.50000E+08         0.00000E+00
    0.00000E+00         0.00000E+00        -0.50598E+08
 
   -0.51916E+08         0.55821E+05         0.00000E+00
    0.55821E+05        -0.50001E+08         0.00000E+00
    0.00000E+00         0.00000E+00        -0.50593E+08
 
   -0.51890E+08         0.91424E+05         0.00000E+00
    0.91424E+05        -0.50002E+08         0.00000E+00
    0.00000E+00         0.00000E+00        -0.50587E+08
 
   -0.51862E+08         0.12613E+06         0.00000E+00
    0.12613E+06        -0.50003E+08         0.00000E+00
    0.00000E+00         0.00000E+00        -0.50582E+08
 
   -0.51834E+08         0.15996E+06         0.00000E+00
    0.15996E+06        -0.50006E+08         0.00000E+00
    0.00000E+00         0.00000E+00        -0.50577E+08
 
   -0.51805E+08         0.19292E+06         0.00000E+00
    0.19292E+06        -0.50008E+08         0.00000E+00
    0.00000E+00         0.00000E+00        -0.50572E+08
 
   -0.51775E+08         0.22501E+06         0.00000E+00
    0.22501E+06        -0.50011E+08         0.00000E+00
    0.00000E+00         0.00000E+00        -0.50566E+08
 
   -0.51745E+08         0.25625E+06         0.00000E+00
    0.25625E+06        -0.50015E+08         0.00000E+00
    0.00000E+00         0.00000E+00        -0.50561E+08
 
   -0.51715E+08         0.28666E+06         0.00000E+00
    0.28666E+06        -0.50019E+08         0.00000E+00
    0.00000E+00         0.00000E+00        -0.50556E+08
 
   -0.51684E+08         0.31625E+06         0.00000E+00
    0.31625E+06        -0.50023E+08         0.00000E+00
    0.00000E+00         0.00000E+00        -0.50551E+08
 
   -0.51653E+08         0.34503E+06         0.00000E+00
    0.34503E+06        -0.50028E+08         0.00000E+00
    0.00000E+00         0.00000E+00        -0.50545E+08
 
   -0.51621E+08         0.37302E+06         0.00000E+00
    0.37302E+06        -0.50033E+08         0.00000E+00
    0.00000E+00         0.00000E+00        -0.50540E+08
 
   -0.51589E+08         0.40024E+06         0.00000E+00
    0.40024E+06        -0.50038E+08         0.00000E+00
    0.00000E+00         0.00000E+00        -0.50535E+08
 
   -0.51557E+08         0.42670E+06         0.00000E+00
    0.42670E+06        -0.50043E+08         0.00000E+00
    0.00000E+00         0.00000E+00        -0.50529E+08
 
   -0.51524E+08         0.45241E+06         0.00000E+00
    0.45241E+06        -0.50049E+08         0.00000E+00
    0.00000E+00         0.00000E+00        -0.50524E+08
 
   -0.51492E+08         0.47741E+06         0.00000E+00
    0.47741E+06        -0.50056E+08         0.00000E+00
    0.00000E+00         0.00000E+00        -0.50519E+08
 
   -0.51459E+08         0.50169E+06         0.00000E+00
    0.50169E+06        -0.50062E+08         0.00000E+00
    0.00000E+00         0.00000E+00        -0.50513E+08
 
   -0.51426E+08         0.52529E+06         0.00000E+00
    0.52529E+06        -0.50069E+08         0.00000E+00
    0.00000E+00         0.00000E+00        -0.50508E+08
 
   -0.51393E+08         0.54822E+06         0.00000E+00
    0.54822E+06        -0.50076E+08         0.00000E+00
    0.00000E+00         0.00000E+00        -0.50503E+08
 
   -0.51359E+08         0.57049E+06         0.00000E+00
    0.57049E+06        -0.50083E+08         0.00000E+00
    0.00000E+00         0.00000E+00        -0.50498E+08
 
   -0.51326E+08         0.59212E+06         0.00000E+00
    0.59212E+06        -0.50090E+08         0.00000E+00
    0.00000E+00         0.00000E+00        -0.50492E+08
 
   -0.51293E+08         0.61313E+06         0.00000E+00
    0.61313E+06        -0.50098E+08         0.00000E+00
    0.00000E+00         0.00000E+00        -0.50487E+08
 
   -0.51259E+08         0.63353E+06         0.00000E+00
    0.63353E+06        -0.50106E+08         0.00000E+00
    0.00000E+00         0.00000E+00        -0.50482E+08
 
   -0.51226E+08         0.65335E+06         0.00000E+00
    0.65335E+06        -0.50114E+08         0.00000E+00
    0.00000E+00         0.00000E+00        -0.50477E+08
 
   -0.51192E+08         0.67260E+06         0.00000E+00
    0.67260E+06        -0.50123E+08         0.00000E+00
    0.00000E+00         0.00000E+00        -0.50472E+08
 
   -0.51159E+08         0.69129E+06         0.00000E+00
    0.69129E+06        -0.50131E+08         0.00000E+00
    0.00000E+00         0.00000E+00        -0.50467E+08
 
   -0.51125E+08         0.70945E+06         0.00000E+00
    0.70945E+06        -0.50140E+08         0.00000E+00
    0.00000E+00         0.00000E+00        -0.50462E+08
 
   -0.51092E+08         0.72708E+06         0.00000E+00
    0.72708E+06        -0.50149E+08         0.00000E+00
    0.00000E+00         0.00000E+00        -0.50457E+08
 
   -0.51058E+08         0.74421E+06         0.00000E+00
    0.74421E+06        -0.50158E+08         0.00000E+00
    0.00000E+00         0.00000E+00        -0.50452E+08
 
   -0.51025E+08         0.76084E+06         0.00000E+00
    0.76084E+06        -0.50167E+08         0.00000E+00
    0.00000E+00         0.00000E+00        -0.50448E+08
 
   -0.50992E+08         0.77699E+06         0.00000E+00
    0.77699E+06        -0.50177E+08         0.00000E+00
    0.00000E+00         0.00000E+00        -0.50443E+08
 
   -0.50959E+08         0.79268E+06         0.00000E+00
    0.79268E+06        -0.50187E+08         0.00000E+00
    0.00000E+00         0.00000E+00        -0.50438E+08
 
   -0.50925E+08         0.80793E+06         0.00000E+00
    0.80793E+06        -0.50197E+08         0.00000E+00
    0.00000E+00         0.00000E+00        -0.50434E+08
 
   -0.50892E+08         0.82273E+06         0.00000E+00
    0.82273E+06        -0.50207E+08         0.00000E+00
    0.00000E+00         0.00000E+00        -0.50429E+08
 
   -0.50860E+08         0.83711E+06         0.00000E+00
    0.83711E+06        -0.50217E+08         0.00000E+00
    0.00000E+00         0.00000E+00        -0.50424E+08
 
   -0.50827E+08         0.85109E+06         0.00000E+00
    0.85109E+06        -0.50228E+08         0.00000E+00
    0.00000E+00         0.00000E+00        -0.50420E+08
 
   -0.50794E+08         0.86466E+06         0.00000E+00
    0.86466E+06        -0.50239E+08         0.00000E+00
    0.00000E+00         0.00000E+00        -0.50416E+08
 
   -0.50761E+08         0.87786E+06         0.00000E+00
    0.87786E+06        -0.50250E+08         0.00000E+00
    0.00000E+00         0.00000E+00        -0.50411E+08
 
   -0.50729E+08         0.89067E+06         0.00000E+00
    0.89067E+06        -0.50261E+08         0.00000E+00
    0.00000E+00         0.00000E+00        -0.50407E+08
 
   -0.50696E+08         0.90313E+06         0.00000E+00
    0.90313E+06        -0.50272E+08         0.00000E+00
    0.00000E+00         0.00000E+00        -0.50403E+08
 
   -0.50664E+08         0.91524E+06         0.00000E+00
    0.91524E+06        -0.50284E+08         0.00000E+00
    0.00000E+00         0.00000E+00        -0.50399E+08
 
   -0.50632E+08         0.92701E+06         0.00000E+00
    0.92701E+06        -0.50296E+08         0.00000E+00
    0.00000E+00         0.00000E+00        -0.50395E+08
 
   -0.50600E+08         0.93845E+06         0.00000E+00
    0.93845E+06        -0.50308E+08         0.00000E+00
    0.00000E+00         0.00000E+00        -0.50391E+08
 
   -0.50568E+08         0.94957E+06         0.00000E+00
    0.94957E+06        -0.50320E+08         0.00000E+00
    0.00000E+00         0.00000E+00        -0.50387E+08
 
   -0.50536E+08         0.96039E+06         0.00000E+00
    0.96039E+06        -0.50333E+08         0.00000E+00
    0.00000E+00         0.00000E+00        -0.50383E+08
 
   -0.50504E+08         0.97091E+06         0.00000E+00
    0.97091E+06        -0.50345E+08         0.00000E+00
    0.00000E+00         0.00000E+00        -0.50379E+08
 
   -0.50473E+08         0.98114E+06         0.00000E+00
    0.98114E+06        -0.50358E+08         0.00000E+00
    0.00000E+00         0.00000E+00        -0.50375E+08
 
   -0.50441E+08         0.99110E+06         0.00000E+00
    0.99110E+06        -0.50372E+08         0.00000E+00
    0.00000E+00         0.00000E+00        -0.50372E+08
 
   -0.50410E+08         0.10008E+07         0.00000E+00
    0.10008E+07        -0.50385E+08         0.00000E+00
    0.00000E+00         0.00000E+00        -0.50368E+08
 
   -0.50378E+08         0.10102E+07         0.00000E+00
    0.10102E+07        -0.50399E+08         0.00000E+00
    0.00000E+00         0.00000E+00        -0.50365E+08
 
   -0.51765E+08         0.17765E+05         0.00000E+00
    0.17765E+05        -0.50000E+08         0.00000E+00
    0.00000E+00         0.00000E+00        -0.50529E+08
 
   -0.51743E+08         0.51499E+05         0.00000E+00
    0.51499E+05        -0.50001E+08         0.00000E+00
    0.00000E+00         0.00000E+00        -0.50525E+08
 
   -0.51720E+08         0.84466E+05         0.00000E+00
    0.84466E+05        -0.50002E+08         0.00000E+00
    0.00000E+00         0.00000E+00        -0.50520E+08
 
   -0.51697E+08         0.11667E+06         0.00000E+00
    0.11667E+06        -0.50003E+08         0.00000E+00
    0.00000E+00         0.00000E+00        -0.50516E+08
 
   -0.51673E+08         0.14811E+06         0.00000E+00
    0.14811E+06        -0.50005E+08         0.00000E+00
    0.00000E+00         0.00000E+00        -0.50512E+08
 
   -0.51648E+08         0.17880E+06         0.00000E+00
    0.17880E+06        -0.50008E+08         0.00000E+00
    0.00000E+00         0.00000E+00        -0.50507E+08
 
   -0.51622E+08         0.20873E+06         0.00000E+00
    0.20873E+06        -0.50011E+08         0.00000E+00
    0.00000E+00         0.00000E+00        -0.50503E+08
 
   -0.51596E+08         0.23793E+06         0.00000E+00
    0.23793E+06        -0.50014E+08         0.00000E+00
    0.00000E+00         0.00000E+00        -0.50498E+08
 
   -0.51570E+08         0.26638E+06         0.00000E+00
    0.26638E+06        -0.50018E+08         0.00000E+00
    0.00000E+00         0.00000E+00        -0.50494E+08
 
   -0.51543E+08         0.29411E+06         0.00000E+00
    0.29411E+06        -0.50023E+08         0.00000E+00
    0.00000E+00         0.00000E+00        -0.50489E+08
 
   -0.51515E+08         0.32112E+06         0.00000E+00
    0.32112E+06        -0.50027E+08         0.00000E+00
    0.00000E+00         0.00000E+00        -0.50484E+08
 
   -0.51487E+08         0.34742E+06         0.00000E+00
    0.34742E+06        -0.50032E+08         0.00000E+00
    0.00000E+00         0.00000E+00        -0.50480E+08
 
   -0.51459E+08         0.37303E+06         0.00000E+00
    0.37303E+06        -0.50037E+08         0.00000E+00
    0.00000E+00         0.00000E+00        -0.50475E+08
 
   -0.51430E+08         0.39795E+06         0.00000E+00
    0.39795E+06        -0.50043E+08         0.00000E+00
    0.00000E+00         0.00000E+00        -0.50471E+08
 
   -0.51401E+08         0.42219E+06         0.00000E+00
    0.42219E+06        -0.50049E+08         0.00000E+00
    0.00000E+00         0.00000E+00        -0.50466E+08
 
   -0.51372E+08         0.44577E+06         0.00000E+00
    0.44577E+06        -0.50055E+08         0.00000E+00
    0.00000E+00         0.00000E+00        -0.50461E+08
 
   -0.51342E+08         0.46870E+06         0.00000E+00
    0.46870E+06        -0.50061E+08         0.00000E+00
    0.00000E+00         0.00000E+00        -0.50457E+08
 
   -0.51313E+08         0.49100E+06         0.00000E+00
    0.49100E+06        -0.50068E+08         0.00000E+00
    0.00000E+00         0.00000E+00        -0.50452E+08
 
   -0.51283E+08         0.51266E+06         0.00000E+00
    0.51266E+06        -0.50075E+08         0.00000E+00
    0.00000E+00         0.00000E+00        -0.50448E+08
 
   -0.51253E+08         0.53372E+06         0.00000E+00
    0.53372E+06        -0.50082E+08         0.00000E+00
    0.00000E+00         0.00000E+00        -0.50443E+08
 
   -0.51222E+08         0.55418E+06         0.00000E+00
    0.55418E+06        -0.50090E+08         0.00000E+00
    0.00000E+00         0.00000E+00        -0.50438E+08
 
   -0.51192E+08         0.57405E+06         0.00000E+00
    0.57405E+06        -0.50097E+08         0.00000E+00
    0.00000E+00         0.00000E+00        -0.50434E+08
 
   -0.51161E+08         0.59334E+06         0.00000E+00
    0.59334E+06        -0.50105E+08         0.00000E+00
    0.00000E+00         0.00000E+00        -0.50429E+08
 
   -0.51131E+08         0.61208E+06         0.00000E+00
    0.61208E+06        -0.50113E+08         0.00000E+00
    0.00000E+00         0.00000E+00        -0.50425E+08
 
   -0.51100E+08         0.63027E+06         0.00000E+00
    0.63027E+06        -0.50122E+08         0.00000E+00
    0.00000E+00         0.00000E+00        -0.50420E+08
 
   -0.51069E+08         0.64793E+06         0.00000E+00
    0.64793E+06        -0.50130E+08         0.00000E+00
    0.00000E+00         0.00000E+00        -0.50416E+08
 
   -0.51038E+08         0.66507E+06         0.00000E+00
    0.66507E+06        -0.50139E+08         0.00000E+00
    0.00000E+00         0.00000E+00        -0.50411E+08
 
   -0.51007E+08         0.68170E+06         0.00000E+00
    0.68170E+06        -0.50148E+08         0.00000E+00
    0.00000E+00         0.00000E+00        -0.50407E+08
 
   -0.50976E+08         0.69784E+06         0.00000E+00
    0.69784E+06        -0.50157E+08         0.00000E+00
    0.00000E+00         0.00000E+00        -0.50403E+08
 
   -0.50945E+08         0.71349E+06         0.00000E+00
    0.71349E+06        -0.50166E+08         0.00000E+00
    0.00000E+00         0.00000E+00        -0.50398E+08
 
   -0.50915E+08         0.72867E+06         0.00000E+00
    0.72867E+06        -0.50176E+08         0.00000E+00
    0.00000E+00         0.00000E+00        -0.50394E+08
 
   -0.50884E+08         0.74340E+06         0.00000E+00
    0.74340E+06        -0.50186E+08         0.00000E+00
    0.00000E+00         0.00000E+00        -0.50390E+08
 
   -0.50853E+08         0.75768E+06         0.00000E+00
    0.75768E+06        -0.50196E+08         0.00000E+00
    0.00000E+00         0.00000E+00        -0.50386E+08
 
   -0.50822E+08         0.77152E+06         0.00000E+00
    0.77152E+06        -0.50206E+08         0.00000E+00
    0.00000E+00         0.00000E+00        -0.50381E+08
 
   -0.50791E+08         0.78494E+06         0.00000E+00
    0.78494E+06        -0.50216E+08         0.00000E+00
    0.00000E+00         0.00000E+00        -0.50377E+08
 
   -0.50760E+08         0.79795E+06         0.00000E+00
    0.79795E+06        -0.50226E+08         0.00000E+00
    0.00000E+00         0.00000E+00        -0.50373E+08
 
   -0.50729E+08         0.81056E+06         0.00000E+00
    0.81056E+06        -0.50237E+08         0.00000E+00
    0.00000E+00         0.00000E+00        -0.50369E+08
 
   -0.50699E+08         0.82278E+06         0.00000E+00
    0.82278E+06        -0.50248E+08         0.00000E+00
    0.00000E+00         0.00000E+00        -0.50365E+08
 
   -0.50668E+08         0.83463E+06         0.00000E+00
    0.83463E+06        -0.50259E+08         0.00000E+00
    0.00000E+00         0.00000E+00        -0.50361E+08
 
   -0.50638E+08         0.84610E+06         0.00000E+00
    0.84610E+06        -0.50270E+08         0.00000E+00
    0.00000E+00         0.00000E+00        -0.50357E+08
 
   -0.50607E+08         0.85721E+06         0.00000E+00
    0.85721E+06        -0.50281E+08         0.00000E+00
    0.00000E+00         0.00000E+00        -0.50354E+08
 
   -0.50577E+08         0.86798E+06         0.00000E+00
    0.86798E+06        -0.50293E+08         0.00000E+00
    0.00000E+00         0.00000E+00        -0.50350E+08
 
   -0.50546E+08         0.87841E+06         0.00000E+00
    0.87841E+06        -0.50305E+08         0.00000E+00
    0.00000E+00         0.00000E+00        -0.50346E+08
 
   -0.50516E+08         0.88851E+06         0.00000E+00
    0.88851E+06        -0.50317E+08         0.00000E+00
    0.00000E+00         0.00000E+00        -0.50342E+08
 
   -0.50485E+08         0.89828E+06         0.00000E+00
    0.89828E+06        -0.50329E+08         0.00000E+00
    0.00000E+00         0.00000E+00        -0.50339E+08
 
   -0.50455E+08         0.90775E+06         0.00000E+00
    0.90775E+06        -0.50341E+08         0.00000E+00
    0.00000E+00         0.00000E+00        -0.50335E+08
 
   -0.50425E+08         0.91692E+06         0.00000E+00
    0.91692E+06        -0.50354E+08         0.00000E+00
    0.00000E+00         0.00000E+00        -0.50332E+08
 
   -0.50395E+08         0.92579E+06         0.00000E+00
    0.92579E+06        -0.50366E+08         0.00000E+00
    0.00000E+00         0.00000E+00        -0.50328E+08
 
   -0.50365E+08         0.93438E+06         0.00000E+00
    0.93438E+06        -0.50379E+08         0.00000E+00
    0.00000E+00         0.00000E+00        -0.50325E+08
 
   -0.50335E+08         0.94269E+06         0.00000E+00
    0.94269E+06        -0.50392E+08         0.00000E+00
    0.00000E+00         0.00000E+00        -0.50321E+08
 
   -0.51601E+08         0.16286E+05         0.00000E+00
    0.16286E+05        -0.50000E+08         0.00000E+00
    0.00000E+00         0.00000E+00        -0.50468E+08
 
   -0.51583E+08         0.47350E+05         0.00000E+00
    0.47350E+05        -0.50001E+08         0.00000E+00
    0.00000E+00         0.00000E+00        -0.50465E+08
 
   -0.51564E+08         0.77764E+05         0.00000E+00
    0.77764E+05        -0.50002E+08         0.00000E+00
    0.00000E+00         0.00000E+00        -0.50461E+08
 
   -0.51544E+08         0.10753E+06         0.00000E+00
    0.10753E+06        -0.50003E+08         0.00000E+00
    0.00000E+00         0.00000E+00        -0.50457E+08
 
   -0.51523E+08         0.13664E+06         0.00000E+00
    0.13664E+06        -0.50005E+08         0.00000E+00
    0.00000E+00         0.00000E+00        -0.50454E+08
 
   -0.51502E+08         0.16510E+06         0.00000E+00
    0.16510E+06        -0.50008E+08         0.00000E+00
    0.00000E+00         0.00000E+00        -0.50450E+08
 
   -0.51480E+08         0.19291E+06         0.00000E+00
    0.19291E+06        -0.50011E+08         0.00000E+00
    0.00000E+00         0.00000E+00        -0.50446E+08
 
   -0.51457E+08         0.22007E+06         0.00000E+00
    0.22007E+06        -0.50014E+08         0.00000E+00
    0.00000E+00         0.00000E+00        -0.50442E+08
 
   -0.51434E+08         0.24659E+06         0.00000E+00
    0.24659E+06        -0.50018E+08         0.00000E+00
    0.00000E+00         0.00000E+00        -0.50438E+08
 
   -0.51410E+08         0.27246E+06         0.00000E+00
    0.27246E+06        -0.50022E+08         0.00000E+00
    0.00000E+00         0.00000E+00        -0.50434E+08
 
   -0.51386E+08         0.29770E+06         0.00000E+00
    0.29770E+06        -0.50026E+08         0.00000E+00
    0.00000E+00         0.00000E+00        -0.50431E+08
 
   -0.51362E+08         0.32231E+06         0.00000E+00
    0.32231E+06        -0.50031E+08         0.00000E+00
    0.00000E+00         0.00000E+00        -0.50427E+08
 
   -0.51336E+08         0.34630E+06         0.00000E+00
    0.34630E+06        -0.50036E+08         0.00000E+00
    0.00000E+00         0.00000E+00        -0.50423E+08
 
   -0.51311E+08         0.36967E+06         0.00000E+00
    0.36967E+06        -0.50041E+08         0.00000E+00
    0.00000E+00         0.00000E+00        -0.50419E+08
 
   -0.51285E+08         0.39243E+06         0.00000E+00
    0.39243E+06        -0.50047E+08         0.00000E+00
    0.00000E+00         0.00000E+00        -0.50415E+08
 
   -0.51259E+08         0.41459E+06         0.00000E+00
    0.41459E+06        -0.50053E+08         0.00000E+00
    0.00000E+00         0.00000E+00        -0.50411E+08
 
   -0.51233E+08         0.43616E+06         0.00000E+00
    0.43616E+06        -0.50059E+08         0.00000E+00
    0.00000E+00         0.00000E+00        -0.50407E+08
 
   -0.51206E+08         0.45714E+06         0.00000E+00
    0.45714E+06        -0.50066E+08         0.00000E+00
    0.00000E+00         0.00000E+00        -0.50402E+08
 
   -0.51179E+08         0.47754E+06         0.00000E+00
    0.47754E+06        -0.50073E+08         0.00000E+00
    0.00000E+00         0.00000E+00        -0.50398E+08
 
   -0.51152E+08         0.49738E+06         0.00000E+00
    0.49738E+06        -0.50080E+08         0.00000E+00
    0.00000E+00         0.00000E+00        -0.50394E+08
 
   -0.51124E+08         0.51667E+06         0.00000E+00
    0.51667E+06        -0.50087E+08         0.00000E+00
    0.00000E+00         0.00000E+00        -0.50390E+08
 
   -0.51097E+08         0.53540E+06         0.00000E+00
    0.53540E+06        -0.50095E+08         0.00000E+00
    0.00000E+00         0.00000E+00        -0.50386E+08
 
   -0.51069E+08         0.55360E+06         0.00000E+00
    0.55360E+06        -0.50102E+08         0.00000E+00
    0.00000E+00         0.00000E+00        -0.50382E+08
 
   -0.51041E+08         0.57127E+06         0.00000E+00
    0.57127E+06        -0.50110E+08         0.00000E+00
    0.00000E+00         0.00000E+00        -0.50378E+08
 
   -0.51013E+08         0.58843E+06         0.00000E+00
    0.58843E+06        -0.50119E+08         0.00000E+00
    0.00000E+00         0.00000E+00        -0.50374E+08
 
   -0.50985E+08         0.60508E+06         0.00000E+00
    0.60508E+06        -0.50127E+08         0.00000E+00
    0.00000E+00         0.00000E+00        -0.50370E+08
 
   -0.50956E+08         0.62123E+06         0.00000E+00
    0.62123E+06        -0.50136E+08         0.00000E+00
    0.00000E+00         0.00000E+00        -0.50366E+08
 
   -0.50928E+08         0.63689E+06         0.00000E+00
    0.63689E+06        -0.50144E+08         0.00000E+00
    0.00000E+00         0.00000E+00        -0.50362E+08
 
   -0.50899E+08         0.65208E+06         0.00000E+00
    0.65208E+06        -0.50153E+08         0.00000E+00
    0.00000E+00         0.00000E+00        -0.50359E+08
 
   -0.50871E+08         0.66681E+06         0.00000E+00
    0.66681E+06        -0.50162E+08         0.00000E+00
    0.00000E+00         0.00000E+00        -0.50355E+08
 
   -0.50842E+08         0.68107E+06         0.00000E+00
    0.68107E+06        -0.50172E+08         0.00000E+00
    0.00000E+00         0.00000E+00        -0.50351E+08
 
   -0.50813E+08         0.69489E+06         0.00000E+00
    0.69489E+06        -0.50181E+08         0.00000E+00
    0.00000E+00         0.00000E+00        -0.50347E+08
 
   -0.50785E+08         0.70828E+06         0.00000E+00
    0.70828E+06        -0.50191E+08         0.00000E+00
    0.00000E+00         0.00000E+00        -0.50343E+08
 
   -0.50756E+08         0.72124E+06         0.00000E+00
    0.72124E+06        -0.50201E+08         0.00000E+00
    0.00000E+00         0.00000E+00        -0.50339E+08
 
   -0.50727E+08         0.73378E+06         0.00000E+00
    0.73378E+06        -0.50211E+08         0.00000E+00
    0.00000E+00         0.00000E+00        -0.50336E+08
 
   -0.50698E+08         0.74592E+06         0.00000E+00
    0.74592E+06        -0.50221E+08         0.00000E+00
    0.00000E+00         0.00000E+00        -0.50332E+08
 
   -0.50670E+08         0.75765E+06         0.00000E+00
    0.75765E+06        -0.50231E+08         0.00000E+00
    0.00000E+00         0.00000E+00        -0.50328E+08
 
   -0.50641E+08         0.76900E+06         0.00000E+00
    0.76900E+06        -0.50242E+08         0.00000E+00
    0.00000E+00         0.00000E+00        -0.50325E+08
 
   -0.50612E+08         0.77997E+06         0.00000E+00
    0.77997E+06        -0.50252E+08         0.00000E+00
    0.00000E+00         0.00000E+00        -0.50321E+08
 
   -0.50583E+08         0.79057E+06         0.00000E+00
    0.79057E+06        -0.50263E+08         0.00000E+00
    0.00000E+00         0.00000E+00        -0.50317E+08
 
   -0.50554E+08         0.80081E+06         0.00000E+00
    0.80081E+06        -0.50274E+08         0.00000E+00
    0.00000E+00         0.00000E+00        -0.50314E+08
 
   -0.50526E+08         0.81069E+06         0.00000E+00
    0.81069E+06        -0.50285E+08         0.00000E+00
    0.00000E+00         0.00000E+00        -0.50310E+08
 
   -0.50497E+08         0.82023E+06         0.00000E+00
    0.82023E+06        -0.50297E+08         0.00000E+00
    0.00000E+00         0.00000E+00        -0.50307E+08
 
   -0.50468E+08         0.82943E+06         0.00000E+00
    0.82943E+06        -0.50308E+08         0.00000E+00
    0.00000E+00         0.00000E+00        -0.50303E+08
 
   -0.50440E+08         0.83831E+06         0.00000E+00
    0.83831E+06        -0.50320E+08         0.00000E+00
    0.00000E+00         0.00000E+00        -0.50300E+08
 
   -0.50411E+08         0.84686E+06         0.00000E+00
    0.84686E+06        -0.50332E+08         0.00000E+00
    0.00000E+00         0.00000E+00        -0.50297E+08
 
   -0.50382E+08         0.85510E+06         0.00000E+00
    0.85510E+06        -0.50344E+08         0.00000E+00
    0.00000E+00         0.00000E+00        -0.50293E+08
 
   -0.50354E+08         0.86303E+06         0.00000E+00
    0.86303E+06        -0.50356E+08         0.00000E+00
    0.00000E+00         0.00000E+00        -0.50290E+08
 
   -0.50325E+08         0.87067E+06         0.00000E+00
    0.87067E+06        -0.50368E+08         0.00000E+00
    0.00000E+00         0.00000E+00        -0.50287E+08
 
   -0.50296E+08         0.87801E+06         0.00000E+00
    0.87801E+06        -0.50381E+08         0.00000E+00
    0.00000E+00         0.00000E+00        -0.50284E+08
 
   -0.51451E+08         0.14895E+05         0.00000E+00
    0.14895E+05        -0.50000E+08         0.00000E+00
    0.00000E+00         0.00000E+00        -0.50415E+08
 
   -0.51435E+08         0.43423E+05         0.00000E+00
    0.43423E+05        -0.50000E+08         0.00000E+00
    0.00000E+00         0.00000E+00        -0.50412E+08
 
   -0.51419E+08         0.71404E+05         0.00000E+00
    0.71404E+05        -0.50001E+08         0.00000E+00
    0.00000E+00         0.00000E+00        -0.50409E+08
 
   -0.51402E+08         0.98832E+05         0.00000E+00
    0.98832E+05        -0.50003E+08         0.00000E+00
    0.00000E+00         0.00000E+00        -0.50406E+08
 
   -0.51385E+08         0.12570E+06         0.00000E+00
    0.12570E+06        -0.50005E+08         0.00000E+00
    0.00000E+00         0.00000E+00        -0.50402E+08
 
   -0.51366E+08         0.15202E+06         0.00000E+00
    0.15202E+06        -0.50007E+08         0.00000E+00
    0.00000E+00         0.00000E+00        -0.50399E+08
 
   -0.51347E+08         0.17777E+06         0.00000E+00
    0.17777E+06        -0.50010E+08         0.00000E+00
    0.00000E+00         0.00000E+00        -0.50396E+08
 
   -0.51328E+08         0.20296E+06         0.00000E+00
    0.20296E+06        -0.50013E+08         0.00000E+00
    0.00000E+00         0.00000E+00        -0.50393E+08
 
   -0.51308E+08         0.22758E+06         0.00000E+00
    0.22758E+06        -0.50017E+08         0.00000E+00
    0.00000E+00         0.00000E+00        -0.50389E+08
 
   -0.51287E+08         0.25165E+06         0.00000E+00
    0.25165E+06        -0.50021E+08         0.00000E+00
    0.00000E+00         0.00000E+00        -0.50386E+08
 
   -0.51266E+08         0.27515E+06         0.00000E+00
    0.27515E+06        -0.50025E+08         0.00000E+00
    0.00000E+00         0.00000E+00        -0.50383E+08
 
   -0.51244E+08         0.29810E+06         0.00000E+00
    0.29810E+06        -0.50029E+08         0.00000E+00
    0.00000E+00         0.00000E+00        -0.50379E+08
 
   -0.51222E+08         0.32049E+06         0.00000E+00
    0.32049E+06        -0.50034E+08         0.00000E+00
    0.00000E+00         0.00000E+00        -0.50376E+08
 
   -0.51199E+08         0.34233E+06         0.00000E+00
    0.34233E+06        -0.50039E+08         0.00000E+00
    0.00000E+00         0.00000E+00        -0.50372E+08
 
   -0.51177E+08         0.36363E+06         0.00000E+00
    0.36363E+06        -0.50045E+08         0.00000E+00
    0.00000E+00         0.00000E+00        -0.50369E+08
 
   -0.51153E+08         0.38438E+06         0.00000E+00
    0.38438E+06        -0.50051E+08         0.00000E+00
    0.00000E+00         0.00000E+00        -0.50365E+08
 
   -0.51130E+08         0.40459E+06         0.00000E+00
    0.40459E+06        -0.50057E+08         0.00000E+00
    0.00000E+00         0.00000E+00        -0.50362E+08
 
   -0.51106E+08         0.42428E+06         0.00000E+00
    0.42428E+06        -0.50063E+08         0.00000E+00
    0.00000E+00         0.00000E+00        -0.50358E+08
 
   -0.51081E+08         0.44343E+06         0.00000E+00
    0.44343E+06        -0.50070E+08         0.00000E+00
    0.00000E+00         0.00000E+00        -0.50355E+08
 
   -0.51057E+08         0.46207E+06         0.00000E+00
    0.46207E+06        -0.50077E+08         0.00000E+00
    0.00000E+00         0.00000E+00        -0.50351E+08
 
   -0.51032E+08         0.48019E+06         0.00000E+00
    0.48019E+06        -0.50084E+08         0.00000E+00
    0.00000E+00         0.00000E+00        -0.50348E+08
 
   -0.51007E+08         0.49781E+06         0.00000E+00
    0.49781E+06        -0.50091E+08         0.00000E+00
    0.00000E+00         0.00000E+00        -0.50344E+08
 
   -0.50982E+08         0.51493E+06         0.00000E+00
    0.51493E+06        -0.50098E+08         0.00000E+00
    0.00000E+00         0.00000E+00        -0.50341E+08
 
   -0.50956E+08         0.53156E+06         0.00000E+00
    0.53156E+06        -0.50106E+08         0.00000E+00
    0.00000E+00         0.00000E+00        -0.50337E+08
 
   -0.50931E+08         0.54770E+06         0.00000E+00
    0.54770E+06        -0.50114E+08         0.00000E+00
    0.00000E+00         0.00000E+00        -0.50334E+08
 
   -0.50905E+08         0.56336E+06         0.00000E+00
    0.56336E+06        -0.50122E+08         0.00000E+00
    0.00000E+00         0.00000E+00        -0.50330E+08
 
   -0.50879E+08         0.57856E+06         0.00000E+00
    0.57856E+06        -0.50130E+08         0.00000E+00
    0.00000E+00         0.00000E+00        -0.50326E+08
 
   -0.50853E+08         0.59329E+06         0.00000E+00
    0.59329E+06        -0.50139E+08         0.00000E+00
    0.00000E+00         0.00000E+00        -0.50323E+08
 
   -0.50827E+08         0.60758E+06         0.00000E+00
    0.60758E+06        -0.50147E+08         0.00000E+00
    0.00000E+00         0.00000E+00        -0.50319E+08
 
   -0.50800E+08         0.62141E+06         0.00000E+00
    0.62141E+06        -0.50156E+08         0.00000E+00
    0.00000E+00         0.00000E+00        -0.50316E+08
 
   -0.50774E+08         0.63481E+06         0.00000E+00
    0.63481E+06        -0.50165E+08         0.00000E+00
    0.00000E+00         0.00000E+00        -0.50312E+08
 
   -0.50747E+08         0.64778E+06         0.00000E+00
    0.64778E+06        -0.50174E+08         0.00000E+00
    0.00000E+00         0.00000E+00        -0.50309E+08
 
   -0.50721E+08         0.66033E+06         0.00000E+00
    0.66033E+06        -0.50184E+08         0.00000E+00
    0.00000E+00         0.00000E+00        -0.50306E+08
 
   -0.50694E+08         0.67246E+06         0.00000E+00
    0.67246E+06        -0.50193E+08         0.00000E+00
    0.00000E+00         0.00000E+00        -0.50302E+08
 
   -0.50667E+08         0.68419E+06         0.00000E+00
    0.68419E+06        -0.50203E+08         0.00000E+00
    0.00000E+00         0.00000E+00        -0.50299E+08
 
   -0.50641E+08         0.69551E+06         0.00000E+00
    0.69551E+06        -0.50213E+08         0.00000E+00
    0.00000E+00         0.00000E+00        -0.50295E+08
 
   -0.50614E+08         0.70645E+06         0.00000E+00
    0.70645E+06        -0.50223E+08         0.00000E+00
    0.00000E+00         0.00000E+00        -0.50292E+08
 
   -0.50587E+08         0.71701E+06         0.00000E+00
    0.71701E+06        -0.50233E+08         0.00000E+00
    0.00000E+00         0.00000E+00        -0.50289E+08
 
   -0.50560E+08         0.72719E+06         0.00000E+00
    0.72719E+06        -0.50243E+08         0.00000E+00
    0.00000E+00         0.00000E+00        -0.50285E+08
 
   -0.50533E+08         0.73700E+06         0.00000E+00
    0.73700E+06        -0.50254E+08         0.00000E+00
    0.00000E+00         0.00000E+00        -0.50282E+08
 
   -0.50506E+08         0.74645E+06         0.00000E+00
    0.74645E+06        -0.50264E+08         0.00000E+00
    0.00000E+00         0.00000E+00        -0.50279E+08
 
   -0.50479E+08         0.75555E+06         0.00000E+00
    0.75555E+06        -0.50275E+08         0.00000E+00
    0.00000E+00         0.00000E+00        -0.50275E+08
 
   -0.50452E+08         0.76430E+06         0.00000E+00
    0.76430E+06        -0.50286E+08         0.00000E+00
    0.00000E+00         0.00000E+00        -0.50272E+08
 
   -0.50425E+08         0.77271E+06         0.00000E+00
    0.77271E+06        -0.50297E+08         0.00000E+00
    0.00000E+00         0.00000E+00        -0.50269E+08
 
   -0.50398E+08         0.78079E+06         0.00000E+00
    0.78079E+06        -0.50308E+08         0.00000E+00
    0.00000E+00         0.00000E+00        -0.50266E+08
 
   -0.50371E+08         0.78854E+06         0.00000E+00
    0.78854E+06        -0.50319E+08         0.00000E+00
    0.00000E+00         0.00000E+00        -0.50263E+08
 
   -0.50344E+08         0.79597E+06         0.00000E+00
    0.79597E+06        -0.50331E+08         0.00000E+00
    0.00000E+00         0.00000E+00        -0.50259E+08
 
   -0.50317E+08         0.80308E+06         0.00000E+00
    0.80308E+06        -0.50342E+08         0.00000E+00
    0.00000E+00         0.00000E+00        -0.50256E+08
 
   -0.50290E+08         0.80989E+06         0.00000E+00
    0.80989E+06        -0.50354E+08         0.00000E+00
    0.00000E+00         0.00000E+00        -0.50253E+08
 
   -0.50262E+08         0.81639E+06         0.00000E+00
    0.81639E+06        -0.50366E+08         0.00000E+00
    0.00000E+00         0.00000E+00        -0.50250E+08
 
   -0.51313E+08         0.13601E+05         0.00000E+00
    0.13601E+05        -0.50000E+08         0.00000E+00
    0.00000E+00         0.00000E+00        -0.50367E+08
 
   -0.51300E+08         0.39750E+05         0.00000E+00
    0.39750E+05        -0.50000E+08         0.00000E+00
    0.00000E+00         0.00000E+00        -0.50365E+08
 
   -0.51286E+08         0.65439E+05         0.00000E+00
    0.65439E+05        -0.50001E+08         0.00000E+00
    0.00000E+00         0.00000E+00        -0.50362E+08
 
   -0.51272E+08         0.90660E+05         0.00000E+00
    0.90660E+05        -0.50003E+08         0.00000E+00
    0.00000E+00         0.00000E+00        -0.50360E+08
 
   -0.51257E+08         0.11541E+06         0.00000E+00
    0.11541E+06        -0.50005E+08         0.00000E+00
    0.00000E+00         0.00000E+00        -0.50357E+08
 
   -0.51241E+08         0.13968E+06         0.00000E+00
    0.13968E+06        -0.50007E+08         0.00000E+00
    0.00000E+00         0.00000E+00        -0.50354E+08
 
   -0.51225E+08         0.16346E+06         0.00000E+00
    0.16346E+06        -0.50009E+08         0.00000E+00
    0.00000E+00         0.00000E+00        -0.50352E+08
 
   -0.51208E+08         0.18676E+06         0.00000E+00
    0.18676E+06        -0.50012E+08         0.00000E+00
    0.00000E+00         0.00000E+00        -0.50349E+08
 
   -0.51190E+08         0.20957E+06         0.00000E+00
    0.20957E+06        -0.50016E+08         0.00000E+00
    0.00000E+00         0.00000E+00        -0.50346E+08
 
   -0.51172E+08         0.23189E+06         0.00000E+00
    0.23189E+06        -0.50019E+08         0.00000E+00
    0.00000E+00         0.00000E+00        -0.50343E+08
 
   -0.51154E+08         0.25372E+06         0.00000E+00
    0.25372E+06        -0.50023E+08         0.00000E+00
    0.00000E+00         0.00000E+00        -0.50340E+08
 
   -0.51135E+08         0.27506E+06         0.00000E+00
    0.27506E+06        -0.50028E+08         0.00000E+00
    0.00000E+00         0.00000E+00        -0.50337E+08
 
   -0.51115E+08         0.29590E+06         0.00000E+00
    0.29590E+06        -0.50032E+08         0.00000E+00
    0.00000E+00         0.00000E+00        -0.50334E+08
 
   -0.51095E+08         0.31626E+06         0.00000E+00
    0.31626E+06        -0.50037E+08         0.00000E+00
    0.00000E+00         0.00000E+00        -0.50331E+08
 
   -0.51075E+08         0.33612E+06         0.00000E+00
    0.33612E+06        -0.50042E+08         0.00000E+00
    0.00000E+00         0.00000E+00        -0.50328E+08
 
   -0.51054E+08         0.35550E+06         0.00000E+00
    0.35550E+06        -0.50048E+08         0.00000E+00
    0.00000E+00         0.00000E+00        -0.50325E+08
 
   -0.51033E+08         0.37440E+06         0.00000E+00
    0.37440E+06        -0.50054E+08         0.00000E+00
    0.00000E+00         0.00000E+00        -0.50322E+08
 
   -0.51012E+08         0.39281E+06         0.00000E+00
    0.39281E+06        -0.50060E+08         0.00000E+00
    0.00000E+00         0.00000E+00        -0.50319E+08
 
   -0.50990E+08         0.41075E+06         0.00000E+00
    0.41075E+06        -0.50066E+08         0.00000E+00
    0.00000E+00         0.00000E+00        -0.50316E+08
 
   -0.50968E+08         0.42821E+06         0.00000E+00
    0.42821E+06        -0.50072E+08         0.00000E+00
    0.00000E+00         0.00000E+00        -0.50313E+08
 
   -0.50945E+08         0.44520E+06         0.00000E+00
    0.44520E+06        -0.50079E+08         0.00000E+00
    0.00000E+00         0.00000E+00        -0.50310E+08
 
   -0.50923E+08         0.46172E+06         0.00000E+00
    0.46172E+06        -0.50086E+08         0.00000E+00
    0.00000E+00         0.00000E+00        -0.50307E+08
 
   -0.50900E+08         0.47779E+06         0.00000E+00
    0.47779E+06        -0.50093E+08         0.00000E+00
    0.00000E+00         0.00000E+00        -0.50303E+08
 
   -0.50877E+08         0.49339E+06         0.00000E+00
    0.49339E+06        -0.50101E+08         0.00000E+00
    0.00000E+00         0.00000E+00        -0.50300E+08
 
   -0.50854E+08         0.50855E+06         0.00000E+00
    0.50855E+06        -0.50108E+08         0.00000E+00
    0.00000E+00         0.00000E+00        -0.50297E+08
 
   -0.50830E+08         0.52326E+06         0.00000E+00
    0.52326E+06        -0.50116E+08         0.00000E+00
    0.00000E+00         0.00000E+00        -0.50294E+08
 
   -0.50806E+08         0.53754E+06         0.00000E+00
    0.53754E+06        -0.50124E+08         0.00000E+00
    0.00000E+00         0.00000E+00        -0.50291E+08
 
   -0.50783E+08         0.55137E+06         0.00000E+00
    0.55137E+06        -0.50132E+08         0.00000E+00
    0.00000E+00         0.00000E+00        -0.50288E+08
 
   -0.50759E+08         0.56478E+06         0.00000E+00
    0.56478E+06        -0.50140E+08         0.00000E+00
    0.00000E+00         0.00000E+00        -0.50285E+08
 
   -0.50734E+08         0.57777E+06         0.00000E+00
    0.57777E+06        -0.50149E+08         0.00000E+00
    0.00000E+00         0.00000E+00        -0.50281E+08
 
   -0.50710E+08         0.59034E+06         0.00000E+00
    0.59034E+06        -0.50157E+08         0.00000E+00
    0.00000E+00         0.00000E+00        -0.50278E+08
 
   -0.50686E+08         0.60250E+06         0.00000E+00
    0.60250E+06        -0.50166E+08         0.00000E+00
    0.00000E+00         0.00000E+00        -0.50275E+08
 
   -0.50661E+08         0.61426E+06         0.00000E+00
    0.61426E+06        -0.50175E+08         0.00000E+00
    0.00000E+00         0.00000E+00        -0.50272E+08
 
   -0.50636E+08         0.62561E+06         0.00000E+00
    0.62561E+06        -0.50184E+08         0.00000E+00
    0.00000E+00         0.00000E+00        -0.50269E+08
 
   -0.50612E+08         0.63658E+06         0.00000E+00
    0.63658E+06        -0.50193E+08         0.00000E+00
    0.00000E+00         0.00000E+00        -0.50266E+08
 
   -0.50587E+08         0.64716E+06         0.00000E+00
    0.64716E+06        -0.50203E+08         0.00000E+00
    0.00000E+00         0.00000E+00        -0.50263E+08
 
   -0.50562E+08         0.65736E+06         0.00000E+00
    0.65736E+06        -0.50212E+08         0.00000E+00
    0.00000E+00         0.00000E+00        -0.50260E+08
 
   -0.50537E+08         0.66718E+06         0.00000E+00
    0.66718E+06        -0.50222E+08         0.00000E+00
    0.00000E+00         0.00000E+00        -0.50257E+08
 
   -0.50512E+08         0.67664E+06         0.00000E+00
    0.67664E+06        -0.50232E+08         0.00000E+00
    0.00000E+00         0.00000E+00        -0.50254E+08
 
   -0.50487E+08         0.68574E+06         0.00000E+00
    0.68574E+06        -0.50242E+08         0.00000E+00
    0.00000E+00         0.00000E+00        -0.50250E+08
 
   -0.50461E+08         0.69448E+06         0.00000E+00
    0.69448E+06        -0.50252E+08         0.00000E+00
    0.00000E+00         0.00000E+00        -0.50247E+08
 
   -0.50436E+08         0.70286E+06         0.00000E+00
    0.70286E+06        -0.50262E+08         0.00000E+00
    0.00000E+00         0.00000E+00        -0.50244E+08
 
   -0.50411E+08         0.71091E+06         0.00000E+00
    0.71091E+06        -0.50272E+08         0.00000E+00
    0.00000E+00         0.00000E+00        -0.50241E+08
 
   -0.50386E+08         0.71861E+06         0.00000E+00
    0.71861E+06        -0.50283E+08         0.00000E+00
    0.00000E+00         0.00000E+00        -0.50238E+08
 
   -0.50360E+08         0.72598E+06         0.00000E+00
    0.72598E+06        -0.50293E+08         0.00000E+00
    0.00000E+00         0.00000E+00        -0.50236E+08
 
   -0.50335E+08         0.73302E+06         0.00000E+00
    0.73302E+06        -0.50304E+08         0.00000E+00
    0.00000E+00         0.00000E+00        -0.50233E+08
 
   -0.50309E+08         0.73974E+06         0.00000E+00
    0.73974E+06        -0.50315E+08         0.00000E+00
    0.00000E+00         0.00000E+00        -0.50230E+08
 
   -0.50284E+08         0.74613E+06         0.00000E+00
    0.74613E+06        -0.50326E+08         0.00000E+00
    0.00000E+00         0.00000E+00        -0.50227E+08
 
   -0.50258E+08         0.75222E+06         0.00000E+00
    0.75222E+06        -0.50337E+08         0.00000E+00
    0.00000E+00         0.00000E+00        -0.50224E+08
 
   -0.50232E+08         0.75799E+06         0.00000E+00
    0.75799E+06        -0.50348E+08         0.00000E+00
    0.00000E+00         0.00000E+00        -0.50221E+08
 
   -0.51187E+08         0.12407E+05         0.00000E+00
    0.12407E+05        -0.50000E+08         0.00000E+00
    0.00000E+00         0.00000E+00        -0.50326E+08
 
   -0.51176E+08         0.36344E+05         0.00000E+00
    0.36344E+05        -0.50000E+08         0.00000E+00
    0.00000E+00         0.00000E+00        -0.50323E+08
 
   -0.51164E+08         0.59895E+05         0.00000E+00
    0.59895E+05        -0.50001E+08         0.00000E+00
    0.00000E+00         0.00000E+00        -0.50321E+08
 
   -0.51152E+08         0.83051E+05         0.00000E+00
    0.83051E+05        -0.50003E+08         0.00000E+00
    0.00000E+00         0.00000E+00        -0.50319E+08
 
   -0.51139E+08         0.10580E+06         0.00000E+00
    0.10580E+06        -0.50004E+08         0.00000E+00
    0.00000E+00         0.00000E+00        -0.50317E+08
 
   -0.51126E+08         0.12815E+06         0.00000E+00
    0.12815E+06        -0.50006E+08         0.00000E+00
    0.00000E+00         0.00000E+00        -0.50315E+08
 
   -0.51112E+08         0.15008E+06         0.00000E+00
    0.15008E+06        -0.50009E+08         0.00000E+00
    0.00000E+00         0.00000E+00        -0.50312E+08
 
   -0.51097E+08         0.17159E+06         0.00000E+00
    0.17159E+06        -0.50011E+08         0.00000E+00
    0.00000E+00         0.00000E+00        -0.50310E+08
 
   -0.51082E+08         0.19268E+06         0.00000E+00
    0.19268E+06        -0.50015E+08         0.00000E+00
    0.00000E+00         0.00000E+00        -0.50307E+08
 
   -0.51066E+08         0.21334E+06         0.00000E+00
    0.21334E+06        -0.50018E+08         0.00000E+00
    0.00000E+00         0.00000E+00        -0.50305E+08
 
   -0.51050E+08         0.23356E+06         0.00000E+00
    0.23356E+06        -0.50022E+08         0.00000E+00
    0.00000E+00         0.00000E+00        -0.50302E+08
 
   -0.51033E+08         0.25336E+06         0.00000E+00
    0.25336E+06        -0.50026E+08         0.00000E+00
    0.00000E+00         0.00000E+00        -0.50300E+08
 
   -0.51016E+08         0.27272E+06         0.00000E+00
    0.27272E+06        -0.50030E+08         0.00000E+00
    0.00000E+00         0.00000E+00        -0.50297E+08
 
   -0.50998E+08         0.29165E+06         0.00000E+00
    0.29165E+06        -0.50035E+08         0.00000E+00
    0.00000E+00         0.00000E+00        -0.50295E+08
 
   -0.50980E+08         0.31014E+06         0.00000E+00
    0.31014E+06        -0.50040E+08         0.00000E+00
    0.00000E+00         0.00000E+00        -0.50292E+08
 
   -0.50962E+08         0.32820E+06         0.00000E+00
    0.32820E+06        -0.50045E+08         0.00000E+00
    0.00000E+00         0.00000E+00        -0.50290E+08
 
   -0.50943E+08         0.34582E+06         0.00000E+00
    0.34582E+06        -0.50050E+08         0.00000E+00
    0.00000E+00         0.00000E+00        -0.50287E+08
 
   -0.50924E+08         0.36300E+06         0.00000E+00
    0.36300E+06        -0.50056E+08         0.00000E+00
    0.00000E+00         0.00000E+00        -0.50284E+08
 
   -0.50904E+08         0.37976E+06         0.00000E+00
    0.37976E+06        -0.50062E+08         0.00000E+00
    0.00000E+00         0.00000E+00        -0.50281E+08
 
   -0.50884E+08         0.39608E+06         0.00000E+00
    0.39608E+06        -0.50068E+08         0.00000E+00
    0.00000E+00         0.00000E+00        -0.50279E+08
 
   -0.50864E+08         0.41197E+06         0.00000E+00
    0.41197E+06        -0.50074E+08         0.00000E+00
    0.00000E+00         0.00000E+00        -0.50276E+08
 
   -0.50844E+08         0.42744E+06         0.00000E+00
    0.42744E+06        -0.50081E+08         0.00000E+00
    0.00000E+00         0.00000E+00        -0.50273E+08
 
   -0.50823E+08         0.44249E+06         0.00000E+00
    0.44249E+06        -0.50088E+08         0.00000E+00
    0.00000E+00         0.00000E+00        -0.50270E+08
 
   -0.50802E+08         0.45711E+06         0.00000E+00
    0.45711E+06        -0.50095E+08         0.00000E+00
    0.00000E+00         0.00000E+00        -0.50268E+08
 
   -0.50781E+08         0.47132E+06         0.00000E+00
    0.47132E+06        -0.50102E+08         0.00000E+00
    0.00000E+00         0.00000E+00        -0.50265E+08
 
   -0.50760E+08         0.48511E+06         0.00000E+00
    0.48511E+06        -0.50109E+08         0.00000E+00
    0.00000E+00         0.00000E+00        -0.50262E+08
 
   -0.50738E+08         0.49849E+06         0.00000E+00
    0.49849E+06        -0.50117E+08         0.00000E+00
    0.00000E+00         0.00000E+00        -0.50259E+08
 
   -0.50717E+08         0.51146E+06         0.00000E+00
    0.51146E+06        -0.50124E+08         0.00000E+00
    0.00000E+00         0.00000E+00        -0.50256E+08
 
   -0.50695E+08         0.52404E+06         0.00000E+00
    0.52404E+06        -0.50132E+08         0.00000E+00
    0.00000E+00         0.00000E+00        -0.50254E+08
 
   -0.50672E+08         0.53621E+06         0.00000E+00
    0.53621E+06        -0.50140E+08         0.00000E+00
    0.00000E+00         0.00000E+00        -0.50251E+08
 
   -0.50650E+08         0.54799E+06         0.00000E+00
    0.54799E+06        -0.50148E+08         0.00000E+00
    0.00000E+00         0.00000E+00        -0.50248E+08
 
   -0.50628E+08         0.55938E+06         0.00000E+00
    0.55938E+06        -0.50157E+08         0.00000E+00
    0.00000E+00         0.00000E+00        -0.50245E+08
 
   -0.50605E+08         0.57039E+06         0.00000E+00
    0.57039E+06        -0.50165E+08         0.00000E+00
    0.00000E+00         0.00000E+00        -0.50242E+08
 
   -0.50582E+08         0.58102E+06         0.00000E+00
    0.58102E+06        -0.50174E+08         0.00000E+00
    0.00000E+00         0.00000E+00        -0.50239E+08
 
   -0.50560E+08         0.59127E+06         0.00000E+00
    0.59127E+06        -0.50182E+08         0.00000E+00
    0.00000E+00         0.00000E+00        -0.50237E+08
 
   -0.50537E+08         0.60115E+06         0.00000E+00
    0.60115E+06        -0.50191E+08         0.00000E+00
    0.00000E+00         0.00000E+00        -0.50234E+08
 
   -0.50514E+08         0.61066E+06         0.00000E+00
    0.61066E+06        -0.50200E+08         0.00000E+00
    0.00000E+00         0.00000E+00        -0.50231E+08
 
   -0.50490E+08         0.61981E+06         0.00000E+00
    0.61981E+06        -0.50209E+08         0.00000E+00
    0.00000E+00         0.00000E+00        -0.50228E+08
 
   -0.50467E+08         0.62860E+06         0.00000E+00
    0.62860E+06        -0.50219E+08         0.00000E+00
    0.00000E+00         0.00000E+00        -0.50225E+08
 
   -0.50444E+08         0.63703E+06         0.00000E+00
    0.63703E+06        -0.50228E+08         0.00000E+00
    0.00000E+00         0.00000E+00        -0.50223E+08
 
   -0.50420E+08         0.64512E+06         0.00000E+00
    0.64512E+06        -0.50238E+08         0.00000E+00
    0.00000E+00         0.00000E+00        -0.50220E+08
 
   -0.50397E+08         0.65287E+06         0.00000E+00
    0.65287E+06        -0.50247E+08         0.00000E+00
    0.00000E+00         0.00000E+00        -0.50217E+08
 
   -0.50373E+08         0.66027E+06         0.00000E+00
    0.66027E+06        -0.50257E+08         0.00000E+00
    0.00000E+00         0.00000E+00        -0.50214E+08
 
   -0.50349E+08         0.66734E+06         0.00000E+00
    0.66734E+06        -0.50267E+08         0.00000E+00
    0.00000E+00         0.00000E+00        -0.50212E+08
 
   -0.50326E+08         0.67408E+06         0.00000E+00
    0.67408E+06        -0.50277E+08         0.00000E+00
    0.00000E+00         0.00000E+00        -0.50209E+08
 
   -0.50302E+08         0.68048E+06         0.00000E+00
    0.68048E+06        -0.50287E+08         0.00000E+00
    0.00000E+00         0.00000E+00        -0.50206E+08
 
   -0.50278E+08         0.68657E+06         0.00000E+00
    0.68657E+06        -0.50297E+08         0.00000E+00
    0.00000E+00         0.00000E+00        -0.50203E+08
 
   -0.50254E+08         0.69233E+06         0.00000E+00
    0.69233E+06        -0.50308E+08         0.00000E+00
    0.00000E+00         0.00000E+00        -0.50201E+08
 
   -0.50230E+08         0.69777E+06         0.00000E+00
    0.69777E+06        -0.50318E+08         0.00000E+00
    0.00000E+00         0.00000E+00        -0.50198E+08
 
   -0.50206E+08         0.70291E+06         0.00000E+00
    0.70291E+06        -0.50329E+08         0.00000E+00
    0.00000E+00         0.00000E+00        -0.50195E+08
 
   -0.51071E+08         0.11313E+05         0.00000E+00
    0.11313E+05        -0.50000E+08         0.00000E+00
    0.00000E+00         0.00000E+00        -0.50288E+08
 
   -0.51062E+08         0.33210E+05         0.00000E+00
    0.33210E+05        -0.50000E+08         0.00000E+00
    0.00000E+00         0.00000E+00        -0.50287E+08
 
   -0.51052E+08         0.54782E+05         0.00000E+00
    0.54782E+05        -0.50001E+08         0.00000E+00
    0.00000E+00         0.00000E+00        -0.50285E+08
 
   -0.51042E+08         0.76022E+05         0.00000E+00
    0.76022E+05        -0.50002E+08         0.00000E+00
    0.00000E+00         0.00000E+00        -0.50283E+08
 
   -0.51031E+08         0.96920E+05         0.00000E+00
    0.96920E+05        -0.50004E+08         0.00000E+00
    0.00000E+00         0.00000E+00        -0.50281E+08
 
   -0.51019E+08         0.11747E+06         0.00000E+00
    0.11747E+06        -0.50006E+08         0.00000E+00
    0.00000E+00         0.00000E+00        -0.50279E+08
 
   -0.51007E+08         0.13766E+06         0.00000E+00
    0.13766E+06        -0.50008E+08         0.00000E+00
    0.00000E+00         0.00000E+00        -0.50277E+08
 
   -0.50995E+08         0.15750E+06         0.00000E+00
    0.15750E+06        -0.50011E+08         0.00000E+00
    0.00000E+00         0.00000E+00        -0.50275E+08
 
   -0.50981E+08         0.17696E+06         0.00000E+00
    0.17696E+06        -0.50013E+08         0.00000E+00
    0.00000E+00         0.00000E+00        -0.50273E+08
 
   -0.50968E+08         0.19605E+06         0.00000E+00
    0.19605E+06        -0.50017E+08         0.00000E+00
    0.00000E+00         0.00000E+00        -0.50271E+08
 
   -0.50953E+08         0.21477E+06         0.00000E+00
    0.21477E+06        -0.50020E+08         0.00000E+00
    0.00000E+00         0.00000E+00        -0.50269E+08
 
   -0.50939E+08         0.23311E+06         0.00000E+00
    0.23311E+06        -0.50024E+08         0.00000E+00
    0.00000E+00         0.00000E+00        -0.50267E+08
 
   -0.50924E+08         0.25106E+06         0.00000E+00
    0.25106E+06        -0.50028E+08         0.00000E+00
    0.00000E+00         0.00000E+00        -0.50264E+08
 
   -0.50908E+08         0.26863E+06         0.00000E+00
    0.26863E+06        -0.50032E+08         0.00000E+00
    0.00000E+00         0.00000E+00        -0.50262E+08
 
   -0.50892E+08         0.28581E+06         0.00000E+00
    0.28581E+06        -0.50037E+08         0.00000E+00
    0.00000E+00         0.00000E+00        -0.50260E+08
 
   -0.50876E+08         0.30260E+06         0.00000E+00
    0.30260E+06        -0.50042E+08         0.00000E+00
    0.00000E+00         0.00000E+00        -0.50258E+08
 
   -0.50859E+08         0.31901E+06         0.00000E+00
    0.31901E+06        -0.50047E+08         0.00000E+00
    0.00000E+00         0.00000E+00        -0.50255E+08
 
   -0.50842E+08         0.33502E+06         0.00000E+00
    0.33502E+06        -0.50052E+08         0.00000E+00
    0.00000E+00         0.00000E+00        -0.50253E+08
 
   -0.50824E+08         0.35064E+06         0.00000E+00
    0.35064E+06        -0.50057E+08         0.00000E+00
    0.00000E+00         0.00000E+00        -0.50251E+08
 
   -0.50807E+08         0.36587E+06         0.00000E+00
    0.36587E+06        -0.50063E+08         0.00000E+00
    0.00000E+00         0.00000E+00        -0.50248E+08
 
   -0.50789E+08         0.38071E+06         0.00000E+00
    0.38071E+06        -0.50069E+08         0.00000E+00
    0.00000E+00         0.00000E+00        -0.50246E+08
 
   -0.50770E+08         0.39517E+06         0.00000E+00
    0.39517E+06        -0.50075E+08         0.00000E+00
    0.00000E+00         0.00000E+00        -0.50243E+08
 
   -0.50752E+08         0.40923E+06         0.00000E+00
    0.40923E+06        -0.50082E+08         0.00000E+00
    0.00000E+00         0.00000E+00        -0.50241E+08
 
   -0.50733E+08         0.42291E+06         0.00000E+00
    0.42291E+06        -0.50088E+08         0.00000E+00
    0.00000E+00         0.00000E+00        -0.50238E+08
 
   -0.50713E+08         0.43620E+06         0.00000E+00
    0.43620E+06        -0.50095E+08         0.00000E+00
    0.00000E+00         0.00000E+00        -0.50236E+08
 
   -0.50694E+08         0.44911E+06         0.00000E+00
    0.44911E+06        -0.50102E+08         0.00000E+00
    0.00000E+00         0.00000E+00        -0.50233E+08
 
   -0.50675E+08         0.46164E+06         0.00000E+00
    0.46164E+06        -0.50109E+08         0.00000E+00
    0.00000E+00         0.00000E+00        -0.50231E+08
 
   -0.50655E+08         0.47379E+06         0.00000E+00
    0.47379E+06        -0.50116E+08         0.00000E+00
    0.00000E+00         0.00000E+00        -0.50228E+08
 
   -0.50635E+08         0.48556E+06         0.00000E+00
    0.48556E+06        -0.50123E+08         0.00000E+00
    0.00000E+00         0.00000E+00        -0.50226E+08
 
   -0.50614E+08         0.49696E+06         0.00000E+00
    0.49696E+06        -0.50131E+08         0.00000E+00
    0.00000E+00         0.00000E+00        -0.50223E+08
 
   -0.50594E+08         0.50799E+06         0.00000E+00
    0.50799E+06        -0.50139E+08         0.00000E+00
    0.00000E+00         0.00000E+00        -0.50221E+08
 
   -0.50573E+08         0.51865E+06         0.00000E+00
    0.51865E+06        -0.50146E+08         0.00000E+00
    0.00000E+00         0.00000E+00        -0.50218E+08
 
   -0.50553E+08         0.52895E+06         0.00000E+00
    0.52895E+06        -0.50154E+08         0.00000E+00
    0.00000E+00         0.00000E+00        -0.50216E+08
 
   -0.50532E+08         0.53888E+06         0.00000E+00
    0.53888E+06        -0.50163E+08         0.00000E+00
    0.00000E+00         0.00000E+00        -0.50213E+08
 
   -0.50511E+08         0.54846E+06         0.00000E+00
    0.54846E+06        -0.50171E+08         0.00000E+00
    0.00000E+00         0.00000E+00        -0.50211E+08
 
   -0.50490E+08         0.55768E+06         0.00000E+00
    0.55768E+06        -0.50179E+08         0.00000E+00
    0.00000E+00         0.00000E+00        -0.50208E+08
 
   -0.50468E+08         0.56655E+06         0.00000E+00
    0.56655E+06        -0.50188E+08         0.00000E+00
    0.00000E+00         0.00000E+00        -0.50205E+08
 
   -0.50447E+08         0.57507E+06         0.00000E+00
    0.57507E+06        -0.50196E+08         0.00000E+00
    0.00000E+00         0.00000E+00        -0.50203E+08
 
   -0.50426E+08         0.58324E+06         0.00000E+00
    0.58324E+06        -0.50205E+08         0.00000E+00
    0.00000E+00         0.00000E+00        -0.50200E+08
 
   -0.50404E+08         0.59107E+06         0.00000E+00
    0.59107E+06        -0.50214E+08         0.00000E+00
    0.00000E+00         0.00000E+00        -0.50198E+08
 
   -0.50382E+08         0.59856E+06         0.00000E+00
    0.59856E+06        -0.50223E+08         0.00000E+00
    0.00000E+00         0.00000E+00        -0.50195E+08
 
   -0.50360E+08         0.60572E+06         0.00000E+00
    0.60572E+06        -0.50232E+08         0.00000E+00
    0.00000E+00         0.00000E+00        -0.50193E+08
 
   -0.50338E+08         0.61254E+06         0.00000E+00
    0.61254E+06        -0.50241E+08         0.00000E+00
    0.00000E+00         0.00000E+00        -0.50190E+08
 
   -0.50316E+08         0.61903E+06         0.00000E+00
    0.61903E+06        -0.50250E+08         0.00000E+00
    0.00000E+00         0.00000E+00        -0.50188E+08
 
   -0.50294E+08         0.62520E+06         0.00000E+00
    0.62520E+06        -0.50260E+08         0.00000E+00
    0.00000E+00         0.00000E+00        -0.50185E+08
 
   -0.50272E+08         0.63104E+06         0.00000E+00
    0.63104E+06        -0.50269E+08         0.00000E+00
    0.00000E+00         0.00000E+00        -0.50182E+08
 
   -0.50250E+08         0.63656E+06         0.00000E+00
    0.63656E+06        -0.50279E+08         0.00000E+00
    0.00000E+00         0.00000E+00        -0.50180E+08
 
   -0.50227E+08         0.64176E+06         0.00000E+00
    0.64176E+06        -0.50289E+08         0.00000E+00
    0.00000E+00         0.00000E+00        -0.50177E+08
 
   -0.50205E+08         0.64665E+06         0.00000E+00
    0.64665E+06        -0.50299E+08         0.00000E+00
    0.00000E+00         0.00000E+00        -0.50175E+08
 
   -0.50182E+08         0.65122E+06         0.00000E+00
    0.65122E+06        -0.50309E+08         0.00000E+00
    0.00000E+00         0.00000E+00        -0.50172E+08
 
   -0.50966E+08         0.10316E+05         0.00000E+00
    0.10316E+05        -0.50000E+08         0.00000E+00
    0.00000E+00         0.00000E+00        -0.50256E+08
 
   -0.50958E+08         0.30342E+05         0.00000E+00
    0.30342E+05        -0.50000E+08         0.00000E+00
    0.00000E+00         0.00000E+00        -0.50254E+08
 
   -0.50950E+08         0.50097E+05         0.00000E+00
    0.50097E+05        -0.50001E+08         0.00000E+00
    0.00000E+00         0.00000E+00        -0.50253E+08
 
   -0.50941E+08         0.69570E+05         0.00000E+00
    0.69570E+05        -0.50002E+08         0.00000E+00
    0.00000E+00         0.00000E+00        -0.50251E+08
 
   -0.50932E+08         0.88754E+05         0.00000E+00
    0.88754E+05        -0.50004E+08         0.00000E+00
    0.00000E+00         0.00000E+00        -0.50249E+08
 
   -0.50922E+08         0.10764E+06         0.00000E+00
    0.10764E+06        -0.50005E+08         0.00000E+00
    0.00000E+00         0.00000E+00        -0.50248E+08
 
   -0.50911E+08         0.12622E+06         0.00000E+00
    0.12622E+06        -0.50007E+08         0.00000E+00
    0.00000E+00         0.00000E+00        -0.50246E+08
 
   -0.50900E+08         0.14449E+06         0.00000E+00
    0.14449E+06        -0.50010E+08         0.00000E+00
    0.00000E+00         0.00000E+00        -0.50244E+08
 
   -0.50889E+08         0.16244E+06         0.00000E+00
    0.16244E+06        -0.50012E+08         0.00000E+00
    0.00000E+00         0.00000E+00        -0.50243E+08
 
   -0.50877E+08         0.18007E+06         0.00000E+00
    0.18007E+06        -0.50015E+08         0.00000E+00
    0.00000E+00         0.00000E+00        -0.50241E+08
 
   -0.50864E+08         0.19737E+06         0.00000E+00
    0.19737E+06        -0.50018E+08         0.00000E+00
    0.00000E+00         0.00000E+00        -0.50239E+08
 
   -0.50851E+08         0.21434E+06         0.00000E+00
    0.21434E+06        -0.50022E+08         0.00000E+00
    0.00000E+00         0.00000E+00        -0.50237E+08
 
   -0.50838E+08         0.23097E+06         0.00000E+00
    0.23097E+06        -0.50026E+08         0.00000E+00
    0.00000E+00         0.00000E+00        -0.50235E+08
 
   -0.50824E+08         0.24726E+06         0.00000E+00
    0.24726E+06        -0.50030E+08         0.00000E+00
    0.00000E+00         0.00000E+00        -0.50233E+08
 
   -0.50810E+08         0.26320E+06         0.00000E+00
    0.26320E+06        -0.50034E+08         0.00000E+00
    0.00000E+00         0.00000E+00        -0.50231E+08
 
   -0.50796E+08         0.27880E+06         0.00000E+00
    0.27880E+06        -0.50038E+08         0.00000E+00
    0.00000E+00         0.00000E+00        -0.50229E+08
 
   -0.50781E+08         0.29405E+06         0.00000E+00
    0.29405E+06        -0.50043E+08         0.00000E+00
    0.00000E+00         0.00000E+00        -0.50227E+08
 
   -0.50765E+08         0.30895E+06         0.00000E+00
    0.30895E+06        -0.50048E+08         0.00000E+00
    0.00000E+00         0.00000E+00        -0.50225E+08
 
   -0.50750E+08         0.32349E+06         0.00000E+00
    0.32349E+06        -0.50053E+08         0.00000E+00
    0.00000E+00         0.00000E+00        -0.50223E+08
 
   -0.50734E+08         0.33768E+06         0.00000E+00
    0.33768E+06        -0.50058E+08         0.00000E+00
    0.00000E+00         0.00000E+00        -0.50221E+08
 
   -0.50718E+08         0.35152E+06         0.00000E+00
    0.35152E+06        -0.50064E+08         0.00000E+00
    0.00000E+00         0.00000E+00        -0.50219E+08
 
   -0.50701E+08         0.36501E+06         0.00000E+00
    0.36501E+06        -0.50070E+08         0.00000E+00
    0.00000E+00         0.00000E+00        -0.50217E+08
 
   -0.50684E+08         0.37814E+06         0.00000E+00
    0.37814E+06        -0.50076E+08         0.00000E+00
    0.00000E+00         0.00000E+00        -0.50214E+08
 
   -0.50667E+08         0.39091E+06         0.00000E+00
    0.39091E+06        -0.50082E+08         0.00000E+00
    0.00000E+00         0.00000E+00        -0.50212E+08
 
   -0.50650E+08         0.40333E+06         0.00000E+00
    0.40333E+06        -0.50088E+08         0.00000E+00
    0.00000E+00         0.00000E+00        -0.50210E+08
 
   -0.50633E+08         0.41540E+06         0.00000E+00
    0.41540E+06        -0.50094E+08         0.00000E+00
    0.00000E+00         0.00000E+00        -0.50208E+08
 
   -0.50615E+08         0.42711E+06         0.00000E+00
    0.42711E+06        -0.50101E+08         0.00000E+00
    0.00000E+00         0.00000E+00        -0.50206E+08
 
   -0.50597E+08         0.43848E+06         0.00000E+00
    0.43848E+06        -0.50108E+08         0.00000E+00
    0.00000E+00         0.00000E+00        -0.50203E+08
 
   -0.50579E+08         0.44949E+06         0.00000E+00
    0.44949E+06        -0.50115E+08         0.00000E+00
    0.00000E+00         0.00000E+00        -0.50201E+08
 
   -0.50560E+08         0.46015E+06         0.00000E+00
    0.46015E+06        -0.50122E+08         0.00000E+00
    0.00000E+00         0.00000E+00        -0.50199E+08
 
   -0.50542E+08         0.47046E+06         0.00000E+00
    0.47046E+06        -0.50129E+08         0.00000E+00
    0.00000E+00         0.00000E+00        -0.50196E+08
 
   -0.50523E+08         0.48043E+06         0.00000E+00
    0.48043E+06        -0.50136E+08         0.00000E+00
    0.00000E+00         0.00000E+00        -0.50194E+08
 
   -0.50504E+08         0.49006E+06         0.00000E+00
    0.49006E+06        -0.50144E+08         0.00000E+00
    0.00000E+00         0.00000E+00        -0.50192E+08
 
   -0.50485E+08         0.49934E+06         0.00000E+00
    0.49934E+06        -0.50151E+08         0.00000E+00
    0.00000E+00         0.00000E+00        -0.50190E+08
 
   -0.50465E+08         0.50828E+06         0.00000E+00
    0.50828E+06        -0.50159E+08         0.00000E+00
    0.00000E+00         0.00000E+00        -0.50187E+08
 
   -0.50446E+08         0.51688E+06         0.00000E+00
    0.51688E+06        -0.50167E+08         0.00000E+00
    0.00000E+00         0.00000E+00        -0.50185E+08
 
   -0.50426E+08         0.52515E+06         0.00000E+00
    0.52515E+06        -0.50175E+08         0.00000E+00
    0.00000E+00         0.00000E+00        -0.50183E+08
 
   -0.50407E+08         0.53308E+06         0.00000E+00
    0.53308E+06        -0.50183E+08         0.00000E+00
    0.00000E+00         0.00000E+00        -0.50180E+08
 
   -0.50387E+08         0.54068E+06         0.00000E+00
    0.54068E+06        -0.50191E+08         0.00000E+00
    0.00000E+00         0.00000E+00        -0.50178E+08
 
   -0.50367E+08         0.54795E+06         0.00000E+00
    0.54795E+06        -0.50199E+08         0.00000E+00
    0.00000E+00         0.00000E+00        -0.50176E+08
 
   -0.50347E+08         0.55489E+06         0.00000E+00
    0.55489E+06        -0.50208E+08         0.00000E+00
    0.00000E+00         0.00000E+00        -0.50173E+08
 
   -0.50327E+08         0.56151E+06         0.00000E+00
    0.56151E+06        -0.50216E+08         0.00000E+00
    0.00000E+00         0.00000E+00        -0.50171E+08
 
   -0.50306E+08         0.56780E+06         0.00000E+00
    0.56780E+06        -0.50225E+08         0.00000E+00
    0.00000E+00         0.00000E+00        -0.50169E+08
 
   -0.50286E+08         0.57377E+06         0.00000E+00
    0.57377E+06        -0.50233E+08         0.00000E+00
    0.00000E+00         0.00000E+00        -0.50166E+08
 
   -0.50266E+08         0.57942E+06         0.00000E+00
    0.57942E+06        -0.50242E+08         0.00000E+00
    0.00000E+00         0.00000E+00        -0.50164E+08
 
   -0.50245E+08         0.58476E+06         0.00000E+00
    0.58476E+06        -0.50251E+08         0.00000E+00
    0.00000E+00         0.00000E+00        -0.50162E+08
 
   -0.50224E+08         0.58977E+06         0.00000E+00
    0.58977E+06        -0.50260E+08         0.00000E+00
    0.00000E+00         0.00000E+00        -0.50159E+08
 
   -0.50203E+08         0.59447E+06         0.00000E+00
    0.59447E+06        -0.50269E+08         0.00000E+00
    0.00000E+00         0.00000E+00        -0.50157E+08
 
   -0.50183E+08         0.59886E+06         0.00000E+00
    0.59886E+06        -0.50278E+08         0.00000E+00
    0.00000E+00         0.00000E+00        -0.50155E+08
 
   -0.50162E+08         0.60294E+06         0.00000E+00
    0.60294E+06        -0.50288E+08         0.00000E+00
    0.00000E+00         0.00000E+00        -0.50152E+08
 
   -0.50869E+08         0.94115E+04         0.00000E+00
    0.94115E+04        -0.50000E+08         0.00000E+00
    0.00000E+00         0.00000E+00        -0.50226E+08
 
   -0.50863E+08         0.27732E+05         0.00000E+00
    0.27732E+05        -0.50000E+08         0.00000E+00
    0.00000E+00         0.00000E+00        -0.50225E+08
 
   -0.50856E+08         0.45824E+05         0.00000E+00
    0.45824E+05        -0.50001E+08         0.00000E+00
    0.00000E+00         0.00000E+00        -0.50224E+08
 
   -0.50848E+08         0.63680E+05         0.00000E+00
    0.63680E+05        -0.50002E+08         0.00000E+00
    0.00000E+00         0.00000E+00        -0.50223E+08
 
   -0.50840E+08         0.81290E+05         0.00000E+00
    0.81290E+05        -0.50003E+08         0.00000E+00
    0.00000E+00         0.00000E+00        -0.50221E+08
 
   -0.50832E+08         0.98646E+05         0.00000E+00
    0.98646E+05        -0.50005E+08         0.00000E+00
    0.00000E+00         0.00000E+00        -0.50220E+08
 
   -0.50823E+08         0.11574E+06         0.00000E+00
    0.11574E+06        -0.50007E+08         0.00000E+00
    0.00000E+00         0.00000E+00        -0.50218E+08
 
   -0.50813E+08         0.13257E+06         0.00000E+00
    0.13257E+06        -0.50009E+08         0.00000E+00
    0.00000E+00         0.00000E+00        -0.50217E+08
 
   -0.50803E+08         0.14912E+06         0.00000E+00
    0.14912E+06        -0.50011E+08         0.00000E+00
    0.00000E+00         0.00000E+00        -0.50215E+08
 
   -0.50793E+08         0.16539E+06         0.00000E+00
    0.16539E+06        -0.50014E+08         0.00000E+00
    0.00000E+00         0.00000E+00        -0.50214E+08
 
   -0.50782E+08         0.18137E+06         0.00000E+00
    0.18137E+06        -0.50017E+08         0.00000E+00
    0.00000E+00         0.00000E+00        -0.50212E+08
 
   -0.50771E+08         0.19706E+06         0.00000E+00
    0.19706E+06        -0.50020E+08         0.00000E+00
    0.00000E+00         0.00000E+00        -0.50211E+08
 
   -0.50759E+08         0.21245E+06         0.00000E+00
    0.21245E+06        -0.50023E+08         0.00000E+00
    0.00000E+00         0.00000E+00        -0.50209E+08
 
   -0.50747E+08         0.22754E+06         0.00000E+00
    0.22754E+06        -0.50027E+08         0.00000E+00
    0.00000E+00         0.00000E+00        -0.50207E+08
 
   -0.50734E+08         0.24232E+06         0.00000E+00
    0.24232E+06        -0.50031E+08         0.00000E+00
    0.00000E+00         0.00000E+00        -0.50206E+08
 
   -0.50721E+08         0.25680E+06         0.00000E+00
    0.25680E+06        -0.50035E+08         0.00000E+00
    0.00000E+00         0.00000E+00        -0.50204E+08
 
   -0.50708E+08         0.27096E+06         0.00000E+00
    0.27096E+06        -0.50039E+08         0.00000E+00
    0.00000E+00         0.00000E+00        -0.50202E+08
 
   -0.50694E+08         0.28481E+06         0.00000E+00
    0.28481E+06        -0.50044E+08         0.00000E+00
    0.00000E+00         0.00000E+00        -0.50200E+08
 
   -0.50681E+08         0.29834E+06         0.00000E+00
    0.29834E+06        -0.50049E+08         0.00000E+00
    0.00000E+00         0.00000E+00        -0.50198E+08
 
   -0.50666E+08         0.31155E+06         0.00000E+00
    0.31155E+06        -0.50054E+08         0.00000E+00
    0.00000E+00         0.00000E+00        -0.50196E+08
 
   -0.50652E+08         0.32444E+06         0.00000E+00
    0.32444E+06        -0.50059E+08         0.00000E+00
    0.00000E+00         0.00000E+00        -0.50195E+08
 
   -0.50637E+08         0.33701E+06         0.00000E+00
    0.33701E+06        -0.50064E+08         0.00000E+00
    0.00000E+00         0.00000E+00        -0.50193E+08
 
   -0.50622E+08         0.34926E+06         0.00000E+00
    0.34926E+06        -0.50070E+08         0.00000E+00
    0.00000E+00         0.00000E+00        -0.50191E+08
 
   -0.50607E+08         0.36118E+06         0.00000E+00
    0.36118E+06        -0.50075E+08         0.00000E+00
    0.00000E+00         0.00000E+00        -0.50189E+08
 
   -0.50591E+08         0.37277E+06         0.00000E+00
    0.37277E+06        -0.50081E+08         0.00000E+00
    0.00000E+00         0.00000E+00        -0.50187E+08
 
   -0.50575E+08         0.38404E+06         0.00000E+00
    0.38404E+06        -0.50087E+08         0.00000E+00
    0.00000E+00         0.00000E+00        -0.50185E+08
 
   -0.50559E+08         0.39498E+06         0.00000E+00
    0.39498E+06        -0.50093E+08         0.00000E+00
    0.00000E+00         0.00000E+00        -0.50183E+08
 
   -0.50543E+08         0.40560E+06         0.00000E+00
    0.40560E+06        -0.50099E+08         0.00000E+00
    0.00000E+00         0.00000E+00        -0.50181E+08
 
   -0.50526E+08         0.41589E+06         0.00000E+00
    0.41589E+06        -0.50106E+08         0.00000E+00
    0.00000E+00         0.00000E+00        -0.50179E+08
 
   -0.50509E+08         0.42585E+06         0.00000E+00
    0.42585E+06        -0.50112E+08         0.00000E+00
    0.00000E+00         0.00000E+00        -0.50177E+08
 
   -0.50493E+08         0.43549E+06         0.00000E+00
    0.43549E+06        -0.50119E+08         0.00000E+00
    0.00000E+00         0.00000E+00        -0.50175E+08
 
   -0.50475E+08         0.44481E+06         0.00000E+00
    0.44481E+06        -0.50126E+08         0.00000E+00
    0.00000E+00         0.00000E+00        -0.50173E+08
 
   -0.50458E+08         0.45380E+06         0.00000E+00
    0.45380E+06        -0.50133E+08         0.00000E+00
    0.00000E+00         0.00000E+00        -0.50171E+08
 
   -0.50441E+08         0.46246E+06         0.00000E+00
    0.46246E+06        -0.50140E+08         0.00000E+00
    0.00000E+00         0.00000E+00        -0.50169E+08
 
   -0.50423E+08         0.47081E+06         0.00000E+00
    0.47081E+06        -0.50147E+08         0.00000E+00
    0.00000E+00         0.00000E+00        -0.50166E+08
 
   -0.50405E+08         0.47883E+06         0.00000E+00
    0.47883E+06        -0.50154E+08         0.00000E+00
    0.00000E+00         0.00000E+00        -0.50164E+08
 
   -0.50387E+08         0.48654E+06         0.00000E+00
    0.48654E+06        -0.50162E+08         0.00000E+00
    0.00000E+00         0.00000E+00        -0.50162E+08
 
   -0.50369E+08         0.49392E+06         0.00000E+00
    0.49392E+06        -0.50169E+08         0.00000E+00
    0.00000E+00         0.00000E+00        -0.50160E+08
 
   -0.50351E+08         0.50099E+06         0.00000E+00
    0.50099E+06        -0.50177E+08         0.00000E+00
    0.00000E+00         0.00000E+00        -0.50158E+08
 
   -0.50333E+08         0.50774E+06         0.00000E+00
    0.50774E+06        -0.50184E+08         0.00000E+00
    0.00000E+00         0.00000E+00        -0.50156E+08
 
   -0.50314E+08         0.51417E+06         0.00000E+00
    0.51417E+06        -0.50192E+08         0.00000E+00
    0.00000E+00         0.00000E+00        -0.50154E+08
 
   -0.50296E+08         0.52029E+06         0.00000E+00
    0.52029E+06        -0.50200E+08         0.00000E+00
    0.00000E+00         0.00000E+00        -0.50152E+08
 
   -0.50277E+08         0.52610E+06         0.00000E+00
    0.52610E+06        -0.50208E+08         0.00000E+00
    0.00000E+00         0.00000E+00        -0.50149E+08
 
   -0.50258E+08         0.53159E+06         0.00000E+00
    0.53159E+06        -0.50216E+08         0.00000E+00
    0.00000E+00         0.00000E+00        -0.50147E+08
 
   -0.50239E+08         0.53678E+06         0.00000E+00
    0.53678E+06        -0.50224E+08         0.00000E+00
    0.00000E+00         0.00000E+00        -0.50145E+08
 
   -0.50220E+08         0.54165E+06         0.00000E+00
    0.54165E+06        -0.50233E+08         0.00000E+00
    0.00000E+00         0.00000E+00        -0.50143E+08
 
   -0.50201E+08         0.54622E+06         0.00000E+00
    0.54622E+06        -0.50241E+08         0.00000E+00
    0.00000E+00         0.00000E+00        -0.50141E+08
 
   -0.50182E+08         0.55047E+06         0.00000E+00
    0.55047E+06        -0.50249E+08         0.00000E+00
    0.00000E+00         0.00000E+00        -0.50139E+08
 
   -0.50162E+08         0.55442E+06         0.00000E+00
    0.55442E+06        -0.50258E+08         0.00000E+00
    0.00000E+00         0.00000E+00        -0.50137E+08
 
   -0.50143E+08         0.55807E+06         0.00000E+00
    0.55807E+06        -0.50266E+08         0.00000E+00
    0.00000E+00         0.00000E+00        -0.50134E+08
 
   -0.50781E+08         0.85948E+04         0.00000E+00
    0.85948E+04        -0.50000E+08         0.00000E+00
    0.00000E+00         0.00000E+00        -0.50200E+08
 
   -0.50776E+08         0.25367E+05         0.00000E+00
    0.25367E+05        -0.50000E+08         0.00000E+00
    0.00000E+00         0.00000E+00        -0.50199E+08
 
   -0.50770E+08         0.41948E+05         0.00000E+00
    0.41948E+05        -0.50001E+08         0.00000E+00
    0.00000E+00         0.00000E+00        -0.50198E+08
 
   -0.50763E+08         0.58329E+05         0.00000E+00
    0.58329E+05        -0.50002E+08         0.00000E+00
    0.00000E+00         0.00000E+00        -0.50197E+08
 
   -0.50757E+08         0.74501E+05         0.00000E+00
    0.74501E+05        -0.50003E+08         0.00000E+00
    0.00000E+00         0.00000E+00        -0.50196E+08
 
   -0.50749E+08         0.90457E+05         0.00000E+00
    0.90457E+05        -0.50004E+08         0.00000E+00
    0.00000E+00         0.00000E+00        -0.50195E+08
 
   -0.50741E+08         0.10619E+06         0.00000E+00
    0.10619E+06        -0.50006E+08         0.00000E+00
    0.00000E+00         0.00000E+00        -0.50194E+08
 
   -0.50733E+08         0.12169E+06         0.00000E+00
    0.12169E+06        -0.50008E+08         0.00000E+00
    0.00000E+00         0.00000E+00        -0.50192E+08
 
   -0.50724E+08         0.13694E+06         0.00000E+00
    0.13694E+06        -0.50010E+08         0.00000E+00
    0.00000E+00         0.00000E+00        -0.50191E+08
 
   -0.50715E+08         0.15196E+06         0.00000E+00
    0.15196E+06        -0.50013E+08         0.00000E+00
    0.00000E+00         0.00000E+00        -0.50190E+08
 
   -0.50706E+08         0.16672E+06         0.00000E+00
    0.16672E+06        -0.50015E+08         0.00000E+00
    0.00000E+00         0.00000E+00        -0.50188E+08
 
   -0.50696E+08         0.18123E+06         0.00000E+00
    0.18123E+06        -0.50018E+08         0.00000E+00
    0.00000E+00         0.00000E+00        -0.50187E+08
 
   -0.50685E+08         0.19547E+06         0.00000E+00
    0.19547E+06        -0.50021E+08         0.00000E+00
    0.00000E+00         0.00000E+00        -0.50185E+08
 
   -0.50675E+08         0.20945E+06         0.00000E+00
    0.20945E+06        -0.50025E+08         0.00000E+00
    0.00000E+00         0.00000E+00        -0.50184E+08
 
   -0.50664E+08         0.22315E+06         0.00000E+00
    0.22315E+06        -0.50028E+08         0.00000E+00
    0.00000E+00         0.00000E+00        -0.50183E+08
 
   -0.50652E+08         0.23658E+06         0.00000E+00
    0.23658E+06        -0.50032E+08         0.00000E+00
    0.00000E+00         0.00000E+00        -0.50181E+08
 
   -0.50640E+08         0.24973E+06         0.00000E+00
    0.24973E+06        -0.50036E+08         0.00000E+00
    0.00000E+00         0.00000E+00        -0.50179E+08
 
   -0.50628E+08         0.26260E+06         0.00000E+00
    0.26260E+06        -0.50040E+08         0.00000E+00
    0.00000E+00         0.00000E+00        -0.50178E+08
 
   -0.50616E+08         0.27518E+06         0.00000E+00
    0.27518E+06        -0.50045E+08         0.00000E+00
    0.00000E+00         0.00000E+00        -0.50176E+08
 
   -0.50603E+08         0.28747E+06         0.00000E+00
    0.28747E+06        -0.50049E+08         0.00000E+00
    0.00000E+00         0.00000E+00        -0.50175E+08
 
   -0.50590E+08         0.29947E+06         0.00000E+00
    0.29947E+06        -0.50054E+08         0.00000E+00
    0.00000E+00         0.00000E+00        -0.50173E+08
 
   -0.50577E+08         0.31118E+06         0.00000E+00
    0.31118E+06        -0.50059E+08         0.00000E+00
    0.00000E+00         0.00000E+00        -0.50171E+08
 
   -0.50564E+08         0.32259E+06         0.00000E+00
    0.32259E+06        -0.50064E+08         0.00000E+00
    0.00000E+00         0.00000E+00        -0.50170E+08
 
   -0.50550E+08         0.33371E+06         0.00000E+00
    0.33371E+06        -0.50069E+08         0.00000E+00
    0.00000E+00         0.00000E+00        -0.50168E+08
 
   -0.50536E+08         0.34452E+06         0.00000E+00
    0.34452E+06        -0.50074E+08         0.00000E+00
    0.00000E+00         0.00000E+00        -0.50166E+08
 
   -0.50521E+08         0.35504E+06         0.00000E+00
    0.35504E+06        -0.50080E+08         0.00000E+00
    0.00000E+00         0.00000E+00        -0.50164E+08
 
   -0.50507E+08         0.36526E+06         0.00000E+00
    0.36526E+06        -0.50085E+08         0.00000E+00
    0.00000E+00         0.00000E+00        -0.50163E+08
 
   -0.50492E+08         0.37517E+06         0.00000E+00
    0.37517E+06        -0.50091E+08         0.00000E+00
    0.00000E+00         0.00000E+00        -0.50161E+08
 
   -0.50477E+08         0.38478E+06         0.00000E+00
    0.38478E+06        -0.50097E+08         0.00000E+00
    0.00000E+00         0.00000E+00        -0.50159E+08
 
   -0.50462E+08         0.39409E+06         0.00000E+00
    0.39409E+06        -0.50103E+08         0.00000E+00
    0.00000E+00         0.00000E+00        -0.50157E+08
 
   -0.50447E+08         0.40309E+06         0.00000E+00
    0.40309E+06        -0.50109E+08         0.00000E+00
    0.00000E+00         0.00000E+00        -0.50155E+08
 
   -0.50431E+08         0.41179E+06         0.00000E+00
    0.41179E+06        -0.50115E+08         0.00000E+00
    0.00000E+00         0.00000E+00        -0.50153E+08
 
   -0.50415E+08         0.42018E+06         0.00000E+00
    0.42018E+06        -0.50122E+08         0.00000E+00
    0.00000E+00         0.00000E+00        -0.50152E+08
 
   -0.50400E+08         0.42827E+06         0.00000E+00
    0.42827E+06        -0.50128E+08         0.00000E+00
    0.00000E+00         0.00000E+00        -0.50150E+08
 
   -0.50384E+08         0.43606E+06         0.00000E+00
    0.43606E+06        -0.50135E+08         0.00000E+00
    0.00000E+00         0.00000E+00        -0.50148E+08
 
   -0.50367E+08         0.44354E+06         0.00000E+00
    0.44354E+06        -0.50142E+08         0.00000E+00
    0.00000E+00         0.00000E+00        -0.50146E+08
 
   -0.50351E+08         0.45072E+06         0.00000E+00
    0.45072E+06        -0.50149E+08         0.00000E+00
    0.00000E+00         0.00000E+00        -0.50144E+08
 
   -0.50334E+08         0.45759E+06         0.00000E+00
    0.45759E+06        -0.50156E+08         0.00000E+00
    0.00000E+00         0.00000E+00        -0.50142E+08
 
   -0.50318E+08         0.46416E+06         0.00000E+00
    0.46416E+06        -0.50163E+08         0.00000E+00
    0.00000E+00         0.00000E+00        -0.50140E+08
 
   -0.50301E+08         0.47043E+06         0.00000E+00
    0.47043E+06        -0.50170E+08         0.00000E+00
    0.00000E+00         0.00000E+00        -0.50138E+08
 
   -0.50284E+08         0.47640E+06         0.00000E+00
    0.47640E+06        -0.50177E+08         0.00000E+00
    0.00000E+00         0.00000E+00        -0.50136E+08
 
   -0.50267E+08         0.48206E+06         0.00000E+00
    0.48206E+06        -0.50184E+08         0.00000E+00
    0.00000E+00         0.00000E+00        -0.50134E+08
 
   -0.50250E+08         0.48743E+06         0.00000E+00
    0.48743E+06        -0.50192E+08         0.00000E+00
    0.00000E+00         0.00000E+00        -0.50132E+08
 
   -0.50233E+08         0.49249E+06         0.00000E+00
    0.49249E+06        -0.50199E+08         0.00000E+00
    0.00000E+00         0.00000E+00        -0.50130E+08
 
   -0.50215E+08         0.49725E+06         0.00000E+00
    0.49725E+06        -0.50207E+08         0.00000E+00
    0.00000E+00         0.00000E+00        -0.50128E+08
 
   -0.50198E+08         0.50171E+06         0.00000E+00
    0.50171E+06        -0.50214E+08         0.00000E+00
    0.00000E+00         0.00000E+00        -0.50127E+08
 
   -0.50180E+08         0.50587E+06         0.00000E+00
    0.50587E+06        -0.50222E+08         0.00000E+00
    0.00000E+00         0.00000E+00        -0.50125E+08
 
   -0.50162E+08         0.50974E+06         0.00000E+00
    0.50974E+06        -0.50230E+08         0.00000E+00
    0.00000E+00         0.00000E+00        -0.50123E+08
 
   -0.50144E+08         0.51330E+06         0.00000E+00
    0.51330E+06        -0.50238E+08         0.00000E+00
    0.00000E+00         0.00000E+00        -0.50121E+08
 
   -0.50127E+08         0.51656E+06         0.00000E+00
    0.51656E+06        -0.50246E+08         0.00000E+00
    0.00000E+00         0.00000E+00        -0.50119E+08
 
   -0.50700E+08         0.78601E+04         0.00000E+00
    0.78601E+04        -0.50000E+08         0.00000E+00
    0.00000E+00         0.00000E+00        -0.50177E+08
 
   -0.50696E+08         0.23233E+05         0.00000E+00
    0.23233E+05        -0.50000E+08         0.00000E+00
    0.00000E+00         0.00000E+00        -0.50176E+08
 
   -0.50691E+08         0.38446E+05         0.00000E+00
    0.38446E+05        -0.50001E+08         0.00000E+00
    0.00000E+00         0.00000E+00        -0.50175E+08
 
   -0.50685E+08         0.53489E+05         0.00000E+00
    0.53489E+05        -0.50002E+08         0.00000E+00
    0.00000E+00         0.00000E+00        -0.50174E+08
 
   -0.50679E+08         0.68354E+05         0.00000E+00
    0.68354E+05        -0.50003E+08         0.00000E+00
    0.00000E+00         0.00000E+00        -0.50173E+08
 
   -0.50673E+08         0.83034E+05         0.00000E+00
    0.83034E+05        -0.50004E+08         0.00000E+00
    0.00000E+00         0.00000E+00        -0.50172E+08
 
   -0.50666E+08         0.97520E+05         0.00000E+00
    0.97520E+05        -0.50005E+08         0.00000E+00
    0.00000E+00         0.00000E+00        -0.50171E+08
 
   -0.50659E+08         0.11181E+06         0.00000E+00
    0.11181E+06        -0.50007E+08         0.00000E+00
    0.00000E+00         0.00000E+00        -0.50170E+08
 
   -0.50652E+08         0.12588E+06         0.00000E+00
    0.12588E+06        -0.50009E+08         0.00000E+00
    0.00000E+00         0.00000E+00        -0.50169E+08
 
   -0.50644E+08         0.13975E+06         0.00000E+00
    0.13975E+06        -0.50011E+08         0.00000E+00
    0.00000E+00         0.00000E+00        -0.50168E+08
 
   -0.50635E+08         0.15339E+06         0.00000E+00
    0.15339E+06        -0.50014E+08         0.00000E+00
    0.00000E+00         0.00000E+00        -0.50167E+08
 
   -0.50627E+08         0.16681E+06         0.00000E+00
    0.16681E+06        -0.50016E+08         0.00000E+00
    0.00000E+00         0.00000E+00        -0.50166E+08
 
   -0.50618E+08         0.17999E+06         0.00000E+00
    0.17999E+06        -0.50019E+08         0.00000E+00
    0.00000E+00         0.00000E+00        -0.50164E+08
 
   -0.50608E+08         0.19294E+06         0.00000E+00
    0.19294E+06        -0.50022E+08         0.00000E+00
    0.00000E+00         0.00000E+00        -0.50163E+08
 
   -0.50598E+08         0.20565E+06         0.00000E+00
    0.20565E+06        -0.50026E+08         0.00000E+00
    0.00000E+00         0.00000E+00        -0.50162E+08
 
   -0.50588E+08         0.21811E+06         0.00000E+00
    0.21811E+06        -0.50029E+08         0.00000E+00
    0.00000E+00         0.00000E+00        -0.50161E+08
 
   -0.50578E+08         0.23032E+06         0.00000E+00
    0.23032E+06        -0.50033E+08         0.00000E+00
    0.00000E+00         0.00000E+00        -0.50159E+08
 
   -0.50567E+08         0.24227E+06         0.00000E+00
    0.24227E+06        -0.50036E+08         0.00000E+00
    0.00000E+00         0.00000E+00        -0.50158E+08
 
   -0.50556E+08         0.25397E+06         0.00000E+00
    0.25397E+06        -0.50040E+08         0.00000E+00
    0.00000E+00         0.00000E+00        -0.50156E+08
 
   -0.50545E+08         0.26541E+06         0.00000E+00
    0.26541E+06        -0.50045E+08         0.00000E+00
    0.00000E+00         0.00000E+00        -0.50155E+08
 
   -0.50533E+08         0.27658E+06         0.00000E+00
    0.27658E+06        -0.50049E+08         0.00000E+00
    0.00000E+00         0.00000E+00        -0.50153E+08
 
   -0.50521E+08         0.28748E+06         0.00000E+00
    0.28748E+06        -0.50053E+08         0.00000E+00
    0.00000E+00         0.00000E+00        -0.50152E+08
 
   -0.50509E+08         0.29812E+06         0.00000E+00
    0.29812E+06        -0.50058E+08         0.00000E+00
    0.00000E+00         0.00000E+00        -0.50151E+08
 
   -0.50497E+08         0.30848E+06         0.00000E+00
    0.30848E+06        -0.50063E+08         0.00000E+00
    0.00000E+00         0.00000E+00        -0.50149E+08
 
   -0.50484E+08         0.31857E+06         0.00000E+00
    0.31857E+06        -0.50068E+08         0.00000E+00
    0.00000E+00         0.00000E+00        -0.50147E+08
 
   -0.50471E+08         0.32838E+06         0.00000E+00
    0.32838E+06        -0.50073E+08         0.00000E+00
    0.00000E+00         0.00000E+00        -0.50146E+08
 
   -0.50458E+08         0.33791E+06         0.00000E+00
    0.33791E+06        -0.50078E+08         0.00000E+00
    0.00000E+00         0.00000E+00        -0.50144E+08
 
   -0.50445E+08         0.34717E+06         0.00000E+00
    0.34717E+06        -0.50083E+08         0.00000E+00
    0.00000E+00         0.00000E+00        -0.50143E+08
 
   -0.50432E+08         0.35614E+06         0.00000E+00
    0.35614E+06        -0.50089E+08         0.00000E+00
    0.00000E+00         0.00000E+00        -0.50141E+08
 
   -0.50418E+08         0.36483E+06         0.00000E+00
    0.36483E+06        -0.50094E+08         0.00000E+00
    0.00000E+00         0.00000E+00        -0.50139E+08
 
   -0.50404E+08         0.37324E+06         0.00000E+00
    0.37324E+06        -0.50100E+08         0.00000E+00
    0.00000E+00         0.00000E+00        -0.50138E+08
 
   -0.50390E+08         0.38136E+06         0.00000E+00
    0.38136E+06        -0.50106E+08         0.00000E+00
    0.00000E+00         0.00000E+00        -0.50136E+08
 
   -0.50376E+08         0.38920E+06         0.00000E+00
    0.38920E+06        -0.50111E+08         0.00000E+00
    0.00000E+00         0.00000E+00        -0.50134E+08
 
   -0.50361E+08         0.39675E+06         0.00000E+00
    0.39675E+06        -0.50117E+08         0.00000E+00
    0.00000E+00         0.00000E+00        -0.50133E+08
 
   -0.50347E+08         0.40401E+06         0.00000E+00
    0.40401E+06        -0.50123E+08         0.00000E+00
    0.00000E+00         0.00000E+00        -0.50131E+08
 
   -0.50332E+08         0.41099E+06         0.00000E+00
    0.41099E+06        -0.50130E+08         0.00000E+00
    0.00000E+00         0.00000E+00        -0.50129E+08
 
   -0.50317E+08         0.41768E+06         0.00000E+00
    0.41768E+06        -0.50136E+08         0.00000E+00
    0.00000E+00         0.00000E+00        -0.50128E+08
 
   -0.50302E+08         0.42408E+06         0.00000E+00
    0.42408E+06        -0.50142E+08         0.00000E+00
    0.00000E+00         0.00000E+00        -0.50126E+08
 
   -0.50287E+08         0.43019E+06         0.00000E+00
    0.43019E+06        -0.50149E+08         0.00000E+00
    0.00000E+00         0.00000E+00        -0.50124E+08
 
   -0.50271E+08         0.43602E+06         0.00000E+00
    0.43602E+06        -0.50155E+08         0.00000E+00
    0.00000E+00         0.00000E+00        -0.50122E+08
 
   -0.50256E+08         0.44155E+06         0.00000E+00
    0.44155E+06        -0.50162E+08         0.00000E+00
    0.00000E+00         0.00000E+00        -0.50121E+08
 
   -0.50240E+08         0.44680E+06         0.00000E+00
    0.44680E+06        -0.50169E+08         0.00000E+00
    0.00000E+00         0.00000E+00        -0.50119E+08
 
   -0.50225E+08         0.45176E+06         0.00000E+00
    0.45176E+06        -0.50176E+08         0.00000E+00
    0.00000E+00         0.00000E+00        -0.50117E+08
 
   -0.50209E+08         0.45643E+06         0.00000E+00
    0.45643E+06        -0.50182E+08         0.00000E+00
    0.00000E+00         0.00000E+00        -0.50115E+08
 
   -0.50193E+08         0.46081E+06         0.00000E+00
    0.46081E+06        -0.50189E+08         0.00000E+00
    0.00000E+00         0.00000E+00        -0.50114E+08
 
   -0.50177E+08         0.46490E+06         0.00000E+00
    0.46490E+06        -0.50196E+08         0.00000E+00
    0.00000E+00         0.00000E+00        -0.50112E+08
 
   -0.50161E+08         0.46869E+06         0.00000E+00
    0.46869E+06        -0.50203E+08         0.00000E+00
    0.00000E+00         0.00000E+00        -0.50110E+08
 
   -0.50145E+08         0.47220E+06         0.00000E+00
    0.47220E+06        -0.50211E+08         0.00000E+00
    0.00000E+00         0.00000E+00        -0.50108E+08
 
   -0.50128E+08         0.47542E+06         0.00000E+00
    0.47542E+06        -0.50218E+08         0.00000E+00
    0.00000E+00         0.00000E+00        -0.50106E+08
 
   -0.50112E+08         0.47835E+06         0.00000E+00
    0.47835E+06        -0.50225E+08         0.00000E+00
    0.00000E+00         0.00000E+00        -0.50104E+08
 
   -0.50626E+08         0.72016E+04         0.00000E+00
    0.72016E+04        -0.50000E+08         0.00000E+00
    0.00000E+00         0.00000E+00        -0.50156E+08
 
   -0.50623E+08         0.21315E+05         0.00000E+00
    0.21315E+05        -0.50000E+08         0.00000E+00
    0.00000E+00         0.00000E+00        -0.50156E+08
 
   -0.50618E+08         0.35294E+05         0.00000E+00
    0.35294E+05        -0.50001E+08         0.00000E+00
    0.00000E+00         0.00000E+00        -0.50155E+08
 
   -0.50614E+08         0.49129E+05         0.00000E+00
    0.49129E+05        -0.50001E+08         0.00000E+00
    0.00000E+00         0.00000E+00        -0.50154E+08
 
   -0.50609E+08         0.62813E+05         0.00000E+00
    0.62813E+05        -0.50002E+08         0.00000E+00
    0.00000E+00         0.00000E+00        -0.50153E+08
 
   -0.50603E+08         0.76337E+05         0.00000E+00
    0.76337E+05        -0.50003E+08         0.00000E+00
    0.00000E+00         0.00000E+00        -0.50152E+08
 
   -0.50597E+08         0.89694E+05         0.00000E+00
    0.89694E+05        -0.50005E+08         0.00000E+00
    0.00000E+00         0.00000E+00        -0.50152E+08
 
   -0.50591E+08         0.10288E+06         0.00000E+00
    0.10288E+06        -0.50006E+08         0.00000E+00
    0.00000E+00         0.00000E+00        -0.50151E+08
 
   -0.50584E+08         0.11588E+06         0.00000E+00
    0.11588E+06        -0.50008E+08         0.00000E+00
    0.00000E+00         0.00000E+00        -0.50150E+08
 
   -0.50578E+08         0.12869E+06         0.00000E+00
    0.12869E+06        -0.50010E+08         0.00000E+00
    0.00000E+00         0.00000E+00        -0.50149E+08
 
   -0.50570E+08         0.14131E+06         0.00000E+00
    0.14131E+06        -0.50012E+08         0.00000E+00
    0.00000E+00         0.00000E+00        -0.50148E+08
 
   -0.50563E+08         0.15373E+06         0.00000E+00
    0.15373E+06        -0.50015E+08         0.00000E+00
    0.00000E+00         0.00000E+00        -0.50147E+08
 
   -0.50555E+08         0.16595E+06         0.00000E+00
    0.16595E+06        -0.50017E+08         0.00000E+00
    0.00000E+00         0.00000E+00        -0.50146E+08
 
   -0.50546E+08         0.17795E+06         0.00000E+00
    0.17795E+06        -0.50020E+08         0.00000E+00
    0.00000E+00         0.00000E+00        -0.50144E+08
 
   -0.50538E+08         0.18974E+06         0.00000E+00
    0.18974E+06        -0.50023E+08         0.00000E+00
    0.00000E+00         0.00000E+00        -0.50143E+08
 
   -0.50529E+08         0.20131E+06         0.00000E+00
    0.20131E+06        -0.50026E+08         0.00000E+00
    0.00000E+00         0.00000E+00        -0.50142E+08
 
   -0.50520E+08         0.21265E+06         0.00000E+00
    0.21265E+06        -0.50030E+08         0.00000E+00
    0.00000E+00         0.00000E+00        -0.50141E+08
 
   -0.50510E+08         0.22377E+06         0.00000E+00
    0.22377E+06        -0.50033E+08         0.00000E+00
    0.00000E+00         0.00000E+00        -0.50140E+08
 
   -0.50500E+08         0.23465E+06         0.00000E+00
    0.23465E+06        -0.50037E+08         0.00000E+00
    0.00000E+00         0.00000E+00        -0.50139E+08
 
   -0.50490E+08         0.24529E+06         0.00000E+00
    0.24529E+06        -0.50040E+08         0.00000E+00
    0.00000E+00         0.00000E+00        -0.50137E+08
 
   -0.50480E+08         0.25569E+06         0.00000E+00
    0.25569E+06        -0.50044E+08         0.00000E+00
    0.00000E+00         0.00000E+00        -0.50136E+08
 
   -0.50469E+08         0.26585E+06         0.00000E+00
    0.26585E+06        -0.50048E+08         0.00000E+00
    0.00000E+00         0.00000E+00        -0.50135E+08
 
   -0.50458E+08         0.27577E+06         0.00000E+00
    0.27577E+06        -0.50053E+08         0.00000E+00
    0.00000E+00         0.00000E+00        -0.50133E+08
 
   -0.50447E+08         0.28543E+06         0.00000E+00
    0.28543E+06        -0.50057E+08         0.00000E+00
    0.00000E+00         0.00000E+00        -0.50132E+08
 
   -0.50436E+08         0.29484E+06         0.00000E+00
    0.29484E+06        -0.50061E+08         0.00000E+00
    0.00000E+00         0.00000E+00        -0.50131E+08
 
   -0.50425E+08         0.30400E+06         0.00000E+00
    0.30400E+06        -0.50066E+08         0.00000E+00
    0.00000E+00         0.00000E+00        -0.50129E+08
 
   -0.50413E+08         0.31290E+06         0.00000E+00
    0.31290E+06        -0.50071E+08         0.00000E+00
    0.00000E+00         0.00000E+00        -0.50128E+08
 
   -0.50401E+08         0.32154E+06         0.00000E+00
    0.32154E+06        -0.50075E+08         0.00000E+00
    0.00000E+00         0.00000E+00        -0.50126E+08
 
   -0.50389E+08         0.32992E+06         0.00000E+00
    0.32992E+06        -0.50080E+08         0.00000E+00
    0.00000E+00         0.00000E+00        -0.50125E+08
 
   -0.50376E+08         0.33804E+06         0.00000E+00
    0.33804E+06        -0.50085E+08         0.00000E+00
    0.00000E+00         0.00000E+00        -0.50124E+08
 
   -0.50364E+08         0.34589E+06         0.00000E+00
    0.34589E+06        -0.50091E+08         0.00000E+00
    0.00000E+00         0.00000E+00        -0.50122E+08
 
   -0.50351E+08         0.35348E+06         0.00000E+00
    0.35348E+06        -0.50096E+08         0.00000E+00
    0.00000E+00         0.00000E+00        -0.50121E+08
 
   -0.50338E+08         0.36079E+06         0.00000E+00
    0.36079E+06        -0.50101E+08         0.00000E+00
    0.00000E+00         0.00000E+00        -0.50119E+08
 
   -0.50325E+08         0.36784E+06         0.00000E+00
    0.36784E+06        -0.50107E+08         0.00000E+00
    0.00000E+00         0.00000E+00        -0.50118E+08
 
   -0.50312E+08         0.37462E+06         0.00000E+00
    0.37462E+06        -0.50112E+08         0.00000E+00
    0.00000E+00         0.00000E+00        -0.50116E+08
 
   -0.50299E+08         0.38113E+06         0.00000E+00
    0.38113E+06        -0.50118E+08         0.00000E+00
    0.00000E+00         0.00000E+00        -0.50115E+08
 
   -0.50285E+08         0.38737E+06         0.00000E+00
    0.38737E+06        -0.50124E+08         0.00000E+00
    0.00000E+00         0.00000E+00        -0.50113E+08
 
   -0.50272E+08         0.39334E+06         0.00000E+00
    0.39334E+06        -0.50130E+08         0.00000E+00
    0.00000E+00         0.00000E+00        -0.50111E+08
 
   -0.50258E+08         0.39903E+06         0.00000E+00
    0.39903E+06        -0.50136E+08         0.00000E+00
    0.00000E+00         0.00000E+00        -0.50110E+08
 
   -0.50244E+08         0.40444E+06         0.00000E+00
    0.40444E+06        -0.50141E+08         0.00000E+00
    0.00000E+00         0.00000E+00        -0.50108E+08
 
   -0.50230E+08         0.40958E+06         0.00000E+00
    0.40958E+06        -0.50148E+08         0.00000E+00
    0.00000E+00         0.00000E+00        -0.50107E+08
 
   -0.50216E+08         0.41445E+06         0.00000E+00
    0.41445E+06        -0.50154E+08         0.00000E+00
    0.00000E+00         0.00000E+00        -0.50105E+08
 
   -0.50202E+08         0.41904E+06         0.00000E+00
    0.41904E+06        -0.50160E+08         0.00000E+00
    0.00000E+00         0.00000E+00        -0.50103E+08
 
   -0.50187E+08         0.42335E+06         0.00000E+00
    0.42335E+06        -0.50166E+08         0.00000E+00
    0.00000E+00         0.00000E+00        -0.50102E+08
 
   -0.50173E+08         0.42738E+06         0.00000E+00
    0.42738E+06        -0.50173E+08         0.00000E+00
    0.00000E+00         0.00000E+00        -0.50100E+08
 
   -0.50158E+08         0.43113E+06         0.00000E+00
    0.43113E+06        -0.50179E+08         0.00000E+00
    0.00000E+00         0.00000E+00        -0.50099E+08
 
   -0.50143E+08         0.43461E+06         0.00000E+00
    0.43461E+06        -0.50185E+08         0.00000E+00
    0.00000E+00         0.00000E+00        -0.50097E+08
 
   -0.50129E+08         0.43780E+06         0.00000E+00
    0.43780E+06        -0.50192E+08         0.00000E+00
    0.00000E+00         0.00000E+00        -0.50095E+08
 
   -0.50114E+08         0.44072E+06         0.00000E+00
    0.44072E+06        -0.50199E+08         0.00000E+00
    0.00000E+00         0.00000E+00        -0.50094E+08
 
   -0.50099E+08         0.44335E+06         0.00000E+00
    0.44335E+06        -0.50205E+08         0.00000E+00
    0.00000E+00         0.00000E+00        -0.50092E+08
 
   -0.50558E+08         0.66137E+04         0.00000E+00
    0.66137E+04        -0.50000E+08         0.00000E+00
    0.00000E+00         0.00000E+00        -0.50138E+08
 
   -0.50555E+08         0.19599E+05         0.00000E+00
    0.19599E+05        -0.50000E+08         0.00000E+00
    0.00000E+00         0.00000E+00        -0.50137E+08
 
   -0.50552E+08         0.32471E+05         0.00000E+00
    0.32471E+05        -0.50001E+08         0.00000E+00
    0.00000E+00         0.00000E+00        -0.50137E+08
 
   -0.50548E+08         0.45220E+05         0.00000E+00
    0.45220E+05        -0.50001E+08         0.00000E+00
    0.00000E+00         0.00000E+00        -0.50136E+08
 
   -0.50543E+08         0.57840E+05         0.00000E+00
    0.57840E+05        -0.50002E+08         0.00000E+00
    0.00000E+00         0.00000E+00        -0.50135E+08
 
   -0.50539E+08         0.70322E+05         0.00000E+00
    0.70322E+05        -0.50003E+08         0.00000E+00
    0.00000E+00         0.00000E+00        -0.50134E+08
 
   -0.50533E+08         0.82659E+05         0.00000E+00
    0.82659E+05        -0.50004E+08         0.00000E+00
    0.00000E+00         0.00000E+00        -0.50134E+08
 
   -0.50528E+08         0.94844E+05         0.00000E+00
    0.94844E+05        -0.50006E+08         0.00000E+00
    0.00000E+00         0.00000E+00        -0.50133E+08
 
   -0.50522E+08         0.10687E+06         0.00000E+00
    0.10687E+06        -0.50007E+08         0.00000E+00
    0.00000E+00         0.00000E+00        -0.50132E+08
 
   -0.50516E+08         0.11873E+06         0.00000E+00
    0.11873E+06        -0.50009E+08         0.00000E+00
    0.00000E+00         0.00000E+00        -0.50131E+08
 
   -0.50510E+08         0.13042E+06         0.00000E+00
    0.13042E+06        -0.50011E+08         0.00000E+00
    0.00000E+00         0.00000E+00        -0.50130E+08
 
   -0.50503E+08         0.14194E+06         0.00000E+00
    0.14194E+06        -0.50013E+08         0.00000E+00
    0.00000E+00         0.00000E+00        -0.50129E+08
 
   -0.50496E+08         0.15327E+06         0.00000E+00
    0.15327E+06        -0.50016E+08         0.00000E+00
    0.00000E+00         0.00000E+00        -0.50129E+08
 
   -0.50489E+08         0.16441E+06         0.00000E+00
    0.16441E+06        -0.50018E+08         0.00000E+00
    0.00000E+00         0.00000E+00        -0.50128E+08
 
   -0.50481E+08         0.17536E+06         0.00000E+00
    0.17536E+06        -0.50021E+08         0.00000E+00
    0.00000E+00         0.00000E+00        -0.50127E+08
 
   -0.50473E+08         0.18612E+06         0.00000E+00
    0.18612E+06        -0.50024E+08         0.00000E+00
    0.00000E+00         0.00000E+00        -0.50126E+08
 
   -0.50465E+08         0.19667E+06         0.00000E+00
    0.19667E+06        -0.50027E+08         0.00000E+00
    0.00000E+00         0.00000E+00        -0.50125E+08
 
   -0.50457E+08         0.20701E+06         0.00000E+00
    0.20701E+06        -0.50030E+08         0.00000E+00
    0.00000E+00         0.00000E+00        -0.50123E+08
 
   -0.50448E+08         0.21714E+06         0.00000E+00
    0.21714E+06        -0.50033E+08         0.00000E+00
    0.00000E+00         0.00000E+00        -0.50122E+08
 
   -0.50439E+08         0.22706E+06         0.00000E+00
    0.22706E+06        -0.50036E+08         0.00000E+00
    0.00000E+00         0.00000E+00        -0.50121E+08
 
   -0.50430E+08         0.23675E+06         0.00000E+00
    0.23675E+06        -0.50040E+08         0.00000E+00
    0.00000E+00         0.00000E+00        -0.50120E+08
 
   -0.50421E+08         0.24623E+06         0.00000E+00
    0.24623E+06        -0.50044E+08         0.00000E+00
    0.00000E+00         0.00000E+00        -0.50119E+08
 
   -0.50411E+08         0.25548E+06         0.00000E+00
    0.25548E+06        -0.50047E+08         0.00000E+00
    0.00000E+00         0.00000E+00        -0.50118E+08
 
   -0.50401E+08         0.26450E+06         0.00000E+00
    0.26450E+06        -0.50051E+08         0.00000E+00
    0.00000E+00         0.00000E+00        -0.50117E+08
 
   -0.50391E+08         0.27328E+06         0.00000E+00
    0.27328E+06        -0.50055E+08         0.00000E+00
    0.00000E+00         0.00000E+00        -0.50115E+08
 
   -0.50381E+08         0.28184E+06         0.00000E+00
    0.28184E+06        -0.50059E+08         0.00000E+00
    0.00000E+00         0.00000E+00        -0.50114E+08
 
   -0.50370E+08         0.29015E+06         0.00000E+00
    0.29015E+06        -0.50064E+08         0.00000E+00
    0.00000E+00         0.00000E+00        -0.50113E+08
 
   -0.50360E+08         0.29822E+06         0.00000E+00
    0.29822E+06        -0.50068E+08         0.00000E+00
    0.00000E+00         0.00000E+00        -0.50112E+08
 
   -0.50349E+08         0.30605E+06         0.00000E+00
    0.30605E+06        -0.50073E+08         0.00000E+00
    0.00000E+00         0.00000E+00        -0.50110E+08
 
   -0.50338E+08         0.31364E+06         0.00000E+00
    0.31364E+06        -0.50077E+08         0.00000E+00
    0.00000E+00         0.00000E+00        -0.50109E+08
 
   -0.50327E+08         0.32098E+06         0.00000E+00
    0.32098E+06        -0.50082E+08         0.00000E+00
    0.00000E+00         0.00000E+00        -0.50108E+08
 
   -0.50315E+08         0.32807E+06         0.00000E+00
    0.32807E+06        -0.50087E+08         0.00000E+00
    0.00000E+00         0.00000E+00        -0.50107E+08
 
   -0.50304E+08         0.33491E+06         0.00000E+00
    0.33491E+06        -0.50092E+08         0.00000E+00
    0.00000E+00         0.00000E+00        -0.50105E+08
 
   -0.50292E+08         0.34150E+06         0.00000E+00
    0.34150E+06        -0.50097E+08         0.00000E+00
    0.00000E+00         0.00000E+00        -0.50104E+08
 
   -0.50280E+08         0.34783E+06         0.00000E+00
    0.34783E+06        -0.50102E+08         0.00000E+00
    0.00000E+00         0.00000E+00        -0.50102E+08
 
   -0.50268E+08         0.35391E+06         0.00000E+00
    0.35391E+06        -0.50107E+08         0.00000E+00
    0.00000E+00         0.00000E+00        -0.50101E+08
 
   -0.50256E+08         0.35973E+06         0.00000E+00
    0.35973E+06        -0.50112E+08         0.00000E+00
    0.00000E+00         0.00000E+00        -0.50100E+08
 
   -0.50244E+08         0.36529E+06         0.00000E+00
    0.36529E+06        -0.50117E+08         0.00000E+00
    0.00000E+00         0.00000E+00        -0.50098E+08
 
   -0.50231E+08         0.37060E+06         0.00000E+00
    0.37060E+06        -0.50123E+08         0.00000E+00
    0.00000E+00         0.00000E+00        -0.50097E+08
 
   -0.50219E+08         0.37564E+06         0.00000E+00
    0.37564E+06        -0.50128E+08         0.00000E+00
    0.00000E+00         0.00000E+00        -0.50095E+08
 
   -0.50206E+08         0.38042E+06         0.00000E+00
    0.38042E+06        -0.50134E+08         0.00000E+00
    0.00000E+00         0.00000E+00        -0.50094E+08
 
   -0.50193E+08         0.38493E+06         0.00000E+00
    0.38493E+06        -0.50139E+08         0.00000E+00
    0.00000E+00         0.00000E+00        -0.50093E+08
 
   -0.50180E+08         0.38919E+06         0.00000E+00
    0.38919E+06        -0.50145E+08         0.00000E+00
    0.00000E+00         0.00000E+00        -0.50091E+08
 
   -0.50167E+08         0.39317E+06         0.00000E+00
    0.39317E+06        -0.50151E+08         0.00000E+00
    0.00000E+00         0.00000E+00        -0.50090E+08
 
   -0.50154E+08         0.39690E+06         0.00000E+00
    0.39690E+06        -0.50156E+08         0.00000E+00
    0.00000E+00         0.00000E+00        -0.50088E+08
 
   -0.50141E+08         0.40035E+06         0.00000E+00
    0.40035E+06        -0.50162E+08         0.00000E+00
    0.00000E+00         0.00000E+00        -0.50087E+08
 
   -0.50127E+08         0.40353E+06         0.00000E+00
    0.40353E+06        -0.50168E+08         0.00000E+00
    0.00000E+00         0.00000E+00        -0.50085E+08
 
   -0.50114E+08         0.40645E+06         0.00000E+00
    0.40645E+06        -0.50174E+08         0.00000E+00
    0.00000E+00         0.00000E+00        -0.50084E+08
 
   -0.50100E+08         0.40910E+06         0.00000E+00
    0.40910E+06        -0.50180E+08         0.00000E+00
    0.00000E+00         0.00000E+00        -0.50082E+08
 
   -0.50087E+08         0.41147E+06         0.00000E+00
    0.41147E+06        -0.50186E+08         0.00000E+00
    0.00000E+00         0.00000E+00        -0.50081E+08
 
   -0.50496E+08         0.60909E+04         0.00000E+00
    0.60909E+04        -0.50000E+08         0.00000E+00
    0.00000E+00         0.00000E+00        -0.50121E+08
 
   -0.50493E+08         0.18070E+05         0.00000E+00
    0.18070E+05        -0.50000E+08         0.00000E+00
    0.00000E+00         0.00000E+00        -0.50121E+08
 
   -0.50490E+08         0.29953E+05         0.00000E+00
    0.29953E+05        -0.50001E+08         0.00000E+00
    0.00000E+00         0.00000E+00        -0.50120E+08
 
   -0.50487E+08         0.41731E+05         0.00000E+00
    0.41731E+05        -0.50001E+08         0.00000E+00
    0.00000E+00         0.00000E+00        -0.50119E+08
 
   -0.50483E+08         0.53398E+05         0.00000E+00
    0.53398E+05        -0.50002E+08         0.00000E+00
    0.00000E+00         0.00000E+00        -0.50119E+08
 
   -0.50479E+08         0.64945E+05         0.00000E+00
    0.64945E+05        -0.50003E+08         0.00000E+00
    0.00000E+00         0.00000E+00        -0.50118E+08
 
   -0.50474E+08         0.76367E+05         0.00000E+00
    0.76367E+05        -0.50004E+08         0.00000E+00
    0.00000E+00         0.00000E+00        -0.50118E+08
 
   -0.50470E+08         0.87656E+05         0.00000E+00
    0.87656E+05        -0.50005E+08         0.00000E+00
    0.00000E+00         0.00000E+00        -0.50117E+08
 
   -0.50465E+08         0.98805E+05         0.00000E+00
    0.98805E+05        -0.50007E+08         0.00000E+00
    0.00000E+00         0.00000E+00        -0.50116E+08
 
   -0.50460E+08         0.10981E+06         0.00000E+00
    0.10981E+06        -0.50008E+08         0.00000E+00
    0.00000E+00         0.00000E+00        -0.50115E+08
 
   -0.50454E+08         0.12066E+06         0.00000E+00
    0.12066E+06        -0.50010E+08         0.00000E+00
    0.00000E+00         0.00000E+00        -0.50115E+08
 
   -0.50448E+08         0.13136E+06         0.00000E+00
    0.13136E+06        -0.50012E+08         0.00000E+00
    0.00000E+00         0.00000E+00        -0.50114E+08
 
   -0.50442E+08         0.14189E+06         0.00000E+00
    0.14189E+06        -0.50014E+08         0.00000E+00
    0.00000E+00         0.00000E+00        -0.50113E+08
 
   -0.50436E+08         0.15225E+06         0.00000E+00
    0.15225E+06        -0.50016E+08         0.00000E+00
    0.00000E+00         0.00000E+00        -0.50112E+08
 
   -0.50429E+08         0.16244E+06         0.00000E+00
    0.16244E+06        -0.50019E+08         0.00000E+00
    0.00000E+00         0.00000E+00        -0.50111E+08
 
   -0.50422E+08         0.17245E+06         0.00000E+00
    0.17245E+06        -0.50021E+08         0.00000E+00
    0.00000E+00         0.00000E+00        -0.50111E+08
 
   -0.50415E+08         0.18228E+06         0.00000E+00
    0.18228E+06        -0.50024E+08         0.00000E+00
    0.00000E+00         0.00000E+00        -0.50110E+08
 
   -0.50408E+08         0.19192E+06         0.00000E+00
    0.19192E+06        -0.50027E+08         0.00000E+00
    0.00000E+00         0.00000E+00        -0.50109E+08
 
   -0.50400E+08         0.20137E+06         0.00000E+00
    0.20137E+06        -0.50029E+08         0.00000E+00
    0.00000E+00         0.00000E+00        -0.50108E+08
 
   -0.50392E+08         0.21062E+06         0.00000E+00
    0.21062E+06        -0.50033E+08         0.00000E+00
    0.00000E+00         0.00000E+00        -0.50107E+08
 
   -0.50384E+08         0.21968E+06         0.00000E+00
    0.21968E+06        -0.50036E+08         0.00000E+00
    0.00000E+00         0.00000E+00        -0.50106E+08
 
   -0.50376E+08         0.22852E+06         0.00000E+00
    0.22852E+06        -0.50039E+08         0.00000E+00
    0.00000E+00         0.00000E+00        -0.50105E+08
 
   -0.50367E+08         0.23716E+06         0.00000E+00
    0.23716E+06        -0.50042E+08         0.00000E+00
    0.00000E+00         0.00000E+00        -0.50104E+08
 
   -0.50358E+08         0.24559E+06         0.00000E+00
    0.24559E+06        -0.50046E+08         0.00000E+00
    0.00000E+00         0.00000E+00        -0.50103E+08
 
   -0.50349E+08         0.25381E+06         0.00000E+00
    0.25381E+06        -0.50050E+08         0.00000E+00
    0.00000E+00         0.00000E+00        -0.50102E+08
 
   -0.50340E+08         0.26181E+06         0.00000E+00
    0.26181E+06        -0.50053E+08         0.00000E+00
    0.00000E+00         0.00000E+00        -0.50101E+08
 
   -0.50331E+08         0.26958E+06         0.00000E+00
    0.26958E+06        -0.50057E+08         0.00000E+00
    0.00000E+00         0.00000E+00        -0.50099E+08
 
   -0.50321E+08         0.27714E+06         0.00000E+00
    0.27714E+06        -0.50061E+08         0.00000E+00
    0.00000E+00         0.00000E+00        -0.50098E+08
 
   -0.50312E+08         0.28447E+06         0.00000E+00
    0.28447E+06        -0.50065E+08         0.00000E+00
    0.00000E+00         0.00000E+00        -0.50097E+08
 
   -0.50302E+08         0.29156E+06         0.00000E+00
    0.29156E+06        -0.50069E+08         0.00000E+00
    0.00000E+00         0.00000E+00        -0.50096E+08
 
   -0.50292E+08         0.29843E+06         0.00000E+00
    0.29843E+06        -0.50074E+08         0.00000E+00
    0.00000E+00         0.00000E+00        -0.50095E+08
 
   -0.50282E+08         0.30507E+06         0.00000E+00
    0.30507E+06        -0.50078E+08         0.00000E+00
    0.00000E+00         0.00000E+00        -0.50094E+08
 
   -0.50271E+08         0.31147E+06         0.00000E+00
    0.31147E+06        -0.50082E+08         0.00000E+00
    0.00000E+00         0.00000E+00        -0.50093E+08
 
   -0.50261E+08         0.31763E+06         0.00000E+00
    0.31763E+06        -0.50087E+08         0.00000E+00
    0.00000E+00         0.00000E+00        -0.50091E+08
 
   -0.50250E+08         0.32356E+06         0.00000E+00
    0.32356E+06        -0.50091E+08         0.00000E+00
    0.00000E+00         0.00000E+00        -0.50090E+08
 
   -0.50239E+08         0.32924E+06         0.00000E+00
    0.32924E+06        -0.50096E+08         0.00000E+00
    0.00000E+00         0.00000E+00        -0.50089E+08
 
   -0.50228E+08         0.33468E+06         0.00000E+00
    0.33468E+06        -0.50101E+08         0.00000E+00
    0.00000E+00         0.00000E+00        -0.50088E+08
 
   -0.50217E+08         0.33987E+06         0.00000E+00
    0.33987E+06        -0.50106E+08         0.00000E+00
    0.00000E+00         0.00000E+00        -0.50086E+08
 
   -0.50206E+08         0.34482E+06         0.00000E+00
    0.34482E+06        -0.50110E+08         0.00000E+00
    0.00000E+00         0.00000E+00        -0.50085E+08
 
   -0.50195E+08         0.34952E+06         0.00000E+00
    0.34952E+06        -0.50115E+08         0.00000E+00
    0.00000E+00         0.00000E+00        -0.50084E+08
 
   -0.50183E+08         0.35398E+06         0.00000E+00
    0.35398E+06        -0.50120E+08         0.00000E+00
    0.00000E+00         0.00000E+00        -0.50083E+08
 
   -0.50172E+08         0.35818E+06         0.00000E+00
    0.35818E+06        -0.50125E+08         0.00000E+00
    0.00000E+00         0.00000E+00        -0.50081E+08
 
   -0.50160E+08         0.36213E+06         0.00000E+00
    0.36213E+06        -0.50130E+08         0.00000E+00
    0.00000E+00         0.00000E+00        -0.50080E+08
 
   -0.50149E+08         0.36582E+06         0.00000E+00
    0.36582E+06        -0.50136E+08         0.00000E+00
    0.00000E+00         0.00000E+00        -0.50079E+08
 
   -0.50137E+08         0.36926E+06         0.00000E+00
    0.36926E+06        -0.50141E+08         0.00000E+00
    0.00000E+00         0.00000E+00        -0.50077E+08
 
   -0.50125E+08         0.37245E+06         0.00000E+00
    0.37245E+06        -0.50146E+08         0.00000E+00
    0.00000E+00         0.00000E+00        -0.50076E+08
 
   -0.50113E+08         0.37537E+06         0.00000E+00
    0.37537E+06        -0.50151E+08         0.00000E+00
    0.00000E+00         0.00000E+00        -0.50075E+08
 
   -0.50101E+08         0.37804E+06         0.00000E+00
    0.37804E+06        -0.50157E+08         0.00000E+00
    0.00000E+00         0.00000E+00        -0.50073E+08
 
   -0.50088E+08         0.38045E+06         0.00000E+00
    0.38045E+06        -0.50162E+08         0.00000E+00
    0.00000E+00         0.00000E+00        -0.50072E+08
 
   -0.50076E+08         0.38260E+06         0.00000E+00
    0.38260E+06        -0.50168E+08         0.00000E+00
    0.00000E+00         0.00000E+00        -0.50071E+08
 
   -0.50438E+08         0.56285E+04         0.00000E+00
    0.56285E+04        -0.50000E+08         0.00000E+00
    0.00000E+00         0.00000E+00        -0.50106E+08
 
   -0.50436E+08         0.16715E+05         0.00000E+00
    0.16715E+05        -0.50000E+08         0.00000E+00
    0.00000E+00         0.00000E+00        -0.50105E+08
 
   -0.50433E+08         0.27720E+05         0.00000E+00
    0.27720E+05        -0.50000E+08         0.00000E+00
    0.00000E+00         0.00000E+00        -0.50105E+08
 
   -0.50430E+08         0.38634E+05         0.00000E+00
    0.38634E+05        -0.50001E+08         0.00000E+00
    0.00000E+00         0.00000E+00        -0.50105E+08
 
   -0.50427E+08         0.49453E+05         0.00000E+00
    0.49453E+05        -0.50002E+08         0.00000E+00
    0.00000E+00         0.00000E+00        -0.50104E+08
 
   -0.50423E+08         0.60167E+05         0.00000E+00
    0.60167E+05        -0.50002E+08         0.00000E+00
    0.00000E+00         0.00000E+00        -0.50104E+08
 
   -0.50420E+08         0.70771E+05         0.00000E+00
    0.70771E+05        -0.50003E+08         0.00000E+00
    0.00000E+00         0.00000E+00        -0.50103E+08
 
   -0.50416E+08         0.81259E+05         0.00000E+00
    0.81259E+05        -0.50005E+08         0.00000E+00
    0.00000E+00         0.00000E+00        -0.50102E+08
 
   -0.50411E+08         0.91623E+05         0.00000E+00
    0.91623E+05        -0.50006E+08         0.00000E+00
    0.00000E+00         0.00000E+00        -0.50102E+08
 
   -0.50407E+08         0.10186E+06         0.00000E+00
    0.10186E+06        -0.50007E+08         0.00000E+00
    0.00000E+00         0.00000E+00        -0.50101E+08
 
   -0.50402E+08         0.11196E+06         0.00000E+00
    0.11196E+06        -0.50009E+08         0.00000E+00
    0.00000E+00         0.00000E+00        -0.50100E+08
 
   -0.50397E+08         0.12192E+06         0.00000E+00
    0.12192E+06        -0.50011E+08         0.00000E+00
    0.00000E+00         0.00000E+00        -0.50100E+08
 
   -0.50392E+08         0.13173E+06         0.00000E+00
    0.13173E+06        -0.50012E+08         0.00000E+00
    0.00000E+00         0.00000E+00        -0.50099E+08
 
   -0.50386E+08         0.14139E+06         0.00000E+00
    0.14139E+06        -0.50014E+08         0.00000E+00
    0.00000E+00         0.00000E+00        -0.50098E+08
 
   -0.50380E+08         0.15090E+06         0.00000E+00
    0.15090E+06        -0.50016E+08         0.00000E+00
    0.00000E+00         0.00000E+00        -0.50098E+08
 
   -0.50374E+08         0.16024E+06         0.00000E+00
    0.16024E+06        -0.50019E+08         0.00000E+00
    0.00000E+00         0.00000E+00        -0.50097E+08
 
   -0.50368E+08         0.16942E+06         0.00000E+00
    0.16942E+06        -0.50021E+08         0.00000E+00
    0.00000E+00         0.00000E+00        -0.50096E+08
 
   -0.50361E+08         0.17843E+06         0.00000E+00
    0.17843E+06        -0.50024E+08         0.00000E+00
    0.00000E+00         0.00000E+00        -0.50095E+08
 
   -0.50355E+08         0.18726E+06         0.00000E+00
    0.18726E+06        -0.50026E+08         0.00000E+00
    0.00000E+00         0.00000E+00        -0.50094E+08
 
   -0.50348E+08         0.19591E+06         0.00000E+00
    0.19591E+06        -0.50029E+08         0.00000E+00
    0.00000E+00         0.00000E+00        -0.50094E+08
 
   -0.50341E+08         0.20437E+06         0.00000E+00
    0.20437E+06        -0.50032E+08         0.00000E+00
    0.00000E+00         0.00000E+00        -0.50093E+08
 
   -0.50333E+08         0.21265E+06         0.00000E+00
    0.21265E+06        -0.50035E+08         0.00000E+00
    0.00000E+00         0.00000E+00        -0.50092E+08
 
   -0.50326E+08         0.22074E+06         0.00000E+00
    0.22074E+06        -0.50038E+08         0.00000E+00
    0.00000E+00         0.00000E+00        -0.50091E+08
 
   -0.50318E+08         0.22864E+06         0.00000E+00
    0.22864E+06        -0.50041E+08         0.00000E+00
    0.00000E+00         0.00000E+00        -0.50090E+08
 
   -0.50310E+08         0.23633E+06         0.00000E+00
    0.23633E+06        -0.50044E+08         0.00000E+00
    0.00000E+00         0.00000E+00        -0.50089E+08
 
   -0.50302E+08         0.24383E+06         0.00000E+00
    0.24383E+06        -0.50048E+08         0.00000E+00
    0.00000E+00         0.00000E+00        -0.50088E+08
 
   -0.50294E+08         0.25111E+06         0.00000E+00
    0.25111E+06        -0.50051E+08         0.00000E+00
    0.00000E+00         0.00000E+00        -0.50087E+08
 
   -0.50285E+08         0.25820E+06         0.00000E+00
    0.25820E+06        -0.50054E+08         0.00000E+00
    0.00000E+00         0.00000E+00        -0.50086E+08
 
   -0.50277E+08         0.26507E+06         0.00000E+00
    0.26507E+06        -0.50058E+08         0.00000E+00
    0.00000E+00         0.00000E+00        -0.50085E+08
 
   -0.50268E+08         0.27172E+06         0.00000E+00
    0.27172E+06        -0.50062E+08         0.00000E+00
    0.00000E+00         0.00000E+00        -0.50084E+08
 
   -0.50259E+08         0.27816E+06         0.00000E+00
    0.27816E+06        -0.50066E+08         0.00000E+00
    0.00000E+00         0.00000E+00        -0.50083E+08
 
   -0.50250E+08         0.28438E+06         0.00000E+00
    0.28438E+06        -0.50069E+08         0.00000E+00
    0.00000E+00         0.00000E+00        -0.50082E+08
 
   -0.50241E+08         0.29038E+06         0.00000E+00
    0.29038E+06        -0.50073E+08         0.00000E+00
    0.00000E+00         0.00000E+00        -0.50081E+08
 
   -0.50231E+08         0.29616E+06         0.00000E+00
    0.29616E+06        -0.50077E+08         0.00000E+00
    0.00000E+00         0.00000E+00        -0.50080E+08
 
   -0.50222E+08         0.30171E+06         0.00000E+00
    0.30171E+06        -0.50082E+08         0.00000E+00
    0.00000E+00         0.00000E+00        -0.50079E+08
 
   -0.50212E+08         0.30704E+06         0.00000E+00
    0.30704E+06        -0.50086E+08         0.00000E+00
    0.00000E+00         0.00000E+00        -0.50078E+08
 
   -0.50203E+08         0.31213E+06         0.00000E+00
    0.31213E+06        -0.50090E+08         0.00000E+00
    0.00000E+00         0.00000E+00        -0.50077E+08
 
   -0.50193E+08         0.31699E+06         0.00000E+00
    0.31699E+06        -0.50094E+08         0.00000E+00
    0.00000E+00         0.00000E+00        -0.50076E+08
 
   -0.50183E+08         0.32162E+06         0.00000E+00
    0.32162E+06        -0.50099E+08         0.00000E+00
    0.00000E+00         0.00000E+00        -0.50075E+08
 
   -0.50173E+08         0.32601E+06         0.00000E+00
    0.32601E+06        -0.50103E+08         0.00000E+00
    0.00000E+00         0.00000E+00        -0.50073E+08
 
   -0.50163E+08         0.33017E+06         0.00000E+00
    0.33017E+06        -0.50108E+08         0.00000E+00
    0.00000E+00         0.00000E+00        -0.50072E+08
 
   -0.50152E+08         0.33408E+06         0.00000E+00
    0.33408E+06        -0.50112E+08         0.00000E+00
    0.00000E+00         0.00000E+00        -0.50071E+08
 
   -0.50142E+08         0.33776E+06         0.00000E+00
    0.33776E+06        -0.50117E+08         0.00000E+00
    0.00000E+00         0.00000E+00        -0.50070E+08
 
   -0.50131E+08         0.34119E+06         0.00000E+00
    0.34119E+06        -0.50121E+08         0.00000E+00
    0.00000E+00         0.00000E+00        -0.50069E+08
 
   -0.50121E+08         0.34438E+06         0.00000E+00
    0.34438E+06        -0.50126E+08         0.00000E+00
    0.00000E+00         0.00000E+00        -0.50068E+08
 
   -0.50110E+08         0.34733E+06         0.00000E+00
    0.34733E+06        -0.50131E+08         0.00000E+00
    0.00000E+00         0.00000E+00        -0.50066E+08
 
   -0.50099E+08         0.35003E+06         0.00000E+00
    0.35003E+06        -0.50135E+08         0.00000E+00
    0.00000E+00         0.00000E+00        -0.50065E+08
 
   -0.50088E+08         0.35248E+06         0.00000E+00
    0.35248E+06        -0.50140E+08         0.00000E+00
    0.00000E+00         0.00000E+00        -0.50064E+08
 
   -0.50078E+08         0.35468E+06         0.00000E+00
    0.35468E+06        -0.50145E+08         0.00000E+00
    0.00000E+00         0.00000E+00        -0.50063E+08
 
   -0.50067E+08         0.35663E+06         0.00000E+00
    0.35663E+06        -0.50150E+08         0.00000E+00
    0.00000E+00         0.00000E+00        -0.50062E+08
 
   -0.50384E+08         0.52219E+04         0.00000E+00
    0.52219E+04        -0.50000E+08         0.00000E+00
    0.00000E+00         0.00000E+00        -0.50092E+08
 
   -0.50382E+08         0.15522E+05         0.00000E+00
    0.15522E+05        -0.50000E+08         0.00000E+00
    0.00000E+00         0.00000E+00        -0.50092E+08
 
   -0.50380E+08         0.25751E+05         0.00000E+00
    0.25751E+05        -0.50000E+08         0.00000E+00
    0.00000E+00         0.00000E+00        -0.50091E+08
 
   -0.50378E+08         0.35903E+05         0.00000E+00
    0.35903E+05        -0.50001E+08         0.00000E+00
    0.00000E+00         0.00000E+00        -0.50091E+08
 
   -0.50375E+08         0.45971E+05         0.00000E+00
    0.45971E+05        -0.50001E+08         0.00000E+00
    0.00000E+00         0.00000E+00        -0.50091E+08
 
   -0.50372E+08         0.55948E+05         0.00000E+00
    0.55948E+05        -0.50002E+08         0.00000E+00
    0.00000E+00         0.00000E+00        -0.50090E+08
 
   -0.50369E+08         0.65828E+05         0.00000E+00
    0.65828E+05        -0.50003E+08         0.00000E+00
    0.00000E+00         0.00000E+00        -0.50090E+08
 
   -0.50365E+08         0.75604E+05         0.00000E+00
    0.75604E+05        -0.50004E+08         0.00000E+00
    0.00000E+00         0.00000E+00        -0.50089E+08
 
   -0.50362E+08         0.85272E+05         0.00000E+00
    0.85272E+05        -0.50005E+08         0.00000E+00
    0.00000E+00         0.00000E+00        -0.50089E+08
 
   -0.50358E+08         0.94824E+05         0.00000E+00
    0.94824E+05        -0.50006E+08         0.00000E+00
    0.00000E+00         0.00000E+00        -0.50088E+08
 
   -0.50354E+08         0.10425E+06         0.00000E+00
    0.10425E+06        -0.50008E+08         0.00000E+00
    0.00000E+00         0.00000E+00        -0.50088E+08
 
   -0.50349E+08         0.11356E+06         0.00000E+00
    0.11356E+06        -0.50009E+08         0.00000E+00
    0.00000E+00         0.00000E+00        -0.50087E+08
 
   -0.50345E+08         0.12273E+06         0.00000E+00
    0.12273E+06        -0.50011E+08         0.00000E+00
    0.00000E+00         0.00000E+00        -0.50086E+08
 
   -0.50340E+08         0.13177E+06         0.00000E+00
    0.13177E+06        -0.50013E+08         0.00000E+00
    0.00000E+00         0.00000E+00        -0.50086E+08
 
   -0.50335E+08         0.14066E+06         0.00000E+00
    0.14066E+06        -0.50015E+08         0.00000E+00
    0.00000E+00         0.00000E+00        -0.50085E+08
 
   -0.50329E+08         0.14941E+06         0.00000E+00
    0.14941E+06        -0.50017E+08         0.00000E+00
    0.00000E+00         0.00000E+00        -0.50084E+08
 
   -0.50324E+08         0.15800E+06         0.00000E+00
    0.15800E+06        -0.50019E+08         0.00000E+00
    0.00000E+00         0.00000E+00        -0.50084E+08
 
   -0.50318E+08         0.16644E+06         0.00000E+00
    0.16644E+06        -0.50021E+08         0.00000E+00
    0.00000E+00         0.00000E+00        -0.50083E+08
 
   -0.50312E+08         0.17472E+06         0.00000E+00
    0.17472E+06        -0.50023E+08         0.00000E+00
    0.00000E+00         0.00000E+00        -0.50082E+08
 
   -0.50306E+08         0.18283E+06         0.00000E+00
    0.18283E+06        -0.50026E+08         0.00000E+00
    0.00000E+00         0.00000E+00        -0.50082E+08
 
   -0.50300E+08         0.19077E+06         0.00000E+00
    0.19077E+06        -0.50028E+08         0.00000E+00
    0.00000E+00         0.00000E+00        -0.50081E+08
 
   -0.50294E+08         0.19854E+06         0.00000E+00
    0.19854E+06        -0.50031E+08         0.00000E+00
    0.00000E+00         0.00000E+00        -0.50080E+08
 
   -0.50287E+08         0.20613E+06         0.00000E+00
    0.20613E+06        -0.50033E+08         0.00000E+00
    0.00000E+00         0.00000E+00        -0.50079E+08
 
   -0.50280E+08         0.21354E+06         0.00000E+00
    0.21354E+06        -0.50036E+08         0.00000E+00
    0.00000E+00         0.00000E+00        -0.50079E+08
 
   -0.50273E+08         0.22077E+06         0.00000E+00
    0.22077E+06        -0.50039E+08         0.00000E+00
    0.00000E+00         0.00000E+00        -0.50078E+08
 
   -0.50266E+08         0.22781E+06         0.00000E+00
    0.22781E+06        -0.50042E+08         0.00000E+00
    0.00000E+00         0.00000E+00        -0.50077E+08
 
   -0.50259E+08         0.23466E+06         0.00000E+00
    0.23466E+06        -0.50045E+08         0.00000E+00
    0.00000E+00         0.00000E+00        -0.50076E+08
 
   -0.50251E+08         0.24131E+06         0.00000E+00
    0.24131E+06        -0.50048E+08         0.00000E+00
    0.00000E+00         0.00000E+00        -0.50075E+08
 
   -0.50244E+08         0.24777E+06         0.00000E+00
    0.24777E+06        -0.50051E+08         0.00000E+00
    0.00000E+00         0.00000E+00        -0.50074E+08
 
   -0.50236E+08         0.25403E+06         0.00000E+00
    0.25403E+06        -0.50055E+08         0.00000E+00
    0.00000E+00         0.00000E+00        -0.50073E+08
 
   -0.50228E+08         0.26008E+06         0.00000E+00
    0.26008E+06        -0.50058E+08         0.00000E+00
    0.00000E+00         0.00000E+00        -0.50073E+08
 
   -0.50220E+08         0.26593E+06         0.00000E+00
    0.26593E+06        -0.50061E+08         0.00000E+00
    0.00000E+00         0.00000E+00        -0.50072E+08
 
   -0.50212E+08         0.27157E+06         0.00000E+00
    0.27157E+06        -0.50065E+08         0.00000E+00
    0.00000E+00         0.00000E+00        -0.50071E+08
 
   -0.50204E+08         0.27700E+06         0.00000E+00
    0.27700E+06        -0.50069E+08         0.00000E+00
    0.00000E+00         0.00000E+00        -0.50070E+08
 
   -0.50196E+08         0.28221E+06         0.00000E+00
    0.28221E+06        -0.50072E+08         0.00000E+00
    0.00000E+00         0.00000E+00        -0.50069E+08
 
   -0.50187E+08         0.28721E+06         0.00000E+00
    0.28721E+06        -0.50076E+08         0.00000E+00
    0.00000E+00         0.00000E+00        -0.50068E+08
 
   -0.50179E+08         0.29199E+06         0.00000E+00
    0.29199E+06        -0.50080E+08         0.00000E+00
    0.00000E+00         0.00000E+00        -0.50067E+08
 
   -0.50170E+08         0.29655E+06         0.00000E+00
    0.29655E+06        -0.50084E+08         0.00000E+00
    0.00000E+00         0.00000E+00        -0.50066E+08
 
   -0.50161E+08         0.30089E+06         0.00000E+00
    0.30089E+06        -0.50087E+08         0.00000E+00
    0.00000E+00         0.00000E+00        -0.50065E+08
 
   -0.50152E+08         0.30501E+06         0.00000E+00
    0.30501E+06        -0.50091E+08         0.00000E+00
    0.00000E+00         0.00000E+00        -0.50064E+08
 
   -0.50143E+08         0.30890E+06         0.00000E+00
    0.30890E+06        -0.50095E+08         0.00000E+00
    0.00000E+00         0.00000E+00        -0.50063E+08
 
   -0.50134E+08         0.31256E+06         0.00000E+00
    0.31256E+06        -0.50099E+08         0.00000E+00
    0.00000E+00         0.00000E+00        -0.50062E+08
 
   -0.50125E+08         0.31599E+06         0.00000E+00
    0.31599E+06        -0.50103E+08         0.00000E+00
    0.00000E+00         0.00000E+00        -0.50061E+08
 
   -0.50115E+08         0.31919E+06         0.00000E+00
    0.31919E+06        -0.50108E+08         0.00000E+00
    0.00000E+00         0.00000E+00        -0.50060E+08
 
   -0.50106E+08         0.32216E+06         0.00000E+00
    0.32216E+06        -0.50112E+08         0.00000E+00
    0.00000E+00         0.00000E+00        -0.50059E+08
 
   -0.50097E+08         0.32490E+06         0.00000E+00
    0.32490E+06        -0.50116E+08         0.00000E+00
    0.00000E+00         0.00000E+00        -0.50058E+08
 
   -0.50087E+08         0.32739E+06         0.00000E+00
    0.32739E+06        -0.50120E+08         0.00000E+00
    0.00000E+00         0.00000E+00        -0.50057E+08
 
   -0.50077E+08         0.32965E+06         0.00000E+00
    0.32965E+06        -0.50124E+08         0.00000E+00
    0.00000E+00         0.00000E+00        -0.50056E+08
 
   -0.50068E+08         0.33167E+06         0.00000E+00
    0.33167E+06        -0.50129E+08         0.00000E+00
    0.00000E+00         0.00000E+00        -0.50055E+08
 
   -0.50058E+08         0.33346E+06         0.00000E+00
    0.33346E+06        -0.50133E+08         0.00000E+00
    0.00000E+00         0.00000E+00        -0.50053E+08
 
   -0.50334E+08         0.48669E+04         0.00000E+00
    0.48669E+04        -0.50000E+08         0.00000E+00
    0.00000E+00         0.00000E+00        -0.50080E+08
 
   -0.50333E+08         0.14479E+05         0.00000E+00
    0.14479E+05        -0.50000E+08         0.00000E+00
    0.00000E+00         0.00000E+00        -0.50079E+08
 
   -0.50331E+08         0.24029E+05         0.00000E+00
    0.24029E+05        -0.50000E+08         0.00000E+00
    0.00000E+00         0.00000E+00        -0.50079E+08
 
   -0.50329E+08         0.33513E+05         0.00000E+00
    0.33513E+05        -0.50001E+08         0.00000E+00
    0.00000E+00         0.00000E+00        -0.50079E+08
 
   -0.50327E+08         0.42923E+05         0.00000E+00
    0.42923E+05        -0.50001E+08         0.00000E+00
    0.00000E+00         0.00000E+00        -0.50078E+08
 
   -0.50324E+08         0.52252E+05         0.00000E+00
    0.52252E+05        -0.50002E+08         0.00000E+00
    0.00000E+00         0.00000E+00        -0.50078E+08
 
   -0.50321E+08         0.61496E+05         0.00000E+00
    0.61496E+05        -0.50003E+08         0.00000E+00
    0.00000E+00         0.00000E+00        -0.50077E+08
 
   -0.50318E+08         0.70647E+05         0.00000E+00
    0.70647E+05        -0.50003E+08         0.00000E+00
    0.00000E+00         0.00000E+00        -0.50077E+08
 
   -0.50315E+08         0.79701E+05         0.00000E+00
    0.79701E+05        -0.50004E+08         0.00000E+00
    0.00000E+00         0.00000E+00        -0.50077E+08
 
   -0.50312E+08         0.88651E+05         0.00000E+00
    0.88651E+05        -0.50006E+08         0.00000E+00
    0.00000E+00         0.00000E+00        -0.50076E+08
 
   -0.50308E+08         0.97492E+05         0.00000E+00
    0.97492E+05        -0.50007E+08         0.00000E+00
    0.00000E+00         0.00000E+00        -0.50076E+08
 
   -0.50304E+08         0.10622E+06         0.00000E+00
    0.10622E+06        -0.50008E+08         0.00000E+00
    0.00000E+00         0.00000E+00        -0.50075E+08
 
   -0.50300E+08         0.11482E+06         0.00000E+00
    0.11482E+06        -0.50010E+08         0.00000E+00
    0.00000E+00         0.00000E+00        -0.50075E+08
 
   -0.50296E+08         0.12331E+06         0.00000E+00
    0.12331E+06        -0.50011E+08         0.00000E+00
    0.00000E+00         0.00000E+00        -0.50074E+08
 
   -0.50292E+08         0.13166E+06         0.00000E+00
    0.13166E+06        -0.50013E+08         0.00000E+00
    0.00000E+00         0.00000E+00        -0.50074E+08
 
   -0.50287E+08         0.13988E+06         0.00000E+00
    0.13988E+06        -0.50014E+08         0.00000E+00
    0.00000E+00         0.00000E+00        -0.50073E+08
 
   -0.50283E+08         0.14795E+06         0.00000E+00
    0.14795E+06        -0.50016E+08         0.00000E+00
    0.00000E+00         0.00000E+00        -0.50072E+08
 
   -0.50278E+08         0.15589E+06         0.00000E+00
    0.15589E+06        -0.50018E+08         0.00000E+00
    0.00000E+00         0.00000E+00        -0.50072E+08
 
   -0.50273E+08         0.16367E+06         0.00000E+00
    0.16367E+06        -0.50020E+08         0.00000E+00
    0.00000E+00         0.00000E+00        -0.50071E+08
 
   -0.50267E+08         0.17131E+06         0.00000E+00
    0.17131E+06        -0.50022E+08         0.00000E+00
    0.00000E+00         0.00000E+00        -0.50071E+08
 
   -0.50262E+08         0.17878E+06         0.00000E+00
    0.17878E+06        -0.50025E+08         0.00000E+00
    0.00000E+00         0.00000E+00        -0.50070E+08
 
   -0.50256E+08         0.18610E+06         0.00000E+00
    0.18610E+06        -0.50027E+08         0.00000E+00
    0.00000E+00         0.00000E+00        -0.50069E+08
 
   -0.50251E+08         0.19325E+06         0.00000E+00
    0.19325E+06        -0.50029E+08         0.00000E+00
    0.00000E+00         0.00000E+00        -0.50069E+08
 
   -0.50245E+08         0.20023E+06         0.00000E+00
    0.20023E+06        -0.50032E+08         0.00000E+00
    0.00000E+00         0.00000E+00        -0.50068E+08
 
   -0.50239E+08         0.20704E+06         0.00000E+00
    0.20704E+06        -0.50034E+08         0.00000E+00
    0.00000E+00         0.00000E+00        -0.50067E+08
 
   -0.50232E+08         0.21368E+06         0.00000E+00
    0.21368E+06        -0.50037E+08         0.00000E+00
    0.00000E+00         0.00000E+00        -0.50067E+08
 
   -0.50226E+08         0.22013E+06         0.00000E+00
    0.22013E+06        -0.50039E+08         0.00000E+00
    0.00000E+00         0.00000E+00        -0.50066E+08
 
   -0.50220E+08         0.22640E+06         0.00000E+00
    0.22640E+06        -0.50042E+08         0.00000E+00
    0.00000E+00         0.00000E+00        -0.50065E+08
 
   -0.50213E+08         0.23249E+06         0.00000E+00
    0.23249E+06        -0.50045E+08         0.00000E+00
    0.00000E+00         0.00000E+00        -0.50064E+08
 
   -0.50206E+08         0.23839E+06         0.00000E+00
    0.23839E+06        -0.50048E+08         0.00000E+00
    0.00000E+00         0.00000E+00        -0.50064E+08
 
   -0.50199E+08         0.24410E+06         0.00000E+00
    0.24410E+06        -0.50051E+08         0.00000E+00
    0.00000E+00         0.00000E+00        -0.50063E+08
 
   -0.50192E+08         0.24962E+06         0.00000E+00
    0.24962E+06        -0.50054E+08         0.00000E+00
    0.00000E+00         0.00000E+00        -0.50062E+08
 
   -0.50185E+08         0.25493E+06         0.00000E+00
    0.25493E+06        -0.50057E+08         0.00000E+00
    0.00000E+00         0.00000E+00        -0.50061E+08
 
   -0.50178E+08         0.26005E+06         0.00000E+00
    0.26005E+06        -0.50060E+08         0.00000E+00
    0.00000E+00         0.00000E+00        -0.50060E+08
 
   -0.50171E+08         0.26497E+06         0.00000E+00
    0.26497E+06        -0.50063E+08         0.00000E+00
    0.00000E+00         0.00000E+00        -0.50060E+08
 
   -0.50163E+08         0.26968E+06         0.00000E+00
    0.26968E+06        -0.50067E+08         0.00000E+00
    0.00000E+00         0.00000E+00        -0.50059E+08
 
   -0.50156E+08         0.27418E+06         0.00000E+00
    0.27418E+06        -0.50070E+08         0.00000E+00
    0.00000E+00         0.00000E+00        -0.50058E+08
 
   -0.50148E+08         0.27847E+06         0.00000E+00
    0.27847E+06        -0.50073E+08         0.00000E+00
    0.00000E+00         0.00000E+00        -0.50057E+08
 
   -0.50140E+08         0.28256E+06         0.00000E+00
    0.28256E+06        -0.50077E+08         0.00000E+00
    0.00000E+00         0.00000E+00        -0.50056E+08
 
   -0.50133E+08         0.28643E+06         0.00000E+00
    0.28643E+06        -0.50080E+08         0.00000E+00
    0.00000E+00         0.00000E+00        -0.50055E+08
 
   -0.50125E+08         0.29008E+06         0.00000E+00
    0.29008E+06        -0.50084E+08         0.00000E+00
    0.00000E+00         0.00000E+00        -0.50054E+08
 
   -0.50117E+08         0.29352E+06         0.00000E+00
    0.29352E+06        -0.50087E+08         0.00000E+00
    0.00000E+00         0.00000E+00        -0.50053E+08
 
   -0.50109E+08         0.29673E+06         0.00000E+00
    0.29673E+06        -0.50091E+08         0.00000E+00
    0.00000E+00         0.00000E+00        -0.50053E+08
 
   -0.50100E+08         0.29973E+06         0.00000E+00
    0.29973E+06        -0.50094E+08         0.00000E+00
    0.00000E+00         0.00000E+00        -0.50052E+08
 
   -0.50092E+08         0.30250E+06         0.00000E+00
    0.30250E+06        -0.50098E+08         0.00000E+00
    0.00000E+00         0.00000E+00        -0.50051E+08
 
   -0.50084E+08         0.30505E+06         0.00000E+00
    0.30505E+06        -0.50102E+08         0.00000E+00
    0.00000E+00         0.00000E+00        -0.50050E+08
 
   -0.50075E+08         0.30737E+06         0.00000E+00
    0.30737E+06        -0.50105E+08         0.00000E+00
    0.00000E+00         0.00000E+00        -0.50049E+08
 
   -0.50067E+08         0.30947E+06         0.00000E+00
    0.30947E+06        -0.50109E+08         0.00000E+00
    0.00000E+00         0.00000E+00        -0.50048E+08
 
   -0.50058E+08         0.31133E+06         0.00000E+00
    0.31133E+06        -0.50113E+08         0.00000E+00
    0.00000E+00         0.00000E+00        -0.50047E+08
 
   -0.50050E+08         0.31296E+06         0.00000E+00
    0.31296E+06        -0.50117E+08         0.00000E+00
    0.00000E+00         0.00000E+00        -0.50046E+08
 
   -0.50288E+08         0.45602E+04         0.00000E+00
    0.45602E+04        -0.50000E+08         0.00000E+00
    0.00000E+00         0.00000E+00        -0.50068E+08
 
   -0.50286E+08         0.13576E+05         0.00000E+00
    0.13576E+05        -0.50000E+08         0.00000E+00
    0.00000E+00         0.00000E+00        -0.50068E+08
 
   -0.50285E+08         0.22539E+05         0.00000E+00
    0.22539E+05        -0.50000E+08         0.00000E+00
    0.00000E+00         0.00000E+00        -0.50068E+08
 
   -0.50283E+08         0.31443E+05         0.00000E+00
    0.31443E+05        -0.50001E+08         0.00000E+00
    0.00000E+00         0.00000E+00        -0.50067E+08
 
   -0.50281E+08         0.40281E+05         0.00000E+00
    0.40281E+05        -0.50001E+08         0.00000E+00
    0.00000E+00         0.00000E+00        -0.50067E+08
 
   -0.50279E+08         0.49049E+05         0.00000E+00
    0.49049E+05        -0.50002E+08         0.00000E+00
    0.00000E+00         0.00000E+00        -0.50067E+08
 
   -0.50277E+08         0.57739E+05         0.00000E+00
    0.57739E+05        -0.50002E+08         0.00000E+00
    0.00000E+00         0.00000E+00        -0.50066E+08
 
   -0.50274E+08         0.66347E+05         0.00000E+00
    0.66347E+05        -0.50003E+08         0.00000E+00
    0.00000E+00         0.00000E+00        -0.50066E+08
 
   -0.50272E+08         0.74866E+05         0.00000E+00
    0.74866E+05        -0.50004E+08         0.00000E+00
    0.00000E+00         0.00000E+00        -0.50066E+08
 
   -0.50269E+08         0.83292E+05         0.00000E+00
    0.83292E+05        -0.50005E+08         0.00000E+00
    0.00000E+00         0.00000E+00        -0.50065E+08
 
   -0.50266E+08         0.91618E+05         0.00000E+00
    0.91618E+05        -0.50006E+08         0.00000E+00
    0.00000E+00         0.00000E+00        -0.50065E+08
 
   -0.50262E+08         0.99840E+05         0.00000E+00
    0.99840E+05        -0.50007E+08         0.00000E+00
    0.00000E+00         0.00000E+00        -0.50064E+08
 
   -0.50259E+08         0.10795E+06         0.00000E+00
    0.10795E+06        -0.50008E+08         0.00000E+00
    0.00000E+00         0.00000E+00        -0.50064E+08
 
   -0.50255E+08         0.11595E+06         0.00000E+00
    0.11595E+06        -0.50010E+08         0.00000E+00
    0.00000E+00         0.00000E+00        -0.50063E+08
 
   -0.50252E+08         0.12383E+06         0.00000E+00
    0.12383E+06        -0.50011E+08         0.00000E+00
    0.00000E+00         0.00000E+00        -0.50063E+08
 
   -0.50248E+08         0.13158E+06         0.00000E+00
    0.13158E+06        -0.50012E+08         0.00000E+00
    0.00000E+00         0.00000E+00        -0.50063E+08
 
   -0.50244E+08         0.13921E+06         0.00000E+00
    0.13921E+06        -0.50014E+08         0.00000E+00
    0.00000E+00         0.00000E+00        -0.50062E+08
 
   -0.50239E+08         0.14670E+06         0.00000E+00
    0.14670E+06        -0.50016E+08         0.00000E+00
    0.00000E+00         0.00000E+00        -0.50062E+08
 
   -0.50235E+08         0.15406E+06         0.00000E+00
    0.15406E+06        -0.50017E+08         0.00000E+00
    0.00000E+00         0.00000E+00        -0.50061E+08
 
   -0.50231E+08         0.16127E+06         0.00000E+00
    0.16127E+06        -0.50019E+08         0.00000E+00
    0.00000E+00         0.00000E+00        -0.50060E+08
 
   -0.50226E+08         0.16833E+06         0.00000E+00
    0.16833E+06        -0.50021E+08         0.00000E+00
    0.00000E+00         0.00000E+00        -0.50060E+08
 
   -0.50221E+08         0.17525E+06         0.00000E+00
    0.17525E+06        -0.50023E+08         0.00000E+00
    0.00000E+00         0.00000E+00        -0.50059E+08
 
   -0.50216E+08         0.18201E+06         0.00000E+00
    0.18201E+06        -0.50025E+08         0.00000E+00
    0.00000E+00         0.00000E+00        -0.50059E+08
 
   -0.50211E+08         0.18862E+06         0.00000E+00
    0.18862E+06        -0.50027E+08         0.00000E+00
    0.00000E+00         0.00000E+00        -0.50058E+08
 
   -0.50206E+08         0.19506E+06         0.00000E+00
    0.19506E+06        -0.50030E+08         0.00000E+00
    0.00000E+00         0.00000E+00        -0.50058E+08
 
   -0.50201E+08         0.20134E+06         0.00000E+00
    0.20134E+06        -0.50032E+08         0.00000E+00
    0.00000E+00         0.00000E+00        -0.50057E+08
 
   -0.50195E+08         0.20745E+06         0.00000E+00
    0.20745E+06        -0.50034E+08         0.00000E+00
    0.00000E+00         0.00000E+00        -0.50056E+08
 
   -0.50190E+08         0.21339E+06         0.00000E+00
    0.21339E+06        -0.50036E+08         0.00000E+00
    0.00000E+00         0.00000E+00        -0.50056E+08
 
   -0.50184E+08         0.21915E+06         0.00000E+00
    0.21915E+06        -0.50039E+08         0.00000E+00
    0.00000E+00         0.00000E+00        -0.50055E+08
 
   -0.50178E+08         0.22474E+06         0.00000E+00
    0.22474E+06        -0.50041E+08         0.00000E+00
    0.00000E+00         0.00000E+00        -0.50054E+08
 
   -0.50172E+08         0.23014E+06         0.00000E+00
    0.23014E+06        -0.50044E+08         0.00000E+00
    0.00000E+00         0.00000E+00        -0.50054E+08
 
   -0.50166E+08         0.23536E+06         0.00000E+00
    0.23536E+06        -0.50047E+08         0.00000E+00
    0.00000E+00         0.00000E+00        -0.50053E+08
 
   -0.50160E+08         0.24040E+06         0.00000E+00
    0.24040E+06        -0.50049E+08         0.00000E+00
    0.00000E+00         0.00000E+00        -0.50052E+08
 
   -0.50154E+08         0.24524E+06         0.00000E+00
    0.24524E+06        -0.50052E+08         0.00000E+00
    0.00000E+00         0.00000E+00        -0.50052E+08
 
   -0.50147E+08         0.24989E+06         0.00000E+00
    0.24989E+06        -0.50055E+08         0.00000E+00
    0.00000E+00         0.00000E+00        -0.50051E+08
 
   -0.50141E+08         0.25435E+06         0.00000E+00
    0.25435E+06        -0.50058E+08         0.00000E+00
    0.00000E+00         0.00000E+00        -0.50050E+08
 
   -0.50134E+08         0.25861E+06         0.00000E+00
    0.25861E+06        -0.50061E+08         0.00000E+00
    0.00000E+00         0.00000E+00        -0.50050E+08
 
   -0.50128E+08         0.26267E+06         0.00000E+00
    0.26267E+06        -0.50063E+08         0.00000E+00
    0.00000E+00         0.00000E+00        -0.50049E+08
 
   -0.50121E+08         0.26653E+06         0.00000E+00
    0.26653E+06        -0.50066E+08         0.00000E+00
    0.00000E+00         0.00000E+00        -0.50048E+08
 
   -0.50114E+08         0.27018E+06         0.00000E+00
    0.27018E+06        -0.50069E+08         0.00000E+00
    0.00000E+00         0.00000E+00        -0.50047E+08
 
   -0.50108E+08         0.27363E+06         0.00000E+00
    0.27363E+06        -0.50072E+08         0.00000E+00
    0.00000E+00         0.00000E+00        -0.50047E+08
 
   -0.50101E+08         0.27687E+06         0.00000E+00
    0.27687E+06        -0.50076E+08         0.00000E+00
    0.00000E+00         0.00000E+00        -0.50046E+08
 
   -0.50094E+08         0.27989E+06         0.00000E+00
    0.27989E+06        -0.50079E+08         0.00000E+00
    0.00000E+00         0.00000E+00        -0.50045E+08
 
   -0.50086E+08         0.28271E+06         0.00000E+00
    0.28271E+06        -0.50082E+08         0.00000E+00
    0.00000E+00         0.00000E+00        -0.50044E+08
 
   -0.50079E+08         0.28531E+06         0.00000E+00
    0.28531E+06        -0.50085E+08         0.00000E+00
    0.00000E+00         0.00000E+00        -0.50043E+08
 
   -0.50072E+08         0.28770E+06         0.00000E+00
    0.28770E+06        -0.50088E+08         0.00000E+00
    0.00000E+00         0.00000E+00        -0.50043E+08
 
   -0.50065E+08         0.28987E+06         0.00000E+00
    0.28987E+06        -0.50091E+08         0.00000E+00
    0.00000E+00         0.00000E+00        -0.50042E+08
 
   -0.50057E+08         0.29182E+06         0.00000E+00
    0.29182E+06        -0.50095E+08         0.00000E+00
    0.00000E+00         0.00000E+00        -0.50041E+08
 
   -0.50050E+08         0.29354E+06         0.00000E+00
    0.29354E+06        -0.50098E+08         0.00000E+00
    0.00000E+00         0.00000E+00        -0.50040E+08
 
   -0.50043E+08         0.29505E+06         0.00000E+00
    0.29505E+06        -0.50101E+08         0.00000E+00
    0.00000E+00         0.00000E+00        -0.50039E+08
 
   -0.50244E+08         0.42985E+04         0.00000E+00
    0.42985E+04        -0.50000E+08         0.00000E+00
    0.00000E+00         0.00000E+00        -0.50057E+08
 
   -0.50243E+08         0.12805E+05         0.00000E+00
    0.12805E+05        -0.50000E+08         0.00000E+00
    0.00000E+00         0.00000E+00        -0.50057E+08
 
   -0.50241E+08         0.21265E+05         0.00000E+00
    0.21265E+05        -0.50000E+08         0.00000E+00
    0.00000E+00         0.00000E+00        -0.50057E+08
 
   -0.50240E+08         0.29673E+05         0.00000E+00
    0.29673E+05        -0.50001E+08         0.00000E+00
    0.00000E+00         0.00000E+00        -0.50057E+08
 
   -0.50238E+08         0.38023E+05         0.00000E+00
    0.38023E+05        -0.50001E+08         0.00000E+00
    0.00000E+00         0.00000E+00        -0.50056E+08
 
   -0.50237E+08         0.46309E+05         0.00000E+00
    0.46309E+05        -0.50001E+08         0.00000E+00
    0.00000E+00         0.00000E+00        -0.50056E+08
 
   -0.50235E+08         0.54525E+05         0.00000E+00
    0.54525E+05        -0.50002E+08         0.00000E+00
    0.00000E+00         0.00000E+00        -0.50056E+08
 
   -0.50233E+08         0.62667E+05         0.00000E+00
    0.62667E+05        -0.50003E+08         0.00000E+00
    0.00000E+00         0.00000E+00        -0.50056E+08
 
   -0.50230E+08         0.70728E+05         0.00000E+00
    0.70728E+05        -0.50003E+08         0.00000E+00
    0.00000E+00         0.00000E+00        -0.50055E+08
 
   -0.50228E+08         0.78703E+05         0.00000E+00
    0.78703E+05        -0.50004E+08         0.00000E+00
    0.00000E+00         0.00000E+00        -0.50055E+08
 
   -0.50225E+08         0.86587E+05         0.00000E+00
    0.86587E+05        -0.50005E+08         0.00000E+00
    0.00000E+00         0.00000E+00        -0.50055E+08
 
   -0.50223E+08         0.94376E+05         0.00000E+00
    0.94376E+05        -0.50006E+08         0.00000E+00
    0.00000E+00         0.00000E+00        -0.50054E+08
 
   -0.50220E+08         0.10206E+06         0.00000E+00
    0.10206E+06        -0.50007E+08         0.00000E+00
    0.00000E+00         0.00000E+00        -0.50054E+08
 
   -0.50217E+08         0.10964E+06         0.00000E+00
    0.10964E+06        -0.50008E+08         0.00000E+00
    0.00000E+00         0.00000E+00        -0.50054E+08
 
   -0.50214E+08         0.11712E+06         0.00000E+00
    0.11712E+06        -0.50009E+08         0.00000E+00
    0.00000E+00         0.00000E+00        -0.50053E+08
 
   -0.50210E+08         0.12447E+06         0.00000E+00
    0.12447E+06        -0.50011E+08         0.00000E+00
    0.00000E+00         0.00000E+00        -0.50053E+08
 
   -0.50207E+08         0.13171E+06         0.00000E+00
    0.13171E+06        -0.50012E+08         0.00000E+00
    0.00000E+00         0.00000E+00        -0.50052E+08
 
   -0.50203E+08         0.13882E+06         0.00000E+00
    0.13882E+06        -0.50013E+08         0.00000E+00
    0.00000E+00         0.00000E+00        -0.50052E+08
 
   -0.50200E+08         0.14580E+06         0.00000E+00
    0.14580E+06        -0.50015E+08         0.00000E+00
    0.00000E+00         0.00000E+00        -0.50052E+08
 
   -0.50196E+08         0.15265E+06         0.00000E+00
    0.15265E+06        -0.50016E+08         0.00000E+00
    0.00000E+00         0.00000E+00        -0.50051E+08
 
   -0.50192E+08         0.15936E+06         0.00000E+00
    0.15936E+06        -0.50018E+08         0.00000E+00
    0.00000E+00         0.00000E+00        -0.50051E+08
 
   -0.50188E+08         0.16593E+06         0.00000E+00
    0.16593E+06        -0.50020E+08         0.00000E+00
    0.00000E+00         0.00000E+00        -0.50050E+08
 
   -0.50184E+08         0.17236E+06         0.00000E+00
    0.17236E+06        -0.50021E+08         0.00000E+00
    0.00000E+00         0.00000E+00        -0.50050E+08
 
   -0.50179E+08         0.17864E+06         0.00000E+00
    0.17864E+06        -0.50023E+08         0.00000E+00
    0.00000E+00         0.00000E+00        -0.50049E+08
 
   -0.50175E+08         0.18477E+06         0.00000E+00
    0.18477E+06        -0.50025E+08         0.00000E+00
    0.00000E+00         0.00000E+00        -0.50049E+08
 
   -0.50170E+08         0.19074E+06         0.00000E+00
    0.19074E+06        -0.50027E+08         0.00000E+00
    0.00000E+00         0.00000E+00        -0.50048E+08
 
   -0.50166E+08         0.19655E+06         0.00000E+00
    0.19655E+06        -0.50029E+08         0.00000E+00
    0.00000E+00         0.00000E+00        -0.50048E+08
 
   -0.50161E+08         0.20220E+06         0.00000E+00
    0.20220E+06        -0.50031E+08         0.00000E+00
    0.00000E+00         0.00000E+00        -0.50047E+08
 
   -0.50156E+08         0.20768E+06         0.00000E+00
    0.20768E+06        -0.50033E+08         0.00000E+00
    0.00000E+00         0.00000E+00        -0.50046E+08
 
   -0.50151E+08         0.21299E+06         0.00000E+00
    0.21299E+06        -0.50035E+08         0.00000E+00
    0.00000E+00         0.00000E+00        -0.50046E+08
 
   -0.50146E+08         0.21813E+06         0.00000E+00
    0.21813E+06        -0.50037E+08         0.00000E+00
    0.00000E+00         0.00000E+00        -0.50045E+08
 
   -0.50141E+08         0.22310E+06         0.00000E+00
    0.22310E+06        -0.50040E+08         0.00000E+00
    0.00000E+00         0.00000E+00        -0.50045E+08
 
   -0.50136E+08         0.22788E+06         0.00000E+00
    0.22788E+06        -0.50042E+08         0.00000E+00
    0.00000E+00         0.00000E+00        -0.50044E+08
 
   -0.50131E+08         0.23249E+06         0.00000E+00
    0.23249E+06        -0.50044E+08         0.00000E+00
    0.00000E+00         0.00000E+00        -0.50044E+08
 
   -0.50125E+08         0.23691E+06         0.00000E+00
    0.23691E+06        -0.50047E+08         0.00000E+00
    0.00000E+00         0.00000E+00        -0.50043E+08
 
   -0.50120E+08         0.24115E+06         0.00000E+00
    0.24115E+06        -0.50049E+08         0.00000E+00
    0.00000E+00         0.00000E+00        -0.50042E+08
 
   -0.50114E+08         0.24520E+06         0.00000E+00
    0.24520E+06        -0.50052E+08         0.00000E+00
    0.00000E+00         0.00000E+00        -0.50042E+08
 
   -0.50109E+08         0.24905E+06         0.00000E+00
    0.24905E+06        -0.50054E+08         0.00000E+00
    0.00000E+00         0.00000E+00        -0.50041E+08
 
   -0.50103E+08         0.25272E+06         0.00000E+00
    0.25272E+06        -0.50057E+08         0.00000E+00
    0.00000E+00         0.00000E+00        -0.50041E+08
 
   -0.50097E+08         0.25618E+06         0.00000E+00
    0.25618E+06        -0.50059E+08         0.00000E+00
    0.00000E+00         0.00000E+00        -0.50040E+08
 
   -0.50091E+08         0.25945E+06         0.00000E+00
    0.25945E+06        -0.50062E+08         0.00000E+00
    0.00000E+00         0.00000E+00        -0.50039E+08
 
   -0.50085E+08         0.26252E+06         0.00000E+00
    0.26252E+06        -0.50064E+08         0.00000E+00
    0.00000E+00         0.00000E+00        -0.50039E+08
 
   -0.50079E+08         0.26539E+06         0.00000E+00
    0.26539E+06        -0.50067E+08         0.00000E+00
    0.00000E+00         0.00000E+00        -0.50038E+08
 
   -0.50073E+08         0.26805E+06         0.00000E+00
    0.26805E+06        -0.50070E+08         0.00000E+00
    0.00000E+00         0.00000E+00        -0.50037E+08
 
   -0.50067E+08         0.27050E+06         0.00000E+00
    0.27050E+06        -0.50072E+08         0.00000E+00
    0.00000E+00         0.00000E+00        -0.50037E+08
 
   -0.50061E+08         0.27275E+06         0.00000E+00
    0.27275E+06        -0.50075E+08         0.00000E+00
    0.00000E+00         0.00000E+00        -0.50036E+08
 
   -0.50055E+08         0.27479E+06         0.00000E+00
    0.27479E+06        -0.50078E+08         0.00000E+00
    0.00000E+00         0.00000E+00        -0.50035E+08
 
   -0.50049E+08         0.27662E+06         0.00000E+00
    0.27662E+06        -0.50081E+08         0.00000E+00
    0.00000E+00         0.00000E+00        -0.50034E+08
 
   -0.50042E+08         0.27823E+06         0.00000E+00
    0.27823E+06        -0.50084E+08         0.00000E+00
    0.00000E+00         0.00000E+00        -0.50034E+08
 
   -0.50036E+08         0.27963E+06         0.00000E+00
    0.27963E+06        -0.50086E+08         0.00000E+00
    0.00000E+00         0.00000E+00        -0.50033E+08
 
   -0.50202E+08         0.40791E+04         0.00000E+00
    0.40791E+04        -0.50000E+08         0.00000E+00
    0.00000E+00         0.00000E+00        -0.50047E+08
 
   -0.50201E+08         0.12159E+05         0.00000E+00
    0.12159E+05        -0.50000E+08         0.00000E+00
    0.00000E+00         0.00000E+00        -0.50047E+08
 
   -0.50200E+08         0.20197E+05         0.00000E+00
    0.20197E+05        -0.50000E+08         0.00000E+00
    0.00000E+00         0.00000E+00        -0.50047E+08
 
   -0.50199E+08         0.28188E+05         0.00000E+00
    0.28188E+05        -0.50000E+08         0.00000E+00
    0.00000E+00         0.00000E+00        -0.50047E+08
 
   -0.50198E+08         0.36127E+05         0.00000E+00
    0.36127E+05        -0.50001E+08         0.00000E+00
    0.00000E+00         0.00000E+00        -0.50047E+08
 
   -0.50196E+08         0.44009E+05         0.00000E+00
    0.44009E+05        -0.50001E+08         0.00000E+00
    0.00000E+00         0.00000E+00        -0.50047E+08
 
   -0.50195E+08         0.51826E+05         0.00000E+00
    0.51826E+05        -0.50002E+08         0.00000E+00
    0.00000E+00         0.00000E+00        -0.50046E+08
 
   -0.50193E+08         0.59575E+05         0.00000E+00
    0.59575E+05        -0.50002E+08         0.00000E+00
    0.00000E+00         0.00000E+00        -0.50046E+08
 
   -0.50191E+08         0.67250E+05         0.00000E+00
    0.67250E+05        -0.50003E+08         0.00000E+00
    0.00000E+00         0.00000E+00        -0.50046E+08
 
   -0.50189E+08         0.74846E+05         0.00000E+00
    0.74846E+05        -0.50003E+08         0.00000E+00
    0.00000E+00         0.00000E+00        -0.50046E+08
 
   -0.50187E+08         0.82358E+05         0.00000E+00
    0.82358E+05        -0.50004E+08         0.00000E+00
    0.00000E+00         0.00000E+00        -0.50045E+08
 
   -0.50185E+08         0.89781E+05         0.00000E+00
    0.89781E+05        -0.50005E+08         0.00000E+00
    0.00000E+00         0.00000E+00        -0.50045E+08
 
   -0.50182E+08         0.97110E+05         0.00000E+00
    0.97110E+05        -0.50006E+08         0.00000E+00
    0.00000E+00         0.00000E+00        -0.50045E+08
 
   -0.50180E+08         0.10434E+06         0.00000E+00
    0.10434E+06        -0.50007E+08         0.00000E+00
    0.00000E+00         0.00000E+00        -0.50044E+08
 
   -0.50177E+08         0.11147E+06         0.00000E+00
    0.11147E+06        -0.50008E+08         0.00000E+00
    0.00000E+00         0.00000E+00        -0.50044E+08
 
   -0.50175E+08         0.11848E+06         0.00000E+00
    0.11848E+06        -0.50009E+08         0.00000E+00
    0.00000E+00         0.00000E+00        -0.50044E+08
 
   -0.50172E+08         0.12539E+06         0.00000E+00
    0.12539E+06        -0.50010E+08         0.00000E+00
    0.00000E+00         0.00000E+00        -0.50043E+08
 
   -0.50169E+08         0.13218E+06         0.00000E+00
    0.13218E+06        -0.50011E+08         0.00000E+00
    0.00000E+00         0.00000E+00        -0.50043E+08
 
   -0.50166E+08         0.13885E+06         0.00000E+00
    0.13885E+06        -0.50012E+08         0.00000E+00
    0.00000E+00         0.00000E+00        -0.50043E+08
 
   -0.50163E+08         0.14539E+06         0.00000E+00
    0.14539E+06        -0.50014E+08         0.00000E+00
    0.00000E+00         0.00000E+00        -0.50042E+08
 
   -0.50159E+08         0.15180E+06         0.00000E+00
    0.15180E+06        -0.50015E+08         0.00000E+00
    0.00000E+00         0.00000E+00        -0.50042E+08
 
   -0.50156E+08         0.15808E+06         0.00000E+00
    0.15808E+06        -0.50016E+08         0.00000E+00
    0.00000E+00         0.00000E+00        -0.50041E+08
 
   -0.50153E+08         0.16423E+06         0.00000E+00
    0.16423E+06        -0.50018E+08         0.00000E+00
    0.00000E+00         0.00000E+00        -0.50041E+08
 
   -0.50149E+08         0.17023E+06         0.00000E+00
    0.17023E+06        -0.50019E+08         0.00000E+00
    0.00000E+00         0.00000E+00        -0.50041E+08
 
   -0.50145E+08         0.17609E+06         0.00000E+00
    0.17609E+06        -0.50021E+08         0.00000E+00
    0.00000E+00         0.00000E+00        -0.50040E+08
 
   -0.50142E+08         0.18179E+06         0.00000E+00
    0.18179E+06        -0.50022E+08         0.00000E+00
    0.00000E+00         0.00000E+00        -0.50040E+08
 
   -0.50138E+08         0.18735E+06         0.00000E+00
    0.18735E+06        -0.50024E+08         0.00000E+00
    0.00000E+00         0.00000E+00        -0.50039E+08
 
   -0.50134E+08         0.19275E+06         0.00000E+00
    0.19275E+06        -0.50026E+08         0.00000E+00
    0.00000E+00         0.00000E+00        -0.50039E+08
 
   -0.50130E+08         0.19800E+06         0.00000E+00
    0.19800E+06        -0.50028E+08         0.00000E+00
    0.00000E+00         0.00000E+00        -0.50038E+08
 
   -0.50126E+08         0.20308E+06         0.00000E+00
    0.20308E+06        -0.50029E+08         0.00000E+00
    0.00000E+00         0.00000E+00        -0.50038E+08
 
   -0.50122E+08         0.20800E+06         0.00000E+00
    0.20800E+06        -0.50031E+08         0.00000E+00
    0.00000E+00         0.00000E+00        -0.50038E+08
 
   -0.50117E+08         0.21274E+06         0.00000E+00
    0.21274E+06        -0.50033E+08         0.00000E+00
    0.00000E+00         0.00000E+00        -0.50037E+08
 
   -0.50113E+08         0.21732E+06         0.00000E+00
    0.21732E+06        -0.50035E+08         0.00000E+00
    0.00000E+00         0.00000E+00        -0.50037E+08
 
   -0.50109E+08         0.22173E+06         0.00000E+00
    0.22173E+06        -0.50037E+08         0.00000E+00
    0.00000E+00         0.00000E+00        -0.50036E+08
 
   -0.50104E+08         0.22596E+06         0.00000E+00
    0.22596E+06        -0.50039E+08         0.00000E+00
    0.00000E+00         0.00000E+00        -0.50036E+08
 
   -0.50100E+08         0.23001E+06         0.00000E+00
    0.23001E+06        -0.50041E+08         0.00000E+00
    0.00000E+00         0.00000E+00        -0.50035E+08
 
   -0.50095E+08         0.23387E+06         0.00000E+00
    0.23387E+06        -0.50043E+08         0.00000E+00
    0.00000E+00         0.00000E+00        -0.50035E+08
 
   -0.50090E+08         0.23756E+06         0.00000E+00
    0.23756E+06        -0.50045E+08         0.00000E+00
    0.00000E+00         0.00000E+00        -0.50034E+08
 
   -0.50085E+08         0.24106E+06         0.00000E+00
    0.24106E+06        -0.50047E+08         0.00000E+00
    0.00000E+00         0.00000E+00        -0.50034E+08
 
   -0.50081E+08         0.24436E+06         0.00000E+00
    0.24436E+06        -0.50049E+08         0.00000E+00
    0.00000E+00         0.00000E+00        -0.50033E+08
 
   -0.50076E+08         0.24748E+06         0.00000E+00
    0.24748E+06        -0.50051E+08         0.00000E+00
    0.00000E+00         0.00000E+00        -0.50032E+08
 
   -0.50071E+08         0.25041E+06         0.00000E+00
    0.25041E+06        -0.50054E+08         0.00000E+00
    0.00000E+00         0.00000E+00        -0.50032E+08
 
   -0.50066E+08         0.25313E+06         0.00000E+00
    0.25313E+06        -0.50056E+08         0.00000E+00
    0.00000E+00         0.00000E+00        -0.50031E+08
 
   -0.50061E+08         0.25567E+06         0.00000E+00
    0.25567E+06        -0.50058E+08         0.00000E+00
    0.00000E+00         0.00000E+00        -0.50031E+08
 
   -0.50056E+08         0.25800E+06         0.00000E+00
    0.25800E+06        -0.50060E+08         0.00000E+00
    0.00000E+00         0.00000E+00        -0.50030E+08
 
   -0.50051E+08         0.26013E+06         0.00000E+00
    0.26013E+06        -0.50063E+08         0.00000E+00
    0.00000E+00         0.00000E+00        -0.50030E+08
 
   -0.50045E+08         0.26206E+06         0.00000E+00
    0.26206E+06        -0.50065E+08         0.00000E+00
    0.00000E+00         0.00000E+00        -0.50029E+08
 
   -0.50040E+08         0.26378E+06         0.00000E+00
    0.26378E+06        -0.50067E+08         0.00000E+00
    0.00000E+00         0.00000E+00        -0.50028E+08
 
   -0.50035E+08         0.26530E+06         0.00000E+00
    0.26530E+06        -0.50070E+08         0.00000E+00
    0.00000E+00         0.00000E+00        -0.50028E+08
 
   -0.50030E+08         0.26661E+06         0.00000E+00
    0.26661E+06        -0.50072E+08         0.00000E+00
    0.00000E+00         0.00000E+00        -0.50027E+08
 
   -0.50163E+08         0.39000E+04         0.00000E+00
    0.39000E+04        -0.50000E+08         0.00000E+00
    0.00000E+00         0.00000E+00        -0.50038E+08
 
   -0.50162E+08         0.11630E+05         0.00000E+00
    0.11630E+05        -0.50000E+08         0.00000E+00
    0.00000E+00         0.00000E+00        -0.50038E+08
 
   -0.50161E+08         0.19323E+05         0.00000E+00
    0.19323E+05        -0.50000E+08         0.00000E+00
    0.00000E+00         0.00000E+00        -0.50038E+08
 
   -0.50160E+08         0.26974E+05         0.00000E+00
    0.26974E+05        -0.50000E+08         0.00000E+00
    0.00000E+00         0.00000E+00        -0.50038E+08
 
   -0.50159E+08         0.34577E+05         0.00000E+00
    0.34577E+05        -0.50001E+08         0.00000E+00
    0.00000E+00         0.00000E+00        -0.50038E+08
 
   -0.50158E+08         0.42127E+05         0.00000E+00
    0.42127E+05        -0.50001E+08         0.00000E+00
    0.00000E+00         0.00000E+00        -0.50037E+08
 
   -0.50157E+08         0.49618E+05         0.00000E+00
    0.49618E+05        -0.50001E+08         0.00000E+00
    0.00000E+00         0.00000E+00        -0.50037E+08
 
   -0.50155E+08         0.57046E+05         0.00000E+00
    0.57046E+05        -0.50002E+08         0.00000E+00
    0.00000E+00         0.00000E+00        -0.50037E+08
 
   -0.50154E+08         0.64405E+05         0.00000E+00
    0.64405E+05        -0.50002E+08         0.00000E+00
    0.00000E+00         0.00000E+00        -0.50037E+08
 
   -0.50152E+08         0.71690E+05         0.00000E+00
    0.71690E+05        -0.50003E+08         0.00000E+00
    0.00000E+00         0.00000E+00        -0.50037E+08
 
   -0.50151E+08         0.78896E+05         0.00000E+00
    0.78896E+05        -0.50003E+08         0.00000E+00
    0.00000E+00         0.00000E+00        -0.50036E+08
 
   -0.50149E+08         0.86019E+05         0.00000E+00
    0.86019E+05        -0.50004E+08         0.00000E+00
    0.00000E+00         0.00000E+00        -0.50036E+08
 
   -0.50147E+08         0.93054E+05         0.00000E+00
    0.93054E+05        -0.50005E+08         0.00000E+00
    0.00000E+00         0.00000E+00        -0.50036E+08
 
   -0.50145E+08         0.99995E+05         0.00000E+00
    0.99995E+05        -0.50005E+08         0.00000E+00
    0.00000E+00         0.00000E+00        -0.50036E+08
 
   -0.50143E+08         0.10684E+06         0.00000E+00
    0.10684E+06        -0.50006E+08         0.00000E+00
    0.00000E+00         0.00000E+00        -0.50035E+08
 
   -0.50141E+08         0.11358E+06         0.00000E+00
    0.11358E+06        -0.50007E+08         0.00000E+00
    0.00000E+00         0.00000E+00        -0.50035E+08
 
   -0.50138E+08         0.12022E+06         0.00000E+00
    0.12022E+06        -0.50008E+08         0.00000E+00
    0.00000E+00         0.00000E+00        -0.50035E+08
 
   -0.50136E+08         0.12674E+06         0.00000E+00
    0.12674E+06        -0.50009E+08         0.00000E+00
    0.00000E+00         0.00000E+00        -0.50035E+08
 
   -0.50133E+08         0.13315E+06         0.00000E+00
    0.13315E+06        -0.50010E+08         0.00000E+00
    0.00000E+00         0.00000E+00        -0.50034E+08
 
   -0.50131E+08         0.13944E+06         0.00000E+00
    0.13944E+06        -0.50011E+08         0.00000E+00
    0.00000E+00         0.00000E+00        -0.50034E+08
 
   -0.50128E+08         0.14561E+06         0.00000E+00
    0.14561E+06        -0.50012E+08         0.00000E+00
    0.00000E+00         0.00000E+00        -0.50034E+08
 
   -0.50126E+08         0.15165E+06         0.00000E+00
    0.15165E+06        -0.50013E+08         0.00000E+00
    0.00000E+00         0.00000E+00        -0.50033E+08
 
   -0.50123E+08         0.15756E+06         0.00000E+00
    0.15756E+06        -0.50014E+08         0.00000E+00
    0.00000E+00         0.00000E+00        -0.50033E+08
 
   -0.50120E+08         0.16333E+06         0.00000E+00
    0.16333E+06        -0.50016E+08         0.00000E+00
    0.00000E+00         0.00000E+00        -0.50033E+08
 
   -0.50117E+08         0.16897E+06         0.00000E+00
    0.16897E+06        -0.50017E+08         0.00000E+00
    0.00000E+00         0.00000E+00        -0.50032E+08
 
   -0.50114E+08         0.17446E+06         0.00000E+00
    0.17446E+06        -0.50018E+08         0.00000E+00
    0.00000E+00         0.00000E+00        -0.50032E+08
 
   -0.50111E+08         0.17981E+06         0.00000E+00
    0.17981E+06        -0.50019E+08         0.00000E+00
    0.00000E+00         0.00000E+00        -0.50032E+08
 
   -0.50108E+08         0.18501E+06         0.00000E+00
    0.18501E+06        -0.50021E+08         0.00000E+00
    0.00000E+00         0.00000E+00        -0.50031E+08
 
   -0.50105E+08         0.19005E+06         0.00000E+00
    0.19005E+06        -0.50022E+08         0.00000E+00
    0.00000E+00         0.00000E+00        -0.50031E+08
 
   -0.50101E+08         0.19495E+06         0.00000E+00
    0.19495E+06        -0.50024E+08         0.00000E+00
    0.00000E+00         0.00000E+00        -0.50031E+08
 
   -0.50098E+08         0.19968E+06         0.00000E+00
    0.19968E+06        -0.50025E+08         0.00000E+00
    0.00000E+00         0.00000E+00        -0.50030E+08
 
   -0.50094E+08         0.20425E+06         0.00000E+00
    0.20425E+06        -0.50027E+08         0.00000E+00
    0.00000E+00         0.00000E+00        -0.50030E+08
 
   -0.50091E+08         0.20866E+06         0.00000E+00
    0.20866E+06        -0.50028E+08         0.00000E+00
    0.00000E+00         0.00000E+00        -0.50029E+08
 
   -0.50087E+08         0.21289E+06         0.00000E+00
    0.21289E+06        -0.50030E+08         0.00000E+00
    0.00000E+00         0.00000E+00        -0.50029E+08
 
   -0.50084E+08         0.21696E+06         0.00000E+00
    0.21696E+06        -0.50031E+08         0.00000E+00
    0.00000E+00         0.00000E+00        -0.50029E+08
 
   -0.50080E+08         0.22086E+06         0.00000E+00
    0.22086E+06        -0.50033E+08         0.00000E+00
    0.00000E+00         0.00000E+00        -0.50028E+08
 
   -0.50076E+08         0.22458E+06         0.00000E+00
    0.22458E+06        -0.50035E+08         0.00000E+00
    0.00000E+00         0.00000E+00        -0.50028E+08
 
   -0.50073E+08         0.22812E+06         0.00000E+00
    0.22812E+06        -0.50036E+08         0.00000E+00
    0.00000E+00         0.00000E+00        -0.50027E+08
 
   -0.50069E+08         0.23148E+06         0.00000E+00
    0.23148E+06        -0.50038E+08         0.00000E+00
    0.00000E+00         0.00000E+00        -0.50027E+08
 
   -0.50065E+08         0.23466E+06         0.00000E+00
    0.23466E+06        -0.50040E+08         0.00000E+00
    0.00000E+00         0.00000E+00        -0.50026E+08
 
   -0.50061E+08         0.23765E+06         0.00000E+00
    0.23765E+06        -0.50041E+08         0.00000E+00
    0.00000E+00         0.00000E+00        -0.50026E+08
 
   -0.50057E+08         0.24046E+06         0.00000E+00
    0.24046E+06        -0.50043E+08         0.00000E+00
    0.00000E+00         0.00000E+00        -0.50026E+08
 
   -0.50053E+08         0.24307E+06         0.00000E+00
    0.24307E+06        -0.50045E+08         0.00000E+00
    0.00000E+00         0.00000E+00        -0.50025E+08
 
   -0.50049E+08         0.24550E+06         0.00000E+00
    0.24550E+06        -0.50047E+08         0.00000E+00
    0.00000E+00         0.00000E+00        -0.50025E+08
 
   -0.50045E+08         0.24773E+06         0.00000E+00
    0.24773E+06        -0.50049E+08         0.00000E+00
    0.00000E+00         0.00000E+00        -0.50024E+08
 
   -0.50041E+08         0.24977E+06         0.00000E+00
    0.24977E+06        -0.50050E+08         0.00000E+00
    0.00000E+00         0.00000E+00        -0.50024E+08
 
   -0.50037E+08         0.25160E+06         0.00000E+00
    0.25160E+06        -0.50052E+08         0.00000E+00
    0.00000E+00         0.00000E+00        -0.50023E+08
 
   -0.50032E+08         0.25324E+06         0.00000E+00
    0.25324E+06        -0.50054E+08         0.00000E+00
    0.00000E+00         0.00000E+00        -0.50023E+08
 
   -0.50028E+08         0.25468E+06         0.00000E+00
    0.25468E+06        -0.50056E+08         0.00000E+00
    0.00000E+00         0.00000E+00        -0.50022E+08
 
   -0.50024E+08         0.25592E+06         0.00000E+00
    0.25592E+06        -0.50058E+08         0.00000E+00
    0.00000E+00         0.00000E+00        -0.50022E+08
 
   -0.50125E+08         0.37591E+04         0.00000E+00
    0.37591E+04        -0.50000E+08         0.00000E+00
    0.00000E+00         0.00000E+00        -0.50029E+08
 
   -0.50124E+08         0.11215E+05         0.00000E+00
    0.11215E+05        -0.50000E+08         0.00000E+00
    0.00000E+00         0.00000E+00        -0.50029E+08
 
   -0.50123E+08         0.18637E+05         0.00000E+00
    0.18637E+05        -0.50000E+08         0.00000E+00
    0.00000E+00         0.00000E+00        -0.50029E+08
 
   -0.50123E+08         0.26019E+05         0.00000E+00
    0.26019E+05        -0.50000E+08         0.00000E+00
    0.00000E+00         0.00000E+00        -0.50029E+08
 
   -0.50122E+08         0.33358E+05         0.00000E+00
    0.33358E+05        -0.50000E+08         0.00000E+00
    0.00000E+00         0.00000E+00        -0.50029E+08
 
   -0.50121E+08         0.40647E+05         0.00000E+00
    0.40647E+05        -0.50001E+08         0.00000E+00
    0.00000E+00         0.00000E+00        -0.50029E+08
 
   -0.50120E+08         0.47881E+05         0.00000E+00
    0.47881E+05        -0.50001E+08         0.00000E+00
    0.00000E+00         0.00000E+00        -0.50029E+08
 
   -0.50119E+08         0.55056E+05         0.00000E+00
    0.55056E+05        -0.50001E+08         0.00000E+00
    0.00000E+00         0.00000E+00        -0.50028E+08
 
   -0.50118E+08         0.62166E+05         0.00000E+00
    0.62166E+05        -0.50002E+08         0.00000E+00
    0.00000E+00         0.00000E+00        -0.50028E+08
 
   -0.50117E+08         0.69207E+05         0.00000E+00
    0.69207E+05        -0.50002E+08         0.00000E+00
    0.00000E+00         0.00000E+00        -0.50028E+08
 
   -0.50115E+08         0.76173E+05         0.00000E+00
    0.76173E+05        -0.50003E+08         0.00000E+00
    0.00000E+00         0.00000E+00        -0.50028E+08
 
   -0.50114E+08         0.83059E+05         0.00000E+00
    0.83059E+05        -0.50003E+08         0.00000E+00
    0.00000E+00         0.00000E+00        -0.50028E+08
 
   -0.50112E+08         0.89862E+05         0.00000E+00
    0.89862E+05        -0.50004E+08         0.00000E+00
    0.00000E+00         0.00000E+00        -0.50028E+08
 
   -0.50111E+08         0.96577E+05         0.00000E+00
    0.96577E+05        -0.50004E+08         0.00000E+00
    0.00000E+00         0.00000E+00        -0.50027E+08
 
   -0.50109E+08         0.10320E+06         0.00000E+00
    0.10320E+06        -0.50005E+08         0.00000E+00
    0.00000E+00         0.00000E+00        -0.50027E+08
 
   -0.50108E+08         0.10972E+06         0.00000E+00
    0.10972E+06        -0.50005E+08         0.00000E+00
    0.00000E+00         0.00000E+00        -0.50027E+08
 
   -0.50106E+08         0.11614E+06         0.00000E+00
    0.11614E+06        -0.50006E+08         0.00000E+00
    0.00000E+00         0.00000E+00        -0.50027E+08
 
   -0.50104E+08         0.12246E+06         0.00000E+00
    0.12246E+06        -0.50007E+08         0.00000E+00
    0.00000E+00         0.00000E+00        -0.50027E+08
 
   -0.50102E+08         0.12867E+06         0.00000E+00
    0.12867E+06        -0.50008E+08         0.00000E+00
    0.00000E+00         0.00000E+00        -0.50026E+08
 
   -0.50100E+08         0.13476E+06         0.00000E+00
    0.13476E+06        -0.50008E+08         0.00000E+00
    0.00000E+00         0.00000E+00        -0.50026E+08
 
   -0.50098E+08         0.14073E+06         0.00000E+00
    0.14073E+06        -0.50009E+08         0.00000E+00
    0.00000E+00         0.00000E+00        -0.50026E+08
 
   -0.50096E+08         0.14658E+06         0.00000E+00
    0.14658E+06        -0.50010E+08         0.00000E+00
    0.00000E+00         0.00000E+00        -0.50026E+08
 
   -0.50094E+08         0.15231E+06         0.00000E+00
    0.15231E+06        -0.50011E+08         0.00000E+00
    0.00000E+00         0.00000E+00        -0.50025E+08
 
   -0.50092E+08         0.15790E+06         0.00000E+00
    0.15790E+06        -0.50012E+08         0.00000E+00
    0.00000E+00         0.00000E+00        -0.50025E+08
 
   -0.50090E+08         0.16336E+06         0.00000E+00
    0.16336E+06        -0.50013E+08         0.00000E+00
    0.00000E+00         0.00000E+00        -0.50025E+08
 
   -0.50087E+08         0.16869E+06         0.00000E+00
    0.16869E+06        -0.50014E+08         0.00000E+00
    0.00000E+00         0.00000E+00        -0.50025E+08
 
   -0.50085E+08         0.17387E+06         0.00000E+00
    0.17387E+06        -0.50015E+08         0.00000E+00
    0.00000E+00         0.00000E+00        -0.50024E+08
 
   -0.50083E+08         0.17891E+06         0.00000E+00
    0.17891E+06        -0.50016E+08         0.00000E+00
    0.00000E+00         0.00000E+00        -0.50024E+08
 
   -0.50080E+08         0.18380E+06         0.00000E+00
    0.18380E+06        -0.50017E+08         0.00000E+00
    0.00000E+00         0.00000E+00        -0.50024E+08
 
   -0.50078E+08         0.18854E+06         0.00000E+00
    0.18854E+06        -0.50018E+08         0.00000E+00
    0.00000E+00         0.00000E+00        -0.50023E+08
 
   -0.50075E+08         0.19313E+06         0.00000E+00
    0.19313E+06        -0.50019E+08         0.00000E+00
    0.00000E+00         0.00000E+00        -0.50023E+08
 
   -0.50072E+08         0.19756E+06         0.00000E+00
    0.19756E+06        -0.50020E+08         0.00000E+00
    0.00000E+00         0.00000E+00        -0.50023E+08
 
   -0.50070E+08         0.20183E+06         0.00000E+00
    0.20183E+06        -0.50022E+08         0.00000E+00
    0.00000E+00         0.00000E+00        -0.50023E+08
 
   -0.50067E+08         0.20594E+06         0.00000E+00
    0.20594E+06        -0.50023E+08         0.00000E+00
    0.00000E+00         0.00000E+00        -0.50022E+08
 
   -0.50064E+08         0.20988E+06         0.00000E+00
    0.20988E+06        -0.50024E+08         0.00000E+00
    0.00000E+00         0.00000E+00        -0.50022E+08
 
   -0.50061E+08         0.21365E+06         0.00000E+00
    0.21365E+06        -0.50025E+08         0.00000E+00
    0.00000E+00         0.00000E+00        -0.50022E+08
 
   -0.50059E+08         0.21726E+06         0.00000E+00
    0.21726E+06        -0.50026E+08         0.00000E+00
    0.00000E+00         0.00000E+00        -0.50021E+08
 
   -0.50056E+08         0.22069E+06         0.00000E+00
    0.22069E+06        -0.50028E+08         0.00000E+00
    0.00000E+00         0.00000E+00        -0.50021E+08
 
   -0.50053E+08         0.22394E+06         0.00000E+00
    0.22394E+06        -0.50029E+08         0.00000E+00
    0.00000E+00         0.00000E+00        -0.50021E+08
 
   -0.50050E+08         0.22702E+06         0.00000E+00
    0.22702E+06        -0.50030E+08         0.00000E+00
    0.00000E+00         0.00000E+00        -0.50020E+08
 
   -0.50047E+08         0.22991E+06         0.00000E+00
    0.22991E+06        -0.50032E+08         0.00000E+00
    0.00000E+00         0.00000E+00        -0.50020E+08
 
   -0.50044E+08         0.23262E+06         0.00000E+00
    0.23262E+06        -0.50033E+08         0.00000E+00
    0.00000E+00         0.00000E+00        -0.50020E+08
 
   -0.50041E+08         0.23515E+06         0.00000E+00
    0.23515E+06        -0.50034E+08         0.00000E+00
    0.00000E+00         0.00000E+00        -0.50019E+08
 
   -0.50038E+08         0.23749E+06         0.00000E+00
    0.23749E+06        -0.50036E+08         0.00000E+00
    0.00000E+00         0.00000E+00        -0.50019E+08
 
   -0.50034E+08         0.23964E+06         0.00000E+00
    0.23964E+06        -0.50037E+08         0.00000E+00
    0.00000E+00         0.00000E+00        -0.50019E+08
 
   -0.50031E+08         0.24160E+06         0.00000E+00
    0.24160E+06        -0.50039E+08         0.00000E+00
    0.00000E+00         0.00000E+00        -0.50018E+08
 
   -0.50028E+08         0.24337E+06         0.00000E+00
    0.24337E+06        -0.50040E+08         0.00000E+00
    0.00000E+00         0.00000E+00        -0.50018E+08
 
   -0.50025E+08         0.24494E+06         0.00000E+00
    0.24494E+06        -0.50041E+08         0.00000E+00
    0.00000E+00         0.00000E+00        -0.50018E+08
 
   -0.50022E+08         0.24632E+06         0.00000E+00
    0.24632E+06        -0.50043E+08         0.00000E+00
    0.00000E+00         0.00000E+00        -0.50017E+08
 
   -0.50018E+08         0.24749E+06         0.00000E+00
    0.24749E+06        -0.50044E+08         0.00000E+00
    0.00000E+00         0.00000E+00        -0.50017E+08
 
   -0.50088E+08         0.36551E+04         0.00000E+00
    0.36551E+04        -0.50000E+08         0.00000E+00
    0.00000E+00         0.00000E+00        -0.50021E+08
 
   -0.50087E+08         0.10908E+05         0.00000E+00
    0.10908E+05        -0.50000E+08         0.00000E+00
    0.00000E+00         0.00000E+00        -0.50021E+08
 
   -0.50087E+08         0.18130E+05         0.00000E+00
    0.18130E+05        -0.50000E+08         0.00000E+00
    0.00000E+00         0.00000E+00        -0.50021E+08
 
   -0.50086E+08         0.25315E+05         0.00000E+00
    0.25315E+05        -0.50000E+08         0.00000E+00
    0.00000E+00         0.00000E+00        -0.50021E+08
 
   -0.50086E+08         0.32459E+05         0.00000E+00
    0.32459E+05        -0.50000E+08         0.00000E+00
    0.00000E+00         0.00000E+00        -0.50020E+08
 
   -0.50085E+08         0.39555E+05         0.00000E+00
    0.39555E+05        -0.50000E+08         0.00000E+00
    0.00000E+00         0.00000E+00        -0.50020E+08
 
   -0.50085E+08         0.46601E+05         0.00000E+00
    0.46601E+05        -0.50001E+08         0.00000E+00
    0.00000E+00         0.00000E+00        -0.50020E+08
 
   -0.50084E+08         0.53589E+05         0.00000E+00
    0.53589E+05        -0.50001E+08         0.00000E+00
    0.00000E+00         0.00000E+00        -0.50020E+08
 
   -0.50083E+08         0.60516E+05         0.00000E+00
    0.60516E+05        -0.50001E+08         0.00000E+00
    0.00000E+00         0.00000E+00        -0.50020E+08
 
   -0.50082E+08         0.67376E+05         0.00000E+00
    0.67376E+05        -0.50001E+08         0.00000E+00
    0.00000E+00         0.00000E+00        -0.50020E+08
 
   -0.50081E+08         0.74165E+05         0.00000E+00
    0.74165E+05        -0.50002E+08         0.00000E+00
    0.00000E+00         0.00000E+00        -0.50020E+08
 
   -0.50080E+08         0.80878E+05         0.00000E+00
    0.80878E+05        -0.50002E+08         0.00000E+00
    0.00000E+00         0.00000E+00        -0.50020E+08
 
   -0.50079E+08         0.87510E+05         0.00000E+00
    0.87510E+05        -0.50002E+08         0.00000E+00
    0.00000E+00         0.00000E+00        -0.50020E+08
 
   -0.50078E+08         0.94057E+05         0.00000E+00
    0.94057E+05        -0.50003E+08         0.00000E+00
    0.00000E+00         0.00000E+00        -0.50019E+08
 
   -0.50077E+08         0.10051E+06         0.00000E+00
    0.10051E+06        -0.50003E+08         0.00000E+00
    0.00000E+00         0.00000E+00        -0.50019E+08
 
   -0.50076E+08         0.10688E+06         0.00000E+00
    0.10688E+06        -0.50004E+08         0.00000E+00
    0.00000E+00         0.00000E+00        -0.50019E+08
 
   -0.50074E+08         0.11314E+06         0.00000E+00
    0.11314E+06        -0.50004E+08         0.00000E+00
    0.00000E+00         0.00000E+00        -0.50019E+08
 
   -0.50073E+08         0.11931E+06         0.00000E+00
    0.11931E+06        -0.50005E+08         0.00000E+00
    0.00000E+00         0.00000E+00        -0.50019E+08
 
   -0.50072E+08         0.12536E+06         0.00000E+00
    0.12536E+06        -0.50005E+08         0.00000E+00
    0.00000E+00         0.00000E+00        -0.50019E+08
 
   -0.50071E+08         0.13131E+06         0.00000E+00
    0.13131E+06        -0.50006E+08         0.00000E+00
    0.00000E+00         0.00000E+00        -0.50018E+08
 
   -0.50069E+08         0.13714E+06         0.00000E+00
    0.13714E+06        -0.50006E+08         0.00000E+00
    0.00000E+00         0.00000E+00        -0.50018E+08
 
   -0.50068E+08         0.14285E+06         0.00000E+00
    0.14285E+06        -0.50007E+08         0.00000E+00
    0.00000E+00         0.00000E+00        -0.50018E+08
 
   -0.50066E+08         0.14844E+06         0.00000E+00
    0.14844E+06        -0.50008E+08         0.00000E+00
    0.00000E+00         0.00000E+00        -0.50018E+08
 
   -0.50065E+08         0.15390E+06         0.00000E+00
    0.15390E+06        -0.50008E+08         0.00000E+00
    0.00000E+00         0.00000E+00        -0.50018E+08
 
   -0.50063E+08         0.15923E+06         0.00000E+00
    0.15923E+06        -0.50009E+08         0.00000E+00
    0.00000E+00         0.00000E+00        -0.50018E+08
 
   -0.50061E+08         0.16443E+06         0.00000E+00
    0.16443E+06        -0.50010E+08         0.00000E+00
    0.00000E+00         0.00000E+00        -0.50017E+08
 
   -0.50060E+08         0.16950E+06         0.00000E+00
    0.16950E+06        -0.50010E+08         0.00000E+00
    0.00000E+00         0.00000E+00        -0.50017E+08
 
   -0.50058E+08         0.17442E+06         0.00000E+00
    0.17442E+06        -0.50011E+08         0.00000E+00
    0.00000E+00         0.00000E+00        -0.50017E+08
 
   -0.50056E+08         0.17919E+06         0.00000E+00
    0.17919E+06        -0.50012E+08         0.00000E+00
    0.00000E+00         0.00000E+00        -0.50017E+08
 
   -0.50054E+08         0.18383E+06         0.00000E+00
    0.18383E+06        -0.50013E+08         0.00000E+00
    0.00000E+00         0.00000E+00        -0.50017E+08
 
   -0.50053E+08         0.18831E+06         0.00000E+00
    0.18831E+06        -0.50013E+08         0.00000E+00
    0.00000E+00         0.00000E+00        -0.50016E+08
 
   -0.50051E+08         0.19263E+06         0.00000E+00
    0.19263E+06        -0.50014E+08         0.00000E+00
    0.00000E+00         0.00000E+00        -0.50016E+08
 
   -0.50049E+08         0.19680E+06         0.00000E+00
    0.19680E+06        -0.50015E+08         0.00000E+00
    0.00000E+00         0.00000E+00        -0.50016E+08
 
   -0.50047E+08         0.20082E+06         0.00000E+00
    0.20082E+06        -0.50016E+08         0.00000E+00
    0.00000E+00         0.00000E+00        -0.50016E+08
 
   -0.50045E+08         0.20466E+06         0.00000E+00
    0.20466E+06        -0.50017E+08         0.00000E+00
    0.00000E+00         0.00000E+00        -0.50016E+08
 
   -0.50043E+08         0.20835E+06         0.00000E+00
    0.20835E+06        -0.50018E+08         0.00000E+00
    0.00000E+00         0.00000E+00        -0.50015E+08
 
   -0.50041E+08         0.21187E+06         0.00000E+00
    0.21187E+06        -0.50018E+08         0.00000E+00
    0.00000E+00         0.00000E+00        -0.50015E+08
 
   -0.50039E+08         0.21521E+06         0.00000E+00
    0.21521E+06        -0.50019E+08         0.00000E+00
    0.00000E+00         0.00000E+00        -0.50015E+08
 
   -0.50037E+08         0.21839E+06         0.00000E+00
    0.21839E+06        -0.50020E+08         0.00000E+00
    0.00000E+00         0.00000E+00        -0.50015E+08
 
   -0.50035E+08         0.22139E+06         0.00000E+00
    0.22139E+06        -0.50021E+08         0.00000E+00
    0.00000E+00         0.00000E+00        -0.50014E+08
 
   -0.50033E+08         0.22421E+06         0.00000E+00
    0.22421E+06        -0.50022E+08         0.00000E+00
    0.00000E+00         0.00000E+00        -0.50014E+08
 
   -0.50031E+08         0.22685E+06         0.00000E+00
    0.22685E+06        -0.50023E+08         0.00000E+00
    0.00000E+00         0.00000E+00        -0.50014E+08
 
   -0.50029E+08         0.22931E+06         0.00000E+00
    0.22931E+06        -0.50024E+08         0.00000E+00
    0.00000E+00         0.00000E+00        -0.50014E+08
 
   -0.50026E+08         0.23159E+06         0.00000E+00
    0.23159E+06        -0.50025E+08         0.00000E+00
    0.00000E+00         0.00000E+00        -0.50014E+08
 
   -0.50024E+08         0.23368E+06         0.00000E+00
    0.23368E+06        -0.50026E+08         0.00000E+00
    0.00000E+00         0.00000E+00        -0.50013E+08
 
   -0.50022E+08         0.23559E+06         0.00000E+00
    0.23559E+06        -0.50027E+08         0.00000E+00
    0.00000E+00         0.00000E+00        -0.50013E+08
 
   -0.50020E+08         0.23730E+06         0.00000E+00
    0.23730E+06        -0.50028E+08         0.00000E+00
    0.00000E+00         0.00000E+00        -0.50013E+08
 
   -0.50018E+08         0.23882E+06         0.00000E+00
    0.23882E+06        -0.50029E+08         0.00000E+00
    0.00000E+00         0.00000E+00        -0.50013E+08
 
   -0.50015E+08         0.24016E+06         0.00000E+00
    0.24016E+06        -0.50030E+08         0.00000E+00
    0.00000E+00         0.00000E+00        -0.50012E+08
 
   -0.50013E+08         0.24129E+06         0.00000E+00
    0.24129E+06        -0.50031E+08         0.00000E+00
    0.00000E+00         0.00000E+00        -0.50012E+08
 
   -0.50052E+08         0.35869E+04         0.00000E+00
    0.35869E+04        -0.50000E+08         0.00000E+00
    0.00000E+00         0.00000E+00        -0.50013E+08
 
   -0.50052E+08         0.10707E+05         0.00000E+00
    0.10707E+05        -0.50000E+08         0.00000E+00
    0.00000E+00         0.00000E+00        -0.50013E+08
 
   -0.50051E+08         0.17798E+05         0.00000E+00
    0.17798E+05        -0.50000E+08         0.00000E+00
    0.00000E+00         0.00000E+00        -0.50012E+08
 
   -0.50051E+08         0.24854E+05         0.00000E+00
    0.24854E+05        -0.50000E+08         0.00000E+00
    0.00000E+00         0.00000E+00        -0.50012E+08
 
   -0.50051E+08         0.31871E+05         0.00000E+00
    0.31871E+05        -0.50000E+08         0.00000E+00
    0.00000E+00         0.00000E+00        -0.50012E+08
 
   -0.50050E+08         0.38842E+05         0.00000E+00
    0.38842E+05        -0.50000E+08         0.00000E+00
    0.00000E+00         0.00000E+00        -0.50012E+08
 
   -0.50050E+08         0.45764E+05         0.00000E+00
    0.45764E+05        -0.50000E+08         0.00000E+00
    0.00000E+00         0.00000E+00        -0.50012E+08
 
   -0.50049E+08         0.52631E+05         0.00000E+00
    0.52631E+05        -0.50001E+08         0.00000E+00
    0.00000E+00         0.00000E+00        -0.50012E+08
 
   -0.50049E+08         0.59439E+05         0.00000E+00
    0.59439E+05        -0.50001E+08         0.00000E+00
    0.00000E+00         0.00000E+00        -0.50012E+08
 
   -0.50048E+08         0.66182E+05         0.00000E+00
    0.66182E+05        -0.50001E+08         0.00000E+00
    0.00000E+00         0.00000E+00        -0.50012E+08
 
   -0.50048E+08         0.72856E+05         0.00000E+00
    0.72856E+05        -0.50001E+08         0.00000E+00
    0.00000E+00         0.00000E+00        -0.50012E+08
 
   -0.50047E+08         0.79456E+05         0.00000E+00
    0.79456E+05        -0.50001E+08         0.00000E+00
    0.00000E+00         0.00000E+00        -0.50012E+08
 
   -0.50046E+08         0.85978E+05         0.00000E+00
    0.85978E+05        -0.50001E+08         0.00000E+00
    0.00000E+00         0.00000E+00        -0.50012E+08
 
   -0.50046E+08         0.92417E+05         0.00000E+00
    0.92417E+05        -0.50002E+08         0.00000E+00
    0.00000E+00         0.00000E+00        -0.50012E+08
 
   -0.50045E+08         0.98769E+05         0.00000E+00
    0.98769E+05        -0.50002E+08         0.00000E+00
    0.00000E+00         0.00000E+00        -0.50012E+08
 
   -0.50044E+08         0.10503E+06         0.00000E+00
    0.10503E+06        -0.50002E+08         0.00000E+00
    0.00000E+00         0.00000E+00        -0.50012E+08
 
   -0.50044E+08         0.11119E+06         0.00000E+00
    0.11119E+06        -0.50002E+08         0.00000E+00
    0.00000E+00         0.00000E+00        -0.50011E+08
 
   -0.50043E+08         0.11726E+06         0.00000E+00
    0.11726E+06        -0.50003E+08         0.00000E+00
    0.00000E+00         0.00000E+00        -0.50011E+08
 
   -0.50042E+08         0.12322E+06         0.00000E+00
    0.12322E+06        -0.50003E+08         0.00000E+00
    0.00000E+00         0.00000E+00        -0.50011E+08
 
   -0.50041E+08         0.12907E+06         0.00000E+00
    0.12907E+06        -0.50003E+08         0.00000E+00
    0.00000E+00         0.00000E+00        -0.50011E+08
 
   -0.50040E+08         0.13481E+06         0.00000E+00
    0.13481E+06        -0.50004E+08         0.00000E+00
    0.00000E+00         0.00000E+00        -0.50011E+08
 
   -0.50040E+08         0.14043E+06         0.00000E+00
    0.14043E+06        -0.50004E+08         0.00000E+00
    0.00000E+00         0.00000E+00        -0.50011E+08
 
   -0.50039E+08         0.14593E+06         0.00000E+00
    0.14593E+06        -0.50004E+08         0.00000E+00
    0.00000E+00         0.00000E+00        -0.50011E+08
 
   -0.50038E+08         0.15131E+06         0.00000E+00
    0.15131E+06        -0.50005E+08         0.00000E+00
    0.00000E+00         0.00000E+00        -0.50011E+08
 
   -0.50037E+08         0.15656E+06         0.00000E+00
    0.15656E+06        -0.50005E+08         0.00000E+00
    0.00000E+00         0.00000E+00        -0.50011E+08
 
   -0.50036E+08         0.16168E+06         0.00000E+00
    0.16168E+06        -0.50006E+08         0.00000E+00
    0.00000E+00         0.00000E+00        -0.50010E+08
 
   -0.50035E+08         0.16666E+06         0.00000E+00
    0.16666E+06        -0.50006E+08         0.00000E+00
    0.00000E+00         0.00000E+00        -0.50010E+08
 
   -0.50034E+08         0.17151E+06         0.00000E+00
    0.17151E+06        -0.50006E+08         0.00000E+00
    0.00000E+00         0.00000E+00        -0.50010E+08
 
   -0.50033E+08         0.17621E+06         0.00000E+00
    0.17621E+06        -0.50007E+08         0.00000E+00
    0.00000E+00         0.00000E+00        -0.50010E+08
 
   -0.50032E+08         0.18077E+06         0.00000E+00
    0.18077E+06        -0.50007E+08         0.00000E+00
    0.00000E+00         0.00000E+00        -0.50010E+08
 
   -0.50031E+08         0.18518E+06         0.00000E+00
    0.18518E+06        -0.50008E+08         0.00000E+00
    0.00000E+00         0.00000E+00        -0.50010E+08
 
   -0.50030E+08         0.18944E+06         0.00000E+00
    0.18944E+06        -0.50008E+08         0.00000E+00
    0.00000E+00         0.00000E+00        -0.50010E+08
 
   -0.50029E+08         0.19355E+06         0.00000E+00
    0.19355E+06        -0.50009E+08         0.00000E+00
    0.00000E+00         0.00000E+00        -0.50010E+08
 
   -0.50028E+08         0.19750E+06         0.00000E+00
    0.19750E+06        -0.50009E+08         0.00000E+00
    0.00000E+00         0.00000E+00        -0.50010E+08
 
   -0.50026E+08         0.20129E+06         0.00000E+00
    0.20129E+06        -0.50010E+08         0.00000E+00
    0.00000E+00         0.00000E+00        -0.50009E+08
 
   -0.50025E+08         0.20492E+06         0.00000E+00
    0.20492E+06        -0.50010E+08         0.00000E+00
    0.00000E+00         0.00000E+00        -0.50009E+08
 
   -0.50024E+08         0.20838E+06         0.00000E+00
    0.20838E+06        -0.50011E+08         0.00000E+00
    0.00000E+00         0.00000E+00        -0.50009E+08
 
   -0.50023E+08         0.21167E+06         0.00000E+00
    0.21167E+06        -0.50011E+08         0.00000E+00
    0.00000E+00         0.00000E+00        -0.50009E+08
 
   -0.50022E+08         0.21480E+06         0.00000E+00
    0.21480E+06        -0.50012E+08         0.00000E+00
    0.00000E+00         0.00000E+00        -0.50009E+08
 
   -0.50021E+08         0.21775E+06         0.00000E+00
    0.21775E+06        -0.50012E+08         0.00000E+00
    0.00000E+00         0.00000E+00        -0.50009E+08
 
   -0.50019E+08         0.22052E+06         0.00000E+00
    0.22052E+06        -0.50013E+08         0.00000E+00
    0.00000E+00         0.00000E+00        -0.50009E+08
 
   -0.50018E+08         0.22312E+06         0.00000E+00
    0.22312E+06        -0.50013E+08         0.00000E+00
    0.00000E+00         0.00000E+00        -0.50008E+08
 
   -0.50017E+08         0.22554E+06         0.00000E+00
    0.22554E+06        -0.50014E+08         0.00000E+00
    0.00000E+00         0.00000E+00        -0.50008E+08
 
   -0.50016E+08         0.22778E+06         0.00000E+00
    0.22778E+06        -0.50014E+08         0.00000E+00
    0.00000E+00         0.00000E+00        -0.50008E+08
 
   -0.50014E+08         0.22983E+06         0.00000E+00
    0.22983E+06        -0.50015E+08         0.00000E+00
    0.00000E+00         0.00000E+00        -0.50008E+08
 
   -0.50013E+08         0.23169E+06         0.00000E+00
    0.23169E+06        -0.50016E+08         0.00000E+00
    0.00000E+00         0.00000E+00        -0.50008E+08
 
   -0.50012E+08         0.23337E+06         0.00000E+00
    0.23337E+06        -0.50016E+08         0.00000E+00
    0.00000E+00         0.00000E+00        -0.50008E+08
 
   -0.50011E+08         0.23486E+06         0.00000E+00
    0.23486E+06        -0.50017E+08         0.00000E+00
    0.00000E+00         0.00000E+00        -0.50008E+08
 
   -0.50009E+08         0.23616E+06         0.00000E+00
    0.23616E+06        -0.50017E+08         0.00000E+00
    0.00000E+00         0.00000E+00        -0.50007E+08
 
   -0.50008E+08         0.23727E+06         0.00000E+00
    0.23727E+06        -0.50018E+08         0.00000E+00
    0.00000E+00         0.00000E+00        -0.50007E+08
 
   -0.50016E+08         0.35539E+04         0.00000E+00
    0.35539E+04        -0.50000E+08         0.00000E+00
    0.00000E+00         0.00000E+00        -0.50004E+08
 
   -0.50016E+08         0.10610E+05         0.00000E+00
    0.10610E+05        -0.50000E+08         0.00000E+00
    0.00000E+00         0.00000E+00        -0.50004E+08
 
   -0.50016E+08         0.17639E+05         0.00000E+00
    0.17639E+05        -0.50000E+08         0.00000E+00
    0.00000E+00         0.00000E+00        -0.50004E+08
 
   -0.50016E+08         0.24633E+05         0.00000E+00
    0.24633E+05        -0.50000E+08         0.00000E+00
    0.00000E+00         0.00000E+00        -0.50004E+08
 
   -0.50016E+08         0.31589E+05         0.00000E+00
    0.31589E+05        -0.50000E+08         0.00000E+00
    0.00000E+00         0.00000E+00        -0.50004E+08
 
   -0.50016E+08         0.38501E+05         0.00000E+00
    0.38501E+05        -0.50000E+08         0.00000E+00
    0.00000E+00         0.00000E+00        -0.50004E+08
 
   -0.50015E+08         0.45365E+05         0.00000E+00
    0.45365E+05        -0.50000E+08         0.00000E+00
    0.00000E+00         0.00000E+00        -0.50004E+08
 
   -0.50015E+08         0.52175E+05         0.00000E+00
    0.52175E+05        -0.50000E+08         0.00000E+00
    0.00000E+00         0.00000E+00        -0.50004E+08
 
   -0.50015E+08         0.58926E+05         0.00000E+00
    0.58926E+05        -0.50000E+08         0.00000E+00
    0.00000E+00         0.00000E+00        -0.50004E+08
 
   -0.50015E+08         0.65615E+05         0.00000E+00
    0.65615E+05        -0.50000E+08         0.00000E+00
    0.00000E+00         0.00000E+00        -0.50004E+08
 
   -0.50015E+08         0.72235E+05         0.00000E+00
    0.72235E+05        -0.50000E+08         0.00000E+00
    0.00000E+00         0.00000E+00        -0.50004E+08
 
   -0.50014E+08         0.78783E+05         0.00000E+00
    0.78783E+05        -0.50000E+08         0.00000E+00
    0.00000E+00         0.00000E+00        -0.50004E+08
 
   -0.50014E+08         0.85254E+05         0.00000E+00
    0.85254E+05        -0.50000E+08         0.00000E+00
    0.00000E+00         0.00000E+00        -0.50004E+08
 
   -0.50014E+08         0.91643E+05         0.00000E+00
    0.91643E+05        -0.50000E+08         0.00000E+00
    0.00000E+00         0.00000E+00        -0.50004E+08
 
   -0.50014E+08         0.97947E+05         0.00000E+00
    0.97947E+05        -0.50001E+08         0.00000E+00
    0.00000E+00         0.00000E+00        -0.50004E+08
 
   -0.50013E+08         0.10416E+06         0.00000E+00
    0.10416E+06        -0.50001E+08         0.00000E+00
    0.00000E+00         0.00000E+00        -0.50004E+08
 
   -0.50013E+08         0.11028E+06         0.00000E+00
    0.11028E+06        -0.50001E+08         0.00000E+00
    0.00000E+00         0.00000E+00        -0.50004E+08
 
   -0.50013E+08         0.11630E+06         0.00000E+00
    0.11630E+06        -0.50001E+08         0.00000E+00
    0.00000E+00         0.00000E+00        -0.50004E+08
 
   -0.50013E+08         0.12221E+06         0.00000E+00
    0.12221E+06        -0.50001E+08         0.00000E+00
    0.00000E+00         0.00000E+00        -0.50004E+08
 
   -0.50012E+08         0.12802E+06         0.00000E+00
    0.12802E+06        -0.50001E+08         0.00000E+00
    0.00000E+00         0.00000E+00        -0.50004E+08
 
   -0.50012E+08         0.13372E+06         0.00000E+00
    0.13372E+06        -0.50001E+08         0.00000E+00
    0.00000E+00         0.00000E+00        -0.50004E+08
 
   -0.50012E+08         0.13930E+06         0.00000E+00
    0.13930E+06        -0.50001E+08         0.00000E+00
    0.00000E+00         0.00000E+00        -0.50004E+08
 
   -0.50012E+08         0.14476E+06         0.00000E+00
    0.14476E+06        -0.50001E+08         0.00000E+00
    0.00000E+00         0.00000E+00        -0.50004E+08
 
   -0.50011E+08         0.15010E+06         0.00000E+00
    0.15010E+06        -0.50001E+08         0.00000E+00
    0.00000E+00         0.00000E+00        -0.50004E+08
 
   -0.50011E+08         0.15532E+06         0.00000E+00
    0.15532E+06        -0.50001E+08         0.00000E+00
    0.00000E+00         0.00000E+00        -0.50004E+08
 
   -0.50011E+08         0.16040E+06         0.00000E+00
    0.16040E+06        -0.50002E+08         0.00000E+00
    0.00000E+00         0.00000E+00        -0.50004E+08
 
   -0.50010E+08         0.16535E+06         0.00000E+00
    0.16535E+06        -0.50002E+08         0.00000E+00
    0.00000E+00         0.00000E+00        -0.50004E+08
 
   -0.50010E+08         0.17016E+06         0.00000E+00
    0.17016E+06        -0.50002E+08         0.00000E+00
    0.00000E+00         0.00000E+00        -0.50004E+08
 
   -0.50010E+08         0.17483E+06         0.00000E+00
    0.17483E+06        -0.50002E+08         0.00000E+00
    0.00000E+00         0.00000E+00        -0.50004E+08
 
   -0.50010E+08         0.17936E+06         0.00000E+00
    0.17936E+06        -0.50002E+08         0.00000E+00
    0.00000E+00         0.00000E+00        -0.50004E+08
 
   -0.50009E+08         0.18374E+06         0.00000E+00
    0.18374E+06        -0.50002E+08         0.00000E+00
    0.00000E+00         0.00000E+00        -0.50004E+08
 
   -0.50009E+08         0.18798E+06         0.00000E+00
    0.18798E+06        -0.50002E+08         0.00000E+00
    0.00000E+00         0.00000E+00        -0.50003E+08
 
   -0.50009E+08         0.19205E+06         0.00000E+00
    0.19205E+06        -0.50002E+08         0.00000E+00
    0.00000E+00         0.00000E+00        -0.50003E+08
 
   -0.50008E+08         0.19598E+06         0.00000E+00
    0.19598E+06        -0.50003E+08         0.00000E+00
    0.00000E+00         0.00000E+00        -0.50003E+08
 
   -0.50008E+08         0.19974E+06         0.00000E+00
    0.19974E+06        -0.50003E+08         0.00000E+00
    0.00000E+00         0.00000E+00        -0.50003E+08
 
   -0.50008E+08         0.20334E+06         0.00000E+00
    0.20334E+06        -0.50003E+08         0.00000E+00
    0.00000E+00         0.00000E+00        -0.50003E+08
 
   -0.50007E+08         0.20678E+06         0.00000E+00
    0.20678E+06        -0.50003E+08         0.00000E+00
    0.00000E+00         0.00000E+00        -0.50003E+08
 
   -0.50007E+08         0.21005E+06         0.00000E+00
    0.21005E+06        -0.50003E+08         0.00000E+00
    0.00000E+00         0.00000E+00        -0.50003E+08
 
   -0.50007E+08         0.21315E+06         0.00000E+00
    0.21315E+06        -0.50003E+08         0.00000E+00
    0.00000E+00         0.00000E+00        -0.50003E+08
 
   -0.50006E+08         0.21607E+06         0.00000E+00
    0.21607E+06        -0.50003E+08         0.00000E+00
    0.00000E+00         0.00000E+00        -0.50003E+08
 
   -0.50006E+08         0.21883E+06         0.00000E+00
    0.21883E+06        -0.50003E+08         0.00000E+00
    0.00000E+00         0.00000E+00        -0.50003E+08
 
   -0.50006E+08         0.22141E+06         0.00000E+00
    0.22141E+06        -0.50004E+08         0.00000E+00
    0.00000E+00         0.00000E+00        -0.50003E+08
 
   -0.50005E+08         0.22380E+06         0.00000E+00
    0.22380E+06        -0.50004E+08         0.00000E+00
    0.00000E+00         0.00000E+00        -0.50003E+08
 
   -0.50005E+08         0.22602E+06         0.00000E+00
    0.22602E+06        -0.50004E+08         0.00000E+00
    0.00000E+00         0.00000E+00        -0.50003E+08
 
   -0.50005E+08         0.22805E+06         0.00000E+00
    0.22805E+06        -0.50004E+08         0.00000E+00
    0.00000E+00         0.00000E+00        -0.50003E+08
 
   -0.50004E+08         0.22990E+06         0.00000E+00
    0.22990E+06        -0.50004E+08         0.00000E+00
    0.00000E+00         0.00000E+00        -0.50003E+08
 
   -0.50004E+08         0.23156E+06         0.00000E+00
    0.23156E+06        -0.50004E+08         0.00000E+00
    0.00000E+00         0.00000E+00        -0.50003E+08
 
   -0.50004E+08         0.23304E+06         0.00000E+00
    0.23304E+06        -0.50004E+08         0.00000E+00
    0.00000E+00         0.00000E+00        -0.50003E+08
 
   -0.50003E+08         0.23432E+06         0.00000E+00
    0.23432E+06        -0.50005E+08         0.00000E+00
    0.00000E+00         0.00000E+00        -0.50003E+08
 
   -0.50003E+08         0.23541E+06         0.00000E+00
    0.23541E+06        -0.50005E+08         0.00000E+00
    0.00000E+00         0.00000E+00        -0.50003E+08
 
   -0.49981E+08         0.35556E+04         0.00000E+00
    0.35556E+04        -0.50000E+08         0.00000E+00
    0.00000E+00         0.00000E+00        -0.49997E+08
 
   -0.49981E+08         0.10617E+05         0.00000E+00
    0.10617E+05        -0.50000E+08         0.00000E+00
    0.00000E+00         0.00000E+00        -0.49997E+08
 
   -0.49981E+08         0.17650E+05         0.00000E+00
    0.17650E+05        -0.50000E+08         0.00000E+00
    0.00000E+00         0.00000E+00        -0.49997E+08
 
   -0.49981E+08         0.24649E+05         0.00000E+00
    0.24649E+05        -0.50000E+08         0.00000E+00
    0.00000E+00         0.00000E+00        -0.49997E+08
 
   -0.49981E+08         0.31611E+05         0.00000E+00
    0.31611E+05        -0.50000E+08         0.00000E+00
    0.00000E+00         0.00000E+00        -0.49997E+08
 
   -0.49981E+08         0.38529E+05         0.00000E+00
    0.38529E+05        -0.50000E+08         0.00000E+00
    0.00000E+00         0.00000E+00        -0.49997E+08
 
   -0.49981E+08         0.45399E+05         0.00000E+00
    0.45399E+05        -0.50000E+08         0.00000E+00
    0.00000E+00         0.00000E+00        -0.49997E+08
 
   -0.49981E+08         0.52216E+05         0.00000E+00
    0.52216E+05        -0.50000E+08         0.00000E+00
    0.00000E+00         0.00000E+00        -0.49997E+08
 
   -0.49981E+08         0.58974E+05         0.00000E+00
    0.58974E+05        -0.50000E+08         0.00000E+00
    0.00000E+00         0.00000E+00        -0.49997E+08
 
   -0.49982E+08         0.65670E+05         0.00000E+00
    0.65670E+05        -0.50000E+08         0.00000E+00
    0.00000E+00         0.00000E+00        -0.49997E+08
 
   -0.49982E+08         0.72298E+05         0.00000E+00
    0.72298E+05        -0.50000E+08         0.00000E+00
    0.00000E+00         0.00000E+00        -0.49997E+08
 
   -0.49982E+08         0.78854E+05         0.00000E+00
    0.78854E+05        -0.49999E+08         0.00000E+00
    0.00000E+00         0.00000E+00        -0.49997E+08
 
   -0.49982E+08         0.85333E+05         0.00000E+00
    0.85333E+05        -0.49999E+08         0.00000E+00
    0.00000E+00         0.00000E+00        -0.49997E+08
 
   -0.49982E+08         0.91731E+05         0.00000E+00
    0.91731E+05        -0.49999E+08         0.00000E+00
    0.00000E+00         0.00000E+00        -0.49997E+08
 
   -0.49982E+08         0.98043E+05         0.00000E+00
    0.98043E+05        -0.49999E+08         0.00000E+00
    0.00000E+00         0.00000E+00        -0.49997E+08
 
   -0.49983E+08         0.10426E+06         0.00000E+00
    0.10426E+06        -0.49999E+08         0.00000E+00
    0.00000E+00         0.00000E+00        -0.49997E+08
 
   -0.49983E+08         0.11039E+06         0.00000E+00
    0.11039E+06        -0.49999E+08         0.00000E+00
    0.00000E+00         0.00000E+00        -0.49997E+08
 
   -0.49983E+08         0.11642E+06         0.00000E+00
    0.11642E+06        -0.49999E+08         0.00000E+00
    0.00000E+00         0.00000E+00        -0.49997E+08
 
   -0.49983E+08         0.12234E+06         0.00000E+00
    0.12234E+06        -0.49999E+08         0.00000E+00
    0.00000E+00         0.00000E+00        -0.49997E+08
 
   -0.49984E+08         0.12816E+06         0.00000E+00
    0.12816E+06        -0.49999E+08         0.00000E+00
    0.00000E+00         0.00000E+00        -0.49997E+08
 
   -0.49984E+08         0.13387E+06         0.00000E+00
    0.13387E+06        -0.49998E+08         0.00000E+00
    0.00000E+00         0.00000E+00        -0.49997E+08
 
   -0.49984E+08         0.13946E+06         0.00000E+00
    0.13946E+06        -0.49998E+08         0.00000E+00
    0.00000E+00         0.00000E+00        -0.49997E+08
 
   -0.49985E+08         0.14493E+06         0.00000E+00
    0.14493E+06        -0.49998E+08         0.00000E+00
    0.00000E+00         0.00000E+00        -0.49997E+08
 
   -0.49985E+08         0.15028E+06         0.00000E+00
    0.15028E+06        -0.49998E+08         0.00000E+00
    0.00000E+00         0.00000E+00        -0.49997E+08
 
   -0.49985E+08         0.15550E+06         0.00000E+00
    0.15550E+06        -0.49998E+08         0.00000E+00
    0.00000E+00         0.00000E+00        -0.49997E+08
 
   -0.49986E+08         0.16059E+06         0.00000E+00
    0.16059E+06        -0.49998E+08         0.00000E+00
    0.00000E+00         0.00000E+00        -0.49997E+08
 
   -0.49986E+08         0.16555E+06         0.00000E+00
    0.16555E+06        -0.49997E+08         0.00000E+00
    0.00000E+00         0.00000E+00        -0.49997E+08
 
   -0.49986E+08         0.17037E+06         0.00000E+00
    0.17037E+06        -0.49997E+08         0.00000E+00
    0.00000E+00         0.00000E+00        -0.49997E+08
 
   -0.49987E+08         0.17506E+06         0.00000E+00
    0.17506E+06        -0.49997E+08         0.00000E+00
    0.00000E+00         0.00000E+00        -0.49997E+08
 
   -0.49987E+08         0.17959E+06         0.00000E+00
    0.17959E+06        -0.49997E+08         0.00000E+00
    0.00000E+00         0.00000E+00        -0.49997E+08
 
   -0.49988E+08         0.18398E+06         0.00000E+00
    0.18398E+06        -0.49997E+08         0.00000E+00
    0.00000E+00         0.00000E+00        -0.49997E+08
 
   -0.49988E+08         0.18822E+06         0.00000E+00
    0.18822E+06        -0.49996E+08         0.00000E+00
    0.00000E+00         0.00000E+00        -0.49997E+08
 
   -0.49989E+08         0.19231E+06         0.00000E+00
    0.19231E+06        -0.49996E+08         0.00000E+00
    0.00000E+00         0.00000E+00        -0.49997E+08
 
   -0.49989E+08         0.19623E+06         0.00000E+00
    0.19623E+06        -0.49996E+08         0.00000E+00
    0.00000E+00         0.00000E+00        -0.49997E+08
 
   -0.49990E+08         0.20000E+06         0.00000E+00
    0.20000E+06        -0.49996E+08         0.00000E+00
    0.00000E+00         0.00000E+00        -0.49997E+08
 
   -0.49990E+08         0.20361E+06         0.00000E+00
    0.20361E+06        -0.49995E+08         0.00000E+00
    0.00000E+00         0.00000E+00        -0.49997E+08
 
   -0.49991E+08         0.20705E+06         0.00000E+00
    0.20705E+06        -0.49995E+08         0.00000E+00
    0.00000E+00         0.00000E+00        -0.49997E+08
 
   -0.49991E+08         0.21033E+06         0.00000E+00
    0.21033E+06        -0.49995E+08         0.00000E+00
    0.00000E+00         0.00000E+00        -0.49997E+08
 
   -0.49992E+08         0.21343E+06         0.00000E+00
    0.21343E+06        -0.49995E+08         0.00000E+00
    0.00000E+00         0.00000E+00        -0.49998E+08
 
   -0.49992E+08         0.21637E+06         0.00000E+00
    0.21637E+06        -0.49994E+08         0.00000E+00
    0.00000E+00         0.00000E+00        -0.49998E+08
 
   -0.49993E+08         0.21912E+06         0.00000E+00
    0.21912E+06        -0.49994E+08         0.00000E+00
    0.00000E+00         0.00000E+00        -0.49998E+08
 
   -0.49993E+08         0.22170E+06         0.00000E+00
    0.22170E+06        -0.49994E+08         0.00000E+00
    0.00000E+00         0.00000E+00        -0.49998E+08
 
   -0.49994E+08         0.22410E+06         0.00000E+00
    0.22410E+06        -0.49994E+08         0.00000E+00
    0.00000E+00         0.00000E+00        -0.49998E+08
 
   -0.49994E+08         0.22632E+06         0.00000E+00
    0.22632E+06        -0.49993E+08         0.00000E+00
    0.00000E+00         0.00000E+00        -0.49998E+08
 
   -0.49995E+08         0.22836E+06         0.00000E+00
    0.22836E+06        -0.49993E+08         0.00000E+00
    0.00000E+00         0.00000E+00        -0.49998E+08
 
   -0.49996E+08         0.23020E+06         0.00000E+00
    0.23020E+06        -0.49993E+08         0.00000E+00
    0.00000E+00         0.00000E+00        -0.49998E+08
 
   -0.49996E+08         0.23187E+06         0.00000E+00
    0.23187E+06        -0.49993E+08         0.00000E+00
    0.00000E+00         0.00000E+00        -0.49998E+08
 
   -0.49997E+08         0.23334E+06         0.00000E+00
    0.23334E+06        -0.49992E+08         0.00000E+00
    0.00000E+00         0.00000E+00        -0.49998E+08
 
   -0.49997E+08         0.23462E+06         0.00000E+00
    0.23462E+06        -0.49992E+08         0.00000E+00
    0.00000E+00         0.00000E+00        -0.49998E+08
 
   -0.49998E+08         0.23571E+06         0.00000E+00
    0.23571E+06        -0.49992E+08         0.00000E+00
    0.00000E+00         0.00000E+00        -0.49998E+08
 
   -0.49946E+08         0.35920E+04         0.00000E+00
    0.35920E+04        -0.50000E+08         0.00000E+00
    0.00000E+00         0.00000E+00        -0.49988E+08
 
   -0.49946E+08         0.10726E+05         0.00000E+00
    0.10726E+05        -0.50000E+08         0.00000E+00
    0.00000E+00         0.00000E+00        -0.49989E+08
 
   -0.49946E+08         0.17831E+05         0.00000E+00
    0.17831E+05        -0.50000E+08         0.00000E+00
    0.00000E+00         0.00000E+00        -0.49989E+08
 
   -0.49946E+08         0.24903E+05         0.00000E+00
    0.24903E+05        -0.50000E+08         0.00000E+00
    0.00000E+00         0.00000E+00        -0.49989E+08
 
   -0.49946E+08         0.31936E+05         0.00000E+00
    0.31936E+05        -0.50000E+08         0.00000E+00
    0.00000E+00         0.00000E+00        -0.49989E+08
 
   -0.49947E+08         0.38926E+05         0.00000E+00
    0.38926E+05        -0.50000E+08         0.00000E+00
    0.00000E+00         0.00000E+00        -0.49989E+08
 
   -0.49947E+08         0.45867E+05         0.00000E+00
    0.45867E+05        -0.50000E+08         0.00000E+00
    0.00000E+00         0.00000E+00        -0.49989E+08
 
   -0.49947E+08         0.52755E+05         0.00000E+00
    0.52755E+05        -0.49999E+08         0.00000E+00
    0.00000E+00         0.00000E+00        -0.49989E+08
 
   -0.49948E+08         0.59583E+05         0.00000E+00
    0.59583E+05        -0.49999E+08         0.00000E+00
    0.00000E+00         0.00000E+00        -0.49989E+08
 
   -0.49948E+08         0.66349E+05         0.00000E+00
    0.66349E+05        -0.49999E+08         0.00000E+00
    0.00000E+00         0.00000E+00        -0.49989E+08
 
   -0.49949E+08         0.73046E+05         0.00000E+00
    0.73046E+05        -0.49999E+08         0.00000E+00
    0.00000E+00         0.00000E+00        -0.49989E+08
 
   -0.49949E+08         0.79670E+05         0.00000E+00
    0.79670E+05        -0.49999E+08         0.00000E+00
    0.00000E+00         0.00000E+00        -0.49989E+08
 
   -0.49950E+08         0.86217E+05         0.00000E+00
    0.86217E+05        -0.49998E+08         0.00000E+00
    0.00000E+00         0.00000E+00        -0.49989E+08
 
   -0.49950E+08         0.92681E+05         0.00000E+00
    0.92681E+05        -0.49998E+08         0.00000E+00
    0.00000E+00         0.00000E+00        -0.49989E+08
 
   -0.49951E+08         0.99059E+05         0.00000E+00
    0.99059E+05        -0.49998E+08         0.00000E+00
    0.00000E+00         0.00000E+00        -0.49989E+08
 
   -0.49952E+08         0.10535E+06         0.00000E+00
    0.10535E+06        -0.49998E+08         0.00000E+00
    0.00000E+00         0.00000E+00        -0.49989E+08
 
   -0.49952E+08         0.11154E+06         0.00000E+00
    0.11154E+06        -0.49997E+08         0.00000E+00
    0.00000E+00         0.00000E+00        -0.49989E+08
 
   -0.49953E+08         0.11763E+06         0.00000E+00
    0.11763E+06        -0.49997E+08         0.00000E+00
    0.00000E+00         0.00000E+00        -0.49989E+08
 
   -0.49954E+08         0.12361E+06         0.00000E+00
    0.12361E+06        -0.49996E+08         0.00000E+00
    0.00000E+00         0.00000E+00        -0.49989E+08
 
   -0.49955E+08         0.12949E+06         0.00000E+00
    0.12949E+06        -0.49996E+08         0.00000E+00
    0.00000E+00         0.00000E+00        -0.49990E+08
 
   -0.49956E+08         0.13526E+06         0.00000E+00
    0.13526E+06        -0.49996E+08         0.00000E+00
    0.00000E+00         0.00000E+00        -0.49990E+08
 
   -0.49957E+08         0.14091E+06         0.00000E+00
    0.14091E+06        -0.49995E+08         0.00000E+00
    0.00000E+00         0.00000E+00        -0.49990E+08
 
   -0.49957E+08         0.14644E+06         0.00000E+00
    0.14644E+06        -0.49995E+08         0.00000E+00
    0.00000E+00         0.00000E+00        -0.49990E+08
 
   -0.49958E+08         0.15184E+06         0.00000E+00
    0.15184E+06        -0.49994E+08         0.00000E+00
    0.00000E+00         0.00000E+00        -0.49990E+08
 
   -0.49959E+08         0.15712E+06         0.00000E+00
    0.15712E+06        -0.49994E+08         0.00000E+00
    0.00000E+00         0.00000E+00        -0.49990E+08
 
   -0.49960E+08         0.16227E+06         0.00000E+00
    0.16227E+06        -0.49993E+08         0.00000E+00
    0.00000E+00         0.00000E+00        -0.49990E+08
 
   -0.49961E+08         0.16728E+06         0.00000E+00
    0.16728E+06        -0.49993E+08         0.00000E+00
    0.00000E+00         0.00000E+00        -0.49990E+08
 
   -0.49963E+08         0.17215E+06         0.00000E+00
    0.17215E+06        -0.49992E+08         0.00000E+00
    0.00000E+00         0.00000E+00        -0.49990E+08
 
   -0.49964E+08         0.17688E+06         0.00000E+00
    0.17688E+06        -0.49992E+08         0.00000E+00
    0.00000E+00         0.00000E+00        -0.49991E+08
 
   -0.49965E+08         0.18147E+06         0.00000E+00
    0.18147E+06        -0.49991E+08         0.00000E+00
    0.00000E+00         0.00000E+00        -0.49991E+08
 
   -0.49966E+08         0.18590E+06         0.00000E+00
    0.18590E+06        -0.49991E+08         0.00000E+00
    0.00000E+00         0.00000E+00        -0.49991E+08
 
   -0.49967E+08         0.19019E+06         0.00000E+00
    0.19019E+06        -0.49990E+08         0.00000E+00
    0.00000E+00         0.00000E+00        -0.49991E+08
 
   -0.49968E+08         0.19431E+06         0.00000E+00
    0.19431E+06        -0.49990E+08         0.00000E+00
    0.00000E+00         0.00000E+00        -0.49991E+08
 
   -0.49970E+08         0.19828E+06         0.00000E+00
    0.19828E+06        -0.49989E+08         0.00000E+00
    0.00000E+00         0.00000E+00        -0.49991E+08
 
   -0.49971E+08         0.20209E+06         0.00000E+00
    0.20209E+06        -0.49989E+08         0.00000E+00
    0.00000E+00         0.00000E+00        -0.49991E+08
 
   -0.49972E+08         0.20574E+06         0.00000E+00
    0.20574E+06        -0.49988E+08         0.00000E+00
    0.00000E+00         0.00000E+00        -0.49991E+08
 
   -0.49974E+08         0.20922E+06         0.00000E+00
    0.20922E+06        -0.49987E+08         0.00000E+00
    0.00000E+00         0.00000E+00        -0.49992E+08
 
   -0.49975E+08         0.21253E+06         0.00000E+00
    0.21253E+06        -0.49987E+08         0.00000E+00
    0.00000E+00         0.00000E+00        -0.49992E+08
 
   -0.49976E+08         0.21566E+06         0.00000E+00
    0.21566E+06        -0.49986E+08         0.00000E+00
    0.00000E+00         0.00000E+00        -0.49992E+08
 
   -0.49978E+08         0.21863E+06         0.00000E+00
    0.21863E+06        -0.49985E+08         0.00000E+00
    0.00000E+00         0.00000E+00        -0.49992E+08
 
   -0.49979E+08         0.22141E+06         0.00000E+00
    0.22141E+06        -0.49985E+08         0.00000E+00
    0.00000E+00         0.00000E+00        -0.49992E+08
 
   -0.49981E+08         0.22402E+06         0.00000E+00
    0.22402E+06        -0.49984E+08         0.00000E+00
    0.00000E+00         0.00000E+00        -0.49992E+08
 
   -0.49982E+08         0.22644E+06         0.00000E+00
    0.22644E+06        -0.49983E+08         0.00000E+00
    0.00000E+00         0.00000E+00        -0.49993E+08
 
   -0.49984E+08         0.22869E+06         0.00000E+00
    0.22869E+06        -0.49983E+08         0.00000E+00
    0.00000E+00         0.00000E+00        -0.49993E+08
 
   -0.49985E+08         0.23074E+06         0.00000E+00
    0.23074E+06        -0.49982E+08         0.00000E+00
    0.00000E+00         0.00000E+00        -0.49993E+08
 
   -0.49987E+08         0.23261E+06         0.00000E+00
    0.23261E+06        -0.49981E+08         0.00000E+00
    0.00000E+00         0.00000E+00        -0.49993E+08
 
   -0.49988E+08         0.23429E+06         0.00000E+00
    0.23429E+06        -0.49981E+08         0.00000E+00
    0.00000E+00         0.00000E+00        -0.49993E+08
 
   -0.49990E+08         0.23578E+06         0.00000E+00
    0.23578E+06        -0.49980E+08         0.00000E+00
    0.00000E+00         0.00000E+00        -0.49993E+08
 
   -0.49991E+08         0.23707E+06         0.00000E+00
    0.23707E+06        -0.49979E+08         0.00000E+00
    0.00000E+00         0.00000E+00        -0.49994E+08
 
   -0.49993E+08         0.23817E+06         0.00000E+00
    0.23817E+06        -0.49979E+08         0.00000E+00
    0.00000E+00         0.00000E+00        -0.49994E+08
 
   -0.49909E+08         0.36636E+04         0.00000E+00
    0.36636E+04        -0.50000E+08         0.00000E+00
    0.00000E+00         0.00000E+00        -0.49980E+08
 
   -0.49910E+08         0.10939E+05         0.00000E+00
    0.10939E+05        -0.50000E+08         0.00000E+00
    0.00000E+00         0.00000E+00        -0.49980E+08
 
   -0.49910E+08         0.18185E+05         0.00000E+00
    0.18185E+05        -0.50000E+08         0.00000E+00
    0.00000E+00         0.00000E+00        -0.49980E+08
 
   -0.49910E+08         0.25397E+05         0.00000E+00
    0.25397E+05        -0.50000E+08         0.00000E+00
    0.00000E+00         0.00000E+00        -0.49980E+08
 
   -0.49911E+08         0.32569E+05         0.00000E+00
    0.32569E+05        -0.50000E+08         0.00000E+00
    0.00000E+00         0.00000E+00        -0.49981E+08
 
   -0.49911E+08         0.39696E+05         0.00000E+00
    0.39696E+05        -0.49999E+08         0.00000E+00
    0.00000E+00         0.00000E+00        -0.49981E+08
 
   -0.49912E+08         0.46774E+05         0.00000E+00
    0.46774E+05        -0.49999E+08         0.00000E+00
    0.00000E+00         0.00000E+00        -0.49981E+08
 
   -0.49913E+08         0.53797E+05         0.00000E+00
    0.53797E+05        -0.49999E+08         0.00000E+00
    0.00000E+00         0.00000E+00        -0.49981E+08
 
   -0.49913E+08         0.60759E+05         0.00000E+00
    0.60759E+05        -0.49999E+08         0.00000E+00
    0.00000E+00         0.00000E+00        -0.49981E+08
 
   -0.49914E+08         0.67657E+05         0.00000E+00
    0.67657E+05        -0.49998E+08         0.00000E+00
    0.00000E+00         0.00000E+00        -0.49981E+08
 
   -0.49915E+08         0.74485E+05         0.00000E+00
    0.74485E+05        -0.49998E+08         0.00000E+00
    0.00000E+00         0.00000E+00        -0.49981E+08
 
   -0.49916E+08         0.81239E+05         0.00000E+00
    0.81239E+05        -0.49998E+08         0.00000E+00
    0.00000E+00         0.00000E+00        -0.49981E+08
 
   -0.49917E+08         0.87913E+05         0.00000E+00
    0.87913E+05        -0.49997E+08         0.00000E+00
    0.00000E+00         0.00000E+00        -0.49981E+08
 
   -0.49918E+08         0.94503E+05         0.00000E+00
    0.94503E+05        -0.49997E+08         0.00000E+00
    0.00000E+00         0.00000E+00        -0.49981E+08
 
   -0.49919E+08         0.10100E+06         0.00000E+00
    0.10100E+06        -0.49996E+08         0.00000E+00
    0.00000E+00         0.00000E+00        -0.49982E+08
 
   -0.49920E+08         0.10741E+06         0.00000E+00
    0.10741E+06        -0.49996E+08         0.00000E+00
    0.00000E+00         0.00000E+00        -0.49982E+08
 
   -0.49921E+08         0.11372E+06         0.00000E+00
    0.11372E+06        -0.49995E+08         0.00000E+00
    0.00000E+00         0.00000E+00        -0.49982E+08
 
   -0.49923E+08         0.11993E+06         0.00000E+00
    0.11993E+06        -0.49995E+08         0.00000E+00
    0.00000E+00         0.00000E+00        -0.49982E+08
 
   -0.49924E+08         0.12604E+06         0.00000E+00
    0.12604E+06        -0.49994E+08         0.00000E+00
    0.00000E+00         0.00000E+00        -0.49982E+08
 
   -0.49925E+08         0.13203E+06         0.00000E+00
    0.13203E+06        -0.49994E+08         0.00000E+00
    0.00000E+00         0.00000E+00        -0.49982E+08
 
   -0.49927E+08         0.13791E+06         0.00000E+00
    0.13791E+06        -0.49993E+08         0.00000E+00
    0.00000E+00         0.00000E+00        -0.49982E+08
 
   -0.49928E+08         0.14367E+06         0.00000E+00
    0.14367E+06        -0.49992E+08         0.00000E+00
    0.00000E+00         0.00000E+00        -0.49983E+08
 
   -0.49930E+08         0.14930E+06         0.00000E+00
    0.14930E+06        -0.49992E+08         0.00000E+00
    0.00000E+00         0.00000E+00        -0.49983E+08
 
   -0.49931E+08         0.15481E+06         0.00000E+00
    0.15481E+06        -0.49991E+08         0.00000E+00
    0.00000E+00         0.00000E+00        -0.49983E+08
 
   -0.49933E+08         0.16019E+06         0.00000E+00
    0.16019E+06        -0.49990E+08         0.00000E+00
    0.00000E+00         0.00000E+00        -0.49983E+08
 
   -0.49935E+08         0.16544E+06         0.00000E+00
    0.16544E+06        -0.49989E+08         0.00000E+00
    0.00000E+00         0.00000E+00        -0.49983E+08
 
   -0.49937E+08         0.17054E+06         0.00000E+00
    0.17054E+06        -0.49989E+08         0.00000E+00
    0.00000E+00         0.00000E+00        -0.49983E+08
 
   -0.49938E+08         0.17551E+06         0.00000E+00
    0.17551E+06        -0.49988E+08         0.00000E+00
    0.00000E+00         0.00000E+00        -0.49984E+08
 
   -0.49940E+08         0.18033E+06         0.00000E+00
    0.18033E+06        -0.49987E+08         0.00000E+00
    0.00000E+00         0.00000E+00        -0.49984E+08
 
   -0.49942E+08         0.18500E+06         0.00000E+00
    0.18500E+06        -0.49986E+08         0.00000E+00
    0.00000E+00         0.00000E+00        -0.49984E+08
 
   -0.49944E+08         0.18952E+06         0.00000E+00
    0.18952E+06        -0.49985E+08         0.00000E+00
    0.00000E+00         0.00000E+00        -0.49984E+08
 
   -0.49946E+08         0.19389E+06         0.00000E+00
    0.19389E+06        -0.49984E+08         0.00000E+00
    0.00000E+00         0.00000E+00        -0.49985E+08
 
   -0.49948E+08         0.19810E+06         0.00000E+00
    0.19810E+06        -0.49983E+08         0.00000E+00
    0.00000E+00         0.00000E+00        -0.49985E+08
 
   -0.49950E+08         0.20214E+06         0.00000E+00
    0.20214E+06        -0.49982E+08         0.00000E+00
    0.00000E+00         0.00000E+00        -0.49985E+08
 
   -0.49952E+08         0.20603E+06         0.00000E+00
    0.20603E+06        -0.49981E+08         0.00000E+00
    0.00000E+00         0.00000E+00        -0.49985E+08
 
   -0.49954E+08         0.20974E+06         0.00000E+00
    0.20974E+06        -0.49980E+08         0.00000E+00
    0.00000E+00         0.00000E+00        -0.49985E+08
 
   -0.49957E+08         0.21329E+06         0.00000E+00
    0.21329E+06        -0.49979E+08         0.00000E+00
    0.00000E+00         0.00000E+00        -0.49986E+08
 
   -0.49959E+08         0.21666E+06         0.00000E+00
    0.21666E+06        -0.49978E+08         0.00000E+00
    0.00000E+00         0.00000E+00        -0.49986E+08
 
   -0.49961E+08         0.21986E+06         0.00000E+00
    0.21986E+06        -0.49977E+08         0.00000E+00
    0.00000E+00         0.00000E+00        -0.49986E+08
 
   -0.49963E+08         0.22288E+06         0.00000E+00
    0.22288E+06        -0.49976E+08         0.00000E+00
    0.00000E+00         0.00000E+00        -0.49986E+08
 
   -0.49966E+08         0.22572E+06         0.00000E+00
    0.22572E+06        -0.49975E+08         0.00000E+00
    0.00000E+00         0.00000E+00        -0.49987E+08
 
   -0.49968E+08         0.22838E+06         0.00000E+00
    0.22838E+06        -0.49974E+08         0.00000E+00
    0.00000E+00         0.00000E+00        -0.49987E+08
 
   -0.49970E+08         0.23085E+06         0.00000E+00
    0.23085E+06        -0.49973E+08         0.00000E+00
    0.00000E+00         0.00000E+00        -0.49987E+08
 
   -0.49973E+08         0.23314E+06         0.00000E+00
    0.23314E+06        -0.49972E+08         0.00000E+00
    0.00000E+00         0.00000E+00        -0.49987E+08
 
   -0.49975E+08         0.23524E+06         0.00000E+00
    0.23524E+06        -0.49971E+08         0.00000E+00
    0.00000E+00         0.00000E+00        -0.49988E+08
 
   -0.49978E+08         0.23714E+06         0.00000E+00
    0.23714E+06        -0.49970E+08         0.00000E+00
    0.00000E+00         0.00000E+00        -0.49988E+08
 
   -0.49980E+08         0.23885E+06         0.00000E+00
    0.23885E+06        -0.49969E+08         0.00000E+00
    0.00000E+00         0.00000E+00        -0.49988E+08
 
   -0.49983E+08         0.24037E+06         0.00000E+00
    0.24037E+06        -0.49968E+08         0.00000E+00
    0.00000E+00         0.00000E+00        -0.49989E+08
 
   -0.49985E+08         0.24169E+06         0.00000E+00
    0.24169E+06        -0.49966E+08         0.00000E+00
    0.00000E+00         0.00000E+00        -0.49989E+08
 
   -0.49988E+08         0.24282E+06         0.00000E+00
    0.24282E+06        -0.49965E+08         0.00000E+00
    0.00000E+00         0.00000E+00        -0.49989E+08
 
   -0.49873E+08         0.37710E+04         0.00000E+00
    0.37710E+04        -0.50000E+08         0.00000E+00
    0.00000E+00         0.00000E+00        -0.49972E+08
 
   -0.49873E+08         0.11258E+05         0.00000E+00
    0.11258E+05        -0.50000E+08         0.00000E+00
    0.00000E+00         0.00000E+00        -0.49972E+08
 
   -0.49873E+08         0.18715E+05         0.00000E+00
    0.18715E+05        -0.50000E+08         0.00000E+00
    0.00000E+00         0.00000E+00        -0.49972E+08
 
   -0.49874E+08         0.26135E+05         0.00000E+00
    0.26135E+05        -0.50000E+08         0.00000E+00
    0.00000E+00         0.00000E+00        -0.49972E+08
 
   -0.49875E+08         0.33514E+05         0.00000E+00
    0.33514E+05        -0.50000E+08         0.00000E+00
    0.00000E+00         0.00000E+00        -0.49972E+08
 
   -0.49875E+08         0.40847E+05         0.00000E+00
    0.40847E+05        -0.49999E+08         0.00000E+00
    0.00000E+00         0.00000E+00        -0.49972E+08
 
   -0.49876E+08         0.48128E+05         0.00000E+00
    0.48128E+05        -0.49999E+08         0.00000E+00
    0.00000E+00         0.00000E+00        -0.49973E+08
 
   -0.49877E+08         0.55352E+05         0.00000E+00
    0.55352E+05        -0.49999E+08         0.00000E+00
    0.00000E+00         0.00000E+00        -0.49973E+08
 
   -0.49878E+08         0.62513E+05         0.00000E+00
    0.62513E+05        -0.49998E+08         0.00000E+00
    0.00000E+00         0.00000E+00        -0.49973E+08
 
   -0.49879E+08         0.69608E+05         0.00000E+00
    0.69608E+05        -0.49998E+08         0.00000E+00
    0.00000E+00         0.00000E+00        -0.49973E+08
 
   -0.49881E+08         0.76630E+05         0.00000E+00
    0.76630E+05        -0.49997E+08         0.00000E+00
    0.00000E+00         0.00000E+00        -0.49973E+08
 
   -0.49882E+08         0.83575E+05         0.00000E+00
    0.83575E+05        -0.49997E+08         0.00000E+00
    0.00000E+00         0.00000E+00        -0.49973E+08
 
   -0.49883E+08         0.90438E+05         0.00000E+00
    0.90438E+05        -0.49996E+08         0.00000E+00
    0.00000E+00         0.00000E+00        -0.49973E+08
 
   -0.49885E+08         0.97214E+05         0.00000E+00
    0.97214E+05        -0.49996E+08         0.00000E+00
    0.00000E+00         0.00000E+00        -0.49974E+08
 
   -0.49886E+08         0.10390E+06         0.00000E+00
    0.10390E+06        -0.49995E+08         0.00000E+00
    0.00000E+00         0.00000E+00        -0.49974E+08
 
   -0.49888E+08         0.11049E+06         0.00000E+00
    0.11049E+06        -0.49994E+08         0.00000E+00
    0.00000E+00         0.00000E+00        -0.49974E+08
 
   -0.49890E+08         0.11698E+06         0.00000E+00
    0.11698E+06        -0.49994E+08         0.00000E+00
    0.00000E+00         0.00000E+00        -0.49974E+08
 
   -0.49891E+08         0.12336E+06         0.00000E+00
    0.12336E+06        -0.49993E+08         0.00000E+00
    0.00000E+00         0.00000E+00        -0.49974E+08
 
   -0.49893E+08         0.12963E+06         0.00000E+00
    0.12963E+06        -0.49992E+08         0.00000E+00
    0.00000E+00         0.00000E+00        -0.49975E+08
 
   -0.49895E+08         0.13579E+06         0.00000E+00
    0.13579E+06        -0.49991E+08         0.00000E+00
    0.00000E+00         0.00000E+00        -0.49975E+08
 
   -0.49897E+08         0.14183E+06         0.00000E+00
    0.14183E+06        -0.49990E+08         0.00000E+00
    0.00000E+00         0.00000E+00        -0.49975E+08
 
   -0.49899E+08         0.14775E+06         0.00000E+00
    0.14775E+06        -0.49989E+08         0.00000E+00
    0.00000E+00         0.00000E+00        -0.49975E+08
 
   -0.49902E+08         0.15354E+06         0.00000E+00
    0.15354E+06        -0.49988E+08         0.00000E+00
    0.00000E+00         0.00000E+00        -0.49975E+08
 
   -0.49904E+08         0.15921E+06         0.00000E+00
    0.15921E+06        -0.49987E+08         0.00000E+00
    0.00000E+00         0.00000E+00        -0.49976E+08
 
   -0.49906E+08         0.16473E+06         0.00000E+00
    0.16473E+06        -0.49986E+08         0.00000E+00
    0.00000E+00         0.00000E+00        -0.49976E+08
 
   -0.49909E+08         0.17012E+06         0.00000E+00
    0.17012E+06        -0.49985E+08         0.00000E+00
    0.00000E+00         0.00000E+00        -0.49976E+08
 
   -0.49911E+08         0.17537E+06         0.00000E+00
    0.17537E+06        -0.49984E+08         0.00000E+00
    0.00000E+00         0.00000E+00        -0.49976E+08
 
   -0.49914E+08         0.18048E+06         0.00000E+00
    0.18048E+06        -0.49983E+08         0.00000E+00
    0.00000E+00         0.00000E+00        -0.49977E+08
 
   -0.49916E+08         0.18543E+06         0.00000E+00
    0.18543E+06        -0.49982E+08         0.00000E+00
    0.00000E+00         0.00000E+00        -0.49977E+08
 
   -0.49919E+08         0.19023E+06         0.00000E+00
    0.19023E+06        -0.49981E+08         0.00000E+00
    0.00000E+00         0.00000E+00        -0.49977E+08
 
   -0.49922E+08         0.19488E+06         0.00000E+00
    0.19488E+06        -0.49979E+08         0.00000E+00
    0.00000E+00         0.00000E+00        -0.49978E+08
 
   -0.49924E+08         0.19936E+06         0.00000E+00
    0.19936E+06        -0.49978E+08         0.00000E+00
    0.00000E+00         0.00000E+00        -0.49978E+08
 
   -0.49927E+08         0.20369E+06         0.00000E+00
    0.20369E+06        -0.49977E+08         0.00000E+00
    0.00000E+00         0.00000E+00        -0.49978E+08
 
   -0.49930E+08         0.20785E+06         0.00000E+00
    0.20785E+06        -0.49975E+08         0.00000E+00
    0.00000E+00         0.00000E+00        -0.49979E+08
 
   -0.49933E+08         0.21184E+06         0.00000E+00
    0.21184E+06        -0.49974E+08         0.00000E+00
    0.00000E+00         0.00000E+00        -0.49979E+08
 
   -0.49936E+08         0.21566E+06         0.00000E+00
    0.21566E+06        -0.49973E+08         0.00000E+00
    0.00000E+00         0.00000E+00        -0.49979E+08
 
   -0.49939E+08         0.21930E+06         0.00000E+00
    0.21930E+06        -0.49971E+08         0.00000E+00
    0.00000E+00         0.00000E+00        -0.49980E+08
 
   -0.49942E+08         0.22277E+06         0.00000E+00
    0.22277E+06        -0.49970E+08         0.00000E+00
    0.00000E+00         0.00000E+00        -0.49980E+08
 
   -0.49945E+08         0.22606E+06         0.00000E+00
    0.22606E+06        -0.49969E+08         0.00000E+00
    0.00000E+00         0.00000E+00        -0.49980E+08
 
   -0.49949E+08         0.22917E+06         0.00000E+00
    0.22917E+06        -0.49967E+08         0.00000E+00
    0.00000E+00         0.00000E+00        -0.49981E+08
 
   -0.49952E+08         0.23209E+06         0.00000E+00
    0.23209E+06        -0.49966E+08         0.00000E+00
    0.00000E+00         0.00000E+00        -0.49981E+08
 
   -0.49955E+08         0.23482E+06         0.00000E+00
    0.23482E+06        -0.49964E+08         0.00000E+00
    0.00000E+00         0.00000E+00        -0.49981E+08
 
   -0.49958E+08         0.23736E+06         0.00000E+00
    0.23736E+06        -0.49963E+08         0.00000E+00
    0.00000E+00         0.00000E+00        -0.49982E+08
 
   -0.49962E+08         0.23972E+06         0.00000E+00
    0.23972E+06        -0.49961E+08         0.00000E+00
    0.00000E+00         0.00000E+00        -0.49982E+08
 
   -0.49965E+08         0.24188E+06         0.00000E+00
    0.24188E+06        -0.49960E+08         0.00000E+00
    0.00000E+00         0.00000E+00        -0.49982E+08
 
   -0.49969E+08         0.24384E+06         0.00000E+00
    0.24384E+06        -0.49958E+08         0.00000E+00
    0.00000E+00         0.00000E+00        -0.49983E+08
 
   -0.49972E+08         0.24560E+06         0.00000E+00
    0.24560E+06        -0.49956E+08         0.00000E+00
    0.00000E+00         0.00000E+00        -0.49983E+08
 
   -0.49976E+08         0.24717E+06         0.00000E+00
    0.24717E+06        -0.49955E+08         0.00000E+00
    0.00000E+00         0.00000E+00        -0.49984E+08
 
   -0.49979E+08         0.24853E+06         0.00000E+00
    0.24853E+06        -0.49953E+08         0.00000E+00
    0.00000E+00         0.00000E+00        -0.49984E+08
 
   -0.49983E+08         0.24969E+06         0.00000E+00
    0.24969E+06        -0.49952E+08         0.00000E+00
    0.00000E+00         0.00000E+00        -0.49984E+08
 
   -0.49834E+08         0.39153E+04         0.00000E+00
    0.39153E+04        -0.50000E+08         0.00000E+00
    0.00000E+00         0.00000E+00        -0.49963E+08
 
   -0.49835E+08         0.11686E+05         0.00000E+00
    0.11686E+05        -0.50000E+08         0.00000E+00
    0.00000E+00         0.00000E+00        -0.49963E+08
 
   -0.49836E+08         0.19425E+05         0.00000E+00
    0.19425E+05        -0.50000E+08         0.00000E+00
    0.00000E+00         0.00000E+00        -0.49963E+08
 
   -0.49836E+08         0.27125E+05         0.00000E+00
    0.27125E+05        -0.50000E+08         0.00000E+00
    0.00000E+00         0.00000E+00        -0.49964E+08
 
   -0.49837E+08         0.34782E+05         0.00000E+00
    0.34782E+05        -0.49999E+08         0.00000E+00
    0.00000E+00         0.00000E+00        -0.49964E+08
 
   -0.49838E+08         0.42389E+05         0.00000E+00
    0.42389E+05        -0.49999E+08         0.00000E+00
    0.00000E+00         0.00000E+00        -0.49964E+08
 
   -0.49839E+08         0.49941E+05         0.00000E+00
    0.49941E+05        -0.49999E+08         0.00000E+00
    0.00000E+00         0.00000E+00        -0.49964E+08
 
   -0.49841E+08         0.57434E+05         0.00000E+00
    0.57434E+05        -0.49998E+08         0.00000E+00
    0.00000E+00         0.00000E+00        -0.49964E+08
 
   -0.49842E+08         0.64861E+05         0.00000E+00
    0.64861E+05        -0.49998E+08         0.00000E+00
    0.00000E+00         0.00000E+00        -0.49964E+08
 
   -0.49843E+08         0.72218E+05         0.00000E+00
    0.72218E+05        -0.49997E+08         0.00000E+00
    0.00000E+00         0.00000E+00        -0.49965E+08
 
   -0.49845E+08         0.79499E+05         0.00000E+00
    0.79499E+05        -0.49997E+08         0.00000E+00
    0.00000E+00         0.00000E+00        -0.49965E+08
 
   -0.49847E+08         0.86699E+05         0.00000E+00
    0.86699E+05        -0.49996E+08         0.00000E+00
    0.00000E+00         0.00000E+00        -0.49965E+08
 
   -0.49849E+08         0.93813E+05         0.00000E+00
    0.93813E+05        -0.49995E+08         0.00000E+00
    0.00000E+00         0.00000E+00        -0.49965E+08
 
   -0.49851E+08         0.10084E+06         0.00000E+00
    0.10084E+06        -0.49994E+08         0.00000E+00
    0.00000E+00         0.00000E+00        -0.49965E+08
 
   -0.49853E+08         0.10777E+06         0.00000E+00
    0.10777E+06        -0.49994E+08         0.00000E+00
    0.00000E+00         0.00000E+00        -0.49966E+08
 
   -0.49855E+08         0.11459E+06         0.00000E+00
    0.11459E+06        -0.49993E+08         0.00000E+00
    0.00000E+00         0.00000E+00        -0.49966E+08
 
   -0.49857E+08         0.12132E+06         0.00000E+00
    0.12132E+06        -0.49992E+08         0.00000E+00
    0.00000E+00         0.00000E+00        -0.49966E+08
 
   -0.49859E+08         0.12793E+06         0.00000E+00
    0.12793E+06        -0.49991E+08         0.00000E+00
    0.00000E+00         0.00000E+00        -0.49966E+08
 
   -0.49862E+08         0.13443E+06         0.00000E+00
    0.13443E+06        -0.49990E+08         0.00000E+00
    0.00000E+00         0.00000E+00        -0.49967E+08
 
   -0.49864E+08         0.14081E+06         0.00000E+00
    0.14081E+06        -0.49988E+08         0.00000E+00
    0.00000E+00         0.00000E+00        -0.49967E+08
 
   -0.49867E+08         0.14707E+06         0.00000E+00
    0.14707E+06        -0.49987E+08         0.00000E+00
    0.00000E+00         0.00000E+00        -0.49967E+08
 
   -0.49870E+08         0.15320E+06         0.00000E+00
    0.15320E+06        -0.49986E+08         0.00000E+00
    0.00000E+00         0.00000E+00        -0.49968E+08
 
   -0.49872E+08         0.15920E+06         0.00000E+00
    0.15920E+06        -0.49985E+08         0.00000E+00
    0.00000E+00         0.00000E+00        -0.49968E+08
 
   -0.49875E+08         0.16507E+06         0.00000E+00
    0.16507E+06        -0.49984E+08         0.00000E+00
    0.00000E+00         0.00000E+00        -0.49968E+08
 
   -0.49878E+08         0.17079E+06         0.00000E+00
    0.17079E+06        -0.49982E+08         0.00000E+00
    0.00000E+00         0.00000E+00        -0.49969E+08
 
   -0.49882E+08         0.17637E+06         0.00000E+00
    0.17637E+06        -0.49981E+08         0.00000E+00
    0.00000E+00         0.00000E+00        -0.49969E+08
 
   -0.49885E+08         0.18181E+06         0.00000E+00
    0.18181E+06        -0.49979E+08         0.00000E+00
    0.00000E+00         0.00000E+00        -0.49969E+08
 
   -0.49888E+08         0.18709E+06         0.00000E+00
    0.18709E+06        -0.49978E+08         0.00000E+00
    0.00000E+00         0.00000E+00        -0.49970E+08
 
   -0.49891E+08         0.19222E+06         0.00000E+00
    0.19222E+06        -0.49976E+08         0.00000E+00
    0.00000E+00         0.00000E+00        -0.49970E+08
 
   -0.49895E+08         0.19720E+06         0.00000E+00
    0.19720E+06        -0.49975E+08         0.00000E+00
    0.00000E+00         0.00000E+00        -0.49970E+08
 
   -0.49898E+08         0.20201E+06         0.00000E+00
    0.20201E+06        -0.49973E+08         0.00000E+00
    0.00000E+00         0.00000E+00        -0.49971E+08
 
   -0.49902E+08         0.20665E+06         0.00000E+00
    0.20665E+06        -0.49972E+08         0.00000E+00
    0.00000E+00         0.00000E+00        -0.49971E+08
 
   -0.49906E+08         0.21113E+06         0.00000E+00
    0.21113E+06        -0.49970E+08         0.00000E+00
    0.00000E+00         0.00000E+00        -0.49972E+08
 
   -0.49909E+08         0.21544E+06         0.00000E+00
    0.21544E+06        -0.49968E+08         0.00000E+00
    0.00000E+00         0.00000E+00        -0.49972E+08
 
   -0.49913E+08         0.21957E+06         0.00000E+00
    0.21957E+06        -0.49967E+08         0.00000E+00
    0.00000E+00         0.00000E+00        -0.49972E+08
 
   -0.49917E+08         0.22353E+06         0.00000E+00
    0.22353E+06        -0.49965E+08         0.00000E+00
    0.00000E+00         0.00000E+00        -0.49973E+08
 
   -0.49921E+08         0.22731E+06         0.00000E+00
    0.22731E+06        -0.49963E+08         0.00000E+00
    0.00000E+00         0.00000E+00        -0.49973E+08
 
   -0.49925E+08         0.23090E+06         0.00000E+00
    0.23090E+06        -0.49961E+08         0.00000E+00
    0.00000E+00         0.00000E+00        -0.49974E+08
 
   -0.49929E+08         0.23431E+06         0.00000E+00
    0.23431E+06        -0.49959E+08         0.00000E+00
    0.00000E+00         0.00000E+00        -0.49974E+08
 
   -0.49933E+08         0.23753E+06         0.00000E+00
    0.23753E+06        -0.49957E+08         0.00000E+00
    0.00000E+00         0.00000E+00        -0.49975E+08
 
   -0.49937E+08         0.24056E+06         0.00000E+00
    0.24056E+06        -0.49956E+08         0.00000E+00
    0.00000E+00         0.00000E+00        -0.49975E+08
 
   -0.49942E+08         0.24339E+06         0.00000E+00
    0.24339E+06        -0.49954E+08         0.00000E+00
    0.00000E+00         0.00000E+00        -0.49975E+08
 
   -0.49946E+08         0.24603E+06         0.00000E+00
    0.24603E+06        -0.49952E+08         0.00000E+00
    0.00000E+00         0.00000E+00        -0.49976E+08
 
   -0.49950E+08         0.24847E+06         0.00000E+00
    0.24847E+06        -0.49950E+08         0.00000E+00
    0.00000E+00         0.00000E+00        -0.49976E+08
 
   -0.49955E+08         0.25071E+06         0.00000E+00
    0.25071E+06        -0.49948E+08         0.00000E+00
    0.00000E+00         0.00000E+00        -0.49977E+08
 
   -0.49959E+08         0.25275E+06         0.00000E+00
    0.25275E+06        -0.49946E+08         0.00000E+00
    0.00000E+00         0.00000E+00        -0.49977E+08
 
   -0.49964E+08         0.25459E+06         0.00000E+00
    0.25459E+06        -0.49944E+08         0.00000E+00
    0.00000E+00         0.00000E+00        -0.49978E+08
 
   -0.49968E+08         0.25622E+06         0.00000E+00
    0.25622E+06        -0.49942E+08         0.00000E+00
    0.00000E+00         0.00000E+00        -0.49978E+08
 
   -0.49973E+08         0.25764E+06         0.00000E+00
    0.25764E+06        -0.49940E+08         0.00000E+00
    0.00000E+00         0.00000E+00        -0.49979E+08
 
   -0.49977E+08         0.25885E+06         0.00000E+00
    0.25885E+06        -0.49938E+08         0.00000E+00
    0.00000E+00         0.00000E+00        -0.49979E+08
 
   -0.49795E+08         0.40978E+04         0.00000E+00
    0.40978E+04        -0.50000E+08         0.00000E+00
    0.00000E+00         0.00000E+00        -0.49954E+08
 
   -0.49795E+08         0.12228E+05         0.00000E+00
    0.12228E+05        -0.50000E+08         0.00000E+00
    0.00000E+00         0.00000E+00        -0.49954E+08
 
   -0.49796E+08         0.20323E+05         0.00000E+00
    0.20323E+05        -0.50000E+08         0.00000E+00
    0.00000E+00         0.00000E+00        -0.49954E+08
 
   -0.49797E+08         0.28376E+05         0.00000E+00
    0.28376E+05        -0.50000E+08         0.00000E+00
    0.00000E+00         0.00000E+00        -0.49955E+08
 
   -0.49798E+08         0.36383E+05         0.00000E+00
    0.36383E+05        -0.49999E+08         0.00000E+00
    0.00000E+00         0.00000E+00        -0.49955E+08
 
   -0.49799E+08         0.44336E+05         0.00000E+00
    0.44336E+05        -0.49999E+08         0.00000E+00
    0.00000E+00         0.00000E+00        -0.49955E+08
 
   -0.49801E+08         0.52231E+05         0.00000E+00
    0.52231E+05        -0.49998E+08         0.00000E+00
    0.00000E+00         0.00000E+00        -0.49955E+08
 
   -0.49802E+08         0.60062E+05         0.00000E+00
    0.60062E+05        -0.49998E+08         0.00000E+00
    0.00000E+00         0.00000E+00        -0.49955E+08
 
   -0.49804E+08         0.67824E+05         0.00000E+00
    0.67824E+05        -0.49997E+08         0.00000E+00
    0.00000E+00         0.00000E+00        -0.49956E+08
 
   -0.49806E+08         0.75511E+05         0.00000E+00
    0.75511E+05        -0.49997E+08         0.00000E+00
    0.00000E+00         0.00000E+00        -0.49956E+08
 
   -0.49808E+08         0.83117E+05         0.00000E+00
    0.83117E+05        -0.49996E+08         0.00000E+00
    0.00000E+00         0.00000E+00        -0.49956E+08
 
   -0.49810E+08         0.90638E+05         0.00000E+00
    0.90638E+05        -0.49995E+08         0.00000E+00
    0.00000E+00         0.00000E+00        -0.49956E+08
 
   -0.49812E+08         0.98069E+05         0.00000E+00
    0.98069E+05        -0.49994E+08         0.00000E+00
    0.00000E+00         0.00000E+00        -0.49957E+08
 
   -0.49815E+08         0.10540E+06         0.00000E+00
    0.10540E+06        -0.49993E+08         0.00000E+00
    0.00000E+00         0.00000E+00        -0.49957E+08
 
   -0.49817E+08         0.11264E+06         0.00000E+00
    0.11264E+06        -0.49992E+08         0.00000E+00
    0.00000E+00         0.00000E+00        -0.49957E+08
 
   -0.49820E+08         0.11977E+06         0.00000E+00
    0.11977E+06        -0.49991E+08         0.00000E+00
    0.00000E+00         0.00000E+00        -0.49957E+08
 
   -0.49823E+08         0.12678E+06         0.00000E+00
    0.12678E+06        -0.49990E+08         0.00000E+00
    0.00000E+00         0.00000E+00        -0.49958E+08
 
   -0.49826E+08         0.13369E+06         0.00000E+00
    0.13369E+06        -0.49988E+08         0.00000E+00
    0.00000E+00         0.00000E+00        -0.49958E+08
 
   -0.49829E+08         0.14047E+06         0.00000E+00
    0.14047E+06        -0.49987E+08         0.00000E+00
    0.00000E+00         0.00000E+00        -0.49958E+08
 
   -0.49832E+08         0.14713E+06         0.00000E+00
    0.14713E+06        -0.49986E+08         0.00000E+00
    0.00000E+00         0.00000E+00        -0.49959E+08
 
   -0.49835E+08         0.15366E+06         0.00000E+00
    0.15366E+06        -0.49984E+08         0.00000E+00
    0.00000E+00         0.00000E+00        -0.49959E+08
 
   -0.49839E+08         0.16006E+06         0.00000E+00
    0.16006E+06        -0.49983E+08         0.00000E+00
    0.00000E+00         0.00000E+00        -0.49960E+08
 
   -0.49842E+08         0.16632E+06         0.00000E+00
    0.16632E+06        -0.49981E+08         0.00000E+00
    0.00000E+00         0.00000E+00        -0.49960E+08
 
   -0.49846E+08         0.17244E+06         0.00000E+00
    0.17244E+06        -0.49980E+08         0.00000E+00
    0.00000E+00         0.00000E+00        -0.49960E+08
 
   -0.49850E+08         0.17841E+06         0.00000E+00
    0.17841E+06        -0.49978E+08         0.00000E+00
    0.00000E+00         0.00000E+00        -0.49961E+08
 
   -0.49853E+08         0.18423E+06         0.00000E+00
    0.18423E+06        -0.49976E+08         0.00000E+00
    0.00000E+00         0.00000E+00        -0.49961E+08
 
   -0.49857E+08         0.18990E+06         0.00000E+00
    0.18990E+06        -0.49975E+08         0.00000E+00
    0.00000E+00         0.00000E+00        -0.49962E+08
 
   -0.49861E+08         0.19541E+06         0.00000E+00
    0.19541E+06        -0.49973E+08         0.00000E+00
    0.00000E+00         0.00000E+00        -0.49962E+08
 
   -0.49866E+08         0.20076E+06         0.00000E+00
    0.20076E+06        -0.49971E+08         0.00000E+00
    0.00000E+00         0.00000E+00        -0.49963E+08
 
   -0.49870E+08         0.20595E+06         0.00000E+00
    0.20595E+06        -0.49969E+08         0.00000E+00
    0.00000E+00         0.00000E+00        -0.49963E+08
 
   -0.49874E+08         0.21097E+06         0.00000E+00
    0.21097E+06        -0.49967E+08         0.00000E+00
    0.00000E+00         0.00000E+00        -0.49963E+08
 
   -0.49879E+08         0.21582E+06         0.00000E+00
    0.21582E+06        -0.49965E+08         0.00000E+00
    0.00000E+00         0.00000E+00        -0.49964E+08
 
   -0.49883E+08         0.22049E+06         0.00000E+00
    0.22049E+06        -0.49963E+08         0.00000E+00
    0.00000E+00         0.00000E+00        -0.49964E+08
 
   -0.49888E+08         0.22498E+06         0.00000E+00
    0.22498E+06        -0.49961E+08         0.00000E+00
    0.00000E+00         0.00000E+00        -0.49965E+08
 
   -0.49892E+08         0.22929E+06         0.00000E+00
    0.22929E+06        -0.49959E+08         0.00000E+00
    0.00000E+00         0.00000E+00        -0.49965E+08
 
   -0.49897E+08         0.23342E+06         0.00000E+00
    0.23342E+06        -0.49957E+08         0.00000E+00
    0.00000E+00         0.00000E+00        -0.49966E+08
 
   -0.49902E+08         0.23736E+06         0.00000E+00
    0.23736E+06        -0.49954E+08         0.00000E+00
    0.00000E+00         0.00000E+00        -0.49967E+08
 
   -0.49907E+08         0.24111E+06         0.00000E+00
    0.24111E+06        -0.49952E+08         0.00000E+00
    0.00000E+00         0.00000E+00        -0.49967E+08
 
   -0.49912E+08         0.24467E+06         0.00000E+00
    0.24467E+06        -0.49950E+08         0.00000E+00
    0.00000E+00         0.00000E+00        -0.49968E+08
 
   -0.49917E+08         0.24803E+06         0.00000E+00
    0.24803E+06        -0.49948E+08         0.00000E+00
    0.00000E+00         0.00000E+00        -0.49968E+08
 
   -0.49922E+08         0.25119E+06         0.00000E+00
    0.25119E+06        -0.49945E+08         0.00000E+00
    0.00000E+00         0.00000E+00        -0.49969E+08
 
   -0.49928E+08         0.25416E+06         0.00000E+00
    0.25416E+06        -0.49943E+08         0.00000E+00
    0.00000E+00         0.00000E+00        -0.49969E+08
 
   -0.49933E+08         0.25692E+06         0.00000E+00
    0.25692E+06        -0.49940E+08         0.00000E+00
    0.00000E+00         0.00000E+00        -0.49970E+08
 
   -0.49938E+08         0.25947E+06         0.00000E+00
    0.25947E+06        -0.49938E+08         0.00000E+00
    0.00000E+00         0.00000E+00        -0.49971E+08
 
   -0.49944E+08         0.26182E+06         0.00000E+00
    0.26182E+06        -0.49936E+08         0.00000E+00
    0.00000E+00         0.00000E+00        -0.49971E+08
 
   -0.49949E+08         0.26395E+06         0.00000E+00
    0.26395E+06        -0.49933E+08         0.00000E+00
    0.00000E+00         0.00000E+00        -0.49972E+08
 
   -0.49955E+08         0.26588E+06         0.00000E+00
    0.26588E+06        -0.49931E+08         0.00000E+00
    0.00000E+00         0.00000E+00        -0.49972E+08
 
   -0.49960E+08         0.26759E+06         0.00000E+00
    0.26759E+06        -0.49928E+08         0.00000E+00
    0.00000E+00         0.00000E+00        -0.49973E+08
 
   -0.49966E+08         0.26908E+06         0.00000E+00
    0.26908E+06        -0.49926E+08         0.00000E+00
    0.00000E+00         0.00000E+00        -0.49974E+08
 
   -0.49972E+08         0.27036E+06         0.00000E+00
    0.27036E+06        -0.49923E+08         0.00000E+00
    0.00000E+00         0.00000E+00        -0.49974E+08
 
   -0.49753E+08         0.43205E+04         0.00000E+00
    0.43205E+04        -0.50000E+08         0.00000E+00
    0.00000E+00         0.00000E+00        -0.49944E+08
 
   -0.49754E+08         0.12888E+05         0.00000E+00
    0.12888E+05        -0.50000E+08         0.00000E+00
    0.00000E+00         0.00000E+00        -0.49945E+08
 
   -0.49755E+08         0.21417E+05         0.00000E+00
    0.21417E+05        -0.50000E+08         0.00000E+00
    0.00000E+00         0.00000E+00        -0.49945E+08
 
   -0.49756E+08         0.29900E+05         0.00000E+00
    0.29900E+05        -0.49999E+08         0.00000E+00
    0.00000E+00         0.00000E+00        -0.49945E+08
 
   -0.49757E+08         0.38332E+05         0.00000E+00
    0.38332E+05        -0.49999E+08         0.00000E+00
    0.00000E+00         0.00000E+00        -0.49945E+08
 
   -0.49759E+08         0.46707E+05         0.00000E+00
    0.46707E+05        -0.49999E+08         0.00000E+00
    0.00000E+00         0.00000E+00        -0.49945E+08
 
   -0.49761E+08         0.55018E+05         0.00000E+00
    0.55018E+05        -0.49998E+08         0.00000E+00
    0.00000E+00         0.00000E+00        -0.49946E+08
 
   -0.49763E+08         0.63261E+05         0.00000E+00
    0.63261E+05        -0.49997E+08         0.00000E+00
    0.00000E+00         0.00000E+00        -0.49946E+08
 
   -0.49765E+08         0.71429E+05         0.00000E+00
    0.71429E+05        -0.49997E+08         0.00000E+00
    0.00000E+00         0.00000E+00        -0.49946E+08
 
   -0.49767E+08         0.79516E+05         0.00000E+00
    0.79516E+05        -0.49996E+08         0.00000E+00
    0.00000E+00         0.00000E+00        -0.49946E+08
 
   -0.49769E+08         0.87518E+05         0.00000E+00
    0.87518E+05        -0.49995E+08         0.00000E+00
    0.00000E+00         0.00000E+00        -0.49947E+08
 
   -0.49772E+08         0.95428E+05         0.00000E+00
    0.95428E+05        -0.49994E+08         0.00000E+00
    0.00000E+00         0.00000E+00        -0.49947E+08
 
   -0.49775E+08         0.10324E+06         0.00000E+00
    0.10324E+06        -0.49993E+08         0.00000E+00
    0.00000E+00         0.00000E+00        -0.49947E+08
 
   -0.49778E+08         0.11095E+06         0.00000E+00
    0.11095E+06        -0.49992E+08         0.00000E+00
    0.00000E+00         0.00000E+00        -0.49948E+08
 
   -0.49781E+08         0.11856E+06         0.00000E+00
    0.11856E+06        -0.49990E+08         0.00000E+00
    0.00000E+00         0.00000E+00        -0.49948E+08
 
   -0.49784E+08         0.12605E+06         0.00000E+00
    0.12605E+06        -0.49989E+08         0.00000E+00
    0.00000E+00         0.00000E+00        -0.49949E+08
 
   -0.49787E+08         0.13343E+06         0.00000E+00
    0.13343E+06        -0.49988E+08         0.00000E+00
    0.00000E+00         0.00000E+00        -0.49949E+08
 
   -0.49791E+08         0.14068E+06         0.00000E+00
    0.14068E+06        -0.49986E+08         0.00000E+00
    0.00000E+00         0.00000E+00        -0.49949E+08
 
   -0.49794E+08         0.14781E+06         0.00000E+00
    0.14781E+06        -0.49985E+08         0.00000E+00
    0.00000E+00         0.00000E+00        -0.49950E+08
 
   -0.49798E+08         0.15480E+06         0.00000E+00
    0.15480E+06        -0.49983E+08         0.00000E+00
    0.00000E+00         0.00000E+00        -0.49950E+08
 
   -0.49802E+08         0.16166E+06         0.00000E+00
    0.16166E+06        -0.49981E+08         0.00000E+00
    0.00000E+00         0.00000E+00        -0.49951E+08
 
   -0.49806E+08         0.16838E+06         0.00000E+00
    0.16838E+06        -0.49979E+08         0.00000E+00
    0.00000E+00         0.00000E+00        -0.49951E+08
 
   -0.49810E+08         0.17495E+06         0.00000E+00
    0.17495E+06        -0.49978E+08         0.00000E+00
    0.00000E+00         0.00000E+00        -0.49952E+08
 
   -0.49815E+08         0.18138E+06         0.00000E+00
    0.18138E+06        -0.49976E+08         0.00000E+00
    0.00000E+00         0.00000E+00        -0.49952E+08
 
   -0.49819E+08         0.18765E+06         0.00000E+00
    0.18765E+06        -0.49974E+08         0.00000E+00
    0.00000E+00         0.00000E+00        -0.49953E+08
 
   -0.49824E+08         0.19376E+06         0.00000E+00
    0.19376E+06        -0.49972E+08         0.00000E+00
    0.00000E+00         0.00000E+00        -0.49953E+08
 
   -0.49829E+08         0.19971E+06         0.00000E+00
    0.19971E+06        -0.49970E+08         0.00000E+00
    0.00000E+00         0.00000E+00        -0.49954E+08
 
   -0.49834E+08         0.20550E+06         0.00000E+00
    0.20550E+06        -0.49967E+08         0.00000E+00
    0.00000E+00         0.00000E+00        -0.49954E+08
 
   -0.49839E+08         0.21112E+06         0.00000E+00
    0.21112E+06        -0.49965E+08         0.00000E+00
    0.00000E+00         0.00000E+00        -0.49955E+08
 
   -0.49844E+08         0.21656E+06         0.00000E+00
    0.21656E+06        -0.49963E+08         0.00000E+00
    0.00000E+00         0.00000E+00        -0.49955E+08
 
   -0.49849E+08         0.22183E+06         0.00000E+00
    0.22183E+06        -0.49961E+08         0.00000E+00
    0.00000E+00         0.00000E+00        -0.49956E+08
 
   -0.49854E+08         0.22692E+06         0.00000E+00
    0.22692E+06        -0.49958E+08         0.00000E+00
    0.00000E+00         0.00000E+00        -0.49956E+08
 
   -0.49860E+08         0.23182E+06         0.00000E+00
    0.23182E+06        -0.49956E+08         0.00000E+00
    0.00000E+00         0.00000E+00        -0.49957E+08
 
   -0.49865E+08         0.23654E+06         0.00000E+00
    0.23654E+06        -0.49953E+08         0.00000E+00
    0.00000E+00         0.00000E+00        -0.49958E+08
 
   -0.49871E+08         0.24107E+06         0.00000E+00
    0.24107E+06        -0.49951E+08         0.00000E+00
    0.00000E+00         0.00000E+00        -0.49958E+08
 
   -0.49877E+08         0.24540E+06         0.00000E+00
    0.24540E+06        -0.49948E+08         0.00000E+00
    0.00000E+00         0.00000E+00        -0.49959E+08
 
   -0.49882E+08         0.24954E+06         0.00000E+00
    0.24954E+06        -0.49945E+08         0.00000E+00
    0.00000E+00         0.00000E+00        -0.49960E+08
 
   -0.49888E+08         0.25348E+06         0.00000E+00
    0.25348E+06        -0.49943E+08         0.00000E+00
    0.00000E+00         0.00000E+00        -0.49960E+08
 
   -0.49894E+08         0.25722E+06         0.00000E+00
    0.25722E+06        -0.49940E+08         0.00000E+00
    0.00000E+00         0.00000E+00        -0.49961E+08
 
   -0.49900E+08         0.26075E+06         0.00000E+00
    0.26075E+06        -0.49937E+08         0.00000E+00
    0.00000E+00         0.00000E+00        -0.49961E+08
 
   -0.49907E+08         0.26408E+06         0.00000E+00
    0.26408E+06        -0.49934E+08         0.00000E+00
    0.00000E+00         0.00000E+00        -0.49962E+08
 
   -0.49913E+08         0.26720E+06         0.00000E+00
    0.26720E+06        -0.49932E+08         0.00000E+00
    0.00000E+00         0.00000E+00        -0.49963E+08
 
   -0.49919E+08         0.27010E+06         0.00000E+00
    0.27010E+06        -0.49929E+08         0.00000E+00
    0.00000E+00         0.00000E+00        -0.49964E+08
 
   -0.49926E+08         0.27279E+06         0.00000E+00
    0.27279E+06        -0.49926E+08         0.00000E+00
    0.00000E+00         0.00000E+00        -0.49964E+08
 
   -0.49932E+08         0.27527E+06         0.00000E+00
    0.27527E+06        -0.49923E+08         0.00000E+00
    0.00000E+00         0.00000E+00        -0.49965E+08
 
   -0.49939E+08         0.27752E+06         0.00000E+00
    0.27752E+06        -0.49920E+08         0.00000E+00
    0.00000E+00         0.00000E+00        -0.49966E+08
 
   -0.49945E+08         0.27956E+06         0.00000E+00
    0.27956E+06        -0.49917E+08         0.00000E+00
    0.00000E+00         0.00000E+00        -0.49966E+08
 
   -0.49952E+08         0.28137E+06         0.00000E+00
    0.28137E+06        -0.49914E+08         0.00000E+00
    0.00000E+00         0.00000E+00        -0.49967E+08
 
   -0.49959E+08         0.28295E+06         0.00000E+00
    0.28295E+06        -0.49911E+08         0.00000E+00
    0.00000E+00         0.00000E+00        -0.49968E+08
 
   -0.49966E+08         0.28431E+06         0.00000E+00
    0.28431E+06        -0.49908E+08         0.00000E+00
    0.00000E+00         0.00000E+00        -0.49969E+08
 
   -0.49709E+08         0.45854E+04         0.00000E+00
    0.45854E+04        -0.50000E+08         0.00000E+00
    0.00000E+00         0.00000E+00        -0.49934E+08
 
   -0.49710E+08         0.13673E+05         0.00000E+00
    0.13673E+05        -0.50000E+08         0.00000E+00
    0.00000E+00         0.00000E+00        -0.49934E+08
 
   -0.49711E+08         0.22718E+05         0.00000E+00
    0.22718E+05        -0.50000E+08         0.00000E+00
    0.00000E+00         0.00000E+00        -0.49935E+08
 
   -0.49712E+08         0.31711E+05         0.00000E+00
    0.31711E+05        -0.49999E+08         0.00000E+00
    0.00000E+00         0.00000E+00        -0.49935E+08
 
   -0.49714E+08         0.40649E+05         0.00000E+00
    0.40649E+05        -0.49999E+08         0.00000E+00
    0.00000E+00         0.00000E+00        -0.49935E+08
 
   -0.49716E+08         0.49523E+05         0.00000E+00
    0.49523E+05        -0.49998E+08         0.00000E+00
    0.00000E+00         0.00000E+00        -0.49935E+08
 
   -0.49718E+08         0.58328E+05         0.00000E+00
    0.58328E+05        -0.49998E+08         0.00000E+00
    0.00000E+00         0.00000E+00        -0.49936E+08
 
   -0.49720E+08         0.67059E+05         0.00000E+00
    0.67059E+05        -0.49997E+08         0.00000E+00
    0.00000E+00         0.00000E+00        -0.49936E+08
 
   -0.49723E+08         0.75708E+05         0.00000E+00
    0.75708E+05        -0.49996E+08         0.00000E+00
    0.00000E+00         0.00000E+00        -0.49936E+08
 
   -0.49725E+08         0.84270E+05         0.00000E+00
    0.84270E+05        -0.49995E+08         0.00000E+00
    0.00000E+00         0.00000E+00        -0.49937E+08
 
   -0.49728E+08         0.92739E+05         0.00000E+00
    0.92739E+05        -0.49994E+08         0.00000E+00
    0.00000E+00         0.00000E+00        -0.49937E+08
 
   -0.49731E+08         0.10111E+06         0.00000E+00
    0.10111E+06        -0.49993E+08         0.00000E+00
    0.00000E+00         0.00000E+00        -0.49937E+08
 
   -0.49735E+08         0.10938E+06         0.00000E+00
    0.10938E+06        -0.49992E+08         0.00000E+00
    0.00000E+00         0.00000E+00        -0.49938E+08
 
   -0.49738E+08         0.11753E+06         0.00000E+00
    0.11753E+06        -0.49990E+08         0.00000E+00
    0.00000E+00         0.00000E+00        -0.49938E+08
 
   -0.49742E+08         0.12558E+06         0.00000E+00
    0.12558E+06        -0.49989E+08         0.00000E+00
    0.00000E+00         0.00000E+00        -0.49939E+08
 
   -0.49746E+08         0.13350E+06         0.00000E+00
    0.13350E+06        -0.49987E+08         0.00000E+00
    0.00000E+00         0.00000E+00        -0.49939E+08
 
   -0.49750E+08         0.14130E+06         0.00000E+00
    0.14130E+06        -0.49985E+08         0.00000E+00
    0.00000E+00         0.00000E+00        -0.49939E+08
 
   -0.49754E+08         0.14896E+06         0.00000E+00
    0.14896E+06        -0.49984E+08         0.00000E+00
    0.00000E+00         0.00000E+00        -0.49940E+08
 
   -0.49758E+08         0.15650E+06         0.00000E+00
    0.15650E+06        -0.49982E+08         0.00000E+00
    0.00000E+00         0.00000E+00        -0.49940E+08
 
   -0.49763E+08         0.16389E+06         0.00000E+00
    0.16389E+06        -0.49980E+08         0.00000E+00
    0.00000E+00         0.00000E+00        -0.49941E+08
 
   -0.49767E+08         0.17113E+06         0.00000E+00
    0.17113E+06        -0.49978E+08         0.00000E+00
    0.00000E+00         0.00000E+00        -0.49942E+08
 
   -0.49772E+08         0.17823E+06         0.00000E+00
    0.17823E+06        -0.49976E+08         0.00000E+00
    0.00000E+00         0.00000E+00        -0.49942E+08
 
   -0.49777E+08         0.18517E+06         0.00000E+00
    0.18517E+06        -0.49974E+08         0.00000E+00
    0.00000E+00         0.00000E+00        -0.49943E+08
 
   -0.49782E+08         0.19196E+06         0.00000E+00
    0.19196E+06        -0.49971E+08         0.00000E+00
    0.00000E+00         0.00000E+00        -0.49943E+08
 
   -0.49788E+08         0.19858E+06         0.00000E+00
    0.19858E+06        -0.49969E+08         0.00000E+00
    0.00000E+00         0.00000E+00        -0.49944E+08
 
   -0.49793E+08         0.20504E+06         0.00000E+00
    0.20504E+06        -0.49967E+08         0.00000E+00
    0.00000E+00         0.00000E+00        -0.49944E+08
 
   -0.49799E+08         0.21132E+06         0.00000E+00
    0.21132E+06        -0.49964E+08         0.00000E+00
    0.00000E+00         0.00000E+00        -0.49945E+08
 
   -0.49804E+08         0.21743E+06         0.00000E+00
    0.21743E+06        -0.49962E+08         0.00000E+00
    0.00000E+00         0.00000E+00        -0.49946E+08
 
   -0.49810E+08         0.22336E+06         0.00000E+00
    0.22336E+06        -0.49959E+08         0.00000E+00
    0.00000E+00         0.00000E+00        -0.49946E+08
 
   -0.49816E+08         0.22911E+06         0.00000E+00
    0.22911E+06        -0.49956E+08         0.00000E+00
    0.00000E+00         0.00000E+00        -0.49947E+08
 
   -0.49822E+08         0.23467E+06         0.00000E+00
    0.23467E+06        -0.49954E+08         0.00000E+00
    0.00000E+00         0.00000E+00        -0.49948E+08
 
   -0.49829E+08         0.24004E+06         0.00000E+00
    0.24004E+06        -0.49951E+08         0.00000E+00
    0.00000E+00         0.00000E+00        -0.49948E+08
 
   -0.49835E+08         0.24522E+06         0.00000E+00
    0.24522E+06        -0.49948E+08         0.00000E+00
    0.00000E+00         0.00000E+00        -0.49949E+08
 
   -0.49841E+08         0.25020E+06         0.00000E+00
    0.25020E+06        -0.49945E+08         0.00000E+00
    0.00000E+00         0.00000E+00        -0.49950E+08
 
   -0.49848E+08         0.25498E+06         0.00000E+00
    0.25498E+06        -0.49942E+08         0.00000E+00
    0.00000E+00         0.00000E+00        -0.49950E+08
 
   -0.49855E+08         0.25956E+06         0.00000E+00
    0.25956E+06        -0.49939E+08         0.00000E+00
    0.00000E+00         0.00000E+00        -0.49951E+08
 
   -0.49862E+08         0.26393E+06         0.00000E+00
    0.26393E+06        -0.49936E+08         0.00000E+00
    0.00000E+00         0.00000E+00        -0.49952E+08
 
   -0.49869E+08         0.26810E+06         0.00000E+00
    0.26810E+06        -0.49933E+08         0.00000E+00
    0.00000E+00         0.00000E+00        -0.49953E+08
 
   -0.49876E+08         0.27205E+06         0.00000E+00
    0.27205E+06        -0.49930E+08         0.00000E+00
    0.00000E+00         0.00000E+00        -0.49954E+08
 
   -0.49883E+08         0.27579E+06         0.00000E+00
    0.27579E+06        -0.49926E+08         0.00000E+00
    0.00000E+00         0.00000E+00        -0.49954E+08
 
   -0.49890E+08         0.27931E+06         0.00000E+00
    0.27931E+06        -0.49923E+08         0.00000E+00
    0.00000E+00         0.00000E+00        -0.49955E+08
 
   -0.49897E+08         0.28261E+06         0.00000E+00
    0.28261E+06        -0.49920E+08         0.00000E+00
    0.00000E+00         0.00000E+00        -0.49956E+08
 
   -0.49905E+08         0.28568E+06         0.00000E+00
    0.28568E+06        -0.49917E+08         0.00000E+00
    0.00000E+00         0.00000E+00        -0.49957E+08
 
   -0.49912E+08         0.28854E+06         0.00000E+00
    0.28854E+06        -0.49913E+08         0.00000E+00
    0.00000E+00         0.00000E+00        -0.49958E+08
 
   -0.49920E+08         0.29116E+06         0.00000E+00
    0.29116E+06        -0.49910E+08         0.00000E+00
    0.00000E+00         0.00000E+00        -0.49958E+08
 
   -0.49928E+08         0.29356E+06         0.00000E+00
    0.29356E+06        -0.49906E+08         0.00000E+00
    0.00000E+00         0.00000E+00        -0.49959E+08
 
   -0.49935E+08         0.29572E+06         0.00000E+00
    0.29572E+06        -0.49903E+08         0.00000E+00
    0.00000E+00         0.00000E+00        -0.49960E+08
 
   -0.49943E+08         0.29765E+06         0.00000E+00
    0.29765E+06        -0.49899E+08         0.00000E+00
    0.00000E+00         0.00000E+00        -0.49961E+08
 
   -0.49951E+08         0.29935E+06         0.00000E+00
    0.29935E+06        -0.49896E+08         0.00000E+00
    0.00000E+00         0.00000E+00        -0.49962E+08
 
   -0.49959E+08         0.30081E+06         0.00000E+00
    0.30081E+06        -0.49892E+08         0.00000E+00
    0.00000E+00         0.00000E+00        -0.49963E+08
 
   -0.49661E+08         0.48954E+04         0.00000E+00
    0.48954E+04        -0.50000E+08         0.00000E+00
    0.00000E+00         0.00000E+00        -0.49923E+08
 
   -0.49663E+08         0.14591E+05         0.00000E+00
    0.14591E+05        -0.50000E+08         0.00000E+00
    0.00000E+00         0.00000E+00        -0.49923E+08
 
   -0.49664E+08         0.24237E+05         0.00000E+00
    0.24237E+05        -0.50000E+08         0.00000E+00
    0.00000E+00         0.00000E+00        -0.49924E+08
 
   -0.49666E+08         0.33827E+05         0.00000E+00
    0.33827E+05        -0.49999E+08         0.00000E+00
    0.00000E+00         0.00000E+00        -0.49924E+08
 
   -0.49668E+08         0.43354E+05         0.00000E+00
    0.43354E+05        -0.49999E+08         0.00000E+00
    0.00000E+00         0.00000E+00        -0.49924E+08
 
   -0.49670E+08         0.52811E+05         0.00000E+00
    0.52811E+05        -0.49998E+08         0.00000E+00
    0.00000E+00         0.00000E+00        -0.49924E+08
 
   -0.49673E+08         0.62192E+05         0.00000E+00
    0.62192E+05        -0.49997E+08         0.00000E+00
    0.00000E+00         0.00000E+00        -0.49925E+08
 
   -0.49675E+08         0.71490E+05         0.00000E+00
    0.71490E+05        -0.49996E+08         0.00000E+00
    0.00000E+00         0.00000E+00        -0.49925E+08
 
   -0.49678E+08         0.80700E+05         0.00000E+00
    0.80700E+05        -0.49995E+08         0.00000E+00
    0.00000E+00         0.00000E+00        -0.49926E+08
 
   -0.49682E+08         0.89814E+05         0.00000E+00
    0.89814E+05        -0.49994E+08         0.00000E+00
    0.00000E+00         0.00000E+00        -0.49926E+08
 
   -0.49685E+08         0.98827E+05         0.00000E+00
    0.98827E+05        -0.49993E+08         0.00000E+00
    0.00000E+00         0.00000E+00        -0.49926E+08
 
   -0.49689E+08         0.10773E+06         0.00000E+00
    0.10773E+06        -0.49992E+08         0.00000E+00
    0.00000E+00         0.00000E+00        -0.49927E+08
 
   -0.49692E+08         0.11653E+06         0.00000E+00
    0.11653E+06        -0.49990E+08         0.00000E+00
    0.00000E+00         0.00000E+00        -0.49927E+08
 
   -0.49696E+08         0.12520E+06         0.00000E+00
    0.12520E+06        -0.49989E+08         0.00000E+00
    0.00000E+00         0.00000E+00        -0.49928E+08
 
   -0.49701E+08         0.13375E+06         0.00000E+00
    0.13375E+06        -0.49987E+08         0.00000E+00
    0.00000E+00         0.00000E+00        -0.49928E+08
 
   -0.49705E+08         0.14217E+06         0.00000E+00
    0.14217E+06        -0.49985E+08         0.00000E+00
    0.00000E+00         0.00000E+00        -0.49929E+08
 
   -0.49710E+08         0.15046E+06         0.00000E+00
    0.15046E+06        -0.49983E+08         0.00000E+00
    0.00000E+00         0.00000E+00        -0.49929E+08
 
   -0.49715E+08         0.15861E+06         0.00000E+00
    0.15861E+06        -0.49981E+08         0.00000E+00
    0.00000E+00         0.00000E+00        -0.49930E+08
 
   -0.49720E+08         0.16661E+06         0.00000E+00
    0.16661E+06        -0.49979E+08         0.00000E+00
    0.00000E+00         0.00000E+00        -0.49930E+08
 
   -0.49725E+08         0.17446E+06         0.00000E+00
    0.17446E+06        -0.49977E+08         0.00000E+00
    0.00000E+00         0.00000E+00        -0.49931E+08
 
   -0.49730E+08         0.18215E+06         0.00000E+00
    0.18215E+06        -0.49974E+08         0.00000E+00
    0.00000E+00         0.00000E+00        -0.49932E+08
 
   -0.49736E+08         0.18969E+06         0.00000E+00
    0.18969E+06        -0.49972E+08         0.00000E+00
    0.00000E+00         0.00000E+00        -0.49932E+08
 
   -0.49742E+08         0.19706E+06         0.00000E+00
    0.19706E+06        -0.49970E+08         0.00000E+00
    0.00000E+00         0.00000E+00        -0.49933E+08
 
   -0.49748E+08         0.20426E+06         0.00000E+00
    0.20426E+06        -0.49967E+08         0.00000E+00
    0.00000E+00         0.00000E+00        -0.49934E+08
 
   -0.49754E+08         0.21129E+06         0.00000E+00
    0.21129E+06        -0.49964E+08         0.00000E+00
    0.00000E+00         0.00000E+00        -0.49934E+08
 
   -0.49760E+08         0.21814E+06         0.00000E+00
    0.21814E+06        -0.49962E+08         0.00000E+00
    0.00000E+00         0.00000E+00        -0.49935E+08
 
   -0.49767E+08         0.22481E+06         0.00000E+00
    0.22481E+06        -0.49959E+08         0.00000E+00
    0.00000E+00         0.00000E+00        -0.49936E+08
 
   -0.49773E+08         0.23129E+06         0.00000E+00
    0.23129E+06        -0.49956E+08         0.00000E+00
    0.00000E+00         0.00000E+00        -0.49937E+08
 
   -0.49780E+08         0.23758E+06         0.00000E+00
    0.23758E+06        -0.49953E+08         0.00000E+00
    0.00000E+00         0.00000E+00        -0.49937E+08
 
   -0.49787E+08         0.24368E+06         0.00000E+00
    0.24368E+06        -0.49950E+08         0.00000E+00
    0.00000E+00         0.00000E+00        -0.49938E+08
 
   -0.49794E+08         0.24958E+06         0.00000E+00
    0.24958E+06        -0.49946E+08         0.00000E+00
    0.00000E+00         0.00000E+00        -0.49939E+08
 
   -0.49801E+08         0.25528E+06         0.00000E+00
    0.25528E+06        -0.49943E+08         0.00000E+00
    0.00000E+00         0.00000E+00        -0.49940E+08
 
   -0.49809E+08         0.26078E+06         0.00000E+00
    0.26078E+06        -0.49940E+08         0.00000E+00
    0.00000E+00         0.00000E+00        -0.49940E+08
 
   -0.49816E+08         0.26606E+06         0.00000E+00
    0.26606E+06        -0.49937E+08         0.00000E+00
    0.00000E+00         0.00000E+00        -0.49941E+08
 
   -0.49824E+08         0.27114E+06         0.00000E+00
    0.27114E+06        -0.49933E+08         0.00000E+00
    0.00000E+00         0.00000E+00        -0.49942E+08
 
   -0.49832E+08         0.27600E+06         0.00000E+00
    0.27600E+06        -0.49930E+08         0.00000E+00
    0.00000E+00         0.00000E+00        -0.49943E+08
 
   -0.49840E+08         0.28064E+06         0.00000E+00
    0.28064E+06        -0.49926E+08         0.00000E+00
    0.00000E+00         0.00000E+00        -0.49944E+08
 
   -0.49848E+08         0.28506E+06         0.00000E+00
    0.28506E+06        -0.49922E+08         0.00000E+00
    0.00000E+00         0.00000E+00        -0.49945E+08
 
   -0.49856E+08         0.28926E+06         0.00000E+00
    0.28926E+06        -0.49919E+08         0.00000E+00
    0.00000E+00         0.00000E+00        -0.49946E+08
 
   -0.49864E+08         0.29324E+06         0.00000E+00
    0.29324E+06        -0.49915E+08         0.00000E+00
    0.00000E+00         0.00000E+00        -0.49947E+08
 
   -0.49873E+08         0.29698E+06         0.00000E+00
    0.29698E+06        -0.49911E+08         0.00000E+00
    0.00000E+00         0.00000E+00        -0.49948E+08
 
   -0.49881E+08         0.30049E+06         0.00000E+00
    0.30049E+06        -0.49908E+08         0.00000E+00
    0.00000E+00         0.00000E+00        -0.49948E+08
 
   -0.49890E+08         0.30377E+06         0.00000E+00
    0.30377E+06        -0.49904E+08         0.00000E+00
    0.00000E+00         0.00000E+00        -0.49949E+08
 
   -0.49898E+08         0.30681E+06         0.00000E+00
    0.30681E+06        -0.49900E+08         0.00000E+00
    0.00000E+00         0.00000E+00        -0.49950E+08
 
   -0.49907E+08         0.30961E+06         0.00000E+00
    0.30961E+06        -0.49896E+08         0.00000E+00
    0.00000E+00         0.00000E+00        -0.49951E+08
 
   -0.49916E+08         0.31217E+06         0.00000E+00
    0.31217E+06        -0.49892E+08         0.00000E+00
    0.00000E+00         0.00000E+00        -0.49952E+08
 
   -0.49925E+08         0.31449E+06         0.00000E+00
    0.31449E+06        -0.49888E+08         0.00000E+00
    0.00000E+00         0.00000E+00        -0.49953E+08
 
   -0.49934E+08         0.31656E+06         0.00000E+00
    0.31656E+06        -0.49884E+08         0.00000E+00
    0.00000E+00         0.00000E+00        -0.49954E+08
 
   -0.49943E+08         0.31839E+06         0.00000E+00
    0.31839E+06        -0.49880E+08         0.00000E+00
    0.00000E+00         0.00000E+00        -0.49955E+08
 
   -0.49952E+08         0.31996E+06         0.00000E+00
    0.31996E+06        -0.49876E+08         0.00000E+00
    0.00000E+00         0.00000E+00        -0.49956E+08
 
   -0.49611E+08         0.52535E+04         0.00000E+00
    0.52535E+04        -0.50000E+08         0.00000E+00
    0.00000E+00         0.00000E+00        -0.49911E+08
 
   -0.49613E+08         0.15650E+05         0.00000E+00
    0.15650E+05        -0.50000E+08         0.00000E+00
    0.00000E+00         0.00000E+00        -0.49911E+08
 
   -0.49614E+08         0.25990E+05         0.00000E+00
    0.25990E+05        -0.50000E+08         0.00000E+00
    0.00000E+00         0.00000E+00        -0.49912E+08
 
   -0.49617E+08         0.36267E+05         0.00000E+00
    0.36267E+05        -0.49999E+08         0.00000E+00
    0.00000E+00         0.00000E+00        -0.49912E+08
 
   -0.49619E+08         0.46473E+05         0.00000E+00
    0.46473E+05        -0.49999E+08         0.00000E+00
    0.00000E+00         0.00000E+00        -0.49912E+08
 
   -0.49622E+08         0.56600E+05         0.00000E+00
    0.56600E+05        -0.49998E+08         0.00000E+00
    0.00000E+00         0.00000E+00        -0.49913E+08
 
   -0.49624E+08         0.66643E+05         0.00000E+00
    0.66643E+05        -0.49997E+08         0.00000E+00
    0.00000E+00         0.00000E+00        -0.49913E+08
 
   -0.49628E+08         0.76595E+05         0.00000E+00
    0.76595E+05        -0.49996E+08         0.00000E+00
    0.00000E+00         0.00000E+00        -0.49913E+08
 
   -0.49631E+08         0.86448E+05         0.00000E+00
    0.86448E+05        -0.49995E+08         0.00000E+00
    0.00000E+00         0.00000E+00        -0.49914E+08
 
   -0.49635E+08         0.96197E+05         0.00000E+00
    0.96197E+05        -0.49993E+08         0.00000E+00
    0.00000E+00         0.00000E+00        -0.49914E+08
 
   -0.49639E+08         0.10583E+06         0.00000E+00
    0.10583E+06        -0.49992E+08         0.00000E+00
    0.00000E+00         0.00000E+00        -0.49915E+08
 
   -0.49643E+08         0.11536E+06         0.00000E+00
    0.11536E+06        -0.49990E+08         0.00000E+00
    0.00000E+00         0.00000E+00        -0.49915E+08
 
   -0.49647E+08         0.12475E+06         0.00000E+00
    0.12475E+06        -0.49989E+08         0.00000E+00
    0.00000E+00         0.00000E+00        -0.49916E+08
 
   -0.49652E+08         0.13402E+06         0.00000E+00
    0.13402E+06        -0.49987E+08         0.00000E+00
    0.00000E+00         0.00000E+00        -0.49917E+08
 
   -0.49657E+08         0.14315E+06         0.00000E+00
    0.14315E+06        -0.49985E+08         0.00000E+00
    0.00000E+00         0.00000E+00        -0.49917E+08
 
   -0.49662E+08         0.15215E+06         0.00000E+00
    0.15215E+06        -0.49983E+08         0.00000E+00
    0.00000E+00         0.00000E+00        -0.49918E+08
 
   -0.49667E+08         0.16099E+06         0.00000E+00
    0.16099E+06        -0.49981E+08         0.00000E+00
    0.00000E+00         0.00000E+00        -0.49918E+08
 
   -0.49673E+08         0.16969E+06         0.00000E+00
    0.16969E+06        -0.49978E+08         0.00000E+00
    0.00000E+00         0.00000E+00        -0.49919E+08
 
   -0.49679E+08         0.17822E+06         0.00000E+00
    0.17822E+06        -0.49976E+08         0.00000E+00
    0.00000E+00         0.00000E+00        -0.49920E+08
 
   -0.49685E+08         0.18660E+06         0.00000E+00
    0.18660E+06        -0.49973E+08         0.00000E+00
    0.00000E+00         0.00000E+00        -0.49920E+08
 
   -0.49691E+08         0.19481E+06         0.00000E+00
    0.19481E+06        -0.49971E+08         0.00000E+00
    0.00000E+00         0.00000E+00        -0.49921E+08
 
   -0.49697E+08         0.20284E+06         0.00000E+00
    0.20284E+06        -0.49968E+08         0.00000E+00
    0.00000E+00         0.00000E+00        -0.49922E+08
 
   -0.49704E+08         0.21070E+06         0.00000E+00
    0.21070E+06        -0.49965E+08         0.00000E+00
    0.00000E+00         0.00000E+00        -0.49923E+08
 
   -0.49711E+08         0.21838E+06         0.00000E+00
    0.21838E+06        -0.49962E+08         0.00000E+00
    0.00000E+00         0.00000E+00        -0.49923E+08
 
   -0.49718E+08         0.22587E+06         0.00000E+00
    0.22587E+06        -0.49959E+08         0.00000E+00
    0.00000E+00         0.00000E+00        -0.49924E+08
 
   -0.49725E+08         0.23317E+06         0.00000E+00
    0.23317E+06        -0.49956E+08         0.00000E+00
    0.00000E+00         0.00000E+00        -0.49925E+08
 
   -0.49733E+08         0.24028E+06         0.00000E+00
    0.24028E+06        -0.49953E+08         0.00000E+00
    0.00000E+00         0.00000E+00        -0.49926E+08
 
   -0.49740E+08         0.24718E+06         0.00000E+00
    0.24718E+06        -0.49949E+08         0.00000E+00
    0.00000E+00         0.00000E+00        -0.49927E+08
 
   -0.49748E+08         0.25389E+06         0.00000E+00
    0.25389E+06        -0.49946E+08         0.00000E+00
    0.00000E+00         0.00000E+00        -0.49928E+08
 
   -0.49756E+08         0.26039E+06         0.00000E+00
    0.26039E+06        -0.49942E+08         0.00000E+00
    0.00000E+00         0.00000E+00        -0.49928E+08
 
   -0.49764E+08         0.26667E+06         0.00000E+00
    0.26667E+06        -0.49939E+08         0.00000E+00
    0.00000E+00         0.00000E+00        -0.49929E+08
 
   -0.49773E+08         0.27275E+06         0.00000E+00
    0.27275E+06        -0.49935E+08         0.00000E+00
    0.00000E+00         0.00000E+00        -0.49930E+08
 
   -0.49781E+08         0.27860E+06         0.00000E+00
    0.27860E+06        -0.49931E+08         0.00000E+00
    0.00000E+00         0.00000E+00        -0.49931E+08
 
   -0.49790E+08         0.28424E+06         0.00000E+00
    0.28424E+06        -0.49928E+08         0.00000E+00
    0.00000E+00         0.00000E+00        -0.49932E+08
 
   -0.49798E+08         0.28965E+06         0.00000E+00
    0.28965E+06        -0.49924E+08         0.00000E+00
    0.00000E+00         0.00000E+00        -0.49933E+08
 
   -0.49807E+08         0.29483E+06         0.00000E+00
    0.29483E+06        -0.49920E+08         0.00000E+00
    0.00000E+00         0.00000E+00        -0.49934E+08
 
   -0.49816E+08         0.29978E+06         0.00000E+00
    0.29978E+06        -0.49916E+08         0.00000E+00
    0.00000E+00         0.00000E+00        -0.49935E+08
 
   -0.49825E+08         0.30450E+06         0.00000E+00
    0.30450E+06        -0.49912E+08         0.00000E+00
    0.00000E+00         0.00000E+00        -0.49936E+08
 
   -0.49835E+08         0.30898E+06         0.00000E+00
    0.30898E+06        -0.49907E+08         0.00000E+00
    0.00000E+00         0.00000E+00        -0.49937E+08
 
   -0.49844E+08         0.31322E+06         0.00000E+00
    0.31322E+06        -0.49903E+08         0.00000E+00
    0.00000E+00         0.00000E+00        -0.49938E+08
 
   -0.49854E+08         0.31722E+06         0.00000E+00
    0.31722E+06        -0.49899E+08         0.00000E+00
    0.00000E+00         0.00000E+00        -0.49939E+08
 
   -0.49863E+08         0.32097E+06         0.00000E+00
    0.32097E+06        -0.49894E+08         0.00000E+00
    0.00000E+00         0.00000E+00        -0.49940E+08
 
   -0.49873E+08         0.32448E+06         0.00000E+00
    0.32448E+06        -0.49890E+08         0.00000E+00
    0.00000E+00         0.00000E+00        -0.49941E+08
 
   -0.49883E+08         0.32774E+06         0.00000E+00
    0.32774E+06        -0.49886E+08         0.00000E+00
    0.00000E+00         0.00000E+00        -0.49943E+08
 
   -0.49893E+08         0.33074E+06         0.00000E+00
    0.33074E+06        -0.49881E+08         0.00000E+00
    0.00000E+00         0.00000E+00        -0.49944E+08
 
   -0.49903E+08         0.33349E+06         0.00000E+00
    0.33349E+06        -0.49877E+08         0.00000E+00
    0.00000E+00         0.00000E+00        -0.49945E+08
 
   -0.49913E+08         0.33599E+06         0.00000E+00
    0.33599E+06        -0.49872E+08         0.00000E+00
    0.00000E+00         0.00000E+00        -0.49946E+08
 
   -0.49924E+08         0.33822E+06         0.00000E+00
    0.33822E+06        -0.49867E+08         0.00000E+00
    0.00000E+00         0.00000E+00        -0.49947E+08
 
   -0.49934E+08         0.34020E+06         0.00000E+00
    0.34020E+06        -0.49863E+08         0.00000E+00
    0.00000E+00         0.00000E+00        -0.49948E+08
 
   -0.49945E+08         0.34191E+06         0.00000E+00
    0.34191E+06        -0.49858E+08         0.00000E+00
    0.00000E+00         0.00000E+00        -0.49949E+08
 
   -0.49557E+08         0.56632E+04         0.00000E+00
    0.56632E+04        -0.50000E+08         0.00000E+00
    0.00000E+00         0.00000E+00        -0.49898E+08
 
   -0.49559E+08         0.16861E+05         0.00000E+00
    0.16861E+05        -0.50000E+08         0.00000E+00
    0.00000E+00         0.00000E+00        -0.49898E+08
 
   -0.49561E+08         0.27994E+05         0.00000E+00
    0.27994E+05        -0.50000E+08         0.00000E+00
    0.00000E+00         0.00000E+00        -0.49899E+08
 
   -0.49563E+08         0.39054E+05         0.00000E+00
    0.39054E+05        -0.49999E+08         0.00000E+00
    0.00000E+00         0.00000E+00        -0.49899E+08
 
   -0.49566E+08         0.50034E+05         0.00000E+00
    0.50034E+05        -0.49998E+08         0.00000E+00
    0.00000E+00         0.00000E+00        -0.49899E+08
 
   -0.49569E+08         0.60926E+05         0.00000E+00
    0.60926E+05        -0.49997E+08         0.00000E+00
    0.00000E+00         0.00000E+00        -0.49900E+08
 
   -0.49573E+08         0.71723E+05         0.00000E+00
    0.71723E+05        -0.49996E+08         0.00000E+00
    0.00000E+00         0.00000E+00        -0.49900E+08
 
   -0.49576E+08         0.82418E+05         0.00000E+00
    0.82418E+05        -0.49995E+08         0.00000E+00
    0.00000E+00         0.00000E+00        -0.49901E+08
 
   -0.49580E+08         0.93004E+05         0.00000E+00
    0.93004E+05        -0.49994E+08         0.00000E+00
    0.00000E+00         0.00000E+00        -0.49901E+08
 
   -0.49584E+08         0.10347E+06         0.00000E+00
    0.10347E+06        -0.49993E+08         0.00000E+00
    0.00000E+00         0.00000E+00        -0.49902E+08
 
   -0.49589E+08         0.11382E+06         0.00000E+00
    0.11382E+06        -0.49991E+08         0.00000E+00
    0.00000E+00         0.00000E+00        -0.49902E+08
 
   -0.49594E+08         0.12404E+06         0.00000E+00
    0.12404E+06        -0.49989E+08         0.00000E+00
    0.00000E+00         0.00000E+00        -0.49903E+08
 
   -0.49599E+08         0.13412E+06         0.00000E+00
    0.13412E+06        -0.49987E+08         0.00000E+00
    0.00000E+00         0.00000E+00        -0.49904E+08
 
   -0.49604E+08         0.14406E+06         0.00000E+00
    0.14406E+06        -0.49985E+08         0.00000E+00
    0.00000E+00         0.00000E+00        -0.49904E+08
 
   -0.49610E+08         0.15386E+06         0.00000E+00
    0.15386E+06        -0.49983E+08         0.00000E+00
    0.00000E+00         0.00000E+00        -0.49905E+08
 
   -0.49616E+08         0.16349E+06         0.00000E+00
    0.16349E+06        -0.49981E+08         0.00000E+00
    0.00000E+00         0.00000E+00        -0.49906E+08
 
   -0.49622E+08         0.17297E+06         0.00000E+00
    0.17297E+06        -0.49978E+08         0.00000E+00
    0.00000E+00         0.00000E+00        -0.49906E+08
 
   -0.49628E+08         0.18229E+06         0.00000E+00
    0.18229E+06        -0.49975E+08         0.00000E+00
    0.00000E+00         0.00000E+00        -0.49907E+08
 
   -0.49635E+08         0.19143E+06         0.00000E+00
    0.19143E+06        -0.49973E+08         0.00000E+00
    0.00000E+00         0.00000E+00        -0.49908E+08
 
   -0.49642E+08         0.20040E+06         0.00000E+00
    0.20040E+06        -0.49970E+08         0.00000E+00
    0.00000E+00         0.00000E+00        -0.49909E+08
 
   -0.49649E+08         0.20919E+06         0.00000E+00
    0.20919E+06        -0.49967E+08         0.00000E+00
    0.00000E+00         0.00000E+00        -0.49910E+08
 
   -0.49656E+08         0.21779E+06         0.00000E+00
    0.21779E+06        -0.49964E+08         0.00000E+00
    0.00000E+00         0.00000E+00        -0.49910E+08
 
   -0.49664E+08         0.22620E+06         0.00000E+00
    0.22620E+06        -0.49961E+08         0.00000E+00
    0.00000E+00         0.00000E+00        -0.49911E+08
 
   -0.49672E+08         0.23441E+06         0.00000E+00
    0.23441E+06        -0.49957E+08         0.00000E+00
    0.00000E+00         0.00000E+00        -0.49912E+08
 
   -0.49680E+08         0.24242E+06         0.00000E+00
    0.24242E+06        -0.49954E+08         0.00000E+00
    0.00000E+00         0.00000E+00        -0.49913E+08
 
   -0.49688E+08         0.25023E+06         0.00000E+00
    0.25023E+06        -0.49950E+08         0.00000E+00
    0.00000E+00         0.00000E+00        -0.49914E+08
 
   -0.49696E+08         0.25783E+06         0.00000E+00
    0.25783E+06        -0.49946E+08         0.00000E+00
    0.00000E+00         0.00000E+00        -0.49915E+08
 
   -0.49705E+08         0.26522E+06         0.00000E+00
    0.26522E+06        -0.49943E+08         0.00000E+00
    0.00000E+00         0.00000E+00        -0.49916E+08
 
   -0.49714E+08         0.27239E+06         0.00000E+00
    0.27239E+06        -0.49939E+08         0.00000E+00
    0.00000E+00         0.00000E+00        -0.49917E+08
 
   -0.49723E+08         0.27934E+06         0.00000E+00
    0.27934E+06        -0.49935E+08         0.00000E+00
    0.00000E+00         0.00000E+00        -0.49918E+08
 
   -0.49732E+08         0.28606E+06         0.00000E+00
    0.28606E+06        -0.49931E+08         0.00000E+00
    0.00000E+00         0.00000E+00        -0.49919E+08
 
   -0.49742E+08         0.29255E+06         0.00000E+00
    0.29255E+06        -0.49927E+08         0.00000E+00
    0.00000E+00         0.00000E+00        -0.49920E+08
 
   -0.49751E+08         0.29881E+06         0.00000E+00
    0.29881E+06        -0.49922E+08         0.00000E+00
    0.00000E+00         0.00000E+00        -0.49921E+08
 
   -0.49761E+08         0.30484E+06         0.00000E+00
    0.30484E+06        -0.49918E+08         0.00000E+00
    0.00000E+00         0.00000E+00        -0.49922E+08
 
   -0.49771E+08         0.31063E+06         0.00000E+00
    0.31063E+06        -0.49914E+08         0.00000E+00
    0.00000E+00         0.00000E+00        -0.49923E+08
 
   -0.49781E+08         0.31617E+06         0.00000E+00
    0.31617E+06        -0.49909E+08         0.00000E+00
    0.00000E+00         0.00000E+00        -0.49924E+08
 
   -0.49791E+08         0.32147E+06         0.00000E+00
    0.32147E+06        -0.49905E+08         0.00000E+00
    0.00000E+00         0.00000E+00        -0.49926E+08
 
   -0.49802E+08         0.32652E+06         0.00000E+00
    0.32652E+06        -0.49900E+08         0.00000E+00
    0.00000E+00         0.00000E+00        -0.49927E+08
 
   -0.49812E+08         0.33132E+06         0.00000E+00
    0.33132E+06        -0.49895E+08         0.00000E+00
    0.00000E+00         0.00000E+00        -0.49928E+08
 
   -0.49823E+08         0.33587E+06         0.00000E+00
    0.33587E+06        -0.49890E+08         0.00000E+00
    0.00000E+00         0.00000E+00        -0.49929E+08
 
   -0.49834E+08         0.34015E+06         0.00000E+00
    0.34015E+06        -0.49886E+08         0.00000E+00
    0.00000E+00         0.00000E+00        -0.49930E+08
 
   -0.49845E+08         0.34418E+06         0.00000E+00
    0.34418E+06        -0.49881E+08         0.00000E+00
    0.00000E+00         0.00000E+00        -0.49931E+08
 
   -0.49856E+08         0.34795E+06         0.00000E+00
    0.34795E+06        -0.49876E+08         0.00000E+00
    0.00000E+00         0.00000E+00        -0.49933E+08
 
   -0.49867E+08         0.35145E+06         0.00000E+00
    0.35145E+06        -0.49871E+08         0.00000E+00
    0.00000E+00         0.00000E+00        -0.49934E+08
 
   -0.49878E+08         0.35469E+06         0.00000E+00
    0.35469E+06        -0.49866E+08         0.00000E+00
    0.00000E+00         0.00000E+00        -0.49935E+08
 
   -0.49890E+08         0.35766E+06         0.00000E+00
    0.35766E+06        -0.49861E+08         0.00000E+00
    0.00000E+00         0.00000E+00        -0.49936E+08
 
   -0.49901E+08         0.36036E+06         0.00000E+00
    0.36036E+06        -0.49855E+08         0.00000E+00
    0.00000E+00         0.00000E+00        -0.49938E+08
 
   -0.49913E+08         0.36278E+06         0.00000E+00
    0.36278E+06        -0.49850E+08         0.00000E+00
    0.00000E+00         0.00000E+00        -0.49939E+08
 
   -0.49925E+08         0.36493E+06         0.00000E+00
    0.36493E+06        -0.49845E+08         0.00000E+00
    0.00000E+00         0.00000E+00        -0.49940E+08
 
   -0.49936E+08         0.36680E+06         0.00000E+00
    0.36680E+06        -0.49840E+08         0.00000E+00
    0.00000E+00         0.00000E+00        -0.49942E+08
 
   -0.49499E+08         0.61288E+04         0.00000E+00
    0.61288E+04        -0.50000E+08         0.00000E+00
    0.00000E+00         0.00000E+00        -0.49883E+08
 
   -0.49501E+08         0.18236E+05         0.00000E+00
    0.18236E+05        -0.50000E+08         0.00000E+00
    0.00000E+00         0.00000E+00        -0.49884E+08
 
   -0.49503E+08         0.30267E+05         0.00000E+00
    0.30267E+05        -0.49999E+08         0.00000E+00
    0.00000E+00         0.00000E+00        -0.49884E+08
 
   -0.49506E+08         0.42215E+05         0.00000E+00
    0.42215E+05        -0.49999E+08         0.00000E+00
    0.00000E+00         0.00000E+00        -0.49885E+08
 
   -0.49509E+08         0.54071E+05         0.00000E+00
    0.54071E+05        -0.49998E+08         0.00000E+00
    0.00000E+00         0.00000E+00        -0.49885E+08
 
   -0.49513E+08         0.65828E+05         0.00000E+00
    0.65828E+05        -0.49997E+08         0.00000E+00
    0.00000E+00         0.00000E+00        -0.49886E+08
 
   -0.49517E+08         0.77478E+05         0.00000E+00
    0.77478E+05        -0.49996E+08         0.00000E+00
    0.00000E+00         0.00000E+00        -0.49886E+08
 
   -0.49521E+08         0.89013E+05         0.00000E+00
    0.89013E+05        -0.49995E+08         0.00000E+00
    0.00000E+00         0.00000E+00        -0.49887E+08
 
   -0.49526E+08         0.10043E+06         0.00000E+00
    0.10043E+06        -0.49993E+08         0.00000E+00
    0.00000E+00         0.00000E+00        -0.49887E+08
 
   -0.49530E+08         0.11171E+06         0.00000E+00
    0.11171E+06        -0.49992E+08         0.00000E+00
    0.00000E+00         0.00000E+00        -0.49888E+08
 
   -0.49536E+08         0.12286E+06         0.00000E+00
    0.12286E+06        -0.49990E+08         0.00000E+00
    0.00000E+00         0.00000E+00        -0.49889E+08
 
   -0.49541E+08         0.13386E+06         0.00000E+00
    0.13386E+06        -0.49988E+08         0.00000E+00
    0.00000E+00         0.00000E+00        -0.49889E+08
 
   -0.49547E+08         0.14471E+06         0.00000E+00
    0.14471E+06        -0.49986E+08         0.00000E+00
    0.00000E+00         0.00000E+00        -0.49890E+08
 
   -0.49553E+08         0.15541E+06         0.00000E+00
    0.15541E+06        -0.49983E+08         0.00000E+00
    0.00000E+00         0.00000E+00        -0.49891E+08
 
   -0.49559E+08         0.16594E+06         0.00000E+00
    0.16594E+06        -0.49981E+08         0.00000E+00
    0.00000E+00         0.00000E+00        -0.49892E+08
 
   -0.49566E+08         0.17631E+06         0.00000E+00
    0.17631E+06        -0.49978E+08         0.00000E+00
    0.00000E+00         0.00000E+00        -0.49893E+08
 
   -0.49573E+08         0.18650E+06         0.00000E+00
    0.18650E+06        -0.49975E+08         0.00000E+00
    0.00000E+00         0.00000E+00        -0.49893E+08
 
   -0.49580E+08         0.19651E+06         0.00000E+00
    0.19651E+06        -0.49972E+08         0.00000E+00
    0.00000E+00         0.00000E+00        -0.49894E+08
 
   -0.49588E+08         0.20633E+06         0.00000E+00
    0.20633E+06        -0.49969E+08         0.00000E+00
    0.00000E+00         0.00000E+00        -0.49895E+08
 
   -0.49596E+08         0.21597E+06         0.00000E+00
    0.21597E+06        -0.49966E+08         0.00000E+00
    0.00000E+00         0.00000E+00        -0.49896E+08
 
   -0.49604E+08         0.22540E+06         0.00000E+00
    0.22540E+06        -0.49963E+08         0.00000E+00
    0.00000E+00         0.00000E+00        -0.49897E+08
 
   -0.49612E+08         0.23463E+06         0.00000E+00
    0.23463E+06        -0.49959E+08         0.00000E+00
    0.00000E+00         0.00000E+00        -0.49898E+08
 
   -0.49621E+08         0.24366E+06         0.00000E+00
    0.24366E+06        -0.49956E+08         0.00000E+00
    0.00000E+00         0.00000E+00        -0.49899E+08
 
   -0.49630E+08         0.25247E+06         0.00000E+00
    0.25247E+06        -0.49952E+08         0.00000E+00
    0.00000E+00         0.00000E+00        -0.49900E+08
 
   -0.49639E+08         0.26107E+06         0.00000E+00
    0.26107E+06        -0.49948E+08         0.00000E+00
    0.00000E+00         0.00000E+00        -0.49901E+08
 
   -0.49648E+08         0.26945E+06         0.00000E+00
    0.26945E+06        -0.49944E+08         0.00000E+00
    0.00000E+00         0.00000E+00        -0.49902E+08
 
   -0.49658E+08         0.27760E+06         0.00000E+00
    0.27760E+06        -0.49940E+08         0.00000E+00
    0.00000E+00         0.00000E+00        -0.49903E+08
 
   -0.49667E+08         0.28552E+06         0.00000E+00
    0.28552E+06        -0.49936E+08         0.00000E+00
    0.00000E+00         0.00000E+00        -0.49904E+08
 
   -0.49677E+08         0.29321E+06         0.00000E+00
    0.29321E+06        -0.49931E+08         0.00000E+00
    0.00000E+00         0.00000E+00        -0.49905E+08
 
   -0.49688E+08         0.30066E+06         0.00000E+00
    0.30066E+06        -0.49927E+08         0.00000E+00
    0.00000E+00         0.00000E+00        -0.49907E+08
 
   -0.49698E+08         0.30787E+06         0.00000E+00
    0.30787E+06        -0.49922E+08         0.00000E+00
    0.00000E+00         0.00000E+00        -0.49908E+08
 
   -0.49709E+08         0.31483E+06         0.00000E+00
    0.31483E+06        -0.49917E+08         0.00000E+00
    0.00000E+00         0.00000E+00        -0.49909E+08
 
   -0.49719E+08         0.32155E+06         0.00000E+00
    0.32155E+06        -0.49913E+08         0.00000E+00
    0.00000E+00         0.00000E+00        -0.49910E+08
 
   -0.49730E+08         0.32801E+06         0.00000E+00
    0.32801E+06        -0.49908E+08         0.00000E+00
    0.00000E+00         0.00000E+00        -0.49911E+08
 
   -0.49742E+08         0.33422E+06         0.00000E+00
    0.33422E+06        -0.49903E+08         0.00000E+00
    0.00000E+00         0.00000E+00        -0.49913E+08
 
   -0.49753E+08         0.34017E+06         0.00000E+00
    0.34017E+06        -0.49898E+08         0.00000E+00
    0.00000E+00         0.00000E+00        -0.49914E+08
 
   -0.49764E+08         0.34585E+06         0.00000E+00
    0.34585E+06        -0.49893E+08         0.00000E+00
    0.00000E+00         0.00000E+00        -0.49915E+08
 
   -0.49776E+08         0.35128E+06         0.00000E+00
    0.35128E+06        -0.49888E+08         0.00000E+00
    0.00000E+00         0.00000E+00        -0.49916E+08
 
   -0.49788E+08         0.35643E+06         0.00000E+00
    0.35643E+06        -0.49882E+08         0.00000E+00
    0.00000E+00         0.00000E+00        -0.49918E+08
 
   -0.49800E+08         0.36132E+06         0.00000E+00
    0.36132E+06        -0.49877E+08         0.00000E+00
    0.00000E+00         0.00000E+00        -0.49919E+08
 
   -0.49812E+08         0.36593E+06         0.00000E+00
    0.36593E+06        -0.49872E+08         0.00000E+00
    0.00000E+00         0.00000E+00        -0.49920E+08
 
   -0.49824E+08         0.37027E+06         0.00000E+00
    0.37027E+06        -0.49866E+08         0.00000E+00
    0.00000E+00         0.00000E+00        -0.49922E+08
 
   -0.49837E+08         0.37433E+06         0.00000E+00
    0.37433E+06        -0.49861E+08         0.00000E+00
    0.00000E+00         0.00000E+00        -0.49923E+08
 
   -0.49849E+08         0.37811E+06         0.00000E+00
    0.37811E+06        -0.49855E+08         0.00000E+00
    0.00000E+00         0.00000E+00        -0.49925E+08
 
   -0.49862E+08         0.38161E+06         0.00000E+00
    0.38161E+06        -0.49849E+08         0.00000E+00
    0.00000E+00         0.00000E+00        -0.49926E+08
 
   -0.49875E+08         0.38482E+06         0.00000E+00
    0.38482E+06        -0.49844E+08         0.00000E+00
    0.00000E+00         0.00000E+00        -0.49927E+08
 
   -0.49888E+08         0.38775E+06         0.00000E+00
    0.38775E+06        -0.49838E+08         0.00000E+00
    0.00000E+00         0.00000E+00        -0.49929E+08
 
   -0.49901E+08         0.39039E+06         0.00000E+00
    0.39039E+06        -0.49832E+08         0.00000E+00
    0.00000E+00         0.00000E+00        -0.49930E+08
 
   -0.49914E+08         0.39273E+06         0.00000E+00
    0.39273E+06        -0.49826E+08         0.00000E+00
    0.00000E+00         0.00000E+00        -0.49932E+08
 
   -0.49927E+08         0.39479E+06         0.00000E+00
    0.39479E+06        -0.49820E+08         0.00000E+00
    0.00000E+00         0.00000E+00        -0.49933E+08
 
   -0.49435E+08         0.66550E+04         0.00000E+00
    0.66550E+04        -0.50000E+08         0.00000E+00
    0.00000E+00         0.00000E+00        -0.49868E+08
 
   -0.49438E+08         0.19787E+05         0.00000E+00
    0.19787E+05        -0.50000E+08         0.00000E+00
    0.00000E+00         0.00000E+00        -0.49868E+08
 
   -0.49441E+08         0.32831E+05         0.00000E+00
    0.32831E+05        -0.49999E+08         0.00000E+00
    0.00000E+00         0.00000E+00        -0.49869E+08
 
   -0.49444E+08         0.45779E+05         0.00000E+00
    0.45779E+05        -0.49999E+08         0.00000E+00
    0.00000E+00         0.00000E+00        -0.49869E+08
 
   -0.49448E+08         0.58621E+05         0.00000E+00
    0.58621E+05        -0.49998E+08         0.00000E+00
    0.00000E+00         0.00000E+00        -0.49870E+08
 
   -0.49452E+08         0.71350E+05         0.00000E+00
    0.71350E+05        -0.49997E+08         0.00000E+00
    0.00000E+00         0.00000E+00        -0.49870E+08
 
   -0.49456E+08         0.83957E+05         0.00000E+00
    0.83957E+05        -0.49996E+08         0.00000E+00
    0.00000E+00         0.00000E+00        -0.49871E+08
 
   -0.49461E+08         0.96435E+05         0.00000E+00
    0.96435E+05        -0.49994E+08         0.00000E+00
    0.00000E+00         0.00000E+00        -0.49872E+08
 
   -0.49467E+08         0.10877E+06         0.00000E+00
    0.10877E+06        -0.49992E+08         0.00000E+00
    0.00000E+00         0.00000E+00        -0.49872E+08
 
   -0.49472E+08         0.12097E+06         0.00000E+00
    0.12097E+06        -0.49991E+08         0.00000E+00
    0.00000E+00         0.00000E+00        -0.49873E+08
 
   -0.49478E+08         0.13301E+06         0.00000E+00
    0.13301E+06        -0.49988E+08         0.00000E+00
    0.00000E+00         0.00000E+00        -0.49874E+08
 
   -0.49484E+08         0.14489E+06         0.00000E+00
    0.14489E+06        -0.49986E+08         0.00000E+00
    0.00000E+00         0.00000E+00        -0.49875E+08
 
   -0.49491E+08         0.15661E+06         0.00000E+00
    0.15661E+06        -0.49984E+08         0.00000E+00
    0.00000E+00         0.00000E+00        -0.49875E+08
 
   -0.49498E+08         0.16815E+06         0.00000E+00
    0.16815E+06        -0.49981E+08         0.00000E+00
    0.00000E+00         0.00000E+00        -0.49876E+08
 
   -0.49505E+08         0.17951E+06         0.00000E+00
    0.17951E+06        -0.49978E+08         0.00000E+00
    0.00000E+00         0.00000E+00        -0.49877E+08
 
   -0.49513E+08         0.19069E+06         0.00000E+00
    0.19069E+06        -0.49975E+08         0.00000E+00
    0.00000E+00         0.00000E+00        -0.49878E+08
 
   -0.49521E+08         0.20167E+06         0.00000E+00
    0.20167E+06        -0.49972E+08         0.00000E+00
    0.00000E+00         0.00000E+00        -0.49879E+08
 
   -0.49529E+08         0.21246E+06         0.00000E+00
    0.21246E+06        -0.49969E+08         0.00000E+00
    0.00000E+00         0.00000E+00        -0.49880E+08
 
   -0.49538E+08         0.22304E+06         0.00000E+00
    0.22304E+06        -0.49966E+08         0.00000E+00
    0.00000E+00         0.00000E+00        -0.49881E+08
 
   -0.49546E+08         0.23341E+06         0.00000E+00
    0.23341E+06        -0.49962E+08         0.00000E+00
    0.00000E+00         0.00000E+00        -0.49882E+08
 
   -0.49556E+08         0.24357E+06         0.00000E+00
    0.24357E+06        -0.49958E+08         0.00000E+00
    0.00000E+00         0.00000E+00        -0.49883E+08
 
   -0.49565E+08         0.25350E+06         0.00000E+00
    0.25350E+06        -0.49954E+08         0.00000E+00
    0.00000E+00         0.00000E+00        -0.49884E+08
 
   -0.49575E+08         0.26321E+06         0.00000E+00
    0.26321E+06        -0.49950E+08         0.00000E+00
    0.00000E+00         0.00000E+00        -0.49885E+08
 
   -0.49585E+08         0.27269E+06         0.00000E+00
    0.27269E+06        -0.49946E+08         0.00000E+00
    0.00000E+00         0.00000E+00        -0.49887E+08
 
   -0.49595E+08         0.28194E+06         0.00000E+00
    0.28194E+06        -0.49942E+08         0.00000E+00
    0.00000E+00         0.00000E+00        -0.49888E+08
 
   -0.49605E+08         0.29094E+06         0.00000E+00
    0.29094E+06        -0.49937E+08         0.00000E+00
    0.00000E+00         0.00000E+00        -0.49889E+08
 
   -0.49616E+08         0.29971E+06         0.00000E+00
    0.29971E+06        -0.49933E+08         0.00000E+00
    0.00000E+00         0.00000E+00        -0.49890E+08
 
   -0.49627E+08         0.30822E+06         0.00000E+00
    0.30822E+06        -0.49928E+08         0.00000E+00
    0.00000E+00         0.00000E+00        -0.49891E+08
 
   -0.49638E+08         0.31648E+06         0.00000E+00
    0.31648E+06        -0.49923E+08         0.00000E+00
    0.00000E+00         0.00000E+00        -0.49893E+08
 
   -0.49650E+08         0.32449E+06         0.00000E+00
    0.32449E+06        -0.49918E+08         0.00000E+00
    0.00000E+00         0.00000E+00        -0.49894E+08
 
   -0.49661E+08         0.33224E+06         0.00000E+00
    0.33224E+06        -0.49913E+08         0.00000E+00
    0.00000E+00         0.00000E+00        -0.49895E+08
 
   -0.49673E+08         0.33972E+06         0.00000E+00
    0.33972E+06        -0.49908E+08         0.00000E+00
    0.00000E+00         0.00000E+00        -0.49897E+08
 
   -0.49685E+08         0.34694E+06         0.00000E+00
    0.34694E+06        -0.49902E+08         0.00000E+00
    0.00000E+00         0.00000E+00        -0.49898E+08
 
   -0.49698E+08         0.35388E+06         0.00000E+00
    0.35388E+06        -0.49897E+08         0.00000E+00
    0.00000E+00         0.00000E+00        -0.49899E+08
 
   -0.49710E+08         0.36056E+06         0.00000E+00
    0.36056E+06        -0.49892E+08         0.00000E+00
    0.00000E+00         0.00000E+00        -0.49901E+08
 
   -0.49723E+08         0.36696E+06         0.00000E+00
    0.36696E+06        -0.49886E+08         0.00000E+00
    0.00000E+00         0.00000E+00        -0.49902E+08
 
   -0.49736E+08         0.37307E+06         0.00000E+00
    0.37307E+06        -0.49880E+08         0.00000E+00
    0.00000E+00         0.00000E+00        -0.49904E+08
 
   -0.49749E+08         0.37891E+06         0.00000E+00
    0.37891E+06        -0.49874E+08         0.00000E+00
    0.00000E+00         0.00000E+00        -0.49905E+08
 
   -0.49762E+08         0.38446E+06         0.00000E+00
    0.38446E+06        -0.49869E+08         0.00000E+00
    0.00000E+00         0.00000E+00        -0.49907E+08
 
   -0.49775E+08         0.38973E+06         0.00000E+00
    0.38973E+06        -0.49863E+08         0.00000E+00
    0.00000E+00         0.00000E+00        -0.49908E+08
 
   -0.49789E+08         0.39470E+06         0.00000E+00
    0.39470E+06        -0.49857E+08         0.00000E+00
    0.00000E+00         0.00000E+00        -0.49910E+08
 
   -0.49803E+08         0.39938E+06         0.00000E+00
    0.39938E+06        -0.49851E+08         0.00000E+00
    0.00000E+00         0.00000E+00        -0.49911E+08
 
   -0.49816E+08         0.40377E+06         0.00000E+00
    0.40377E+06        -0.49844E+08         0.00000E+00
    0.00000E+00         0.00000E+00        -0.49913E+08
 
   -0.49830E+08         0.40786E+06         0.00000E+00
    0.40786E+06        -0.49838E+08         0.00000E+00
    0.00000E+00         0.00000E+00        -0.49914E+08
 
   -0.49845E+08         0.41165E+06         0.00000E+00
    0.41165E+06        -0.49832E+08         0.00000E+00
    0.00000E+00         0.00000E+00        -0.49916E+08
 
   -0.49859E+08         0.41514E+06         0.00000E+00
    0.41514E+06        -0.49825E+08         0.00000E+00
    0.00000E+00         0.00000E+00        -0.49917E+08
 
   -0.49873E+08         0.41833E+06         0.00000E+00
    0.41833E+06        -0.49819E+08         0.00000E+00
    0.00000E+00         0.00000E+00        -0.49919E+08
 
   -0.49888E+08         0.42121E+06         0.00000E+00
    0.42121E+06        -0.49813E+08         0.00000E+00
    0.00000E+00         0.00000E+00        -0.49921E+08
 
   -0.49902E+08         0.42378E+06         0.00000E+00
    0.42378E+06        -0.49806E+08         0.00000E+00
    0.00000E+00         0.00000E+00        -0.49922E+08
 
   -0.49917E+08         0.42605E+06         0.00000E+00
    0.42605E+06        -0.49799E+08         0.00000E+00
    0.00000E+00         0.00000E+00        -0.49924E+08
 
   -0.49367E+08         0.72471E+04         0.00000E+00
    0.72471E+04        -0.50000E+08         0.00000E+00
    0.00000E+00         0.00000E+00        -0.49850E+08
 
   -0.49370E+08         0.21530E+05         0.00000E+00
    0.21530E+05        -0.50000E+08         0.00000E+00
    0.00000E+00         0.00000E+00        -0.49851E+08
 
   -0.49373E+08         0.35710E+05         0.00000E+00
    0.35710E+05        -0.49999E+08         0.00000E+00
    0.00000E+00         0.00000E+00        -0.49851E+08
 
   -0.49377E+08         0.49779E+05         0.00000E+00
    0.49779E+05        -0.49999E+08         0.00000E+00
    0.00000E+00         0.00000E+00        -0.49852E+08
 
   -0.49381E+08         0.63725E+05         0.00000E+00
    0.63725E+05        -0.49998E+08         0.00000E+00
    0.00000E+00         0.00000E+00        -0.49852E+08
 
   -0.49386E+08         0.77542E+05         0.00000E+00
    0.77542E+05        -0.49996E+08         0.00000E+00
    0.00000E+00         0.00000E+00        -0.49853E+08
 
   -0.49391E+08         0.91219E+05         0.00000E+00
    0.91219E+05        -0.49995E+08         0.00000E+00
    0.00000E+00         0.00000E+00        -0.49854E+08
 
   -0.49397E+08         0.10475E+06         0.00000E+00
    0.10475E+06        -0.49993E+08         0.00000E+00
    0.00000E+00         0.00000E+00        -0.49855E+08
 
   -0.49403E+08         0.11812E+06         0.00000E+00
    0.11812E+06        -0.49991E+08         0.00000E+00
    0.00000E+00         0.00000E+00        -0.49856E+08
 
   -0.49409E+08         0.13133E+06         0.00000E+00
    0.13133E+06        -0.49989E+08         0.00000E+00
    0.00000E+00         0.00000E+00        -0.49856E+08
 
   -0.49416E+08         0.14437E+06         0.00000E+00
    0.14437E+06        -0.49987E+08         0.00000E+00
    0.00000E+00         0.00000E+00        -0.49857E+08
 
   -0.49423E+08         0.15723E+06         0.00000E+00
    0.15723E+06        -0.49985E+08         0.00000E+00
    0.00000E+00         0.00000E+00        -0.49858E+08
 
   -0.49430E+08         0.16991E+06         0.00000E+00
    0.16991E+06        -0.49982E+08         0.00000E+00
    0.00000E+00         0.00000E+00        -0.49859E+08
 
   -0.49438E+08         0.18239E+06         0.00000E+00
    0.18239E+06        -0.49979E+08         0.00000E+00
    0.00000E+00         0.00000E+00        -0.49860E+08
 
   -0.49447E+08         0.19467E+06         0.00000E+00
    0.19467E+06        -0.49976E+08         0.00000E+00
    0.00000E+00         0.00000E+00        -0.49861E+08
 
   -0.49455E+08         0.20674E+06         0.00000E+00
    0.20674E+06        -0.49973E+08         0.00000E+00
    0.00000E+00         0.00000E+00        -0.49862E+08
 
   -0.49464E+08         0.21861E+06         0.00000E+00
    0.21861E+06        -0.49969E+08         0.00000E+00
    0.00000E+00         0.00000E+00        -0.49863E+08
 
   -0.49473E+08         0.23025E+06         0.00000E+00
    0.23025E+06        -0.49965E+08         0.00000E+00
    0.00000E+00         0.00000E+00        -0.49864E+08
 
   -0.49483E+08         0.24167E+06         0.00000E+00
    0.24167E+06        -0.49962E+08         0.00000E+00
    0.00000E+00         0.00000E+00        -0.49866E+08
 
   -0.49493E+08         0.25286E+06         0.00000E+00
    0.25286E+06        -0.49958E+08         0.00000E+00
    0.00000E+00         0.00000E+00        -0.49867E+08
 
   -0.49503E+08         0.26381E+06         0.00000E+00
    0.26381E+06        -0.49953E+08         0.00000E+00
    0.00000E+00         0.00000E+00        -0.49868E+08
 
   -0.49514E+08         0.27452E+06         0.00000E+00
    0.27452E+06        -0.49949E+08         0.00000E+00
    0.00000E+00         0.00000E+00        -0.49869E+08
 
   -0.49525E+08         0.28498E+06         0.00000E+00
    0.28498E+06        -0.49945E+08         0.00000E+00
    0.00000E+00         0.00000E+00        -0.49871E+08
 
   -0.49536E+08         0.29520E+06         0.00000E+00
    0.29520E+06        -0.49940E+08         0.00000E+00
    0.00000E+00         0.00000E+00        -0.49872E+08
 
   -0.49547E+08         0.30516E+06         0.00000E+00
    0.30516E+06        -0.49935E+08         0.00000E+00
    0.00000E+00         0.00000E+00        -0.49873E+08
 
   -0.49559E+08         0.31486E+06         0.00000E+00
    0.31486E+06        -0.49930E+08         0.00000E+00
    0.00000E+00         0.00000E+00        -0.49875E+08
 
   -0.49571E+08         0.32429E+06         0.00000E+00
    0.32429E+06        -0.49925E+08         0.00000E+00
    0.00000E+00         0.00000E+00        -0.49876E+08
 
   -0.49583E+08         0.33346E+06         0.00000E+00
    0.33346E+06        -0.49920E+08         0.00000E+00
    0.00000E+00         0.00000E+00        -0.49877E+08
 
   -0.49596E+08         0.34235E+06         0.00000E+00
    0.34235E+06        -0.49914E+08         0.00000E+00
    0.00000E+00         0.00000E+00        -0.49879E+08
 
   -0.49609E+08         0.35097E+06         0.00000E+00
    0.35097E+06        -0.49909E+08         0.00000E+00
    0.00000E+00         0.00000E+00        -0.49880E+08
 
   -0.49622E+08         0.35931E+06         0.00000E+00
    0.35931E+06        -0.49903E+08         0.00000E+00
    0.00000E+00         0.00000E+00        -0.49882E+08
 
   -0.49635E+08         0.36737E+06         0.00000E+00
    0.36737E+06        -0.49897E+08         0.00000E+00
    0.00000E+00         0.00000E+00        -0.49883E+08
 
   -0.49649E+08         0.37513E+06         0.00000E+00
    0.37513E+06        -0.49892E+08         0.00000E+00
    0.00000E+00         0.00000E+00        -0.49885E+08
 
   -0.49662E+08         0.38261E+06         0.00000E+00
    0.38261E+06        -0.49886E+08         0.00000E+00
    0.00000E+00         0.00000E+00        -0.49886E+08
 
   -0.49676E+08         0.38980E+06         0.00000E+00
    0.38980E+06        -0.49880E+08         0.00000E+00
    0.00000E+00         0.00000E+00        -0.49888E+08
 
   -0.49690E+08         0.39669E+06         0.00000E+00
    0.39669E+06        -0.49873E+08         0.00000E+00
    0.00000E+00         0.00000E+00        -0.49889E+08
 
   -0.49705E+08         0.40329E+06         0.00000E+00
    0.40329E+06        -0.49867E+08         0.00000E+00
    0.00000E+00         0.00000E+00        -0.49891E+08
 
   -0.49719E+08         0.40958E+06         0.00000E+00
    0.40958E+06        -0.49861E+08         0.00000E+00
    0.00000E+00         0.00000E+00        -0.49893E+08
 
   -0.49734E+08         0.41557E+06         0.00000E+00
    0.41557E+06        -0.49854E+08         0.00000E+00
    0.00000E+00         0.00000E+00        -0.49894E+08
 
   -0.49749E+08         0.42125E+06         0.00000E+00
    0.42125E+06        -0.49848E+08         0.00000E+00
    0.00000E+00         0.00000E+00        -0.49896E+08
 
   -0.49764E+08         0.42663E+06         0.00000E+00
    0.42663E+06        -0.49841E+08         0.00000E+00
    0.00000E+00         0.00000E+00        -0.49898E+08
 
   -0.49779E+08         0.43169E+06         0.00000E+00
    0.43169E+06        -0.49834E+08         0.00000E+00
    0.00000E+00         0.00000E+00        -0.49899E+08
 
   -0.49794E+08         0.43644E+06         0.00000E+00
    0.43644E+06        -0.49827E+08         0.00000E+00
    0.00000E+00         0.00000E+00        -0.49901E+08
 
   -0.49810E+08         0.44088E+06         0.00000E+00
    0.44088E+06        -0.49820E+08         0.00000E+00
    0.00000E+00         0.00000E+00        -0.49903E+08
 
   -0.49826E+08         0.44500E+06         0.00000E+00
    0.44500E+06        -0.49813E+08         0.00000E+00
    0.00000E+00         0.00000E+00        -0.49904E+08
 
   -0.49841E+08         0.44880E+06         0.00000E+00
    0.44880E+06        -0.49806E+08         0.00000E+00
    0.00000E+00         0.00000E+00        -0.49906E+08
 
   -0.49857E+08         0.45227E+06         0.00000E+00
    0.45227E+06        -0.49799E+08         0.00000E+00
    0.00000E+00         0.00000E+00        -0.49908E+08
 
   -0.49874E+08         0.45543E+06         0.00000E+00
    0.45543E+06        -0.49792E+08         0.00000E+00
    0.00000E+00         0.00000E+00        -0.49910E+08
 
   -0.49890E+08         0.45826E+06         0.00000E+00
    0.45826E+06        -0.49785E+08         0.00000E+00
    0.00000E+00         0.00000E+00        -0.49912E+08
 
   -0.49906E+08         0.46076E+06         0.00000E+00
    0.46076E+06        -0.49778E+08         0.00000E+00
    0.00000E+00         0.00000E+00        -0.49913E+08
 
   -0.49292E+08         0.79110E+04         0.00000E+00
    0.79110E+04        -0.50000E+08         0.00000E+00
    0.00000E+00         0.00000E+00        -0.49831E+08
 
   -0.49295E+08         0.23482E+05         0.00000E+00
    0.23482E+05        -0.50000E+08         0.00000E+00
    0.00000E+00         0.00000E+00        -0.49831E+08
 
   -0.49299E+08         0.38931E+05         0.00000E+00
    0.38931E+05        -0.49999E+08         0.00000E+00
    0.00000E+00         0.00000E+00        -0.49832E+08
 
   -0.49304E+08         0.54250E+05         0.00000E+00
    0.54250E+05        -0.49998E+08         0.00000E+00
    0.00000E+00         0.00000E+00        -0.49833E+08
 
   -0.49309E+08         0.69428E+05         0.00000E+00
    0.69428E+05        -0.49997E+08         0.00000E+00
    0.00000E+00         0.00000E+00        -0.49833E+08
 
   -0.49314E+08         0.84456E+05         0.00000E+00
    0.84456E+05        -0.49996E+08         0.00000E+00
    0.00000E+00         0.00000E+00        -0.49834E+08
 
   -0.49320E+08         0.99325E+05         0.00000E+00
    0.99325E+05        -0.49994E+08         0.00000E+00
    0.00000E+00         0.00000E+00        -0.49835E+08
 
   -0.49327E+08         0.11402E+06         0.00000E+00
    0.11402E+06        -0.49993E+08         0.00000E+00
    0.00000E+00         0.00000E+00        -0.49836E+08
 
   -0.49333E+08         0.12855E+06         0.00000E+00
    0.12855E+06        -0.49991E+08         0.00000E+00
    0.00000E+00         0.00000E+00        -0.49837E+08
 
   -0.49341E+08         0.14289E+06         0.00000E+00
    0.14289E+06        -0.49988E+08         0.00000E+00
    0.00000E+00         0.00000E+00        -0.49838E+08
 
   -0.49348E+08         0.15703E+06         0.00000E+00
    0.15703E+06        -0.49986E+08         0.00000E+00
    0.00000E+00         0.00000E+00        -0.49839E+08
 
   -0.49356E+08         0.17097E+06         0.00000E+00
    0.17097E+06        -0.49983E+08         0.00000E+00
    0.00000E+00         0.00000E+00        -0.49840E+08
 
   -0.49365E+08         0.18471E+06         0.00000E+00
    0.18471E+06        -0.49980E+08         0.00000E+00
    0.00000E+00         0.00000E+00        -0.49841E+08
 
   -0.49374E+08         0.19822E+06         0.00000E+00
    0.19822E+06        -0.49977E+08         0.00000E+00
    0.00000E+00         0.00000E+00        -0.49842E+08
 
   -0.49383E+08         0.21152E+06         0.00000E+00
    0.21152E+06        -0.49973E+08         0.00000E+00
    0.00000E+00         0.00000E+00        -0.49843E+08
 
   -0.49393E+08         0.22459E+06         0.00000E+00
    0.22459E+06        -0.49970E+08         0.00000E+00
    0.00000E+00         0.00000E+00        -0.49845E+08
 
   -0.49403E+08         0.23742E+06         0.00000E+00
    0.23742E+06        -0.49966E+08         0.00000E+00
    0.00000E+00         0.00000E+00        -0.49846E+08
 
   -0.49414E+08         0.25000E+06         0.00000E+00
    0.25000E+06        -0.49962E+08         0.00000E+00
    0.00000E+00         0.00000E+00        -0.49847E+08
 
   -0.49424E+08         0.26234E+06         0.00000E+00
    0.26234E+06        -0.49957E+08         0.00000E+00
    0.00000E+00         0.00000E+00        -0.49849E+08
 
   -0.49436E+08         0.27443E+06         0.00000E+00
    0.27443E+06        -0.49953E+08         0.00000E+00
    0.00000E+00         0.00000E+00        -0.49850E+08
 
   -0.49447E+08         0.28626E+06         0.00000E+00
    0.28626E+06        -0.49948E+08         0.00000E+00
    0.00000E+00         0.00000E+00        -0.49851E+08
 
   -0.49459E+08         0.29782E+06         0.00000E+00
    0.29782E+06        -0.49943E+08         0.00000E+00
    0.00000E+00         0.00000E+00        -0.49853E+08
 
   -0.49471E+08         0.30911E+06         0.00000E+00
    0.30911E+06        -0.49938E+08         0.00000E+00
    0.00000E+00         0.00000E+00        -0.49854E+08
 
   -0.49484E+08         0.32013E+06         0.00000E+00
    0.32013E+06        -0.49933E+08         0.00000E+00
    0.00000E+00         0.00000E+00        -0.49856E+08
 
   -0.49496E+08         0.33087E+06         0.00000E+00
    0.33087E+06        -0.49928E+08         0.00000E+00
    0.00000E+00         0.00000E+00        -0.49857E+08
 
   -0.49509E+08         0.34133E+06         0.00000E+00
    0.34133E+06        -0.49922E+08         0.00000E+00
    0.00000E+00         0.00000E+00        -0.49859E+08
 
   -0.49523E+08         0.35150E+06         0.00000E+00
    0.35150E+06        -0.49917E+08         0.00000E+00
    0.00000E+00         0.00000E+00        -0.49860E+08
 
   -0.49537E+08         0.36138E+06         0.00000E+00
    0.36138E+06        -0.49911E+08         0.00000E+00
    0.00000E+00         0.00000E+00        -0.49862E+08
 
   -0.49551E+08         0.37097E+06         0.00000E+00
    0.37097E+06        -0.49905E+08         0.00000E+00
    0.00000E+00         0.00000E+00        -0.49863E+08
 
   -0.49565E+08         0.38025E+06         0.00000E+00
    0.38025E+06        -0.49899E+08         0.00000E+00
    0.00000E+00         0.00000E+00        -0.49865E+08
 
   -0.49579E+08         0.38924E+06         0.00000E+00
    0.38924E+06        -0.49893E+08         0.00000E+00
    0.00000E+00         0.00000E+00        -0.49867E+08
 
   -0.49594E+08         0.39792E+06         0.00000E+00
    0.39792E+06        -0.49886E+08         0.00000E+00
    0.00000E+00         0.00000E+00        -0.49868E+08
 
   -0.49609E+08         0.40630E+06         0.00000E+00
    0.40630E+06        -0.49880E+08         0.00000E+00
    0.00000E+00         0.00000E+00        -0.49870E+08
 
   -0.49624E+08         0.41436E+06         0.00000E+00
    0.41436E+06        -0.49873E+08         0.00000E+00
    0.00000E+00         0.00000E+00        -0.49872E+08
 
   -0.49640E+08         0.42211E+06         0.00000E+00
    0.42211E+06        -0.49867E+08         0.00000E+00
    0.00000E+00         0.00000E+00        -0.49873E+08
 
   -0.49655E+08         0.42954E+06         0.00000E+00
    0.42954E+06        -0.49860E+08         0.00000E+00
    0.00000E+00         0.00000E+00        -0.49875E+08
 
   -0.49671E+08         0.43665E+06         0.00000E+00
    0.43665E+06        -0.49853E+08         0.00000E+00
    0.00000E+00         0.00000E+00        -0.49877E+08
 
   -0.49687E+08         0.44345E+06         0.00000E+00
    0.44345E+06        -0.49846E+08         0.00000E+00
    0.00000E+00         0.00000E+00        -0.49879E+08
 
   -0.49703E+08         0.44991E+06         0.00000E+00
    0.44991E+06        -0.49839E+08         0.00000E+00
    0.00000E+00         0.00000E+00        -0.49881E+08
 
   -0.49720E+08         0.45606E+06         0.00000E+00
    0.45606E+06        -0.49831E+08         0.00000E+00
    0.00000E+00         0.00000E+00        -0.49882E+08
 
   -0.49737E+08         0.46187E+06         0.00000E+00
    0.46187E+06        -0.49824E+08         0.00000E+00
    0.00000E+00         0.00000E+00        -0.49884E+08
 
   -0.49753E+08         0.46736E+06         0.00000E+00
    0.46736E+06        -0.49817E+08         0.00000E+00
    0.00000E+00         0.00000E+00        -0.49886E+08
 
   -0.49770E+08         0.47251E+06         0.00000E+00
    0.47251E+06        -0.49809E+08         0.00000E+00
    0.00000E+00         0.00000E+00        -0.49888E+08
 
   -0.49788E+08         0.47733E+06         0.00000E+00
    0.47733E+06        -0.49802E+08         0.00000E+00
    0.00000E+00         0.00000E+00        -0.49890E+08
 
   -0.49805E+08         0.48181E+06         0.00000E+00
    0.48181E+06        -0.49794E+08         0.00000E+00
    0.00000E+00         0.00000E+00        -0.49892E+08
 
   -0.49822E+08         0.48596E+06         0.00000E+00
    0.48596E+06        -0.49786E+08         0.00000E+00
    0.00000E+00         0.00000E+00        -0.49894E+08
 
   -0.49840E+08         0.48976E+06         0.00000E+00
    0.48976E+06        -0.49778E+08         0.00000E+00
    0.00000E+00         0.00000E+00        -0.49896E+08
 
   -0.49858E+08         0.49323E+06         0.00000E+00
    0.49323E+06        -0.49770E+08         0.00000E+00
    0.00000E+00         0.00000E+00        -0.49898E+08
 
   -0.49876E+08         0.49635E+06         0.00000E+00
    0.49635E+06        -0.49762E+08         0.00000E+00
    0.00000E+00         0.00000E+00        -0.49900E+08
 
   -0.49894E+08         0.49912E+06         0.00000E+00
    0.49912E+06        -0.49754E+08         0.00000E+00
    0.00000E+00         0.00000E+00        -0.49902E+08
 
   -0.49210E+08         0.86534E+04         0.00000E+00
    0.86534E+04        -0.50000E+08         0.00000E+00
    0.00000E+00         0.00000E+00        -0.49809E+08
 
   -0.49214E+08         0.25660E+05         0.00000E+00
    0.25660E+05        -0.50000E+08         0.00000E+00
    0.00000E+00         0.00000E+00        -0.49810E+08
 
   -0.49219E+08         0.42524E+05         0.00000E+00
    0.42524E+05        -0.49999E+08         0.00000E+00
    0.00000E+00         0.00000E+00        -0.49811E+08
 
   -0.49224E+08         0.59234E+05         0.00000E+00
    0.59234E+05        -0.49998E+08         0.00000E+00
    0.00000E+00         0.00000E+00        -0.49811E+08
 
   -0.49230E+08         0.75781E+05         0.00000E+00
    0.75781E+05        -0.49997E+08         0.00000E+00
    0.00000E+00         0.00000E+00        -0.49812E+08
 
   -0.49236E+08         0.92153E+05         0.00000E+00
    0.92153E+05        -0.49996E+08         0.00000E+00
    0.00000E+00         0.00000E+00        -0.49813E+08
 
   -0.49243E+08         0.10834E+06         0.00000E+00
    0.10834E+06        -0.49994E+08         0.00000E+00
    0.00000E+00         0.00000E+00        -0.49814E+08
 
   -0.49250E+08         0.12434E+06         0.00000E+00
    0.12434E+06        -0.49992E+08         0.00000E+00
    0.00000E+00         0.00000E+00        -0.49815E+08
 
   -0.49258E+08         0.14013E+06         0.00000E+00
    0.14013E+06        -0.49989E+08         0.00000E+00
    0.00000E+00         0.00000E+00        -0.49816E+08
 
   -0.49266E+08         0.15571E+06         0.00000E+00
    0.15571E+06        -0.49987E+08         0.00000E+00
    0.00000E+00         0.00000E+00        -0.49818E+08
 
   -0.49275E+08         0.17108E+06         0.00000E+00
    0.17108E+06        -0.49984E+08         0.00000E+00
    0.00000E+00         0.00000E+00        -0.49819E+08
 
   -0.49284E+08         0.18621E+06         0.00000E+00
    0.18621E+06        -0.49981E+08         0.00000E+00
    0.00000E+00         0.00000E+00        -0.49820E+08
 
   -0.49294E+08         0.20112E+06         0.00000E+00
    0.20112E+06        -0.49978E+08         0.00000E+00
    0.00000E+00         0.00000E+00        -0.49821E+08
 
   -0.49304E+08         0.21577E+06         0.00000E+00
    0.21577E+06        -0.49974E+08         0.00000E+00
    0.00000E+00         0.00000E+00        -0.49823E+08
 
   -0.49315E+08         0.23018E+06         0.00000E+00
    0.23018E+06        -0.49970E+08         0.00000E+00
    0.00000E+00         0.00000E+00        -0.49824E+08
 
   -0.49326E+08         0.24434E+06         0.00000E+00
    0.24434E+06        -0.49966E+08         0.00000E+00
    0.00000E+00         0.00000E+00        -0.49825E+08
 
   -0.49337E+08         0.25823E+06         0.00000E+00
    0.25823E+06        -0.49962E+08         0.00000E+00
    0.00000E+00         0.00000E+00        -0.49827E+08
 
   -0.49349E+08         0.27185E+06         0.00000E+00
    0.27185E+06        -0.49957E+08         0.00000E+00
    0.00000E+00         0.00000E+00        -0.49828E+08
 
   -0.49361E+08         0.28520E+06         0.00000E+00
    0.28520E+06        -0.49953E+08         0.00000E+00
    0.00000E+00         0.00000E+00        -0.49830E+08
 
   -0.49373E+08         0.29827E+06         0.00000E+00
    0.29827E+06        -0.49948E+08         0.00000E+00
    0.00000E+00         0.00000E+00        -0.49831E+08
 
   -0.49386E+08         0.31105E+06         0.00000E+00
    0.31105E+06        -0.49943E+08         0.00000E+00
    0.00000E+00         0.00000E+00        -0.49833E+08
 
   -0.49399E+08         0.32354E+06         0.00000E+00
    0.32354E+06        -0.49937E+08         0.00000E+00
    0.00000E+00         0.00000E+00        -0.49834E+08
 
   -0.49413E+08         0.33574E+06         0.00000E+00
    0.33574E+06        -0.49932E+08         0.00000E+00
    0.00000E+00         0.00000E+00        -0.49836E+08
 
   -0.49427E+08         0.34764E+06         0.00000E+00
    0.34764E+06        -0.49926E+08         0.00000E+00
    0.00000E+00         0.00000E+00        -0.49838E+08
 
   -0.49441E+08         0.35923E+06         0.00000E+00
    0.35923E+06        -0.49920E+08         0.00000E+00
    0.00000E+00         0.00000E+00        -0.49839E+08
 
   -0.49456E+08         0.37051E+06         0.00000E+00
    0.37051E+06        -0.49914E+08         0.00000E+00
    0.00000E+00         0.00000E+00        -0.49841E+08
 
   -0.49471E+08         0.38149E+06         0.00000E+00
    0.38149E+06        -0.49908E+08         0.00000E+00
    0.00000E+00         0.00000E+00        -0.49843E+08
 
   -0.49486E+08         0.39214E+06         0.00000E+00
    0.39214E+06        -0.49902E+08         0.00000E+00
    0.00000E+00         0.00000E+00        -0.49844E+08
 
   -0.49502E+08         0.40248E+06         0.00000E+00
    0.40248E+06        -0.49895E+08         0.00000E+00
    0.00000E+00         0.00000E+00        -0.49846E+08
 
   -0.49517E+08         0.41250E+06         0.00000E+00
    0.41250E+06        -0.49889E+08         0.00000E+00
    0.00000E+00         0.00000E+00        -0.49848E+08
 
   -0.49533E+08         0.42218E+06         0.00000E+00
    0.42218E+06        -0.49882E+08         0.00000E+00
    0.00000E+00         0.00000E+00        -0.49850E+08
 
   -0.49550E+08         0.43155E+06         0.00000E+00
    0.43155E+06        -0.49875E+08         0.00000E+00
    0.00000E+00         0.00000E+00        -0.49852E+08
 
   -0.49566E+08         0.44058E+06         0.00000E+00
    0.44058E+06        -0.49868E+08         0.00000E+00
    0.00000E+00         0.00000E+00        -0.49854E+08
 
   -0.49583E+08         0.44927E+06         0.00000E+00
    0.44927E+06        -0.49860E+08         0.00000E+00
    0.00000E+00         0.00000E+00        -0.49856E+08
 
   -0.49600E+08         0.45763E+06         0.00000E+00
    0.45763E+06        -0.49853E+08         0.00000E+00
    0.00000E+00         0.00000E+00        -0.49858E+08
 
   -0.49617E+08         0.46565E+06         0.00000E+00
    0.46565E+06        -0.49846E+08         0.00000E+00
    0.00000E+00         0.00000E+00        -0.49859E+08
 
   -0.49635E+08         0.47333E+06         0.00000E+00
    0.47333E+06        -0.49838E+08         0.00000E+00
    0.00000E+00         0.00000E+00        -0.49861E+08
 
   -0.49653E+08         0.48067E+06         0.00000E+00
    0.48067E+06        -0.49830E+08         0.00000E+00
    0.00000E+00         0.00000E+00        -0.49863E+08
 
   -0.49671E+08         0.48766E+06         0.00000E+00
    0.48766E+06        -0.49822E+08         0.00000E+00
    0.00000E+00         0.00000E+00        -0.49865E+08
 
   -0.49689E+08         0.49431E+06         0.00000E+00
    0.49431E+06        -0.49814E+08         0.00000E+00
    0.00000E+00         0.00000E+00        -0.49868E+08
 
   -0.49707E+08         0.50061E+06         0.00000E+00
    0.50061E+06        -0.49806E+08         0.00000E+00
    0.00000E+00         0.00000E+00        -0.49870E+08
 
   -0.49726E+08         0.50655E+06         0.00000E+00
    0.50655E+06        -0.49798E+08         0.00000E+00
    0.00000E+00         0.00000E+00        -0.49872E+08
 
   -0.49744E+08         0.51215E+06         0.00000E+00
    0.51215E+06        -0.49790E+08         0.00000E+00
    0.00000E+00         0.00000E+00        -0.49874E+08
 
   -0.49763E+08         0.51739E+06         0.00000E+00
    0.51739E+06        -0.49782E+08         0.00000E+00
    0.00000E+00         0.00000E+00        -0.49876E+08
 
   -0.49782E+08         0.52228E+06         0.00000E+00
    0.52228E+06        -0.49773E+08         0.00000E+00
    0.00000E+00         0.00000E+00        -0.49878E+08
 
   -0.49802E+08         0.52680E+06         0.00000E+00
    0.52680E+06        -0.49765E+08         0.00000E+00
    0.00000E+00         0.00000E+00        -0.49880E+08
 
   -0.49821E+08         0.53097E+06         0.00000E+00
    0.53097E+06        -0.49756E+08         0.00000E+00
    0.00000E+00         0.00000E+00        -0.49882E+08
 
   -0.49841E+08         0.53479E+06         0.00000E+00
    0.53479E+06        -0.49747E+08         0.00000E+00
    0.00000E+00         0.00000E+00        -0.49884E+08
 
   -0.49860E+08         0.53824E+06         0.00000E+00
    0.53824E+06        -0.49739E+08         0.00000E+00
    0.00000E+00         0.00000E+00        -0.49887E+08
 
   -0.49880E+08         0.54132E+06         0.00000E+00
    0.54132E+06        -0.49730E+08         0.00000E+00
    0.00000E+00         0.00000E+00        -0.49889E+08
 
   -0.49121E+08         0.94814E+04         0.00000E+00
    0.94814E+04        -0.50000E+08         0.00000E+00
    0.00000E+00         0.00000E+00        -0.49785E+08
 
   -0.49126E+08         0.28085E+05         0.00000E+00
    0.28085E+05        -0.50000E+08         0.00000E+00
    0.00000E+00         0.00000E+00        -0.49786E+08
 
   -0.49131E+08         0.46519E+05         0.00000E+00
    0.46519E+05        -0.49999E+08         0.00000E+00
    0.00000E+00         0.00000E+00        -0.49787E+08
 
   -0.49137E+08         0.64773E+05         0.00000E+00
    0.64773E+05        -0.49998E+08         0.00000E+00
    0.00000E+00         0.00000E+00        -0.49788E+08
 
   -0.49144E+08         0.82835E+05         0.00000E+00
    0.82835E+05        -0.49997E+08         0.00000E+00
    0.00000E+00         0.00000E+00        -0.49789E+08
 
   -0.49151E+08         0.10069E+06         0.00000E+00
    0.10069E+06        -0.49995E+08         0.00000E+00
    0.00000E+00         0.00000E+00        -0.49790E+08
 
   -0.49159E+08         0.11834E+06         0.00000E+00
    0.11834E+06        -0.49993E+08         0.00000E+00
    0.00000E+00         0.00000E+00        -0.49791E+08
 
   -0.49167E+08         0.13577E+06         0.00000E+00
    0.13577E+06        -0.49991E+08         0.00000E+00
    0.00000E+00         0.00000E+00        -0.49792E+08
 
   -0.49176E+08         0.15296E+06         0.00000E+00
    0.15296E+06        -0.49988E+08         0.00000E+00
    0.00000E+00         0.00000E+00        -0.49793E+08
 
   -0.49186E+08         0.16992E+06         0.00000E+00
    0.16992E+06        -0.49985E+08         0.00000E+00
    0.00000E+00         0.00000E+00        -0.49795E+08
 
   -0.49196E+08         0.18662E+06         0.00000E+00
    0.18662E+06        -0.49982E+08         0.00000E+00
    0.00000E+00         0.00000E+00        -0.49796E+08
 
   -0.49206E+08         0.20307E+06         0.00000E+00
    0.20307E+06        -0.49979E+08         0.00000E+00
    0.00000E+00         0.00000E+00        -0.49798E+08
 
   -0.49217E+08         0.21925E+06         0.00000E+00
    0.21925E+06        -0.49975E+08         0.00000E+00
    0.00000E+00         0.00000E+00        -0.49799E+08
 
   -0.49228E+08         0.23516E+06         0.00000E+00
    0.23516E+06        -0.49971E+08         0.00000E+00
    0.00000E+00         0.00000E+00        -0.49801E+08
 
   -0.49240E+08         0.25079E+06         0.00000E+00
    0.25079E+06        -0.49967E+08         0.00000E+00
    0.00000E+00         0.00000E+00        -0.49802E+08
 
   -0.49253E+08         0.26613E+06         0.00000E+00
    0.26613E+06        -0.49963E+08         0.00000E+00
    0.00000E+00         0.00000E+00        -0.49804E+08
 
   -0.49265E+08         0.28118E+06         0.00000E+00
    0.28118E+06        -0.49958E+08         0.00000E+00
    0.00000E+00         0.00000E+00        -0.49805E+08
 
   -0.49278E+08         0.29593E+06         0.00000E+00
    0.29593E+06        -0.49953E+08         0.00000E+00
    0.00000E+00         0.00000E+00        -0.49807E+08
 
   -0.49292E+08         0.31038E+06         0.00000E+00
    0.31038E+06        -0.49948E+08         0.00000E+00
    0.00000E+00         0.00000E+00        -0.49809E+08
 
   -0.49306E+08         0.32451E+06         0.00000E+00
    0.32451E+06        -0.49942E+08         0.00000E+00
    0.00000E+00         0.00000E+00        -0.49810E+08
 
   -0.49321E+08         0.33833E+06         0.00000E+00
    0.33833E+06        -0.49937E+08         0.00000E+00
    0.00000E+00         0.00000E+00        -0.49812E+08
 
   -0.49335E+08         0.35183E+06         0.00000E+00
    0.35183E+06        -0.49931E+08         0.00000E+00
    0.00000E+00         0.00000E+00        -0.49814E+08
 
   -0.49350E+08         0.36501E+06         0.00000E+00
    0.36501E+06        -0.49925E+08         0.00000E+00
    0.00000E+00         0.00000E+00        -0.49816E+08
 
   -0.49366E+08         0.37786E+06         0.00000E+00
    0.37786E+06        -0.49919E+08         0.00000E+00
    0.00000E+00         0.00000E+00        -0.49818E+08
 
   -0.49382E+08         0.39038E+06         0.00000E+00
    0.39038E+06        -0.49912E+08         0.00000E+00
    0.00000E+00         0.00000E+00        -0.49819E+08
 
   -0.49398E+08         0.40256E+06         0.00000E+00
    0.40256E+06        -0.49906E+08         0.00000E+00
    0.00000E+00         0.00000E+00        -0.49821E+08
 
   -0.49415E+08         0.41440E+06         0.00000E+00
    0.41440E+06        -0.49899E+08         0.00000E+00
    0.00000E+00         0.00000E+00        -0.49823E+08
 
   -0.49431E+08         0.42589E+06         0.00000E+00
    0.42589E+06        -0.49892E+08         0.00000E+00
    0.00000E+00         0.00000E+00        -0.49825E+08
 
   -0.49449E+08         0.43704E+06         0.00000E+00
    0.43704E+06        -0.49885E+08         0.00000E+00
    0.00000E+00         0.00000E+00        -0.49827E+08
 
   -0.49466E+08         0.44785E+06         0.00000E+00
    0.44785E+06        -0.49878E+08         0.00000E+00
    0.00000E+00         0.00000E+00        -0.49829E+08
 
   -0.49484E+08         0.45830E+06         0.00000E+00
    0.45830E+06        -0.49870E+08         0.00000E+00
    0.00000E+00         0.00000E+00        -0.49831E+08
 
   -0.49502E+08         0.46839E+06         0.00000E+00
    0.46839E+06        -0.49862E+08         0.00000E+00
    0.00000E+00         0.00000E+00        -0.49833E+08
 
   -0.49520E+08         0.47813E+06         0.00000E+00
    0.47813E+06        -0.49855E+08         0.00000E+00
    0.00000E+00         0.00000E+00        -0.49836E+08
 
   -0.49539E+08         0.48751E+06         0.00000E+00
    0.48751E+06        -0.49847E+08         0.00000E+00
    0.00000E+00         0.00000E+00        -0.49838E+08
 
   -0.49558E+08         0.49653E+06         0.00000E+00
    0.49653E+06        -0.49839E+08         0.00000E+00
    0.00000E+00         0.00000E+00        -0.49840E+08
 
   -0.49577E+08         0.50519E+06         0.00000E+00
    0.50519E+06        -0.49830E+08         0.00000E+00
    0.00000E+00         0.00000E+00        -0.49842E+08
 
   -0.49596E+08         0.51349E+06         0.00000E+00
    0.51349E+06        -0.49822E+08         0.00000E+00
    0.00000E+00         0.00000E+00        -0.49844E+08
 
   -0.49615E+08         0.52142E+06         0.00000E+00
    0.52142E+06        -0.49814E+08         0.00000E+00
    0.00000E+00         0.00000E+00        -0.49846E+08
 
   -0.49635E+08         0.52898E+06         0.00000E+00
    0.52898E+06        -0.49805E+08         0.00000E+00
    0.00000E+00         0.00000E+00        -0.49849E+08
 
   -0.49655E+08         0.53617E+06         0.00000E+00
    0.53617E+06        -0.49796E+08         0.00000E+00
    0.00000E+00         0.00000E+00        -0.49851E+08
 
   -0.49675E+08         0.54300E+06         0.00000E+00
    0.54300E+06        -0.49788E+08         0.00000E+00
    0.00000E+00         0.00000E+00        -0.49853E+08
 
   -0.49696E+08         0.54945E+06         0.00000E+00
    0.54945E+06        -0.49779E+08         0.00000E+00
    0.00000E+00         0.00000E+00        -0.49855E+08
 
   -0.49716E+08         0.55553E+06         0.00000E+00
    0.55553E+06        -0.49770E+08         0.00000E+00
    0.00000E+00         0.00000E+00        -0.49858E+08
 
   -0.49737E+08         0.56123E+06         0.00000E+00
    0.56123E+06        -0.49761E+08         0.00000E+00
    0.00000E+00         0.00000E+00        -0.49860E+08
 
   -0.49758E+08         0.56657E+06         0.00000E+00
    0.56657E+06        -0.49751E+08         0.00000E+00
    0.00000E+00         0.00000E+00        -0.49862E+08
 
   -0.49779E+08         0.57152E+06         0.00000E+00
    0.57152E+06        -0.49742E+08         0.00000E+00
    0.00000E+00         0.00000E+00        -0.49865E+08
 
   -0.49800E+08         0.57610E+06         0.00000E+00
    0.57610E+06        -0.49733E+08         0.00000E+00
    0.00000E+00         0.00000E+00        -0.49867E+08
 
   -0.49821E+08         0.58030E+06         0.00000E+00
    0.58030E+06        -0.49723E+08         0.00000E+00
    0.00000E+00         0.00000E+00        -0.49870E+08
 
   -0.49843E+08         0.58412E+06         0.00000E+00
    0.58412E+06        -0.49714E+08         0.00000E+00
    0.00000E+00         0.00000E+00        -0.49872E+08
 
   -0.49865E+08         0.58755E+06         0.00000E+00
    0.58755E+06        -0.49704E+08         0.00000E+00
    0.00000E+00         0.00000E+00        -0.49874E+08
 
   -0.49023E+08         0.10403E+05         0.00000E+00
    0.10403E+05        -0.50000E+08         0.00000E+00
    0.00000E+00         0.00000E+00        -0.49758E+08
 
   -0.49029E+08         0.30777E+05         0.00000E+00
    0.30777E+05        -0.50000E+08         0.00000E+00
    0.00000E+00         0.00000E+00        -0.49759E+08
 
   -0.49035E+08         0.50951E+05         0.00000E+00
    0.50951E+05        -0.49999E+08         0.00000E+00
    0.00000E+00         0.00000E+00        -0.49760E+08
 
   -0.49042E+08         0.70912E+05         0.00000E+00
    0.70912E+05        -0.49998E+08         0.00000E+00
    0.00000E+00         0.00000E+00        -0.49761E+08
 
   -0.49050E+08         0.90648E+05         0.00000E+00
    0.90648E+05        -0.49996E+08         0.00000E+00
    0.00000E+00         0.00000E+00        -0.49762E+08
 
   -0.49058E+08         0.11015E+06         0.00000E+00
    0.11015E+06        -0.49995E+08         0.00000E+00
    0.00000E+00         0.00000E+00        -0.49764E+08
 
   -0.49067E+08         0.12940E+06         0.00000E+00
    0.12940E+06        -0.49992E+08         0.00000E+00
    0.00000E+00         0.00000E+00        -0.49765E+08
 
   -0.49077E+08         0.14840E+06         0.00000E+00
    0.14840E+06        -0.49990E+08         0.00000E+00
    0.00000E+00         0.00000E+00        -0.49766E+08
 
   -0.49087E+08         0.16713E+06         0.00000E+00
    0.16713E+06        -0.49987E+08         0.00000E+00
    0.00000E+00         0.00000E+00        -0.49768E+08
 
   -0.49098E+08         0.18559E+06         0.00000E+00
    0.18559E+06        -0.49984E+08         0.00000E+00
    0.00000E+00         0.00000E+00        -0.49769E+08
 
   -0.49109E+08         0.20376E+06         0.00000E+00
    0.20376E+06        -0.49980E+08         0.00000E+00
    0.00000E+00         0.00000E+00        -0.49771E+08
 
   -0.49121E+08         0.22164E+06         0.00000E+00
    0.22164E+06        -0.49977E+08         0.00000E+00
    0.00000E+00         0.00000E+00        -0.49773E+08
 
   -0.49133E+08         0.23922E+06         0.00000E+00
    0.23922E+06        -0.49973E+08         0.00000E+00
    0.00000E+00         0.00000E+00        -0.49774E+08
 
   -0.49146E+08         0.25649E+06         0.00000E+00
    0.25649E+06        -0.49968E+08         0.00000E+00
    0.00000E+00         0.00000E+00        -0.49776E+08
 
   -0.49160E+08         0.27345E+06         0.00000E+00
    0.27345E+06        -0.49964E+08         0.00000E+00
    0.00000E+00         0.00000E+00        -0.49778E+08
 
   -0.49173E+08         0.29008E+06         0.00000E+00
    0.29008E+06        -0.49959E+08         0.00000E+00
    0.00000E+00         0.00000E+00        -0.49780E+08
 
   -0.49188E+08         0.30639E+06         0.00000E+00
    0.30639E+06        -0.49954E+08         0.00000E+00
    0.00000E+00         0.00000E+00        -0.49781E+08
 
   -0.49202E+08         0.32237E+06         0.00000E+00
    0.32237E+06        -0.49948E+08         0.00000E+00
    0.00000E+00         0.00000E+00        -0.49783E+08
 
   -0.49218E+08         0.33801E+06         0.00000E+00
    0.33801E+06        -0.49943E+08         0.00000E+00
    0.00000E+00         0.00000E+00        -0.49785E+08
 
   -0.49233E+08         0.35330E+06         0.00000E+00
    0.35330E+06        -0.49937E+08         0.00000E+00
    0.00000E+00         0.00000E+00        -0.49787E+08
 
   -0.49249E+08         0.36825E+06         0.00000E+00
    0.36825E+06        -0.49931E+08         0.00000E+00
    0.00000E+00         0.00000E+00        -0.49789E+08
 
   -0.49266E+08         0.38284E+06         0.00000E+00
    0.38284E+06        -0.49924E+08         0.00000E+00
    0.00000E+00         0.00000E+00        -0.49791E+08
 
   -0.49283E+08         0.39707E+06         0.00000E+00
    0.39707E+06        -0.49918E+08         0.00000E+00
    0.00000E+00         0.00000E+00        -0.49793E+08
 
   -0.49300E+08         0.41095E+06         0.00000E+00
    0.41095E+06        -0.49911E+08         0.00000E+00
    0.00000E+00         0.00000E+00        -0.49795E+08
 
   -0.49318E+08         0.42446E+06         0.00000E+00
    0.42446E+06        -0.49904E+08         0.00000E+00
    0.00000E+00         0.00000E+00        -0.49797E+08
 
   -0.49336E+08         0.43760E+06         0.00000E+00
    0.43760E+06        -0.49897E+08         0.00000E+00
    0.00000E+00         0.00000E+00        -0.49800E+08
 
   -0.49354E+08         0.45038E+06         0.00000E+00
    0.45038E+06        -0.49889E+08         0.00000E+00
    0.00000E+00         0.00000E+00        -0.49802E+08
 
   -0.49373E+08         0.46278E+06         0.00000E+00
    0.46278E+06        -0.49882E+08         0.00000E+00
    0.00000E+00         0.00000E+00        -0.49804E+08
 
   -0.49392E+08         0.47481E+06         0.00000E+00
    0.47481E+06        -0.49874E+08         0.00000E+00
    0.00000E+00         0.00000E+00        -0.49806E+08
 
   -0.49411E+08         0.48645E+06         0.00000E+00
    0.48645E+06        -0.49866E+08         0.00000E+00
    0.00000E+00         0.00000E+00        -0.49808E+08
 
   -0.49430E+08         0.49772E+06         0.00000E+00
    0.49772E+06        -0.49858E+08         0.00000E+00
    0.00000E+00         0.00000E+00        -0.49811E+08
 
   -0.49450E+08         0.50861E+06         0.00000E+00
    0.50861E+06        -0.49849E+08         0.00000E+00
    0.00000E+00         0.00000E+00        -0.49813E+08
 
   -0.49471E+08         0.51911E+06         0.00000E+00
    0.51911E+06        -0.49841E+08         0.00000E+00
    0.00000E+00         0.00000E+00        -0.49815E+08
 
   -0.49491E+08         0.52923E+06         0.00000E+00
    0.52923E+06        -0.49832E+08         0.00000E+00
    0.00000E+00         0.00000E+00        -0.49818E+08
 
   -0.49512E+08         0.53897E+06         0.00000E+00
    0.53897E+06        -0.49823E+08         0.00000E+00
    0.00000E+00         0.00000E+00        -0.49820E+08
 
   -0.49533E+08         0.54831E+06         0.00000E+00
    0.54831E+06        -0.49815E+08         0.00000E+00
    0.00000E+00         0.00000E+00        -0.49823E+08
 
   -0.49554E+08         0.55727E+06         0.00000E+00
    0.55727E+06        -0.49805E+08         0.00000E+00
    0.00000E+00         0.00000E+00        -0.49825E+08
 
   -0.49575E+08         0.56584E+06         0.00000E+00
    0.56584E+06        -0.49796E+08         0.00000E+00
    0.00000E+00         0.00000E+00        -0.49827E+08
 
   -0.49597E+08         0.57402E+06         0.00000E+00
    0.57402E+06        -0.49787E+08         0.00000E+00
    0.00000E+00         0.00000E+00        -0.49830E+08
 
   -0.49619E+08         0.58181E+06         0.00000E+00
    0.58181E+06        -0.49777E+08         0.00000E+00
    0.00000E+00         0.00000E+00        -0.49832E+08
 
   -0.49641E+08         0.58920E+06         0.00000E+00
    0.58920E+06        -0.49768E+08         0.00000E+00
    0.00000E+00         0.00000E+00        -0.49835E+08
 
   -0.49663E+08         0.59621E+06         0.00000E+00
    0.59621E+06        -0.49758E+08         0.00000E+00
    0.00000E+00         0.00000E+00        -0.49837E+08
 
   -0.49685E+08         0.60282E+06         0.00000E+00
    0.60282E+06        -0.49748E+08         0.00000E+00
    0.00000E+00         0.00000E+00        -0.49840E+08
 
   -0.49708E+08         0.60903E+06         0.00000E+00
    0.60903E+06        -0.49738E+08         0.00000E+00
    0.00000E+00         0.00000E+00        -0.49842E+08
 
   -0.49731E+08         0.61485E+06         0.00000E+00
    0.61485E+06        -0.49728E+08         0.00000E+00
    0.00000E+00         0.00000E+00        -0.49845E+08
 
   -0.49754E+08         0.62028E+06         0.00000E+00
    0.62028E+06        -0.49718E+08         0.00000E+00
    0.00000E+00         0.00000E+00        -0.49848E+08
 
   -0.49777E+08         0.62531E+06         0.00000E+00
    0.62531E+06        -0.49708E+08         0.00000E+00
    0.00000E+00         0.00000E+00        -0.49850E+08
 
   -0.49800E+08         0.62994E+06         0.00000E+00
    0.62994E+06        -0.49698E+08         0.00000E+00
    0.00000E+00         0.00000E+00        -0.49853E+08
 
   -0.49824E+08         0.63418E+06         0.00000E+00
    0.63418E+06        -0.49687E+08         0.00000E+00
    0.00000E+00         0.00000E+00        -0.49855E+08
 
   -0.49847E+08         0.63801E+06         0.00000E+00
    0.63801E+06        -0.49677E+08         0.00000E+00
    0.00000E+00         0.00000E+00        -0.49858E+08
 
   -0.48916E+08         0.11427E+05         0.00000E+00
    0.11427E+05        -0.50000E+08         0.00000E+00
    0.00000E+00         0.00000E+00        -0.49727E+08
 
   -0.48923E+08         0.33761E+05         0.00000E+00
    0.33761E+05        -0.50000E+08         0.00000E+00
    0.00000E+00         0.00000E+00        -0.49729E+08
 
   -0.48930E+08         0.55856E+05         0.00000E+00
    0.55856E+05        -0.49999E+08         0.00000E+00
    0.00000E+00         0.00000E+00        -0.49730E+08
 
   -0.48938E+08         0.77699E+05         0.00000E+00
    0.77699E+05        -0.49998E+08         0.00000E+00
    0.00000E+00         0.00000E+00        -0.49731E+08
 
   -0.48947E+08         0.99278E+05         0.00000E+00
    0.99278E+05        -0.49996E+08         0.00000E+00
    0.00000E+00         0.00000E+00        -0.49733E+08
 
   -0.48957E+08         0.12058E+06         0.00000E+00
    0.12058E+06        -0.49994E+08         0.00000E+00
    0.00000E+00         0.00000E+00        -0.49734E+08
 
   -0.48967E+08         0.14160E+06         0.00000E+00
    0.14160E+06        -0.49992E+08         0.00000E+00
    0.00000E+00         0.00000E+00        -0.49736E+08
 
   -0.48978E+08         0.16232E+06         0.00000E+00
    0.16232E+06        -0.49989E+08         0.00000E+00
    0.00000E+00         0.00000E+00        -0.49738E+08
 
   -0.48990E+08         0.18273E+06         0.00000E+00
    0.18273E+06        -0.49986E+08         0.00000E+00
    0.00000E+00         0.00000E+00        -0.49739E+08
 
   -0.49002E+08         0.20283E+06         0.00000E+00
    0.20283E+06        -0.49982E+08         0.00000E+00
    0.00000E+00         0.00000E+00        -0.49741E+08
 
   -0.49015E+08         0.22261E+06         0.00000E+00
    0.22261E+06        -0.49979E+08         0.00000E+00
    0.00000E+00         0.00000E+00        -0.49743E+08
 
   -0.49028E+08         0.24205E+06         0.00000E+00
    0.24205E+06        -0.49974E+08         0.00000E+00
    0.00000E+00         0.00000E+00        -0.49745E+08
 
   -0.49042E+08         0.26115E+06         0.00000E+00
    0.26115E+06        -0.49970E+08         0.00000E+00
    0.00000E+00         0.00000E+00        -0.49747E+08
 
   -0.49057E+08         0.27990E+06         0.00000E+00
    0.27990E+06        -0.49965E+08         0.00000E+00
    0.00000E+00         0.00000E+00        -0.49749E+08
 
   -0.49072E+08         0.29830E+06         0.00000E+00
    0.29830E+06        -0.49960E+08         0.00000E+00
    0.00000E+00         0.00000E+00        -0.49751E+08
 
   -0.49088E+08         0.31633E+06         0.00000E+00
    0.31633E+06        -0.49955E+08         0.00000E+00
    0.00000E+00         0.00000E+00        -0.49753E+08
 
   -0.49104E+08         0.33400E+06         0.00000E+00
    0.33400E+06        -0.49949E+08         0.00000E+00
    0.00000E+00         0.00000E+00        -0.49755E+08
 
   -0.49120E+08         0.35130E+06         0.00000E+00
    0.35130E+06        -0.49943E+08         0.00000E+00
    0.00000E+00         0.00000E+00        -0.49757E+08
 
   -0.49137E+08         0.36823E+06         0.00000E+00
    0.36823E+06        -0.49937E+08         0.00000E+00
    0.00000E+00         0.00000E+00        -0.49759E+08
 
   -0.49155E+08         0.38477E+06         0.00000E+00
    0.38477E+06        -0.49931E+08         0.00000E+00
    0.00000E+00         0.00000E+00        -0.49761E+08
 
   -0.49173E+08         0.40092E+06         0.00000E+00
    0.40092E+06        -0.49924E+08         0.00000E+00
    0.00000E+00         0.00000E+00        -0.49764E+08
 
   -0.49191E+08         0.41669E+06         0.00000E+00
    0.41669E+06        -0.49917E+08         0.00000E+00
    0.00000E+00         0.00000E+00        -0.49766E+08
 
   -0.49210E+08         0.43206E+06         0.00000E+00
    0.43206E+06        -0.49910E+08         0.00000E+00
    0.00000E+00         0.00000E+00        -0.49768E+08
 
   -0.49229E+08         0.44704E+06         0.00000E+00
    0.44704E+06        -0.49902E+08         0.00000E+00
    0.00000E+00         0.00000E+00        -0.49770E+08
 
   -0.49248E+08         0.46162E+06         0.00000E+00
    0.46162E+06        -0.49895E+08         0.00000E+00
    0.00000E+00         0.00000E+00        -0.49773E+08
 
   -0.49268E+08         0.47579E+06         0.00000E+00
    0.47579E+06        -0.49887E+08         0.00000E+00
    0.00000E+00         0.00000E+00        -0.49775E+08
 
   -0.49289E+08         0.48957E+06         0.00000E+00
    0.48957E+06        -0.49879E+08         0.00000E+00
    0.00000E+00         0.00000E+00        -0.49778E+08
 
   -0.49309E+08         0.50294E+06         0.00000E+00
    0.50294E+06        -0.49871E+08         0.00000E+00
    0.00000E+00         0.00000E+00        -0.49780E+08
 
   -0.49330E+08         0.51590E+06         0.00000E+00
    0.51590E+06        -0.49862E+08         0.00000E+00
    0.00000E+00         0.00000E+00        -0.49783E+08
 
   -0.49351E+08         0.52846E+06         0.00000E+00
    0.52846E+06        -0.49853E+08         0.00000E+00
    0.00000E+00         0.00000E+00        -0.49785E+08
 
   -0.49373E+08         0.54060E+06         0.00000E+00
    0.54060E+06        -0.49845E+08         0.00000E+00
    0.00000E+00         0.00000E+00        -0.49788E+08
 
   -0.49395E+08         0.55234E+06         0.00000E+00
    0.55234E+06        -0.49836E+08         0.00000E+00
    0.00000E+00         0.00000E+00        -0.49790E+08
 
   -0.49417E+08         0.56366E+06         0.00000E+00
    0.56366E+06        -0.49826E+08         0.00000E+00
    0.00000E+00         0.00000E+00        -0.49793E+08
 
   -0.49439E+08         0.57457E+06         0.00000E+00
    0.57457E+06        -0.49817E+08         0.00000E+00
    0.00000E+00         0.00000E+00        -0.49795E+08
 
   -0.49462E+08         0.58507E+06         0.00000E+00
    0.58507E+06        -0.49807E+08         0.00000E+00
    0.00000E+00         0.00000E+00        -0.49798E+08
 
   -0.49485E+08         0.59515E+06         0.00000E+00
    0.59515E+06        -0.49798E+08         0.00000E+00
    0.00000E+00         0.00000E+00        -0.49801E+08
 
   -0.49508E+08         0.60482E+06         0.00000E+00
    0.60482E+06        -0.49788E+08         0.00000E+00
    0.00000E+00         0.00000E+00        -0.49803E+08
 
   -0.49532E+08         0.61408E+06         0.00000E+00
    0.61408E+06        -0.49778E+08         0.00000E+00
    0.00000E+00         0.00000E+00        -0.49806E+08
 
   -0.49555E+08         0.62292E+06         0.00000E+00
    0.62292E+06        -0.49768E+08         0.00000E+00
    0.00000E+00         0.00000E+00        -0.49809E+08
 
   -0.49579E+08         0.63135E+06         0.00000E+00
    0.63135E+06        -0.49758E+08         0.00000E+00
    0.00000E+00         0.00000E+00        -0.49812E+08
 
   -0.49603E+08         0.63937E+06         0.00000E+00
    0.63937E+06        -0.49747E+08         0.00000E+00
    0.00000E+00         0.00000E+00        -0.49814E+08
 
   -0.49627E+08         0.64697E+06         0.00000E+00
    0.64697E+06        -0.49737E+08         0.00000E+00
    0.00000E+00         0.00000E+00        -0.49817E+08
 
   -0.49652E+08         0.65416E+06         0.00000E+00
    0.65416E+06        -0.49726E+08         0.00000E+00
    0.00000E+00         0.00000E+00        -0.49820E+08
 
   -0.49677E+08         0.66093E+06         0.00000E+00
    0.66093E+06        -0.49715E+08         0.00000E+00
    0.00000E+00         0.00000E+00        -0.49823E+08
 
   -0.49701E+08         0.66729E+06         0.00000E+00
    0.66729E+06        -0.49705E+08         0.00000E+00
    0.00000E+00         0.00000E+00        -0.49825E+08
 
   -0.49726E+08         0.67324E+06         0.00000E+00
    0.67324E+06        -0.49694E+08         0.00000E+00
    0.00000E+00         0.00000E+00        -0.49828E+08
 
   -0.49752E+08         0.67877E+06         0.00000E+00
    0.67877E+06        -0.49683E+08         0.00000E+00
    0.00000E+00         0.00000E+00        -0.49831E+08
 
   -0.49777E+08         0.68389E+06         0.00000E+00
    0.68389E+06        -0.49671E+08         0.00000E+00
    0.00000E+00         0.00000E+00        -0.49834E+08
 
   -0.49802E+08         0.68859E+06         0.00000E+00
    0.68859E+06        -0.49660E+08         0.00000E+00
    0.00000E+00         0.00000E+00        -0.49837E+08
 
   -0.49828E+08         0.69288E+06         0.00000E+00
    0.69288E+06        -0.49649E+08         0.00000E+00
    0.00000E+00         0.00000E+00        -0.49840E+08
 
   -0.48798E+08         0.12561E+05         0.00000E+00
    0.12561E+05        -0.50000E+08         0.00000E+00
    0.00000E+00         0.00000E+00        -0.49693E+08
 
   -0.48806E+08         0.37058E+05         0.00000E+00
    0.37058E+05        -0.50000E+08         0.00000E+00
    0.00000E+00         0.00000E+00        -0.49695E+08
 
   -0.48815E+08         0.61269E+05         0.00000E+00
    0.61269E+05        -0.49999E+08         0.00000E+00
    0.00000E+00         0.00000E+00        -0.49696E+08
 
   -0.48825E+08         0.85183E+05         0.00000E+00
    0.85183E+05        -0.49997E+08         0.00000E+00
    0.00000E+00         0.00000E+00        -0.49698E+08
 
   -0.48835E+08         0.10879E+06         0.00000E+00
    0.10879E+06        -0.49996E+08         0.00000E+00
    0.00000E+00         0.00000E+00        -0.49700E+08
 
   -0.48846E+08         0.13207E+06         0.00000E+00
    0.13207E+06        -0.49993E+08         0.00000E+00
    0.00000E+00         0.00000E+00        -0.49702E+08
 
   -0.48858E+08         0.15501E+06         0.00000E+00
    0.15501E+06        -0.49991E+08         0.00000E+00
    0.00000E+00         0.00000E+00        -0.49704E+08
 
   -0.48871E+08         0.17761E+06         0.00000E+00
    0.17761E+06        -0.49988E+08         0.00000E+00
    0.00000E+00         0.00000E+00        -0.49705E+08
 
   -0.48884E+08         0.19986E+06         0.00000E+00
    0.19986E+06        -0.49984E+08         0.00000E+00
    0.00000E+00         0.00000E+00        -0.49707E+08
 
   -0.48898E+08         0.22175E+06         0.00000E+00
    0.22175E+06        -0.49981E+08         0.00000E+00
    0.00000E+00         0.00000E+00        -0.49709E+08
 
   -0.48913E+08         0.24326E+06         0.00000E+00
    0.24326E+06        -0.49976E+08         0.00000E+00
    0.00000E+00         0.00000E+00        -0.49712E+08
 
   -0.48928E+08         0.26439E+06         0.00000E+00
    0.26439E+06        -0.49972E+08         0.00000E+00
    0.00000E+00         0.00000E+00        -0.49714E+08
 
   -0.48944E+08         0.28514E+06         0.00000E+00
    0.28514E+06        -0.49967E+08         0.00000E+00
    0.00000E+00         0.00000E+00        -0.49716E+08
 
   -0.48960E+08         0.30549E+06         0.00000E+00
    0.30549E+06        -0.49962E+08         0.00000E+00
    0.00000E+00         0.00000E+00        -0.49718E+08
 
   -0.48977E+08         0.32545E+06         0.00000E+00
    0.32545E+06        -0.49956E+08         0.00000E+00
    0.00000E+00         0.00000E+00        -0.49720E+08
 
   -0.48995E+08         0.34499E+06         0.00000E+00
    0.34499E+06        -0.49951E+08         0.00000E+00
    0.00000E+00         0.00000E+00        -0.49723E+08
 
   -0.49013E+08         0.36413E+06         0.00000E+00
    0.36413E+06        -0.49944E+08         0.00000E+00
    0.00000E+00         0.00000E+00        -0.49725E+08
 
   -0.49031E+08         0.38285E+06         0.00000E+00
    0.38285E+06        -0.49938E+08         0.00000E+00
    0.00000E+00         0.00000E+00        -0.49728E+08
 
   -0.49050E+08         0.40115E+06         0.00000E+00
    0.40115E+06        -0.49931E+08         0.00000E+00
    0.00000E+00         0.00000E+00        -0.49730E+08
 
   -0.49070E+08         0.41903E+06         0.00000E+00
    0.41903E+06        -0.49924E+08         0.00000E+00
    0.00000E+00         0.00000E+00        -0.49732E+08
 
   -0.49090E+08         0.43648E+06         0.00000E+00
    0.43648E+06        -0.49917E+08         0.00000E+00
    0.00000E+00         0.00000E+00        -0.49735E+08
 
   -0.49110E+08         0.45350E+06         0.00000E+00
    0.45350E+06        -0.49909E+08         0.00000E+00
    0.00000E+00         0.00000E+00        -0.49738E+08
 
   -0.49131E+08         0.47009E+06         0.00000E+00
    0.47009E+06        -0.49902E+08         0.00000E+00
    0.00000E+00         0.00000E+00        -0.49740E+08
 
   -0.49152E+08         0.48625E+06         0.00000E+00
    0.48625E+06        -0.49894E+08         0.00000E+00
    0.00000E+00         0.00000E+00        -0.49743E+08
 
   -0.49174E+08         0.50197E+06         0.00000E+00
    0.50197E+06        -0.49885E+08         0.00000E+00
    0.00000E+00         0.00000E+00        -0.49745E+08
 
   -0.49196E+08         0.51725E+06         0.00000E+00
    0.51725E+06        -0.49877E+08         0.00000E+00
    0.00000E+00         0.00000E+00        -0.49748E+08
 
   -0.49218E+08         0.53209E+06         0.00000E+00
    0.53209E+06        -0.49868E+08         0.00000E+00
    0.00000E+00         0.00000E+00        -0.49751E+08
 
   -0.49241E+08         0.54649E+06         0.00000E+00
    0.54649E+06        -0.49859E+08         0.00000E+00
    0.00000E+00         0.00000E+00        -0.49754E+08
 
   -0.49264E+08         0.56045E+06         0.00000E+00
    0.56045E+06        -0.49850E+08         0.00000E+00
    0.00000E+00         0.00000E+00        -0.49756E+08
 
   -0.49287E+08         0.57397E+06         0.00000E+00
    0.57397E+06        -0.49841E+08         0.00000E+00
    0.00000E+00         0.00000E+00        -0.49759E+08
 
   -0.49311E+08         0.58705E+06         0.00000E+00
    0.58705E+06        -0.49831E+08         0.00000E+00
    0.00000E+00         0.00000E+00        -0.49762E+08
 
   -0.49335E+08         0.59969E+06         0.00000E+00
    0.59969E+06        -0.49821E+08         0.00000E+00
    0.00000E+00         0.00000E+00        -0.49765E+08
 
   -0.49359E+08         0.61188E+06         0.00000E+00
    0.61188E+06        -0.49811E+08         0.00000E+00
    0.00000E+00         0.00000E+00        -0.49768E+08
 
   -0.49384E+08         0.62364E+06         0.00000E+00
    0.62364E+06        -0.49801E+08         0.00000E+00
    0.00000E+00         0.00000E+00        -0.49771E+08
 
   -0.49409E+08         0.63495E+06         0.00000E+00
    0.63495E+06        -0.49791E+08         0.00000E+00
    0.00000E+00         0.00000E+00        -0.49774E+08
 
   -0.49434E+08         0.64582E+06         0.00000E+00
    0.64582E+06        -0.49780E+08         0.00000E+00
    0.00000E+00         0.00000E+00        -0.49777E+08
 
   -0.49459E+08         0.65626E+06         0.00000E+00
    0.65626E+06        -0.49770E+08         0.00000E+00
    0.00000E+00         0.00000E+00        -0.49779E+08
 
   -0.49485E+08         0.66626E+06         0.00000E+00
    0.66626E+06        -0.49759E+08         0.00000E+00
    0.00000E+00         0.00000E+00        -0.49782E+08
 
   -0.49510E+08         0.67581E+06         0.00000E+00
    0.67581E+06        -0.49748E+08         0.00000E+00
    0.00000E+00         0.00000E+00        -0.49785E+08
 
   -0.49536E+08         0.68494E+06         0.00000E+00
    0.68494E+06        -0.49737E+08         0.00000E+00
    0.00000E+00         0.00000E+00        -0.49788E+08
 
   -0.49562E+08         0.69362E+06         0.00000E+00
    0.69362E+06        -0.49726E+08         0.00000E+00
    0.00000E+00         0.00000E+00        -0.49791E+08
 
   -0.49589E+08         0.70187E+06         0.00000E+00
    0.70187E+06        -0.49715E+08         0.00000E+00
    0.00000E+00         0.00000E+00        -0.49794E+08
 
   -0.49615E+08         0.70969E+06         0.00000E+00
    0.70969E+06        -0.49703E+08         0.00000E+00
    0.00000E+00         0.00000E+00        -0.49797E+08
 
   -0.49642E+08         0.71707E+06         0.00000E+00
    0.71707E+06        -0.49692E+08         0.00000E+00
    0.00000E+00         0.00000E+00        -0.49800E+08
 
   -0.49669E+08         0.72403E+06         0.00000E+00
    0.72403E+06        -0.49680E+08         0.00000E+00
    0.00000E+00         0.00000E+00        -0.49803E+08
 
   -0.49696E+08         0.73055E+06         0.00000E+00
    0.73055E+06        -0.49668E+08         0.00000E+00
    0.00000E+00         0.00000E+00        -0.49807E+08
 
   -0.49724E+08         0.73664E+06         0.00000E+00
    0.73664E+06        -0.49656E+08         0.00000E+00
    0.00000E+00         0.00000E+00        -0.49810E+08
 
   -0.49751E+08         0.74230E+06         0.00000E+00
    0.74230E+06        -0.49644E+08         0.00000E+00
    0.00000E+00         0.00000E+00        -0.49813E+08
 
   -0.49779E+08         0.74753E+06         0.00000E+00
    0.74753E+06        -0.49632E+08         0.00000E+00
    0.00000E+00         0.00000E+00        -0.49816E+08
 
   -0.49806E+08         0.75233E+06         0.00000E+00
    0.75233E+06        -0.49619E+08         0.00000E+00
    0.00000E+00         0.00000E+00        -0.49819E+08
 
   -0.48669E+08         0.13815E+05         0.00000E+00
    0.13815E+05        -0.50000E+08         0.00000E+00
    0.00000E+00         0.00000E+00        -0.49655E+08
 
   -0.48679E+08         0.40692E+05         0.00000E+00
    0.40692E+05        -0.50000E+08         0.00000E+00
    0.00000E+00         0.00000E+00        -0.49657E+08
 
   -0.48689E+08         0.67228E+05         0.00000E+00
    0.67228E+05        -0.49999E+08         0.00000E+00
    0.00000E+00         0.00000E+00        -0.49659E+08
 
   -0.48701E+08         0.93411E+05         0.00000E+00
    0.93411E+05        -0.49997E+08         0.00000E+00
    0.00000E+00         0.00000E+00        -0.49661E+08
 
   -0.48713E+08         0.11923E+06         0.00000E+00
    0.11923E+06        -0.49995E+08         0.00000E+00
    0.00000E+00         0.00000E+00        -0.49663E+08
 
   -0.48726E+08         0.14466E+06         0.00000E+00
    0.14466E+06        -0.49993E+08         0.00000E+00
    0.00000E+00         0.00000E+00        -0.49665E+08
 
   -0.48739E+08         0.16971E+06         0.00000E+00
    0.16971E+06        -0.49990E+08         0.00000E+00
    0.00000E+00         0.00000E+00        -0.49667E+08
 
   -0.48754E+08         0.19436E+06         0.00000E+00
    0.19436E+06        -0.49987E+08         0.00000E+00
    0.00000E+00         0.00000E+00        -0.49669E+08
 
   -0.48769E+08         0.21860E+06         0.00000E+00
    0.21860E+06        -0.49983E+08         0.00000E+00
    0.00000E+00         0.00000E+00        -0.49672E+08
 
   -0.48785E+08         0.24242E+06         0.00000E+00
    0.24242E+06        -0.49979E+08         0.00000E+00
    0.00000E+00         0.00000E+00        -0.49674E+08
 
   -0.48802E+08         0.26582E+06         0.00000E+00
    0.26582E+06        -0.49974E+08         0.00000E+00
    0.00000E+00         0.00000E+00        -0.49676E+08
 
   -0.48819E+08         0.28878E+06         0.00000E+00
    0.28878E+06        -0.49969E+08         0.00000E+00
    0.00000E+00         0.00000E+00        -0.49679E+08
 
   -0.48837E+08         0.31130E+06         0.00000E+00
    0.31130E+06        -0.49964E+08         0.00000E+00
    0.00000E+00         0.00000E+00        -0.49681E+08
 
   -0.48855E+08         0.33338E+06         0.00000E+00
    0.33338E+06        -0.49958E+08         0.00000E+00
    0.00000E+00         0.00000E+00        -0.49684E+08
 
   -0.48874E+08         0.35500E+06         0.00000E+00
    0.35500E+06        -0.49952E+08         0.00000E+00
    0.00000E+00         0.00000E+00        -0.49686E+08
 
   -0.48894E+08         0.37617E+06         0.00000E+00
    0.37617E+06        -0.49946E+08         0.00000E+00
    0.00000E+00         0.00000E+00        -0.49689E+08
 
   -0.48914E+08         0.39687E+06         0.00000E+00
    0.39687E+06        -0.49939E+08         0.00000E+00
    0.00000E+00         0.00000E+00        -0.49692E+08
 
   -0.48935E+08         0.41712E+06         0.00000E+00
    0.41712E+06        -0.49932E+08         0.00000E+00
    0.00000E+00         0.00000E+00        -0.49695E+08
 
   -0.48956E+08         0.43689E+06         0.00000E+00
    0.43689E+06        -0.49925E+08         0.00000E+00
    0.00000E+00         0.00000E+00        -0.49697E+08
 
   -0.48978E+08         0.45620E+06         0.00000E+00
    0.45620E+06        -0.49918E+08         0.00000E+00
    0.00000E+00         0.00000E+00        -0.49700E+08
 
   -0.49000E+08         0.47503E+06         0.00000E+00
    0.47503E+06        -0.49910E+08         0.00000E+00
    0.00000E+00         0.00000E+00        -0.49703E+08
 
   -0.49023E+08         0.49339E+06         0.00000E+00
    0.49339E+06        -0.49901E+08         0.00000E+00
    0.00000E+00         0.00000E+00        -0.49706E+08
 
   -0.49046E+08         0.51127E+06         0.00000E+00
    0.51127E+06        -0.49893E+08         0.00000E+00
    0.00000E+00         0.00000E+00        -0.49709E+08
 
   -0.49069E+08         0.52867E+06         0.00000E+00
    0.52867E+06        -0.49884E+08         0.00000E+00
    0.00000E+00         0.00000E+00        -0.49712E+08
 
   -0.49093E+08         0.54560E+06         0.00000E+00
    0.54560E+06        -0.49875E+08         0.00000E+00
    0.00000E+00         0.00000E+00        -0.49715E+08
 
   -0.49118E+08         0.56205E+06         0.00000E+00
    0.56205E+06        -0.49866E+08         0.00000E+00
    0.00000E+00         0.00000E+00        -0.49718E+08
 
   -0.49142E+08         0.57803E+06         0.00000E+00
    0.57803E+06        -0.49857E+08         0.00000E+00
    0.00000E+00         0.00000E+00        -0.49721E+08
 
   -0.49167E+08         0.59352E+06         0.00000E+00
    0.59352E+06        -0.49847E+08         0.00000E+00
    0.00000E+00         0.00000E+00        -0.49724E+08
 
   -0.49193E+08         0.60854E+06         0.00000E+00
    0.60854E+06        -0.49837E+08         0.00000E+00
    0.00000E+00         0.00000E+00        -0.49727E+08
 
   -0.49218E+08         0.62308E+06         0.00000E+00
    0.62308E+06        -0.49827E+08         0.00000E+00
    0.00000E+00         0.00000E+00        -0.49730E+08
 
   -0.49244E+08         0.63715E+06         0.00000E+00
    0.63715E+06        -0.49817E+08         0.00000E+00
    0.00000E+00         0.00000E+00        -0.49733E+08
 
   -0.49271E+08         0.65074E+06         0.00000E+00
    0.65074E+06        -0.49806E+08         0.00000E+00
    0.00000E+00         0.00000E+00        -0.49737E+08
 
   -0.49297E+08         0.66387E+06         0.00000E+00
    0.66387E+06        -0.49796E+08         0.00000E+00
    0.00000E+00         0.00000E+00        -0.49740E+08
 
   -0.49324E+08         0.67652E+06         0.00000E+00
    0.67652E+06        -0.49785E+08         0.00000E+00
    0.00000E+00         0.00000E+00        -0.49743E+08
 
   -0.49351E+08         0.68870E+06         0.00000E+00
    0.68870E+06        -0.49774E+08         0.00000E+00
    0.00000E+00         0.00000E+00        -0.49746E+08
 
   -0.49378E+08         0.70042E+06         0.00000E+00
    0.70042E+06        -0.49763E+08         0.00000E+00
    0.00000E+00         0.00000E+00        -0.49749E+08
 
   -0.49406E+08         0.71167E+06         0.00000E+00
    0.71167E+06        -0.49751E+08         0.00000E+00
    0.00000E+00         0.00000E+00        -0.49753E+08
 
   -0.49434E+08         0.72246E+06         0.00000E+00
    0.72246E+06        -0.49740E+08         0.00000E+00
    0.00000E+00         0.00000E+00        -0.49756E+08
 
   -0.49462E+08         0.73278E+06         0.00000E+00
    0.73278E+06        -0.49728E+08         0.00000E+00
    0.00000E+00         0.00000E+00        -0.49759E+08
 
   -0.49490E+08         0.74265E+06         0.00000E+00
    0.74265E+06        -0.49716E+08         0.00000E+00
    0.00000E+00         0.00000E+00        -0.49762E+08
 
   -0.49518E+08         0.75206E+06         0.00000E+00
    0.75206E+06        -0.49704E+08         0.00000E+00
    0.00000E+00         0.00000E+00        -0.49766E+08
 
   -0.49547E+08         0.76101E+06         0.00000E+00
    0.76101E+06        -0.49692E+08         0.00000E+00
    0.00000E+00         0.00000E+00        -0.49769E+08
 
   -0.49576E+08         0.76951E+06         0.00000E+00
    0.76951E+06        -0.49679E+08         0.00000E+00
    0.00000E+00         0.00000E+00        -0.49772E+08
 
   -0.49605E+08         0.77757E+06         0.00000E+00
    0.77757E+06        -0.49667E+08         0.00000E+00
    0.00000E+00         0.00000E+00        -0.49776E+08
 
   -0.49634E+08         0.78517E+06         0.00000E+00
    0.78517E+06        -0.49654E+08         0.00000E+00
    0.00000E+00         0.00000E+00        -0.49779E+08
 
   -0.49663E+08         0.79232E+06         0.00000E+00
    0.79232E+06        -0.49642E+08         0.00000E+00
    0.00000E+00         0.00000E+00        -0.49782E+08
 
   -0.49693E+08         0.79903E+06         0.00000E+00
    0.79903E+06        -0.49629E+08         0.00000E+00
    0.00000E+00         0.00000E+00        -0.49785E+08
 
   -0.49722E+08         0.80529E+06         0.00000E+00
    0.80529E+06        -0.49616E+08         0.00000E+00
    0.00000E+00         0.00000E+00        -0.49789E+08
 
   -0.49752E+08         0.81112E+06         0.00000E+00
    0.81112E+06        -0.49603E+08         0.00000E+00
    0.00000E+00         0.00000E+00        -0.49792E+08
 
   -0.49782E+08         0.81650E+06         0.00000E+00
    0.81650E+06        -0.49589E+08         0.00000E+00
    0.00000E+00         0.00000E+00        -0.49795E+08
 
   -0.48527E+08         0.15197E+05         0.00000E+00
    0.15197E+05        -0.50000E+08         0.00000E+00
    0.00000E+00         0.00000E+00        -0.49612E+08
 
   -0.48539E+08         0.44685E+05         0.00000E+00
    0.44685E+05        -0.50000E+08         0.00000E+00
    0.00000E+00         0.00000E+00        -0.49614E+08
 
   -0.48551E+08         0.73765E+05         0.00000E+00
    0.73765E+05        -0.49998E+08         0.00000E+00
    0.00000E+00         0.00000E+00        -0.49616E+08
 
   -0.48564E+08         0.10243E+06         0.00000E+00
    0.10243E+06        -0.49997E+08         0.00000E+00
    0.00000E+00         0.00000E+00        -0.49619E+08
 
   -0.48579E+08         0.13065E+06         0.00000E+00
    0.13065E+06        -0.49995E+08         0.00000E+00
    0.00000E+00         0.00000E+00        -0.49621E+08
 
   -0.48594E+08         0.15844E+06         0.00000E+00
    0.15844E+06        -0.49992E+08         0.00000E+00
    0.00000E+00         0.00000E+00        -0.49623E+08
 
   -0.48610E+08         0.18577E+06         0.00000E+00
    0.18577E+06        -0.49989E+08         0.00000E+00
    0.00000E+00         0.00000E+00        -0.49626E+08
 
   -0.48626E+08         0.21263E+06         0.00000E+00
    0.21263E+06        -0.49985E+08         0.00000E+00
    0.00000E+00         0.00000E+00        -0.49629E+08
 
   -0.48644E+08         0.23902E+06         0.00000E+00
    0.23902E+06        -0.49981E+08         0.00000E+00
    0.00000E+00         0.00000E+00        -0.49631E+08
 
   -0.48662E+08         0.26493E+06         0.00000E+00
    0.26493E+06        -0.49977E+08         0.00000E+00
    0.00000E+00         0.00000E+00        -0.49634E+08
 
   -0.48681E+08         0.29035E+06         0.00000E+00
    0.29035E+06        -0.49972E+08         0.00000E+00
    0.00000E+00         0.00000E+00        -0.49637E+08
 
   -0.48700E+08         0.31528E+06         0.00000E+00
    0.31528E+06        -0.49967E+08         0.00000E+00
    0.00000E+00         0.00000E+00        -0.49640E+08
 
   -0.48721E+08         0.33971E+06         0.00000E+00
    0.33971E+06        -0.49961E+08         0.00000E+00
    0.00000E+00         0.00000E+00        -0.49643E+08
 
   -0.48741E+08         0.36363E+06         0.00000E+00
    0.36363E+06        -0.49955E+08         0.00000E+00
    0.00000E+00         0.00000E+00        -0.49646E+08
 
   -0.48763E+08         0.38703E+06         0.00000E+00
    0.38703E+06        -0.49948E+08         0.00000E+00
    0.00000E+00         0.00000E+00        -0.49649E+08
 
   -0.48785E+08         0.40993E+06         0.00000E+00
    0.40993E+06        -0.49941E+08         0.00000E+00
    0.00000E+00         0.00000E+00        -0.49652E+08
 
   -0.48808E+08         0.43231E+06         0.00000E+00
    0.43231E+06        -0.49934E+08         0.00000E+00
    0.00000E+00         0.00000E+00        -0.49655E+08
 
   -0.48831E+08         0.45417E+06         0.00000E+00
    0.45417E+06        -0.49927E+08         0.00000E+00
    0.00000E+00         0.00000E+00        -0.49658E+08
 
   -0.48855E+08         0.47551E+06         0.00000E+00
    0.47551E+06        -0.49919E+08         0.00000E+00
    0.00000E+00         0.00000E+00        -0.49661E+08
 
   -0.48879E+08         0.49633E+06         0.00000E+00
    0.49633E+06        -0.49911E+08         0.00000E+00
    0.00000E+00         0.00000E+00        -0.49664E+08
 
   -0.48904E+08         0.51662E+06         0.00000E+00
    0.51662E+06        -0.49902E+08         0.00000E+00
    0.00000E+00         0.00000E+00        -0.49667E+08
 
   -0.48929E+08         0.53640E+06         0.00000E+00
    0.53640E+06        -0.49893E+08         0.00000E+00
    0.00000E+00         0.00000E+00        -0.49671E+08
 
   -0.48954E+08         0.55564E+06         0.00000E+00
    0.55564E+06        -0.49884E+08         0.00000E+00
    0.00000E+00         0.00000E+00        -0.49674E+08
 
   -0.48980E+08         0.57437E+06         0.00000E+00
    0.57437E+06        -0.49875E+08         0.00000E+00
    0.00000E+00         0.00000E+00        -0.49677E+08
 
   -0.49007E+08         0.59258E+06         0.00000E+00
    0.59258E+06        -0.49865E+08         0.00000E+00
    0.00000E+00         0.00000E+00        -0.49681E+08
 
   -0.49033E+08         0.61026E+06         0.00000E+00
    0.61026E+06        -0.49856E+08         0.00000E+00
    0.00000E+00         0.00000E+00        -0.49684E+08
 
   -0.49061E+08         0.62743E+06         0.00000E+00
    0.62743E+06        -0.49845E+08         0.00000E+00
    0.00000E+00         0.00000E+00        -0.49687E+08
 
   -0.49088E+08         0.64408E+06         0.00000E+00
    0.64408E+06        -0.49835E+08         0.00000E+00
    0.00000E+00         0.00000E+00        -0.49691E+08
 
   -0.49116E+08         0.66021E+06         0.00000E+00
    0.66021E+06        -0.49824E+08         0.00000E+00
    0.00000E+00         0.00000E+00        -0.49694E+08
 
   -0.49144E+08         0.67584E+06         0.00000E+00
    0.67584E+06        -0.49814E+08         0.00000E+00
    0.00000E+00         0.00000E+00        -0.49698E+08
 
   -0.49173E+08         0.69095E+06         0.00000E+00
    0.69095E+06        -0.49803E+08         0.00000E+00
    0.00000E+00         0.00000E+00        -0.49701E+08
 
   -0.49201E+08         0.70556E+06         0.00000E+00
    0.70556E+06        -0.49791E+08         0.00000E+00
    0.00000E+00         0.00000E+00        -0.49705E+08
 
   -0.49230E+08         0.71966E+06         0.00000E+00
    0.71966E+06        -0.49780E+08         0.00000E+00
    0.00000E+00         0.00000E+00        -0.49708E+08
 
   -0.49259E+08         0.73326E+06         0.00000E+00
    0.73326E+06        -0.49768E+08         0.00000E+00
    0.00000E+00         0.00000E+00        -0.49712E+08
 
   -0.49289E+08         0.74636E+06         0.00000E+00
    0.74636E+06        -0.49756E+08         0.00000E+00
    0.00000E+00         0.00000E+00        -0.49715E+08
 
   -0.49319E+08         0.75897E+06         0.00000E+00
    0.75897E+06        -0.49744E+08         0.00000E+00
    0.00000E+00         0.00000E+00        -0.49719E+08
 
   -0.49349E+08         0.77109E+06         0.00000E+00
    0.77109E+06        -0.49732E+08         0.00000E+00
    0.00000E+00         0.00000E+00        -0.49722E+08
 
   -0.49379E+08         0.78273E+06         0.00000E+00
    0.78273E+06        -0.49720E+08         0.00000E+00
    0.00000E+00         0.00000E+00        -0.49726E+08
 
   -0.49409E+08         0.79387E+06         0.00000E+00
    0.79387E+06        -0.49707E+08         0.00000E+00
    0.00000E+00         0.00000E+00        -0.49730E+08
 
   -0.49440E+08         0.80454E+06         0.00000E+00
    0.80454E+06        -0.49695E+08         0.00000E+00
    0.00000E+00         0.00000E+00        -0.49733E+08
 
   -0.49471E+08         0.81473E+06         0.00000E+00
    0.81473E+06        -0.49682E+08         0.00000E+00
    0.00000E+00         0.00000E+00        -0.49737E+08
 
   -0.49501E+08         0.82445E+06         0.00000E+00
    0.82445E+06        -0.49669E+08         0.00000E+00
    0.00000E+00         0.00000E+00        -0.49740E+08
 
   -0.49533E+08         0.83369E+06         0.00000E+00
    0.83369E+06        -0.49655E+08         0.00000E+00
    0.00000E+00         0.00000E+00        -0.49744E+08
 
   -0.49564E+08         0.84247E+06         0.00000E+00
    0.84247E+06        -0.49642E+08         0.00000E+00
    0.00000E+00         0.00000E+00        -0.49747E+08
 
   -0.49595E+08         0.85079E+06         0.00000E+00
    0.85079E+06        -0.49629E+08         0.00000E+00
    0.00000E+00         0.00000E+00        -0.49751E+08
 
   -0.49627E+08         0.85864E+06         0.00000E+00
    0.85864E+06        -0.49615E+08         0.00000E+00
    0.00000E+00         0.00000E+00        -0.49755E+08
 
   -0.49659E+08         0.86604E+06         0.00000E+00
    0.86604E+06        -0.49601E+08         0.00000E+00
    0.00000E+00         0.00000E+00        -0.49758E+08
 
   -0.49690E+08         0.87298E+06         0.00000E+00
    0.87298E+06        -0.49587E+08         0.00000E+00
    0.00000E+00         0.00000E+00        -0.49762E+08
 
   -0.49723E+08         0.87947E+06         0.00000E+00
    0.87947E+06        -0.49573E+08         0.00000E+00
    0.00000E+00         0.00000E+00        -0.49765E+08
 
   -0.49755E+08         0.88551E+06         0.00000E+00
    0.88551E+06        -0.49559E+08         0.00000E+00
    0.00000E+00         0.00000E+00        -0.49769E+08
 
   -0.48372E+08         0.16716E+05         0.00000E+00
    0.16716E+05        -0.50000E+08         0.00000E+00
    0.00000E+00         0.00000E+00        -0.49563E+08
 
   -0.48385E+08         0.49056E+05         0.00000E+00
    0.49056E+05        -0.49999E+08         0.00000E+00
    0.00000E+00         0.00000E+00        -0.49566E+08
 
   -0.48400E+08         0.80910E+05         0.00000E+00
    0.80910E+05        -0.49998E+08         0.00000E+00
    0.00000E+00         0.00000E+00        -0.49568E+08
 
   -0.48416E+08         0.11227E+06         0.00000E+00
    0.11227E+06        -0.49996E+08         0.00000E+00
    0.00000E+00         0.00000E+00        -0.49571E+08
 
   -0.48432E+08         0.14311E+06         0.00000E+00
    0.14311E+06        -0.49994E+08         0.00000E+00
    0.00000E+00         0.00000E+00        -0.49574E+08
 
   -0.48450E+08         0.17343E+06         0.00000E+00
    0.17343E+06        -0.49991E+08         0.00000E+00
    0.00000E+00         0.00000E+00        -0.49577E+08
 
   -0.48468E+08         0.20323E+06         0.00000E+00
    0.20323E+06        -0.49988E+08         0.00000E+00
    0.00000E+00         0.00000E+00        -0.49580E+08
 
   -0.48487E+08         0.23248E+06         0.00000E+00
    0.23248E+06        -0.49984E+08         0.00000E+00
    0.00000E+00         0.00000E+00        -0.49583E+08
 
   -0.48507E+08         0.26118E+06         0.00000E+00
    0.26118E+06        -0.49980E+08         0.00000E+00
    0.00000E+00         0.00000E+00        -0.49586E+08
 
   -0.48528E+08         0.28933E+06         0.00000E+00
    0.28933E+06        -0.49975E+08         0.00000E+00
    0.00000E+00         0.00000E+00        -0.49589E+08
 
   -0.48550E+08         0.31692E+06         0.00000E+00
    0.31692E+06        -0.49969E+08         0.00000E+00
    0.00000E+00         0.00000E+00        -0.49592E+08
 
   -0.48572E+08         0.34395E+06         0.00000E+00
    0.34395E+06        -0.49964E+08         0.00000E+00
    0.00000E+00         0.00000E+00        -0.49596E+08
 
   -0.48595E+08         0.37040E+06         0.00000E+00
    0.37040E+06        -0.49958E+08         0.00000E+00
    0.00000E+00         0.00000E+00        -0.49599E+08
 
   -0.48618E+08         0.39628E+06         0.00000E+00
    0.39628E+06        -0.49951E+08         0.00000E+00
    0.00000E+00         0.00000E+00        -0.49602E+08
 
   -0.48643E+08         0.42159E+06         0.00000E+00
    0.42159E+06        -0.49944E+08         0.00000E+00
    0.00000E+00         0.00000E+00        -0.49606E+08
 
   -0.48667E+08         0.44632E+06         0.00000E+00
    0.44632E+06        -0.49937E+08         0.00000E+00
    0.00000E+00         0.00000E+00        -0.49609E+08
 
   -0.48693E+08         0.47047E+06         0.00000E+00
    0.47047E+06        -0.49929E+08         0.00000E+00
    0.00000E+00         0.00000E+00        -0.49613E+08
 
   -0.48719E+08         0.49404E+06         0.00000E+00
    0.49404E+06        -0.49921E+08         0.00000E+00
    0.00000E+00         0.00000E+00        -0.49617E+08
 
   -0.48745E+08         0.51703E+06         0.00000E+00
    0.51703E+06        -0.49912E+08         0.00000E+00
    0.00000E+00         0.00000E+00        -0.49620E+08
 
   -0.48772E+08         0.53945E+06         0.00000E+00
    0.53945E+06        -0.49904E+08         0.00000E+00
    0.00000E+00         0.00000E+00        -0.49624E+08
 
   -0.48800E+08         0.56128E+06         0.00000E+00
    0.56128E+06        -0.49895E+08         0.00000E+00
    0.00000E+00         0.00000E+00        -0.49627E+08
 
   -0.48827E+08         0.58254E+06         0.00000E+00
    0.58254E+06        -0.49885E+08         0.00000E+00
    0.00000E+00         0.00000E+00        -0.49631E+08
 
   -0.48856E+08         0.60323E+06         0.00000E+00
    0.60323E+06        -0.49875E+08         0.00000E+00
    0.00000E+00         0.00000E+00        -0.49635E+08
 
   -0.48885E+08         0.62334E+06         0.00000E+00
    0.62334E+06        -0.49865E+08         0.00000E+00
    0.00000E+00         0.00000E+00        -0.49639E+08
 
   -0.48914E+08         0.64289E+06         0.00000E+00
    0.64289E+06        -0.49855E+08         0.00000E+00
    0.00000E+00         0.00000E+00        -0.49642E+08
 
   -0.48943E+08         0.66187E+06         0.00000E+00
    0.66187E+06        -0.49845E+08         0.00000E+00
    0.00000E+00         0.00000E+00        -0.49646E+08
 
   -0.48973E+08         0.68029E+06         0.00000E+00
    0.68029E+06        -0.49834E+08         0.00000E+00
    0.00000E+00         0.00000E+00        -0.49650E+08
 
   -0.49003E+08         0.69815E+06         0.00000E+00
    0.69815E+06        -0.49823E+08         0.00000E+00
    0.00000E+00         0.00000E+00        -0.49654E+08
 
   -0.49034E+08         0.71546E+06         0.00000E+00
    0.71546E+06        -0.49812E+08         0.00000E+00
    0.00000E+00         0.00000E+00        -0.49658E+08
 
   -0.49064E+08         0.73222E+06         0.00000E+00
    0.73222E+06        -0.49800E+08         0.00000E+00
    0.00000E+00         0.00000E+00        -0.49662E+08
 
   -0.49095E+08         0.74843E+06         0.00000E+00
    0.74843E+06        -0.49788E+08         0.00000E+00
    0.00000E+00         0.00000E+00        -0.49665E+08
 
   -0.49127E+08         0.76410E+06         0.00000E+00
    0.76410E+06        -0.49776E+08         0.00000E+00
    0.00000E+00         0.00000E+00        -0.49669E+08
 
   -0.49158E+08         0.77924E+06         0.00000E+00
    0.77924E+06        -0.49764E+08         0.00000E+00
    0.00000E+00         0.00000E+00        -0.49673E+08
 
   -0.49190E+08         0.79384E+06         0.00000E+00
    0.79384E+06        -0.49752E+08         0.00000E+00
    0.00000E+00         0.00000E+00        -0.49677E+08
 
   -0.49222E+08         0.80792E+06         0.00000E+00
    0.80792E+06        -0.49739E+08         0.00000E+00
    0.00000E+00         0.00000E+00        -0.49681E+08
 
   -0.49255E+08         0.82148E+06         0.00000E+00
    0.82148E+06        -0.49726E+08         0.00000E+00
    0.00000E+00         0.00000E+00        -0.49685E+08
 
   -0.49287E+08         0.83452E+06         0.00000E+00
    0.83452E+06        -0.49713E+08         0.00000E+00
    0.00000E+00         0.00000E+00        -0.49689E+08
 
   -0.49320E+08         0.84706E+06         0.00000E+00
    0.84706E+06        -0.49700E+08         0.00000E+00
    0.00000E+00         0.00000E+00        -0.49693E+08
 
   -0.49352E+08         0.85909E+06         0.00000E+00
    0.85909E+06        -0.49687E+08         0.00000E+00
    0.00000E+00         0.00000E+00        -0.49696E+08
 
   -0.49385E+08         0.87061E+06         0.00000E+00
    0.87061E+06        -0.49673E+08         0.00000E+00
    0.00000E+00         0.00000E+00        -0.49700E+08
 
   -0.49419E+08         0.88165E+06         0.00000E+00
    0.88165E+06        -0.49660E+08         0.00000E+00
    0.00000E+00         0.00000E+00        -0.49704E+08
 
   -0.49452E+08         0.89219E+06         0.00000E+00
    0.89219E+06        -0.49646E+08         0.00000E+00
    0.00000E+00         0.00000E+00        -0.49708E+08
 
   -0.49485E+08         0.90224E+06         0.00000E+00
    0.90224E+06        -0.49632E+08         0.00000E+00
    0.00000E+00         0.00000E+00        -0.49712E+08
 
   -0.49519E+08         0.91182E+06         0.00000E+00
    0.91182E+06        -0.49617E+08         0.00000E+00
    0.00000E+00         0.00000E+00        -0.49716E+08
 
   -0.49553E+08         0.92092E+06         0.00000E+00
    0.92092E+06        -0.49603E+08         0.00000E+00
    0.00000E+00         0.00000E+00        -0.49720E+08
 
   -0.49587E+08         0.92955E+06         0.00000E+00
    0.92955E+06        -0.49588E+08         0.00000E+00
    0.00000E+00         0.00000E+00        -0.49724E+08
 
   -0.49621E+08         0.93771E+06         0.00000E+00
    0.93771E+06        -0.49574E+08         0.00000E+00
    0.00000E+00         0.00000E+00        -0.49728E+08
 
   -0.49655E+08         0.94541E+06         0.00000E+00
    0.94541E+06        -0.49559E+08         0.00000E+00
    0.00000E+00         0.00000E+00        -0.49731E+08
 
   -0.49689E+08         0.95265E+06         0.00000E+00
    0.95265E+06        -0.49544E+08         0.00000E+00
    0.00000E+00         0.00000E+00        -0.49735E+08
 
   -0.49724E+08         0.95943E+06         0.00000E+00
    0.95943E+06        -0.49529E+08         0.00000E+00
    0.00000E+00         0.00000E+00        -0.49739E+08
 
   -0.48201E+08         0.18379E+05         0.00000E+00
    0.18379E+05        -0.50000E+08         0.00000E+00
    0.00000E+00         0.00000E+00        -0.49508E+08
 
   -0.48217E+08         0.53820E+05         0.00000E+00
    0.53820E+05        -0.49999E+08         0.00000E+00
    0.00000E+00         0.00000E+00        -0.49511E+08
 
   -0.48235E+08         0.88683E+05         0.00000E+00
    0.88683E+05        -0.49998E+08         0.00000E+00
    0.00000E+00         0.00000E+00        -0.49514E+08
 
   -0.48253E+08         0.12295E+06         0.00000E+00
    0.12295E+06        -0.49996E+08         0.00000E+00
    0.00000E+00         0.00000E+00        -0.49517E+08
 
   -0.48272E+08         0.15662E+06         0.00000E+00
    0.15662E+06        -0.49994E+08         0.00000E+00
    0.00000E+00         0.00000E+00        -0.49521E+08
 
   -0.48293E+08         0.18968E+06         0.00000E+00
    0.18968E+06        -0.49991E+08         0.00000E+00
    0.00000E+00         0.00000E+00        -0.49524E+08
 
   -0.48314E+08         0.22212E+06         0.00000E+00
    0.22212E+06        -0.49987E+08         0.00000E+00
    0.00000E+00         0.00000E+00        -0.49528E+08
 
   -0.48336E+08         0.25393E+06         0.00000E+00
    0.25393E+06        -0.49983E+08         0.00000E+00
    0.00000E+00         0.00000E+00        -0.49531E+08
 
   -0.48359E+08         0.28510E+06         0.00000E+00
    0.28510E+06        -0.49978E+08         0.00000E+00
    0.00000E+00         0.00000E+00        -0.49535E+08
 
   -0.48383E+08         0.31564E+06         0.00000E+00
    0.31564E+06        -0.49973E+08         0.00000E+00
    0.00000E+00         0.00000E+00        -0.49539E+08
 
   -0.48407E+08         0.34554E+06         0.00000E+00
    0.34554E+06        -0.49967E+08         0.00000E+00
    0.00000E+00         0.00000E+00        -0.49543E+08
 
   -0.48433E+08         0.37479E+06         0.00000E+00
    0.37479E+06        -0.49961E+08         0.00000E+00
    0.00000E+00         0.00000E+00        -0.49546E+08
 
   -0.48459E+08         0.40339E+06         0.00000E+00
    0.40339E+06        -0.49954E+08         0.00000E+00
    0.00000E+00         0.00000E+00        -0.49550E+08
 
   -0.48485E+08         0.43135E+06         0.00000E+00
    0.43135E+06        -0.49947E+08         0.00000E+00
    0.00000E+00         0.00000E+00        -0.49554E+08
 
   -0.48513E+08         0.45865E+06         0.00000E+00
    0.45865E+06        -0.49940E+08         0.00000E+00
    0.00000E+00         0.00000E+00        -0.49558E+08
 
   -0.48540E+08         0.48531E+06         0.00000E+00
    0.48531E+06        -0.49932E+08         0.00000E+00
    0.00000E+00         0.00000E+00        -0.49562E+08
 
   -0.48569E+08         0.51132E+06         0.00000E+00
    0.51132E+06        -0.49924E+08         0.00000E+00
    0.00000E+00         0.00000E+00        -0.49566E+08
 
   -0.48598E+08         0.53669E+06         0.00000E+00
    0.53669E+06        -0.49915E+08         0.00000E+00
    0.00000E+00         0.00000E+00        -0.49570E+08
 
   -0.48627E+08         0.56141E+06         0.00000E+00
    0.56141E+06        -0.49906E+08         0.00000E+00
    0.00000E+00         0.00000E+00        -0.49574E+08
 
   -0.48657E+08         0.58550E+06         0.00000E+00
    0.58550E+06        -0.49897E+08         0.00000E+00
    0.00000E+00         0.00000E+00        -0.49578E+08
 
   -0.48688E+08         0.60895E+06         0.00000E+00
    0.60895E+06        -0.49887E+08         0.00000E+00
    0.00000E+00         0.00000E+00        -0.49583E+08
 
   -0.48719E+08         0.63176E+06         0.00000E+00
    0.63176E+06        -0.49877E+08         0.00000E+00
    0.00000E+00         0.00000E+00        -0.49587E+08
 
   -0.48750E+08         0.65395E+06         0.00000E+00
    0.65395E+06        -0.49867E+08         0.00000E+00
    0.00000E+00         0.00000E+00        -0.49591E+08
 
   -0.48782E+08         0.67551E+06         0.00000E+00
    0.67551E+06        -0.49856E+08         0.00000E+00
    0.00000E+00         0.00000E+00        -0.49595E+08
 
   -0.48814E+08         0.69646E+06         0.00000E+00
    0.69646E+06        -0.49845E+08         0.00000E+00
    0.00000E+00         0.00000E+00        -0.49599E+08
 
   -0.48846E+08         0.71679E+06         0.00000E+00
    0.71679E+06        -0.49834E+08         0.00000E+00
    0.00000E+00         0.00000E+00        -0.49604E+08
 
   -0.48879E+08         0.73652E+06         0.00000E+00
    0.73652E+06        -0.49823E+08         0.00000E+00
    0.00000E+00         0.00000E+00        -0.49608E+08
 
   -0.48912E+08         0.75565E+06         0.00000E+00
    0.75565E+06        -0.49811E+08         0.00000E+00
    0.00000E+00         0.00000E+00        -0.49612E+08
 
   -0.48945E+08         0.77418E+06         0.00000E+00
    0.77418E+06        -0.49799E+08         0.00000E+00
    0.00000E+00         0.00000E+00        -0.49617E+08
 
   -0.48979E+08         0.79213E+06         0.00000E+00
    0.79213E+06        -0.49787E+08         0.00000E+00
    0.00000E+00         0.00000E+00        -0.49621E+08
 
   -0.49013E+08         0.80949E+06         0.00000E+00
    0.80949E+06        -0.49774E+08         0.00000E+00
    0.00000E+00         0.00000E+00        -0.49625E+08
 
   -0.49047E+08         0.82628E+06         0.00000E+00
    0.82628E+06        -0.49762E+08         0.00000E+00
    0.00000E+00         0.00000E+00        -0.49629E+08
 
   -0.49081E+08         0.84251E+06         0.00000E+00
    0.84251E+06        -0.49749E+08         0.00000E+00
    0.00000E+00         0.00000E+00        -0.49634E+08
 
   -0.49116E+08         0.85817E+06         0.00000E+00
    0.85817E+06        -0.49736E+08         0.00000E+00
    0.00000E+00         0.00000E+00        -0.49638E+08
 
   -0.49151E+08         0.87328E+06         0.00000E+00
    0.87328E+06        -0.49722E+08         0.00000E+00
    0.00000E+00         0.00000E+00        -0.49642E+08
 
   -0.49186E+08         0.88785E+06         0.00000E+00
    0.88785E+06        -0.49709E+08         0.00000E+00
    0.00000E+00         0.00000E+00        -0.49646E+08
 
   -0.49221E+08         0.90188E+06         0.00000E+00
    0.90188E+06        -0.49695E+08         0.00000E+00
    0.00000E+00         0.00000E+00        -0.49651E+08
 
   -0.49256E+08         0.91537E+06         0.00000E+00
    0.91537E+06        -0.49681E+08         0.00000E+00
    0.00000E+00         0.00000E+00        -0.49655E+08
 
   -0.49291E+08         0.92834E+06         0.00000E+00
    0.92834E+06        -0.49667E+08         0.00000E+00
    0.00000E+00         0.00000E+00        -0.49659E+08
 
   -0.49327E+08         0.94080E+06         0.00000E+00
    0.94080E+06        -0.49653E+08         0.00000E+00
    0.00000E+00         0.00000E+00        -0.49663E+08
 
   -0.49362E+08         0.95274E+06         0.00000E+00
    0.95274E+06        -0.49638E+08         0.00000E+00
    0.00000E+00         0.00000E+00        -0.49668E+08
 
   -0.49398E+08         0.96418E+06         0.00000E+00
    0.96418E+06        -0.49623E+08         0.00000E+00
    0.00000E+00         0.00000E+00        -0.49672E+08
 
   -0.49434E+08         0.97512E+06         0.00000E+00
    0.97512E+06        -0.49608E+08         0.00000E+00
    0.00000E+00         0.00000E+00        -0.49676E+08
 
   -0.49470E+08         0.98557E+06         0.00000E+00
    0.98557E+06        -0.49593E+08         0.00000E+00
    0.00000E+00         0.00000E+00        -0.49680E+08
 
   -0.49506E+08         0.99554E+06         0.00000E+00
    0.99554E+06        -0.49578E+08         0.00000E+00
    0.00000E+00         0.00000E+00        -0.49685E+08
 
   -0.49543E+08         0.10050E+07         0.00000E+00
    0.10050E+07        -0.49563E+08         0.00000E+00
    0.00000E+00         0.00000E+00        -0.49689E+08
 
   -0.49579E+08         0.10140E+07         0.00000E+00
    0.10140E+07        -0.49547E+08         0.00000E+00
    0.00000E+00         0.00000E+00        -0.49693E+08
 
   -0.49616E+08         0.10226E+07         0.00000E+00
    0.10226E+07        -0.49531E+08         0.00000E+00
    0.00000E+00         0.00000E+00        -0.49697E+08
 
   -0.49652E+08         0.10307E+07         0.00000E+00
    0.10307E+07        -0.49515E+08         0.00000E+00
    0.00000E+00         0.00000E+00        -0.49701E+08
 
   -0.49689E+08         0.10383E+07         0.00000E+00
    0.10383E+07        -0.49499E+08         0.00000E+00
    0.00000E+00         0.00000E+00        -0.49705E+08
 
   -0.48014E+08         0.20188E+05         0.00000E+00
    0.20188E+05        -0.50000E+08         0.00000E+00
    0.00000E+00         0.00000E+00        -0.49445E+08
 
   -0.48033E+08         0.58984E+05         0.00000E+00
    0.58984E+05        -0.49999E+08         0.00000E+00
    0.00000E+00         0.00000E+00        -0.49449E+08
 
   -0.48054E+08         0.97090E+05         0.00000E+00
    0.97090E+05        -0.49998E+08         0.00000E+00
    0.00000E+00         0.00000E+00        -0.49453E+08
 
   -0.48076E+08         0.13449E+06         0.00000E+00
    0.13449E+06        -0.49996E+08         0.00000E+00
    0.00000E+00         0.00000E+00        -0.49457E+08
 
   -0.48098E+08         0.17119E+06         0.00000E+00
    0.17119E+06        -0.49993E+08         0.00000E+00
    0.00000E+00         0.00000E+00        -0.49461E+08
 
   -0.48122E+08         0.20717E+06         0.00000E+00
    0.20717E+06        -0.49990E+08         0.00000E+00
    0.00000E+00         0.00000E+00        -0.49465E+08
 
   -0.48146E+08         0.24242E+06         0.00000E+00
    0.24242E+06        -0.49986E+08         0.00000E+00
    0.00000E+00         0.00000E+00        -0.49469E+08
 
   -0.48172E+08         0.27695E+06         0.00000E+00
    0.27695E+06        -0.49981E+08         0.00000E+00
    0.00000E+00         0.00000E+00        -0.49473E+08
 
   -0.48198E+08         0.31075E+06         0.00000E+00
    0.31075E+06        -0.49976E+08         0.00000E+00
    0.00000E+00         0.00000E+00        -0.49478E+08
 
   -0.48226E+08         0.34381E+06         0.00000E+00
    0.34381E+06        -0.49971E+08         0.00000E+00
    0.00000E+00         0.00000E+00        -0.49482E+08
 
   -0.48254E+08         0.37614E+06         0.00000E+00
    0.37614E+06        -0.49965E+08         0.00000E+00
    0.00000E+00         0.00000E+00        -0.49486E+08
 
   -0.48282E+08         0.40774E+06         0.00000E+00
    0.40774E+06        -0.49958E+08         0.00000E+00
    0.00000E+00         0.00000E+00        -0.49491E+08
 
   -0.48312E+08         0.43860E+06         0.00000E+00
    0.43860E+06        -0.49951E+08         0.00000E+00
    0.00000E+00         0.00000E+00        -0.49495E+08
 
   -0.48342E+08         0.46873E+06         0.00000E+00
    0.46873E+06        -0.49944E+08         0.00000E+00
    0.00000E+00         0.00000E+00        -0.49500E+08
 
   -0.48372E+08         0.49813E+06         0.00000E+00
    0.49813E+06        -0.49936E+08         0.00000E+00
    0.00000E+00         0.00000E+00        -0.49504E+08
 
   -0.48404E+08         0.52681E+06         0.00000E+00
    0.52681E+06        -0.49927E+08         0.00000E+00
    0.00000E+00         0.00000E+00        -0.49509E+08
 
   -0.48436E+08         0.55476E+06         0.00000E+00
    0.55476E+06        -0.49919E+08         0.00000E+00
    0.00000E+00         0.00000E+00        -0.49514E+08
 
   -0.48468E+08         0.58200E+06         0.00000E+00
    0.58200E+06        -0.49909E+08         0.00000E+00
    0.00000E+00         0.00000E+00        -0.49518E+08
 
   -0.48501E+08         0.60852E+06         0.00000E+00
    0.60852E+06        -0.49900E+08         0.00000E+00
    0.00000E+00         0.00000E+00        -0.49523E+08
 
   -0.48534E+08         0.63434E+06         0.00000E+00
    0.63434E+06        -0.49890E+08         0.00000E+00
    0.00000E+00         0.00000E+00        -0.49528E+08
 
   -0.48568E+08         0.65946E+06         0.00000E+00
    0.65946E+06        -0.49880E+08         0.00000E+00
    0.00000E+00         0.00000E+00        -0.49532E+08
 
   -0.48602E+08         0.68389E+06         0.00000E+00
    0.68389E+06        -0.49869E+08         0.00000E+00
    0.00000E+00         0.00000E+00        -0.49537E+08
 
   -0.48637E+08         0.70764E+06         0.00000E+00
    0.70764E+06        -0.49858E+08         0.00000E+00
    0.00000E+00         0.00000E+00        -0.49542E+08
 
   -0.48672E+08         0.73070E+06         0.00000E+00
    0.73070E+06        -0.49847E+08         0.00000E+00
    0.00000E+00         0.00000E+00        -0.49547E+08
 
   -0.48707E+08         0.75310E+06         0.00000E+00
    0.75310E+06        -0.49836E+08         0.00000E+00
    0.00000E+00         0.00000E+00        -0.49551E+08
 
   -0.48743E+08         0.77484E+06         0.00000E+00
    0.77484E+06        -0.49824E+08         0.00000E+00
    0.00000E+00         0.00000E+00        -0.49556E+08
 
   -0.48779E+08         0.79593E+06         0.00000E+00
    0.79593E+06        -0.49812E+08         0.00000E+00
    0.00000E+00         0.00000E+00        -0.49561E+08
 
   -0.48815E+08         0.81637E+06         0.00000E+00
    0.81637E+06        -0.49800E+08         0.00000E+00
    0.00000E+00         0.00000E+00        -0.49566E+08
 
   -0.48851E+08         0.83619E+06         0.00000E+00
    0.83619E+06        -0.49787E+08         0.00000E+00
    0.00000E+00         0.00000E+00        -0.49570E+08
 
   -0.48888E+08         0.85537E+06         0.00000E+00
    0.85537E+06        -0.49774E+08         0.00000E+00
    0.00000E+00         0.00000E+00        -0.49575E+08
 
   -0.48925E+08         0.87394E+06         0.00000E+00
    0.87394E+06        -0.49761E+08         0.00000E+00
    0.00000E+00         0.00000E+00        -0.49580E+08
 
   -0.48962E+08         0.89191E+06         0.00000E+00
    0.89191E+06        -0.49748E+08         0.00000E+00
    0.00000E+00         0.00000E+00        -0.49585E+08
 
   -0.48999E+08         0.90928E+06         0.00000E+00
    0.90928E+06        -0.49734E+08         0.00000E+00
    0.00000E+00         0.00000E+00        -0.49589E+08
 
   -0.49036E+08         0.92606E+06         0.00000E+00
    0.92606E+06        -0.49720E+08         0.00000E+00
    0.00000E+00         0.00000E+00        -0.49594E+08
 
   -0.49074E+08         0.94226E+06         0.00000E+00
    0.94226E+06        -0.49706E+08         0.00000E+00
    0.00000E+00         0.00000E+00        -0.49599E+08
 
   -0.49111E+08         0.95789E+06         0.00000E+00
    0.95789E+06        -0.49692E+08         0.00000E+00
    0.00000E+00         0.00000E+00        -0.49603E+08
 
   -0.49149E+08         0.97297E+06         0.00000E+00
    0.97297E+06        -0.49678E+08         0.00000E+00
    0.00000E+00         0.00000E+00        -0.49608E+08
 
   -0.49187E+08         0.98750E+06         0.00000E+00
    0.98750E+06        -0.49663E+08         0.00000E+00
    0.00000E+00         0.00000E+00        -0.49613E+08
 
   -0.49225E+08         0.10015E+07         0.00000E+00
    0.10015E+07        -0.49648E+08         0.00000E+00
    0.00000E+00         0.00000E+00        -0.49617E+08
 
   -0.49263E+08         0.10149E+07         0.00000E+00
    0.10149E+07        -0.49633E+08         0.00000E+00
    0.00000E+00         0.00000E+00        -0.49622E+08
 
   -0.49302E+08         0.10279E+07         0.00000E+00
    0.10279E+07        -0.49618E+08         0.00000E+00
    0.00000E+00         0.00000E+00        -0.49627E+08
 
   -0.49340E+08         0.10403E+07         0.00000E+00
    0.10403E+07        -0.49602E+08         0.00000E+00
    0.00000E+00         0.00000E+00        -0.49631E+08
 
   -0.49378E+08         0.10522E+07         0.00000E+00
    0.10522E+07        -0.49587E+08         0.00000E+00
    0.00000E+00         0.00000E+00        -0.49636E+08
 
   -0.49417E+08         0.10636E+07         0.00000E+00
    0.10636E+07        -0.49571E+08         0.00000E+00
    0.00000E+00         0.00000E+00        -0.49640E+08
 
   -0.49455E+08         0.10745E+07         0.00000E+00
    0.10745E+07        -0.49554E+08         0.00000E+00
    0.00000E+00         0.00000E+00        -0.49645E+08
 
   -0.49494E+08         0.10850E+07         0.00000E+00
    0.10850E+07        -0.49538E+08         0.00000E+00
    0.00000E+00         0.00000E+00        -0.49649E+08
 
   -0.49533E+08         0.10950E+07         0.00000E+00
    0.10950E+07        -0.49522E+08         0.00000E+00
    0.00000E+00         0.00000E+00        -0.49654E+08
 
   -0.49572E+08         0.11045E+07         0.00000E+00
    0.11045E+07        -0.49505E+08         0.00000E+00
    0.00000E+00         0.00000E+00        -0.49658E+08
 
   -0.49610E+08         0.11135E+07         0.00000E+00
    0.11135E+07        -0.49488E+08         0.00000E+00
    0.00000E+00         0.00000E+00        -0.49662E+08
 
   -0.49649E+08         0.11221E+07         0.00000E+00
    0.11221E+07        -0.49471E+08         0.00000E+00
    0.00000E+00         0.00000E+00        -0.49667E+08
 
   -0.47809E+08         0.22146E+05         0.00000E+00
    0.22146E+05        -0.50000E+08         0.00000E+00
    0.00000E+00         0.00000E+00        -0.49375E+08
 
   -0.47832E+08         0.64543E+05         0.00000E+00
    0.64543E+05        -0.49999E+08         0.00000E+00
    0.00000E+00         0.00000E+00        -0.49379E+08
 
   -0.47857E+08         0.10612E+06         0.00000E+00
    0.10612E+06        -0.49998E+08         0.00000E+00
    0.00000E+00         0.00000E+00        -0.49384E+08
 
   -0.47882E+08         0.14687E+06         0.00000E+00
    0.14687E+06        -0.49996E+08         0.00000E+00
    0.00000E+00         0.00000E+00        -0.49389E+08
 
   -0.47909E+08         0.18678E+06         0.00000E+00
    0.18678E+06        -0.49993E+08         0.00000E+00
    0.00000E+00         0.00000E+00        -0.49393E+08
 
   -0.47936E+08         0.22586E+06         0.00000E+00
    0.22586E+06        -0.49989E+08         0.00000E+00
    0.00000E+00         0.00000E+00        -0.49398E+08
 
   -0.47965E+08         0.26409E+06         0.00000E+00
    0.26409E+06        -0.49985E+08         0.00000E+00
    0.00000E+00         0.00000E+00        -0.49403E+08
 
   -0.47994E+08         0.30148E+06         0.00000E+00
    0.30148E+06        -0.49980E+08         0.00000E+00
    0.00000E+00         0.00000E+00        -0.49408E+08
 
   -0.48024E+08         0.33803E+06         0.00000E+00
    0.33803E+06        -0.49975E+08         0.00000E+00
    0.00000E+00         0.00000E+00        -0.49413E+08
 
   -0.48056E+08         0.37375E+06         0.00000E+00
    0.37375E+06        -0.49969E+08         0.00000E+00
    0.00000E+00         0.00000E+00        -0.49418E+08
 
   -0.48087E+08         0.40862E+06         0.00000E+00
    0.40862E+06        -0.49962E+08         0.00000E+00
    0.00000E+00         0.00000E+00        -0.49423E+08
 
   -0.48120E+08         0.44266E+06         0.00000E+00
    0.44266E+06        -0.49956E+08         0.00000E+00
    0.00000E+00         0.00000E+00        -0.49428E+08
 
   -0.48153E+08         0.47587E+06         0.00000E+00
    0.47587E+06        -0.49948E+08         0.00000E+00
    0.00000E+00         0.00000E+00        -0.49433E+08
 
   -0.48187E+08         0.50826E+06         0.00000E+00
    0.50826E+06        -0.49940E+08         0.00000E+00
    0.00000E+00         0.00000E+00        -0.49439E+08
 
   -0.48222E+08         0.53983E+06         0.00000E+00
    0.53983E+06        -0.49932E+08         0.00000E+00
    0.00000E+00         0.00000E+00        -0.49444E+08
 
   -0.48257E+08         0.57059E+06         0.00000E+00
    0.57059E+06        -0.49923E+08         0.00000E+00
    0.00000E+00         0.00000E+00        -0.49449E+08
 
   -0.48293E+08         0.60055E+06         0.00000E+00
    0.60055E+06        -0.49914E+08         0.00000E+00
    0.00000E+00         0.00000E+00        -0.49454E+08
 
   -0.48329E+08         0.62972E+06         0.00000E+00
    0.62972E+06        -0.49904E+08         0.00000E+00
    0.00000E+00         0.00000E+00        -0.49460E+08
 
   -0.48365E+08         0.65810E+06         0.00000E+00
    0.65810E+06        -0.49894E+08         0.00000E+00
    0.00000E+00         0.00000E+00        -0.49465E+08
 
   -0.48403E+08         0.68571E+06         0.00000E+00
    0.68571E+06        -0.49884E+08         0.00000E+00
    0.00000E+00         0.00000E+00        -0.49470E+08
 
   -0.48440E+08         0.71255E+06         0.00000E+00
    0.71255E+06        -0.49873E+08         0.00000E+00
    0.00000E+00         0.00000E+00        -0.49476E+08
 
   -0.48478E+08         0.73864E+06         0.00000E+00
    0.73864E+06        -0.49862E+08         0.00000E+00
    0.00000E+00         0.00000E+00        -0.49481E+08
 
   -0.48516E+08         0.76399E+06         0.00000E+00
    0.76399E+06        -0.49851E+08         0.00000E+00
    0.00000E+00         0.00000E+00        -0.49486E+08
 
   -0.48554E+08         0.78861E+06         0.00000E+00
    0.78861E+06        -0.49839E+08         0.00000E+00
    0.00000E+00         0.00000E+00        -0.49492E+08
 
   -0.48593E+08         0.81251E+06         0.00000E+00
    0.81251E+06        -0.49827E+08         0.00000E+00
    0.00000E+00         0.00000E+00        -0.49497E+08
 
   -0.48632E+08         0.83570E+06         0.00000E+00
    0.83570E+06        -0.49815E+08         0.00000E+00
    0.00000E+00         0.00000E+00        -0.49502E+08
 
   -0.48671E+08         0.85820E+06         0.00000E+00
    0.85820E+06        -0.49803E+08         0.00000E+00
    0.00000E+00         0.00000E+00        -0.49508E+08
 
   -0.48711E+08         0.88001E+06         0.00000E+00
    0.88001E+06        -0.49790E+08         0.00000E+00
    0.00000E+00         0.00000E+00        -0.49513E+08
 
   -0.48750E+08         0.90115E+06         0.00000E+00
    0.90115E+06        -0.49777E+08         0.00000E+00
    0.00000E+00         0.00000E+00        -0.49518E+08
 
   -0.48790E+08         0.92163E+06         0.00000E+00
    0.92163E+06        -0.49763E+08         0.00000E+00
    0.00000E+00         0.00000E+00        -0.49524E+08
 
   -0.48830E+08         0.94146E+06         0.00000E+00
    0.94146E+06        -0.49750E+08         0.00000E+00
    0.00000E+00         0.00000E+00        -0.49529E+08
 
   -0.48870E+08         0.96065E+06         0.00000E+00
    0.96065E+06        -0.49736E+08         0.00000E+00
    0.00000E+00         0.00000E+00        -0.49534E+08
 
   -0.48910E+08         0.97923E+06         0.00000E+00
    0.97923E+06        -0.49721E+08         0.00000E+00
    0.00000E+00         0.00000E+00        -0.49539E+08
 
   -0.48951E+08         0.99719E+06         0.00000E+00
    0.99719E+06        -0.49707E+08         0.00000E+00
    0.00000E+00         0.00000E+00        -0.49545E+08
 
   -0.48991E+08         0.10145E+07         0.00000E+00
    0.10145E+07        -0.49692E+08         0.00000E+00
    0.00000E+00         0.00000E+00        -0.49550E+08
 
   -0.49032E+08         0.10313E+07         0.00000E+00
    0.10313E+07        -0.49678E+08         0.00000E+00
    0.00000E+00         0.00000E+00        -0.49555E+08
 
   -0.49072E+08         0.10475E+07         0.00000E+00
    0.10475E+07        -0.49662E+08         0.00000E+00
    0.00000E+00         0.00000E+00        -0.49560E+08
 
   -0.49113E+08         0.10632E+07         0.00000E+00
    0.10632E+07        -0.49647E+08         0.00000E+00
    0.00000E+00         0.00000E+00        -0.49565E+08
 
   -0.49154E+08         0.10782E+07         0.00000E+00
    0.10782E+07        -0.49632E+08         0.00000E+00
    0.00000E+00         0.00000E+00        -0.49570E+08
 
   -0.49195E+08         0.10928E+07         0.00000E+00
    0.10928E+07        -0.49616E+08         0.00000E+00
    0.00000E+00         0.00000E+00        -0.49575E+08
 
   -0.49235E+08         0.11068E+07         0.00000E+00
    0.11068E+07        -0.49600E+08         0.00000E+00
    0.00000E+00         0.00000E+00        -0.49580E+08
 
   -0.49276E+08         0.11203E+07         0.00000E+00
    0.11203E+07        -0.49583E+08         0.00000E+00
    0.00000E+00         0.00000E+00        -0.49585E+08
 
   -0.49317E+08         0.11333E+07         0.00000E+00
    0.11333E+07        -0.49567E+08         0.00000E+00
    0.00000E+00         0.00000E+00        -0.49590E+08
 
   -0.49358E+08         0.11457E+07         0.00000E+00
    0.11457E+07        -0.49550E+08         0.00000E+00
    0.00000E+00         0.00000E+00        -0.49595E+08
 
   -0.49399E+08         0.11577E+07         0.00000E+00
    0.11577E+07        -0.49533E+08         0.00000E+00
    0.00000E+00         0.00000E+00        -0.49600E+08
 
   -0.49440E+08         0.11693E+07         0.00000E+00
    0.11693E+07        -0.49516E+08         0.00000E+00
    0.00000E+00         0.00000E+00        -0.49604E+08
 
   -0.49481E+08         0.11803E+07         0.00000E+00
    0.11803E+07        -0.49499E+08         0.00000E+00
    0.00000E+00         0.00000E+00        -0.49609E+08
 
   -0.49522E+08         0.11909E+07         0.00000E+00
    0.11909E+07        -0.49481E+08         0.00000E+00
    0.00000E+00         0.00000E+00        -0.49614E+08
 
   -0.49564E+08         0.12010E+07         0.00000E+00
    0.12010E+07        -0.49463E+08         0.00000E+00
    0.00000E+00         0.00000E+00        -0.49618E+08
 
   -0.49605E+08         0.12107E+07         0.00000E+00
    0.12107E+07        -0.49445E+08         0.00000E+00
    0.00000E+00         0.00000E+00        -0.49623E+08
 
   -0.47585E+08         0.24247E+05         0.00000E+00
    0.24247E+05        -0.50000E+08         0.00000E+00
    0.00000E+00         0.00000E+00        -0.49295E+08
 
   -0.47613E+08         0.70476E+05         0.00000E+00
    0.70476E+05        -0.49999E+08         0.00000E+00
    0.00000E+00         0.00000E+00        -0.49300E+08
 
   -0.47642E+08         0.11573E+06         0.00000E+00
    0.11573E+06        -0.49998E+08         0.00000E+00
    0.00000E+00         0.00000E+00        -0.49306E+08
 
   -0.47672E+08         0.16001E+06         0.00000E+00
    0.16001E+06        -0.49995E+08         0.00000E+00
    0.00000E+00         0.00000E+00        -0.49311E+08
 
   -0.47703E+08         0.20331E+06         0.00000E+00
    0.20331E+06        -0.49992E+08         0.00000E+00
    0.00000E+00         0.00000E+00        -0.49317E+08
 
   -0.47735E+08         0.24563E+06         0.00000E+00
    0.24563E+06        -0.49988E+08         0.00000E+00
    0.00000E+00         0.00000E+00        -0.49323E+08
 
   -0.47768E+08         0.28698E+06         0.00000E+00
    0.28698E+06        -0.49984E+08         0.00000E+00
    0.00000E+00         0.00000E+00        -0.49328E+08
 
   -0.47802E+08         0.32736E+06         0.00000E+00
    0.32736E+06        -0.49979E+08         0.00000E+00
    0.00000E+00         0.00000E+00        -0.49334E+08
 
   -0.47837E+08         0.36677E+06         0.00000E+00
    0.36677E+06        -0.49973E+08         0.00000E+00
    0.00000E+00         0.00000E+00        -0.49340E+08
 
   -0.47872E+08         0.40523E+06         0.00000E+00
    0.40523E+06        -0.49967E+08         0.00000E+00
    0.00000E+00         0.00000E+00        -0.49346E+08
 
   -0.47909E+08         0.44273E+06         0.00000E+00
    0.44273E+06        -0.49961E+08         0.00000E+00
    0.00000E+00         0.00000E+00        -0.49352E+08
 
   -0.47946E+08         0.47929E+06         0.00000E+00
    0.47929E+06        -0.49953E+08         0.00000E+00
    0.00000E+00         0.00000E+00        -0.49358E+08
 
   -0.47983E+08         0.51491E+06         0.00000E+00
    0.51491E+06        -0.49946E+08         0.00000E+00
    0.00000E+00         0.00000E+00        -0.49364E+08
 
   -0.48022E+08         0.54962E+06         0.00000E+00
    0.54962E+06        -0.49937E+08         0.00000E+00
    0.00000E+00         0.00000E+00        -0.49370E+08
 
   -0.48061E+08         0.58341E+06         0.00000E+00
    0.58341E+06        -0.49929E+08         0.00000E+00
    0.00000E+00         0.00000E+00        -0.49376E+08
 
   -0.48100E+08         0.61631E+06         0.00000E+00
    0.61631E+06        -0.49920E+08         0.00000E+00
    0.00000E+00         0.00000E+00        -0.49382E+08
 
   -0.48140E+08         0.64832E+06         0.00000E+00
    0.64832E+06        -0.49910E+08         0.00000E+00
    0.00000E+00         0.00000E+00        -0.49388E+08
 
   -0.48180E+08         0.67946E+06         0.00000E+00
    0.67946E+06        -0.49900E+08         0.00000E+00
    0.00000E+00         0.00000E+00        -0.49394E+08
 
   -0.48221E+08         0.70973E+06         0.00000E+00
    0.70973E+06        -0.49890E+08         0.00000E+00
    0.00000E+00         0.00000E+00        -0.49400E+08
 
   -0.48262E+08         0.73917E+06         0.00000E+00
    0.73917E+06        -0.49879E+08         0.00000E+00
    0.00000E+00         0.00000E+00        -0.49406E+08
 
   -0.48303E+08         0.76777E+06         0.00000E+00
    0.76777E+06        -0.49868E+08         0.00000E+00
    0.00000E+00         0.00000E+00        -0.49412E+08
 
   -0.48345E+08         0.79556E+06         0.00000E+00
    0.79556E+06        -0.49857E+08         0.00000E+00
    0.00000E+00         0.00000E+00        -0.49418E+08
 
   -0.48387E+08         0.82255E+06         0.00000E+00
    0.82255E+06        -0.49845E+08         0.00000E+00
    0.00000E+00         0.00000E+00        -0.49424E+08
 
   -0.48429E+08         0.84876E+06         0.00000E+00
    0.84876E+06        -0.49833E+08         0.00000E+00
    0.00000E+00         0.00000E+00        -0.49430E+08
 
   -0.48471E+08         0.87420E+06         0.00000E+00
    0.87420E+06        -0.49821E+08         0.00000E+00
    0.00000E+00         0.00000E+00        -0.49436E+08
 
   -0.48514E+08         0.89888E+06         0.00000E+00
    0.89888E+06        -0.49808E+08         0.00000E+00
    0.00000E+00         0.00000E+00        -0.49442E+08
 
   -0.48557E+08         0.92283E+06         0.00000E+00
    0.92283E+06        -0.49795E+08         0.00000E+00
    0.00000E+00         0.00000E+00        -0.49448E+08
 
   -0.48600E+08         0.94606E+06         0.00000E+00
    0.94606E+06        -0.49782E+08         0.00000E+00
    0.00000E+00         0.00000E+00        -0.49454E+08
 
   -0.48643E+08         0.96857E+06         0.00000E+00
    0.96857E+06        -0.49768E+08         0.00000E+00
    0.00000E+00         0.00000E+00        -0.49460E+08
 
   -0.48686E+08         0.99040E+06         0.00000E+00
    0.99040E+06        -0.49754E+08         0.00000E+00
    0.00000E+00         0.00000E+00        -0.49466E+08
 
   -0.48729E+08         0.10116E+07         0.00000E+00
    0.10116E+07        -0.49740E+08         0.00000E+00
    0.00000E+00         0.00000E+00        -0.49472E+08
 
   -0.48772E+08         0.10320E+07         0.00000E+00
    0.10320E+07        -0.49726E+08         0.00000E+00
    0.00000E+00         0.00000E+00        -0.49478E+08
 
   -0.48816E+08         0.10519E+07         0.00000E+00
    0.10519E+07        -0.49711E+08         0.00000E+00
    0.00000E+00         0.00000E+00        -0.49483E+08
 
   -0.48859E+08         0.10711E+07         0.00000E+00
    0.10711E+07        -0.49696E+08         0.00000E+00
    0.00000E+00         0.00000E+00        -0.49489E+08
 
   -0.48903E+08         0.10897E+07         0.00000E+00
    0.10897E+07        -0.49681E+08         0.00000E+00
    0.00000E+00         0.00000E+00        -0.49495E+08
 
   -0.48946E+08         0.11077E+07         0.00000E+00
    0.11077E+07        -0.49666E+08         0.00000E+00
    0.00000E+00         0.00000E+00        -0.49500E+08
 
   -0.48990E+08         0.11251E+07         0.00000E+00
    0.11251E+07        -0.49650E+08         0.00000E+00
    0.00000E+00         0.00000E+00        -0.49506E+08
 
   -0.49033E+08         0.11419E+07         0.00000E+00
    0.11419E+07        -0.49634E+08         0.00000E+00
    0.00000E+00         0.00000E+00        -0.49511E+08
 
   -0.49077E+08         0.11582E+07         0.00000E+00
    0.11582E+07        -0.49618E+08         0.00000E+00
    0.00000E+00         0.00000E+00        -0.49517E+08
 
   -0.49120E+08         0.11739E+07         0.00000E+00
    0.11739E+07        -0.49602E+08         0.00000E+00
    0.00000E+00         0.00000E+00        -0.49522E+08
 
   -0.49164E+08         0.11891E+07         0.00000E+00
    0.11891E+07        -0.49585E+08         0.00000E+00
    0.00000E+00         0.00000E+00        -0.49528E+08
 
   -0.49207E+08         0.12038E+07         0.00000E+00
    0.12038E+07        -0.49568E+08         0.00000E+00
    0.00000E+00         0.00000E+00        -0.49533E+08
 
   -0.49251E+08         0.12180E+07         0.00000E+00
    0.12180E+07        -0.49551E+08         0.00000E+00
    0.00000E+00         0.00000E+00        -0.49538E+08
 
   -0.49294E+08         0.12317E+07         0.00000E+00
    0.12317E+07        -0.49533E+08         0.00000E+00
    0.00000E+00         0.00000E+00        -0.49543E+08
 
   -0.49337E+08         0.12449E+07         0.00000E+00
    0.12449E+07        -0.49516E+08         0.00000E+00
    0.00000E+00         0.00000E+00        -0.49548E+08
 
   -0.49381E+08         0.12576E+07         0.00000E+00
    0.12576E+07        -0.49498E+08         0.00000E+00
    0.00000E+00         0.00000E+00        -0.49554E+08
 
   -0.49424E+08         0.12699E+07         0.00000E+00
    0.12699E+07        -0.49480E+08         0.00000E+00
    0.00000E+00         0.00000E+00        -0.49559E+08
 
   -0.49467E+08         0.12817E+07         0.00000E+00
    0.12817E+07        -0.49461E+08         0.00000E+00
    0.00000E+00         0.00000E+00        -0.49564E+08
 
   -0.49511E+08         0.12931E+07         0.00000E+00
    0.12931E+07        -0.49443E+08         0.00000E+00
    0.00000E+00         0.00000E+00        -0.49569E+08
 
   -0.49554E+08         0.13040E+07         0.00000E+00
    0.13040E+07        -0.49424E+08         0.00000E+00
    0.00000E+00         0.00000E+00        -0.49573E+08
 
   -0.47342E+08         0.26478E+05         0.00000E+00
    0.26478E+05        -0.50000E+08         0.00000E+00
    0.00000E+00         0.00000E+00        -0.49204E+08
 
   -0.47374E+08         0.76737E+05         0.00000E+00
    0.76737E+05        -0.49999E+08         0.00000E+00
    0.00000E+00         0.00000E+00        -0.49211E+08
 
   -0.47409E+08         0.12584E+06         0.00000E+00
    0.12584E+06        -0.49997E+08         0.00000E+00
    0.00000E+00         0.00000E+00        -0.49217E+08
 
   -0.47444E+08         0.17381E+06         0.00000E+00
    0.17381E+06        -0.49995E+08         0.00000E+00
    0.00000E+00         0.00000E+00        -0.49224E+08
 
   -0.47480E+08         0.22063E+06         0.00000E+00
    0.22063E+06        -0.49992E+08         0.00000E+00
    0.00000E+00         0.00000E+00        -0.49230E+08
 
   -0.47518E+08         0.26631E+06         0.00000E+00
    0.26631E+06        -0.49988E+08         0.00000E+00
    0.00000E+00         0.00000E+00        -0.49237E+08
 
   -0.47556E+08         0.31087E+06         0.00000E+00
    0.31087E+06        -0.49983E+08         0.00000E+00
    0.00000E+00         0.00000E+00        -0.49244E+08
 
   -0.47595E+08         0.35432E+06         0.00000E+00
    0.35432E+06        -0.49978E+08         0.00000E+00
    0.00000E+00         0.00000E+00        -0.49251E+08
 
   -0.47635E+08         0.39666E+06         0.00000E+00
    0.39666E+06        -0.49972E+08         0.00000E+00
    0.00000E+00         0.00000E+00        -0.49257E+08
 
   -0.47676E+08         0.43792E+06         0.00000E+00
    0.43792E+06        -0.49966E+08         0.00000E+00
    0.00000E+00         0.00000E+00        -0.49264E+08
 
   -0.47717E+08         0.47809E+06         0.00000E+00
    0.47809E+06        -0.49959E+08         0.00000E+00
    0.00000E+00         0.00000E+00        -0.49271E+08
 
   -0.47759E+08         0.51721E+06         0.00000E+00
    0.51721E+06        -0.49952E+08         0.00000E+00
    0.00000E+00         0.00000E+00        -0.49278E+08
 
   -0.47802E+08         0.55529E+06         0.00000E+00
    0.55529E+06        -0.49944E+08         0.00000E+00
    0.00000E+00         0.00000E+00        -0.49285E+08
 
   -0.47845E+08         0.59234E+06         0.00000E+00
    0.59234E+06        -0.49935E+08         0.00000E+00
    0.00000E+00         0.00000E+00        -0.49292E+08
 
   -0.47888E+08         0.62837E+06         0.00000E+00
    0.62837E+06        -0.49926E+08         0.00000E+00
    0.00000E+00         0.00000E+00        -0.49299E+08
 
   -0.47932E+08         0.66342E+06         0.00000E+00
    0.66342E+06        -0.49917E+08         0.00000E+00
    0.00000E+00         0.00000E+00        -0.49306E+08
 
   -0.47977E+08         0.69750E+06         0.00000E+00
    0.69750E+06        -0.49907E+08         0.00000E+00
    0.00000E+00         0.00000E+00        -0.49313E+08
 
   -0.48022E+08         0.73062E+06         0.00000E+00
    0.73062E+06        -0.49897E+08         0.00000E+00
    0.00000E+00         0.00000E+00        -0.49320E+08
 
   -0.48067E+08         0.76281E+06         0.00000E+00
    0.76281E+06        -0.49887E+08         0.00000E+00
    0.00000E+00         0.00000E+00        -0.49327E+08
 
   -0.48112E+08         0.79409E+06         0.00000E+00
    0.79409E+06        -0.49876E+08         0.00000E+00
    0.00000E+00         0.00000E+00        -0.49334E+08
 
   -0.48158E+08         0.82447E+06         0.00000E+00
    0.82447E+06        -0.49865E+08         0.00000E+00
    0.00000E+00         0.00000E+00        -0.49341E+08
 
   -0.48204E+08         0.85398E+06         0.00000E+00
    0.85398E+06        -0.49853E+08         0.00000E+00
    0.00000E+00         0.00000E+00        -0.49347E+08
 
   -0.48250E+08         0.88264E+06         0.00000E+00
    0.88264E+06        -0.49841E+08         0.00000E+00
    0.00000E+00         0.00000E+00        -0.49354E+08
 
   -0.48296E+08         0.91046E+06         0.00000E+00
    0.91046E+06        -0.49829E+08         0.00000E+00
    0.00000E+00         0.00000E+00        -0.49361E+08
 
   -0.48342E+08         0.93747E+06         0.00000E+00
    0.93747E+06        -0.49816E+08         0.00000E+00
    0.00000E+00         0.00000E+00        -0.49368E+08
 
   -0.48389E+08         0.96369E+06         0.00000E+00
    0.96369E+06        -0.49803E+08         0.00000E+00
    0.00000E+00         0.00000E+00        -0.49374E+08
 
   -0.48435E+08         0.98913E+06         0.00000E+00
    0.98913E+06        -0.49790E+08         0.00000E+00
    0.00000E+00         0.00000E+00        -0.49381E+08
 
   -0.48482E+08         0.10138E+07         0.00000E+00
    0.10138E+07        -0.49777E+08         0.00000E+00
    0.00000E+00         0.00000E+00        -0.49388E+08
 
   -0.48528E+08         0.10378E+07         0.00000E+00
    0.10378E+07        -0.49763E+08         0.00000E+00
    0.00000E+00         0.00000E+00        -0.49394E+08
 
   -0.48575E+08         0.10610E+07         0.00000E+00
    0.10610E+07        -0.49749E+08         0.00000E+00
    0.00000E+00         0.00000E+00        -0.49401E+08
 
   -0.48622E+08         0.10835E+07         0.00000E+00
    0.10835E+07        -0.49734E+08         0.00000E+00
    0.00000E+00         0.00000E+00        -0.49407E+08
 
   -0.48668E+08         0.11054E+07         0.00000E+00
    0.11054E+07        -0.49720E+08         0.00000E+00
    0.00000E+00         0.00000E+00        -0.49414E+08
 
   -0.48715E+08         0.11266E+07         0.00000E+00
    0.11266E+07        -0.49705E+08         0.00000E+00
    0.00000E+00         0.00000E+00        -0.49420E+08
 
   -0.48761E+08         0.11472E+07         0.00000E+00
    0.11472E+07        -0.49689E+08         0.00000E+00
    0.00000E+00         0.00000E+00        -0.49426E+08
 
   -0.48808E+08         0.11671E+07         0.00000E+00
    0.11671E+07        -0.49674E+08         0.00000E+00
    0.00000E+00         0.00000E+00        -0.49432E+08
 
   -0.48854E+08         0.11864E+07         0.00000E+00
    0.11864E+07        -0.49658E+08         0.00000E+00
    0.00000E+00         0.00000E+00        -0.49439E+08
 
   -0.48901E+08         0.12051E+07         0.00000E+00
    0.12051E+07        -0.49642E+08         0.00000E+00
    0.00000E+00         0.00000E+00        -0.49445E+08
 
   -0.48947E+08         0.12233E+07         0.00000E+00
    0.12233E+07        -0.49626E+08         0.00000E+00
    0.00000E+00         0.00000E+00        -0.49451E+08
 
   -0.48993E+08         0.12409E+07         0.00000E+00
    0.12409E+07        -0.49609E+08         0.00000E+00
    0.00000E+00         0.00000E+00        -0.49456E+08
 
   -0.49040E+08         0.12579E+07         0.00000E+00
    0.12579E+07        -0.49592E+08         0.00000E+00
    0.00000E+00         0.00000E+00        -0.49462E+08
 
   -0.49086E+08         0.12745E+07         0.00000E+00
    0.12745E+07        -0.49575E+08         0.00000E+00
    0.00000E+00         0.00000E+00        -0.49468E+08
 
   -0.49132E+08         0.12905E+07         0.00000E+00
    0.12905E+07        -0.49558E+08         0.00000E+00
    0.00000E+00         0.00000E+00        -0.49474E+08
 
   -0.49178E+08         0.13060E+07         0.00000E+00
    0.13060E+07        -0.49540E+08         0.00000E+00
    0.00000E+00         0.00000E+00        -0.49479E+08
 
   -0.49223E+08         0.13210E+07         0.00000E+00
    0.13210E+07        -0.49522E+08         0.00000E+00
    0.00000E+00         0.00000E+00        -0.49485E+08
 
   -0.49269E+08         0.13356E+07         0.00000E+00
    0.13356E+07        -0.49503E+08         0.00000E+00
    0.00000E+00         0.00000E+00        -0.49491E+08
 
   -0.49315E+08         0.13497E+07         0.00000E+00
    0.13497E+07        -0.49485E+08         0.00000E+00
    0.00000E+00         0.00000E+00        -0.49496E+08
 
   -0.49360E+08         0.13633E+07         0.00000E+00
    0.13633E+07        -0.49466E+08         0.00000E+00
    0.00000E+00         0.00000E+00        -0.49501E+08
 
   -0.49406E+08         0.13766E+07         0.00000E+00
    0.13766E+07        -0.49447E+08         0.00000E+00
    0.00000E+00         0.00000E+00        -0.49507E+08
 
   -0.49451E+08         0.13894E+07         0.00000E+00
    0.13894E+07        -0.49427E+08         0.00000E+00
    0.00000E+00         0.00000E+00        -0.49512E+08
 
   -0.49497E+08         0.14018E+07         0.00000E+00
    0.14018E+07        -0.49407E+08         0.00000E+00
    0.00000E+00         0.00000E+00        -0.49517E+08
 
   -0.47077E+08         0.28816E+05         0.00000E+00
    0.28816E+05        -0.50000E+08         0.00000E+00
    0.00000E+00         0.00000E+00        -0.49102E+08
 
   -0.47116E+08         0.83250E+05         0.00000E+00
    0.83250E+05        -0.49999E+08         0.00000E+00
    0.00000E+00         0.00000E+00        -0.49109E+08
 
   -0.47156E+08         0.13633E+06         0.00000E+00
    0.13633E+06        -0.49997E+08         0.00000E+00
    0.00000E+00         0.00000E+00        -0.49117E+08
 
   -0.47198E+08         0.18807E+06         0.00000E+00
    0.18807E+06        -0.49995E+08         0.00000E+00
    0.00000E+00         0.00000E+00        -0.49125E+08
 
   -0.47240E+08         0.23849E+06         0.00000E+00
    0.23849E+06        -0.49992E+08         0.00000E+00
    0.00000E+00         0.00000E+00        -0.49133E+08
 
   -0.47284E+08         0.28760E+06         0.00000E+00
    0.28760E+06        -0.49988E+08         0.00000E+00
    0.00000E+00         0.00000E+00        -0.49141E+08
 
   -0.47328E+08         0.33541E+06         0.00000E+00
    0.33541E+06        -0.49983E+08         0.00000E+00
    0.00000E+00         0.00000E+00        -0.49148E+08
 
   -0.47373E+08         0.38195E+06         0.00000E+00
    0.38195E+06        -0.49978E+08         0.00000E+00
    0.00000E+00         0.00000E+00        -0.49156E+08
 
   -0.47419E+08         0.42724E+06         0.00000E+00
    0.42724E+06        -0.49972E+08         0.00000E+00
    0.00000E+00         0.00000E+00        -0.49164E+08
 
   -0.47465E+08         0.47130E+06         0.00000E+00
    0.47130E+06        -0.49965E+08         0.00000E+00
    0.00000E+00         0.00000E+00        -0.49172E+08
 
   -0.47512E+08         0.51415E+06         0.00000E+00
    0.51415E+06        -0.49958E+08         0.00000E+00
    0.00000E+00         0.00000E+00        -0.49180E+08
 
   -0.47560E+08         0.55582E+06         0.00000E+00
    0.55582E+06        -0.49951E+08         0.00000E+00
    0.00000E+00         0.00000E+00        -0.49188E+08
 
   -0.47608E+08         0.59633E+06         0.00000E+00
    0.59633E+06        -0.49943E+08         0.00000E+00
    0.00000E+00         0.00000E+00        -0.49196E+08
 
   -0.47656E+08         0.63570E+06         0.00000E+00
    0.63570E+06        -0.49934E+08         0.00000E+00
    0.00000E+00         0.00000E+00        -0.49204E+08
 
   -0.47705E+08         0.67397E+06         0.00000E+00
    0.67397E+06        -0.49926E+08         0.00000E+00
    0.00000E+00         0.00000E+00        -0.49212E+08
 
   -0.47754E+08         0.71115E+06         0.00000E+00
    0.71115E+06        -0.49916E+08         0.00000E+00
    0.00000E+00         0.00000E+00        -0.49220E+08
 
   -0.47804E+08         0.74728E+06         0.00000E+00
    0.74728E+06        -0.49906E+08         0.00000E+00
    0.00000E+00         0.00000E+00        -0.49228E+08
 
   -0.47853E+08         0.78238E+06         0.00000E+00
    0.78238E+06        -0.49896E+08         0.00000E+00
    0.00000E+00         0.00000E+00        -0.49236E+08
 
   -0.47903E+08         0.81647E+06         0.00000E+00
    0.81647E+06        -0.49886E+08         0.00000E+00
    0.00000E+00         0.00000E+00        -0.49244E+08
 
   -0.47953E+08         0.84958E+06         0.00000E+00
    0.84958E+06        -0.49875E+08         0.00000E+00
    0.00000E+00         0.00000E+00        -0.49252E+08
 
   -0.48004E+08         0.88174E+06         0.00000E+00
    0.88174E+06        -0.49864E+08         0.00000E+00
    0.00000E+00         0.00000E+00        -0.49260E+08
 
   -0.48054E+08         0.91297E+06         0.00000E+00
    0.91297E+06        -0.49852E+08         0.00000E+00
    0.00000E+00         0.00000E+00        -0.49268E+08
 
   -0.48104E+08         0.94331E+06         0.00000E+00
    0.94331E+06        -0.49840E+08         0.00000E+00
    0.00000E+00         0.00000E+00        -0.49275E+08
 
   -0.48155E+08         0.97276E+06         0.00000E+00
    0.97276E+06        -0.49828E+08         0.00000E+00
    0.00000E+00         0.00000E+00        -0.49283E+08
 
   -0.48205E+08         0.10014E+07         0.00000E+00
    0.10014E+07        -0.49815E+08         0.00000E+00
    0.00000E+00         0.00000E+00        -0.49290E+08
 
   -0.48256E+08         0.10292E+07         0.00000E+00
    0.10292E+07        -0.49802E+08         0.00000E+00
    0.00000E+00         0.00000E+00        -0.49298E+08
 
   -0.48306E+08         0.10561E+07         0.00000E+00
    0.10561E+07        -0.49789E+08         0.00000E+00
    0.00000E+00         0.00000E+00        -0.49305E+08
 
   -0.48356E+08         0.10823E+07         0.00000E+00
    0.10823E+07        -0.49775E+08         0.00000E+00
    0.00000E+00         0.00000E+00        -0.49313E+08
 
   -0.48407E+08         0.11078E+07         0.00000E+00
    0.11078E+07        -0.49762E+08         0.00000E+00
    0.00000E+00         0.00000E+00        -0.49320E+08
 
   -0.48457E+08         0.11325E+07         0.00000E+00
    0.11325E+07        -0.49747E+08         0.00000E+00
    0.00000E+00         0.00000E+00        -0.49327E+08
 
   -0.48507E+08         0.11565E+07         0.00000E+00
    0.11565E+07        -0.49733E+08         0.00000E+00
    0.00000E+00         0.00000E+00        -0.49334E+08
 
   -0.48557E+08         0.11798E+07         0.00000E+00
    0.11798E+07        -0.49718E+08         0.00000E+00
    0.00000E+00         0.00000E+00        -0.49341E+08
 
   -0.48607E+08         0.12025E+07         0.00000E+00
    0.12025E+07        -0.49703E+08         0.00000E+00
    0.00000E+00         0.00000E+00        -0.49348E+08
 
   -0.48656E+08         0.12245E+07         0.00000E+00
    0.12245E+07        -0.49688E+08         0.00000E+00
    0.00000E+00         0.00000E+00        -0.49355E+08
 
   -0.48706E+08         0.12459E+07         0.00000E+00
    0.12459E+07        -0.49672E+08         0.00000E+00
    0.00000E+00         0.00000E+00        -0.49362E+08
 
   -0.48756E+08         0.12666E+07         0.00000E+00
    0.12666E+07        -0.49656E+08         0.00000E+00
    0.00000E+00         0.00000E+00        -0.49369E+08
 
   -0.48805E+08         0.12868E+07         0.00000E+00
    0.12868E+07        -0.49640E+08         0.00000E+00
    0.00000E+00         0.00000E+00        -0.49375E+08
 
   -0.48854E+08         0.13065E+07         0.00000E+00
    0.13065E+07        -0.49623E+08         0.00000E+00
    0.00000E+00         0.00000E+00        -0.49382E+08
 
   -0.48903E+08         0.13255E+07         0.00000E+00
    0.13255E+07        -0.49606E+08         0.00000E+00
    0.00000E+00         0.00000E+00        -0.49388E+08
 
   -0.48952E+08         0.13441E+07         0.00000E+00
    0.13441E+07        -0.49589E+08         0.00000E+00
    0.00000E+00         0.00000E+00        -0.49394E+08
 
   -0.49000E+08         0.13621E+07         0.00000E+00
    0.13621E+07        -0.49572E+08         0.00000E+00
    0.00000E+00         0.00000E+00        -0.49401E+08
 
   -0.49049E+08         0.13796E+07         0.00000E+00
    0.13796E+07        -0.49554E+08         0.00000E+00
    0.00000E+00         0.00000E+00        -0.49407E+08
 
   -0.49097E+08         0.13966E+07         0.00000E+00
    0.13966E+07        -0.49535E+08         0.00000E+00
    0.00000E+00         0.00000E+00        -0.49413E+08
 
   -0.49145E+08         0.14132E+07         0.00000E+00
    0.14132E+07        -0.49517E+08         0.00000E+00
    0.00000E+00         0.00000E+00        -0.49419E+08
 
   -0.49193E+08         0.14293E+07         0.00000E+00
    0.14293E+07        -0.49498E+08         0.00000E+00
    0.00000E+00         0.00000E+00        -0.49425E+08
 
   -0.49241E+08         0.14450E+07         0.00000E+00
    0.14450E+07        -0.49479E+08         0.00000E+00
    0.00000E+00         0.00000E+00        -0.49430E+08
 
   -0.49289E+08         0.14603E+07         0.00000E+00
    0.14603E+07        -0.49459E+08         0.00000E+00
    0.00000E+00         0.00000E+00        -0.49436E+08
 
   -0.49337E+08         0.14751E+07         0.00000E+00
    0.14751E+07        -0.49440E+08         0.00000E+00
    0.00000E+00         0.00000E+00        -0.49442E+08
 
   -0.49384E+08         0.14896E+07         0.00000E+00
    0.14896E+07        -0.49419E+08         0.00000E+00
    0.00000E+00         0.00000E+00        -0.49447E+08
 
   -0.49431E+08         0.15037E+07         0.00000E+00
    0.15037E+07        -0.49399E+08         0.00000E+00
    0.00000E+00         0.00000E+00        -0.49452E+08
 
   -0.46790E+08         0.31224E+05         0.00000E+00
    0.31224E+05        -0.50000E+08         0.00000E+00
    0.00000E+00         0.00000E+00        -0.48985E+08
 
   -0.46837E+08         0.89901E+05         0.00000E+00
    0.89901E+05        -0.49999E+08         0.00000E+00
    0.00000E+00         0.00000E+00        -0.48994E+08
 
   -0.46884E+08         0.14700E+06         0.00000E+00
    0.14700E+06        -0.49997E+08         0.00000E+00
    0.00000E+00         0.00000E+00        -0.49004E+08
 
   -0.46933E+08         0.20254E+06         0.00000E+00
    0.20254E+06        -0.49995E+08         0.00000E+00
    0.00000E+00         0.00000E+00        -0.49013E+08
 
   -0.46982E+08         0.25654E+06         0.00000E+00
    0.25654E+06        -0.49991E+08         0.00000E+00
    0.00000E+00         0.00000E+00        -0.49022E+08
 
   -0.47033E+08         0.30905E+06         0.00000E+00
    0.30905E+06        -0.49988E+08         0.00000E+00
    0.00000E+00         0.00000E+00        -0.49031E+08
 
   -0.47084E+08         0.36008E+06         0.00000E+00
    0.36008E+06        -0.49983E+08         0.00000E+00
    0.00000E+00         0.00000E+00        -0.49041E+08
 
   -0.47136E+08         0.40967E+06         0.00000E+00
    0.40967E+06        -0.49978E+08         0.00000E+00
    0.00000E+00         0.00000E+00        -0.49050E+08
 
   -0.47188E+08         0.45785E+06         0.00000E+00
    0.45785E+06        -0.49972E+08         0.00000E+00
    0.00000E+00         0.00000E+00        -0.49059E+08
 
   -0.47241E+08         0.50465E+06         0.00000E+00
    0.50465E+06        -0.49966E+08         0.00000E+00
    0.00000E+00         0.00000E+00        -0.49069E+08
 
   -0.47294E+08         0.55011E+06         0.00000E+00
    0.55011E+06        -0.49959E+08         0.00000E+00
    0.00000E+00         0.00000E+00        -0.49078E+08
 
   -0.47348E+08         0.59425E+06         0.00000E+00
    0.59425E+06        -0.49951E+08         0.00000E+00
    0.00000E+00         0.00000E+00        -0.49087E+08
 
   -0.47402E+08         0.63712E+06         0.00000E+00
    0.63712E+06        -0.49943E+08         0.00000E+00
    0.00000E+00         0.00000E+00        -0.49096E+08
 
   -0.47457E+08         0.67875E+06         0.00000E+00
    0.67875E+06        -0.49935E+08         0.00000E+00
    0.00000E+00         0.00000E+00        -0.49106E+08
 
   -0.47511E+08         0.71918E+06         0.00000E+00
    0.71918E+06        -0.49926E+08         0.00000E+00
    0.00000E+00         0.00000E+00        -0.49115E+08
 
   -0.47566E+08         0.75843E+06         0.00000E+00
    0.75843E+06        -0.49917E+08         0.00000E+00
    0.00000E+00         0.00000E+00        -0.49124E+08
 
   -0.47621E+08         0.79654E+06         0.00000E+00
    0.79654E+06        -0.49908E+08         0.00000E+00
    0.00000E+00         0.00000E+00        -0.49133E+08
 
   -0.47676E+08         0.83356E+06         0.00000E+00
    0.83356E+06        -0.49898E+08         0.00000E+00
    0.00000E+00         0.00000E+00        -0.49142E+08
 
   -0.47731E+08         0.86951E+06         0.00000E+00
    0.86951E+06        -0.49888E+08         0.00000E+00
    0.00000E+00         0.00000E+00        -0.49151E+08
 
   -0.47786E+08         0.90442E+06         0.00000E+00
    0.90442E+06        -0.49877E+08         0.00000E+00
    0.00000E+00         0.00000E+00        -0.49160E+08
 
   -0.47841E+08         0.93833E+06         0.00000E+00
    0.93833E+06        -0.49866E+08         0.00000E+00
    0.00000E+00         0.00000E+00        -0.49169E+08
 
   -0.47896E+08         0.97128E+06         0.00000E+00
    0.97128E+06        -0.49855E+08         0.00000E+00
    0.00000E+00         0.00000E+00        -0.49177E+08
 
   -0.47951E+08         0.10033E+07         0.00000E+00
    0.10033E+07        -0.49843E+08         0.00000E+00
    0.00000E+00         0.00000E+00        -0.49186E+08
 
   -0.48005E+08         0.10344E+07         0.00000E+00
    0.10344E+07        -0.49831E+08         0.00000E+00
    0.00000E+00         0.00000E+00        -0.49195E+08
 
   -0.48060E+08         0.10646E+07         0.00000E+00
    0.10646E+07        -0.49819E+08         0.00000E+00
    0.00000E+00         0.00000E+00        -0.49203E+08
 
   -0.48115E+08         0.10940E+07         0.00000E+00
    0.10940E+07        -0.49806E+08         0.00000E+00
    0.00000E+00         0.00000E+00        -0.49211E+08
 
   -0.48169E+08         0.11226E+07         0.00000E+00
    0.11226E+07        -0.49793E+08         0.00000E+00
    0.00000E+00         0.00000E+00        -0.49220E+08
 
   -0.48223E+08         0.11504E+07         0.00000E+00
    0.11504E+07        -0.49780E+08         0.00000E+00
    0.00000E+00         0.00000E+00        -0.49228E+08
 
   -0.48277E+08         0.11774E+07         0.00000E+00
    0.11774E+07        -0.49766E+08         0.00000E+00
    0.00000E+00         0.00000E+00        -0.49236E+08
 
   -0.48331E+08         0.12037E+07         0.00000E+00
    0.12037E+07        -0.49752E+08         0.00000E+00
    0.00000E+00         0.00000E+00        -0.49244E+08
 
   -0.48385E+08         0.12293E+07         0.00000E+00
    0.12293E+07        -0.49738E+08         0.00000E+00
    0.00000E+00         0.00000E+00        -0.49252E+08
 
   -0.48438E+08         0.12542E+07         0.00000E+00
    0.12542E+07        -0.49723E+08         0.00000E+00
    0.00000E+00         0.00000E+00        -0.49260E+08
 
   -0.48491E+08         0.12784E+07         0.00000E+00
    0.12784E+07        -0.49709E+08         0.00000E+00
    0.00000E+00         0.00000E+00        -0.49267E+08
 
   -0.48544E+08         0.13020E+07         0.00000E+00
    0.13020E+07        -0.49693E+08         0.00000E+00
    0.00000E+00         0.00000E+00        -0.49275E+08
 
   -0.48597E+08         0.13250E+07         0.00000E+00
    0.13250E+07        -0.49678E+08         0.00000E+00
    0.00000E+00         0.00000E+00        -0.49282E+08
 
   -0.48649E+08         0.13474E+07         0.00000E+00
    0.13474E+07        -0.49662E+08         0.00000E+00
    0.00000E+00         0.00000E+00        -0.49289E+08
 
   -0.48701E+08         0.13692E+07         0.00000E+00
    0.13692E+07        -0.49645E+08         0.00000E+00
    0.00000E+00         0.00000E+00        -0.49297E+08
 
   -0.48753E+08         0.13905E+07         0.00000E+00
    0.13905E+07        -0.49629E+08         0.00000E+00
    0.00000E+00         0.00000E+00        -0.49304E+08
 
   -0.48805E+08         0.14112E+07         0.00000E+00
    0.14112E+07        -0.49612E+08         0.00000E+00
    0.00000E+00         0.00000E+00        -0.49311E+08
 
   -0.48856E+08         0.14315E+07         0.00000E+00
    0.14315E+07        -0.49594E+08         0.00000E+00
    0.00000E+00         0.00000E+00        -0.49317E+08
 
   -0.48907E+08         0.14512E+07         0.00000E+00
    0.14512E+07        -0.49577E+08         0.00000E+00
    0.00000E+00         0.00000E+00        -0.49324E+08
 
   -0.48958E+08         0.14705E+07         0.00000E+00
    0.14705E+07        -0.49559E+08         0.00000E+00
    0.00000E+00         0.00000E+00        -0.49331E+08
 
   -0.49009E+08         0.14893E+07         0.00000E+00
    0.14893E+07        -0.49540E+08         0.00000E+00
    0.00000E+00         0.00000E+00        -0.49337E+08
 
   -0.49059E+08         0.15076E+07         0.00000E+00
    0.15076E+07        -0.49521E+08         0.00000E+00
    0.00000E+00         0.00000E+00        -0.49343E+08
 
   -0.49109E+08         0.15256E+07         0.00000E+00
    0.15256E+07        -0.49502E+08         0.00000E+00
    0.00000E+00         0.00000E+00        -0.49350E+08
 
   -0.49159E+08         0.15431E+07         0.00000E+00
    0.15431E+07        -0.49482E+08         0.00000E+00
    0.00000E+00         0.00000E+00        -0.49356E+08
 
   -0.49209E+08         0.15602E+07         0.00000E+00
    0.15602E+07        -0.49462E+08         0.00000E+00
    0.00000E+00         0.00000E+00        -0.49362E+08
 
   -0.49258E+08         0.15770E+07         0.00000E+00
    0.15770E+07        -0.49442E+08         0.00000E+00
    0.00000E+00         0.00000E+00        -0.49367E+08
 
   -0.49308E+08         0.15934E+07         0.00000E+00
    0.15934E+07        -0.49421E+08         0.00000E+00
    0.00000E+00         0.00000E+00        -0.49373E+08
 
   -0.49357E+08         0.16094E+07         0.00000E+00
    0.16094E+07        -0.49400E+08         0.00000E+00
    0.00000E+00         0.00000E+00        -0.49379E+08
 
   -0.46482E+08         0.33644E+05         0.00000E+00
    0.33644E+05        -0.50000E+08         0.00000E+00
    0.00000E+00         0.00000E+00        -0.48853E+08
 
   -0.46537E+08         0.96518E+05         0.00000E+00
    0.96518E+05        -0.49999E+08         0.00000E+00
    0.00000E+00         0.00000E+00        -0.48864E+08
 
   -0.46593E+08         0.15756E+06         0.00000E+00
    0.15756E+06        -0.49997E+08         0.00000E+00
    0.00000E+00         0.00000E+00        -0.48875E+08
 
   -0.46650E+08         0.21680E+06         0.00000E+00
    0.21680E+06        -0.49995E+08         0.00000E+00
    0.00000E+00         0.00000E+00        -0.48886E+08
 
   -0.46708E+08         0.27429E+06         0.00000E+00
    0.27429E+06        -0.49992E+08         0.00000E+00
    0.00000E+00         0.00000E+00        -0.48897E+08
 
   -0.46766E+08         0.33006E+06         0.00000E+00
    0.33006E+06        -0.49988E+08         0.00000E+00
    0.00000E+00         0.00000E+00        -0.48908E+08
 
   -0.46825E+08         0.38417E+06         0.00000E+00
    0.38417E+06        -0.49983E+08         0.00000E+00
    0.00000E+00         0.00000E+00        -0.48919E+08
 
   -0.46884E+08         0.43666E+06         0.00000E+00
    0.43666E+06        -0.49978E+08         0.00000E+00
    0.00000E+00         0.00000E+00        -0.48930E+08
 
   -0.46944E+08         0.48758E+06         0.00000E+00
    0.48758E+06        -0.49973E+08         0.00000E+00
    0.00000E+00         0.00000E+00        -0.48940E+08
 
   -0.47004E+08         0.53696E+06         0.00000E+00
    0.53696E+06        -0.49967E+08         0.00000E+00
    0.00000E+00         0.00000E+00        -0.48951E+08
 
   -0.47064E+08         0.58487E+06         0.00000E+00
    0.58487E+06        -0.49960E+08         0.00000E+00
    0.00000E+00         0.00000E+00        -0.48962E+08
 
   -0.47125E+08         0.63134E+06         0.00000E+00
    0.63134E+06        -0.49953E+08         0.00000E+00
    0.00000E+00         0.00000E+00        -0.48973E+08
 
   -0.47185E+08         0.67642E+06         0.00000E+00
    0.67642E+06        -0.49946E+08         0.00000E+00
    0.00000E+00         0.00000E+00        -0.48983E+08
 
   -0.47246E+08         0.72016E+06         0.00000E+00
    0.72016E+06        -0.49938E+08         0.00000E+00
    0.00000E+00         0.00000E+00        -0.48994E+08
 
   -0.47307E+08         0.76261E+06         0.00000E+00
    0.76261E+06        -0.49930E+08         0.00000E+00
    0.00000E+00         0.00000E+00        -0.49004E+08
 
   -0.47368E+08         0.80381E+06         0.00000E+00
    0.80381E+06        -0.49921E+08         0.00000E+00
    0.00000E+00         0.00000E+00        -0.49015E+08
 
   -0.47428E+08         0.84381E+06         0.00000E+00
    0.84381E+06        -0.49912E+08         0.00000E+00
    0.00000E+00         0.00000E+00        -0.49025E+08
 
   -0.47489E+08         0.88265E+06         0.00000E+00
    0.88265E+06        -0.49903E+08         0.00000E+00
    0.00000E+00         0.00000E+00        -0.49035E+08
 
   -0.47549E+08         0.92037E+06         0.00000E+00
    0.92037E+06        -0.49893E+08         0.00000E+00
    0.00000E+00         0.00000E+00        -0.49046E+08
 
   -0.47609E+08         0.95702E+06         0.00000E+00
    0.95702E+06        -0.49883E+08         0.00000E+00
    0.00000E+00         0.00000E+00        -0.49056E+08
 
   -0.47669E+08         0.99263E+06         0.00000E+00
    0.99263E+06        -0.49873E+08         0.00000E+00
    0.00000E+00         0.00000E+00        -0.49066E+08
 
   -0.47729E+08         0.10273E+07         0.00000E+00
    0.10273E+07        -0.49862E+08         0.00000E+00
    0.00000E+00         0.00000E+00        -0.49075E+08
 
   -0.47789E+08         0.10609E+07         0.00000E+00
    0.10609E+07        -0.49851E+08         0.00000E+00
    0.00000E+00         0.00000E+00        -0.49085E+08
 
   -0.47848E+08         0.10937E+07         0.00000E+00
    0.10937E+07        -0.49840E+08         0.00000E+00
    0.00000E+00         0.00000E+00        -0.49095E+08
 
   -0.47907E+08         0.11256E+07         0.00000E+00
    0.11256E+07        -0.49828E+08         0.00000E+00
    0.00000E+00         0.00000E+00        -0.49104E+08
 
   -0.47965E+08         0.11566E+07         0.00000E+00
    0.11566E+07        -0.49816E+08         0.00000E+00
    0.00000E+00         0.00000E+00        -0.49113E+08
 
   -0.48024E+08         0.11868E+07         0.00000E+00
    0.11868E+07        -0.49804E+08         0.00000E+00
    0.00000E+00         0.00000E+00        -0.49123E+08
 
   -0.48082E+08         0.12163E+07         0.00000E+00
    0.12163E+07        -0.49791E+08         0.00000E+00
    0.00000E+00         0.00000E+00        -0.49132E+08
 
   -0.48140E+08         0.12450E+07         0.00000E+00
    0.12450E+07        -0.49778E+08         0.00000E+00
    0.00000E+00         0.00000E+00        -0.49141E+08
 
   -0.48197E+08         0.12730E+07         0.00000E+00
    0.12730E+07        -0.49765E+08         0.00000E+00
    0.00000E+00         0.00000E+00        -0.49149E+08
 
   -0.48254E+08         0.13003E+07         0.00000E+00
    0.13003E+07        -0.49751E+08         0.00000E+00
    0.00000E+00         0.00000E+00        -0.49158E+08
 
   -0.48311E+08         0.13269E+07         0.00000E+00
    0.13269E+07        -0.49737E+08         0.00000E+00
    0.00000E+00         0.00000E+00        -0.49167E+08
 
   -0.48367E+08         0.13529E+07         0.00000E+00
    0.13529E+07        -0.49723E+08         0.00000E+00
    0.00000E+00         0.00000E+00        -0.49175E+08
 
   -0.48423E+08         0.13783E+07         0.00000E+00
    0.13783E+07        -0.49708E+08         0.00000E+00
    0.00000E+00         0.00000E+00        -0.49183E+08
 
   -0.48478E+08         0.14031E+07         0.00000E+00
    0.14031E+07        -0.49693E+08         0.00000E+00
    0.00000E+00         0.00000E+00        -0.49191E+08
 
   -0.48534E+08         0.14274E+07         0.00000E+00
    0.14274E+07        -0.49677E+08         0.00000E+00
    0.00000E+00         0.00000E+00        -0.49199E+08
 
   -0.48589E+08         0.14511E+07         0.00000E+00
    0.14511E+07        -0.49661E+08         0.00000E+00
    0.00000E+00         0.00000E+00        -0.49207E+08
 
   -0.48643E+08         0.14742E+07         0.00000E+00
    0.14742E+07        -0.49645E+08         0.00000E+00
    0.00000E+00         0.00000E+00        -0.49215E+08
 
   -0.48697E+08         0.14969E+07         0.00000E+00
    0.14969E+07        -0.49628E+08         0.00000E+00
    0.00000E+00         0.00000E+00        -0.49222E+08
 
   -0.48751E+08         0.15191E+07         0.00000E+00
    0.15191E+07        -0.49611E+08         0.00000E+00
    0.00000E+00         0.00000E+00        -0.49229E+08
 
   -0.48805E+08         0.15409E+07         0.00000E+00
    0.15409E+07        -0.49593E+08         0.00000E+00
    0.00000E+00         0.00000E+00        -0.49237E+08
 
   -0.48858E+08         0.15622E+07         0.00000E+00
    0.15622E+07        -0.49575E+08         0.00000E+00
    0.00000E+00         0.00000E+00        -0.49244E+08
 
   -0.48911E+08         0.15830E+07         0.00000E+00
    0.15830E+07        -0.49556E+08         0.00000E+00
    0.00000E+00         0.00000E+00        -0.49250E+08
 
   -0.48963E+08         0.16035E+07         0.00000E+00
    0.16035E+07        -0.49537E+08         0.00000E+00
    0.00000E+00         0.00000E+00        -0.49257E+08
 
   -0.49015E+08         0.16236E+07         0.00000E+00
    0.16236E+07        -0.49518E+08         0.00000E+00
    0.00000E+00         0.00000E+00        -0.49264E+08
 
   -0.49067E+08         0.16433E+07         0.00000E+00
    0.16433E+07        -0.49498E+08         0.00000E+00
    0.00000E+00         0.00000E+00        -0.49270E+08
 
   -0.49119E+08         0.16626E+07         0.00000E+00
    0.16626E+07        -0.49477E+08         0.00000E+00
    0.00000E+00         0.00000E+00        -0.49276E+08
 
   -0.49170E+08         0.16816E+07         0.00000E+00
    0.16816E+07        -0.49456E+08         0.00000E+00
    0.00000E+00         0.00000E+00        -0.49282E+08
 
   -0.49221E+08         0.17002E+07         0.00000E+00
    0.17002E+07        -0.49435E+08         0.00000E+00
    0.00000E+00         0.00000E+00        -0.49288E+08
 
   -0.49272E+08         0.17186E+07         0.00000E+00
    0.17186E+07        -0.49413E+08         0.00000E+00
    0.00000E+00         0.00000E+00        -0.49294E+08
 
   -0.46152E+08         0.35999E+05         0.00000E+00
    0.35999E+05        -0.50000E+08         0.00000E+00
    0.00000E+00         0.00000E+00        -0.48704E+08
 
   -0.46217E+08         0.10287E+06         0.00000E+00
    0.10287E+06        -0.49999E+08         0.00000E+00
    0.00000E+00         0.00000E+00        -0.48717E+08
 
   -0.46283E+08         0.16762E+06         0.00000E+00
    0.16762E+06        -0.49997E+08         0.00000E+00
    0.00000E+00         0.00000E+00        -0.48730E+08
 
   -0.46350E+08         0.23032E+06         0.00000E+00
    0.23032E+06        -0.49995E+08         0.00000E+00
    0.00000E+00         0.00000E+00        -0.48743E+08
 
   -0.46417E+08         0.29103E+06         0.00000E+00
    0.29103E+06        -0.49992E+08         0.00000E+00
    0.00000E+00         0.00000E+00        -0.48755E+08
 
   -0.46484E+08         0.34981E+06         0.00000E+00
    0.34981E+06        -0.49989E+08         0.00000E+00
    0.00000E+00         0.00000E+00        -0.48768E+08
 
   -0.46551E+08         0.40672E+06         0.00000E+00
    0.40672E+06        -0.49985E+08         0.00000E+00
    0.00000E+00         0.00000E+00        -0.48781E+08
 
   -0.46619E+08         0.46183E+06         0.00000E+00
    0.46183E+06        -0.49980E+08         0.00000E+00
    0.00000E+00         0.00000E+00        -0.48794E+08
 
   -0.46687E+08         0.51521E+06         0.00000E+00
    0.51521E+06        -0.49975E+08         0.00000E+00
    0.00000E+00         0.00000E+00        -0.48806E+08
 
   -0.46755E+08         0.56690E+06         0.00000E+00
    0.56690E+06        -0.49970E+08         0.00000E+00
    0.00000E+00         0.00000E+00        -0.48819E+08
 
   -0.46823E+08         0.61699E+06         0.00000E+00
    0.61699E+06        -0.49964E+08         0.00000E+00
    0.00000E+00         0.00000E+00        -0.48831E+08
 
   -0.46891E+08         0.66553E+06         0.00000E+00
    0.66553E+06        -0.49958E+08         0.00000E+00
    0.00000E+00         0.00000E+00        -0.48843E+08
 
   -0.46958E+08         0.71258E+06         0.00000E+00
    0.71258E+06        -0.49951E+08         0.00000E+00
    0.00000E+00         0.00000E+00        -0.48856E+08
 
   -0.47026E+08         0.75821E+06         0.00000E+00
    0.75821E+06        -0.49944E+08         0.00000E+00
    0.00000E+00         0.00000E+00        -0.48868E+08
 
   -0.47093E+08         0.80248E+06         0.00000E+00
    0.80248E+06        -0.49937E+08         0.00000E+00
    0.00000E+00         0.00000E+00        -0.48880E+08
 
   -0.47160E+08         0.84543E+06         0.00000E+00
    0.84543E+06        -0.49929E+08         0.00000E+00
    0.00000E+00         0.00000E+00        -0.48891E+08
 
   -0.47227E+08         0.88714E+06         0.00000E+00
    0.88714E+06        -0.49921E+08         0.00000E+00
    0.00000E+00         0.00000E+00        -0.48903E+08
 
   -0.47293E+08         0.92765E+06         0.00000E+00
    0.92765E+06        -0.49913E+08         0.00000E+00
    0.00000E+00         0.00000E+00        -0.48915E+08
 
   -0.47359E+08         0.96702E+06         0.00000E+00
    0.96702E+06        -0.49904E+08         0.00000E+00
    0.00000E+00         0.00000E+00        -0.48926E+08
 
   -0.47424E+08         0.10053E+07         0.00000E+00
    0.10053E+07        -0.49895E+08         0.00000E+00
    0.00000E+00         0.00000E+00        -0.48938E+08
 
   -0.47489E+08         0.10426E+07         0.00000E+00
    0.10426E+07        -0.49886E+08         0.00000E+00
    0.00000E+00         0.00000E+00        -0.48949E+08
 
   -0.47554E+08         0.10788E+07         0.00000E+00
    0.10788E+07        -0.49877E+08         0.00000E+00
    0.00000E+00         0.00000E+00        -0.48960E+08
 
   -0.47618E+08         0.11141E+07         0.00000E+00
    0.11141E+07        -0.49867E+08         0.00000E+00
    0.00000E+00         0.00000E+00        -0.48971E+08
 
   -0.47682E+08         0.11485E+07         0.00000E+00
    0.11485E+07        -0.49856E+08         0.00000E+00
    0.00000E+00         0.00000E+00        -0.48981E+08
 
   -0.47745E+08         0.11821E+07         0.00000E+00
    0.11821E+07        -0.49846E+08         0.00000E+00
    0.00000E+00         0.00000E+00        -0.48992E+08
 
   -0.47808E+08         0.12148E+07         0.00000E+00
    0.12148E+07        -0.49835E+08         0.00000E+00
    0.00000E+00         0.00000E+00        -0.49002E+08
 
   -0.47870E+08         0.12468E+07         0.00000E+00
    0.12468E+07        -0.49824E+08         0.00000E+00
    0.00000E+00         0.00000E+00        -0.49012E+08
 
   -0.47932E+08         0.12780E+07         0.00000E+00
    0.12780E+07        -0.49812E+08         0.00000E+00
    0.00000E+00         0.00000E+00        -0.49023E+08
 
   -0.47993E+08         0.13086E+07         0.00000E+00
    0.13086E+07        -0.49800E+08         0.00000E+00
    0.00000E+00         0.00000E+00        -0.49032E+08
 
   -0.48054E+08         0.13384E+07         0.00000E+00
    0.13384E+07        -0.49788E+08         0.00000E+00
    0.00000E+00         0.00000E+00        -0.49042E+08
 
   -0.48114E+08         0.13676E+07         0.00000E+00
    0.13676E+07        -0.49775E+08         0.00000E+00
    0.00000E+00         0.00000E+00        -0.49052E+08
 
   -0.48174E+08         0.13962E+07         0.00000E+00
    0.13962E+07        -0.49762E+08         0.00000E+00
    0.00000E+00         0.00000E+00        -0.49061E+08
 
   -0.48233E+08         0.14242E+07         0.00000E+00
    0.14242E+07        -0.49749E+08         0.00000E+00
    0.00000E+00         0.00000E+00        -0.49070E+08
 
   -0.48292E+08         0.14516E+07         0.00000E+00
    0.14516E+07        -0.49735E+08         0.00000E+00
    0.00000E+00         0.00000E+00        -0.49079E+08
 
   -0.48350E+08         0.14786E+07         0.00000E+00
    0.14786E+07        -0.49720E+08         0.00000E+00
    0.00000E+00         0.00000E+00        -0.49088E+08
 
   -0.48408E+08         0.15049E+07         0.00000E+00
    0.15049E+07        -0.49705E+08         0.00000E+00
    0.00000E+00         0.00000E+00        -0.49096E+08
 
   -0.48466E+08         0.15308E+07         0.00000E+00
    0.15308E+07        -0.49690E+08         0.00000E+00
    0.00000E+00         0.00000E+00        -0.49105E+08
 
   -0.48523E+08         0.15563E+07         0.00000E+00
    0.15563E+07        -0.49674E+08         0.00000E+00
    0.00000E+00         0.00000E+00        -0.49113E+08
 
   -0.48579E+08         0.15813E+07         0.00000E+00
    0.15813E+07        -0.49657E+08         0.00000E+00
    0.00000E+00         0.00000E+00        -0.49121E+08
 
   -0.48635E+08         0.16058E+07         0.00000E+00
    0.16058E+07        -0.49641E+08         0.00000E+00
    0.00000E+00         0.00000E+00        -0.49129E+08
 
   -0.48691E+08         0.16299E+07         0.00000E+00
    0.16299E+07        -0.49623E+08         0.00000E+00
    0.00000E+00         0.00000E+00        -0.49137E+08
 
   -0.48746E+08         0.16536E+07         0.00000E+00
    0.16536E+07        -0.49605E+08         0.00000E+00
    0.00000E+00         0.00000E+00        -0.49144E+08
 
   -0.48801E+08         0.16770E+07         0.00000E+00
    0.16770E+07        -0.49587E+08         0.00000E+00
    0.00000E+00         0.00000E+00        -0.49151E+08
 
   -0.48855E+08         0.16999E+07         0.00000E+00
    0.16999E+07        -0.49568E+08         0.00000E+00
    0.00000E+00         0.00000E+00        -0.49158E+08
 
   -0.48909E+08         0.17225E+07         0.00000E+00
    0.17225E+07        -0.49548E+08         0.00000E+00
    0.00000E+00         0.00000E+00        -0.49165E+08
 
   -0.48963E+08         0.17448E+07         0.00000E+00
    0.17448E+07        -0.49528E+08         0.00000E+00
    0.00000E+00         0.00000E+00        -0.49172E+08
 
   -0.49016E+08         0.17667E+07         0.00000E+00
    0.17667E+07        -0.49508E+08         0.00000E+00
    0.00000E+00         0.00000E+00        -0.49178E+08
 
   -0.49069E+08         0.17884E+07         0.00000E+00
    0.17884E+07        -0.49486E+08         0.00000E+00
    0.00000E+00         0.00000E+00        -0.49185E+08
 
   -0.49122E+08         0.18097E+07         0.00000E+00
    0.18097E+07        -0.49464E+08         0.00000E+00
    0.00000E+00         0.00000E+00        -0.49191E+08
 
   -0.49174E+08         0.18307E+07         0.00000E+00
    0.18307E+07        -0.49442E+08         0.00000E+00
    0.00000E+00         0.00000E+00        -0.49197E+08
 
   -0.45803E+08         0.38179E+05         0.00000E+00
    0.38179E+05        -0.50000E+08         0.00000E+00
    0.00000E+00         0.00000E+00        -0.48535E+08
 
   -0.45879E+08         0.10863E+06         0.00000E+00
    0.10863E+06        -0.49999E+08         0.00000E+00
    0.00000E+00         0.00000E+00        -0.48550E+08
 
   -0.45956E+08         0.17667E+06         0.00000E+00
    0.17667E+06        -0.49998E+08         0.00000E+00
    0.00000E+00         0.00000E+00        -0.48565E+08
 
   -0.46034E+08         0.24239E+06         0.00000E+00
    0.24239E+06        -0.49996E+08         0.00000E+00
    0.00000E+00         0.00000E+00        -0.48580E+08
 
   -0.46111E+08         0.30587E+06         0.00000E+00
    0.30587E+06        -0.49993E+08         0.00000E+00
    0.00000E+00         0.00000E+00        -0.48595E+08
 
   -0.46188E+08         0.36720E+06         0.00000E+00
    0.36720E+06        -0.49990E+08         0.00000E+00
    0.00000E+00         0.00000E+00        -0.48610E+08
 
   -0.46265E+08         0.42646E+06         0.00000E+00
    0.42646E+06        -0.49987E+08         0.00000E+00
    0.00000E+00         0.00000E+00        -0.48625E+08
 
   -0.46342E+08         0.48375E+06         0.00000E+00
    0.48375E+06        -0.49983E+08         0.00000E+00
    0.00000E+00         0.00000E+00        -0.48640E+08
 
   -0.46419E+08         0.53915E+06         0.00000E+00
    0.53915E+06        -0.49979E+08         0.00000E+00
    0.00000E+00         0.00000E+00        -0.48654E+08
 
   -0.46496E+08         0.59274E+06         0.00000E+00
    0.59274E+06        -0.49974E+08         0.00000E+00
    0.00000E+00         0.00000E+00        -0.48669E+08
 
   -0.46572E+08         0.64461E+06         0.00000E+00
    0.64461E+06        -0.49970E+08         0.00000E+00
    0.00000E+00         0.00000E+00        -0.48683E+08
 
   -0.46647E+08         0.69484E+06         0.00000E+00
    0.69484E+06        -0.49965E+08         0.00000E+00
    0.00000E+00         0.00000E+00        -0.48697E+08
 
   -0.46722E+08         0.74351E+06         0.00000E+00
    0.74351E+06        -0.49959E+08         0.00000E+00
    0.00000E+00         0.00000E+00        -0.48711E+08
 
   -0.46797E+08         0.79069E+06         0.00000E+00
    0.79069E+06        -0.49954E+08         0.00000E+00
    0.00000E+00         0.00000E+00        -0.48725E+08
 
   -0.46871E+08         0.83646E+06         0.00000E+00
    0.83646E+06        -0.49948E+08         0.00000E+00
    0.00000E+00         0.00000E+00        -0.48738E+08
 
   -0.46944E+08         0.88090E+06         0.00000E+00
    0.88090E+06        -0.49941E+08         0.00000E+00
    0.00000E+00         0.00000E+00        -0.48752E+08
 
   -0.47017E+08         0.92408E+06         0.00000E+00
    0.92408E+06        -0.49935E+08         0.00000E+00
    0.00000E+00         0.00000E+00        -0.48765E+08
 
   -0.47089E+08         0.96606E+06         0.00000E+00
    0.96606E+06        -0.49928E+08         0.00000E+00
    0.00000E+00         0.00000E+00        -0.48778E+08
 
   -0.47161E+08         0.10069E+07         0.00000E+00
    0.10069E+07        -0.49921E+08         0.00000E+00
    0.00000E+00         0.00000E+00        -0.48791E+08
 
   -0.47232E+08         0.10467E+07         0.00000E+00
    0.10467E+07        -0.49914E+08         0.00000E+00
    0.00000E+00         0.00000E+00        -0.48804E+08
 
   -0.47302E+08         0.10855E+07         0.00000E+00
    0.10855E+07        -0.49907E+08         0.00000E+00
    0.00000E+00         0.00000E+00        -0.48816E+08
 
   -0.47371E+08         0.11233E+07         0.00000E+00
    0.11233E+07        -0.49899E+08         0.00000E+00
    0.00000E+00         0.00000E+00        -0.48829E+08
 
   -0.47440E+08         0.11602E+07         0.00000E+00
    0.11602E+07        -0.49891E+08         0.00000E+00
    0.00000E+00         0.00000E+00        -0.48841E+08
 
   -0.47508E+08         0.11963E+07         0.00000E+00
    0.11963E+07        -0.49882E+08         0.00000E+00
    0.00000E+00         0.00000E+00        -0.48853E+08
 
   -0.47575E+08         0.12316E+07         0.00000E+00
    0.12316E+07        -0.49873E+08         0.00000E+00
    0.00000E+00         0.00000E+00        -0.48864E+08
 
   -0.47641E+08         0.12661E+07         0.00000E+00
    0.12661E+07        -0.49864E+08         0.00000E+00
    0.00000E+00         0.00000E+00        -0.48876E+08
 
   -0.47707E+08         0.13000E+07         0.00000E+00
    0.13000E+07        -0.49855E+08         0.00000E+00
    0.00000E+00         0.00000E+00        -0.48887E+08
 
   -0.47772E+08         0.13331E+07         0.00000E+00
    0.13331E+07        -0.49845E+08         0.00000E+00
    0.00000E+00         0.00000E+00        -0.48898E+08
 
   -0.47837E+08         0.13657E+07         0.00000E+00
    0.13657E+07        -0.49834E+08         0.00000E+00
    0.00000E+00         0.00000E+00        -0.48909E+08
 
   -0.47901E+08         0.13976E+07         0.00000E+00
    0.13976E+07        -0.49824E+08         0.00000E+00
    0.00000E+00         0.00000E+00        -0.48920E+08
 
   -0.47964E+08         0.14290E+07         0.00000E+00
    0.14290E+07        -0.49812E+08         0.00000E+00
    0.00000E+00         0.00000E+00        -0.48930E+08
 
   -0.48027E+08         0.14598E+07         0.00000E+00
    0.14598E+07        -0.49801E+08         0.00000E+00
    0.00000E+00         0.00000E+00        -0.48940E+08
 
   -0.48089E+08         0.14901E+07         0.00000E+00
    0.14901E+07        -0.49788E+08         0.00000E+00
    0.00000E+00         0.00000E+00        -0.48950E+08
 
   -0.48150E+08         0.15200E+07         0.00000E+00
    0.15200E+07        -0.49776E+08         0.00000E+00
    0.00000E+00         0.00000E+00        -0.48960E+08
 
   -0.48211E+08         0.15493E+07         0.00000E+00
    0.15493E+07        -0.49762E+08         0.00000E+00
    0.00000E+00         0.00000E+00        -0.48969E+08
 
   -0.48271E+08         0.15783E+07         0.00000E+00
    0.15783E+07        -0.49749E+08         0.00000E+00
    0.00000E+00         0.00000E+00        -0.48979E+08
 
   -0.48331E+08         0.16068E+07         0.00000E+00
    0.16068E+07        -0.49734E+08         0.00000E+00
    0.00000E+00         0.00000E+00        -0.48988E+08
 
   -0.48390E+08         0.16349E+07         0.00000E+00
    0.16349E+07        -0.49719E+08         0.00000E+00
    0.00000E+00         0.00000E+00        -0.48996E+08
 
   -0.48448E+08         0.16626E+07         0.00000E+00
    0.16626E+07        -0.49704E+08         0.00000E+00
    0.00000E+00         0.00000E+00        -0.49005E+08
 
   -0.48507E+08         0.16900E+07         0.00000E+00
    0.16900E+07        -0.49688E+08         0.00000E+00
    0.00000E+00         0.00000E+00        -0.49013E+08
 
   -0.48564E+08         0.17170E+07         0.00000E+00
    0.17170E+07        -0.49671E+08         0.00000E+00
    0.00000E+00         0.00000E+00        -0.49022E+08
 
   -0.48621E+08         0.17436E+07         0.00000E+00
    0.17436E+07        -0.49653E+08         0.00000E+00
    0.00000E+00         0.00000E+00        -0.49030E+08
 
   -0.48678E+08         0.17699E+07         0.00000E+00
    0.17699E+07        -0.49635E+08         0.00000E+00
    0.00000E+00         0.00000E+00        -0.49037E+08
 
   -0.48734E+08         0.17959E+07         0.00000E+00
    0.17959E+07        -0.49617E+08         0.00000E+00
    0.00000E+00         0.00000E+00        -0.49045E+08
 
   -0.48790E+08         0.18216E+07         0.00000E+00
    0.18216E+07        -0.49597E+08         0.00000E+00
    0.00000E+00         0.00000E+00        -0.49052E+08
 
   -0.48845E+08         0.18469E+07         0.00000E+00
    0.18469E+07        -0.49577E+08         0.00000E+00
    0.00000E+00         0.00000E+00        -0.49059E+08
 
   -0.48900E+08         0.18720E+07         0.00000E+00
    0.18720E+07        -0.49556E+08         0.00000E+00
    0.00000E+00         0.00000E+00        -0.49066E+08
 
   -0.48954E+08         0.18968E+07         0.00000E+00
    0.18968E+07        -0.49535E+08         0.00000E+00
    0.00000E+00         0.00000E+00        -0.49072E+08
 
   -0.49008E+08         0.19213E+07         0.00000E+00
    0.19213E+07        -0.49513E+08         0.00000E+00
    0.00000E+00         0.00000E+00        -0.49079E+08
 
   -0.49061E+08         0.19455E+07         0.00000E+00
    0.19455E+07        -0.49490E+08         0.00000E+00
    0.00000E+00         0.00000E+00        -0.49085E+08
 
   -0.45436E+08         0.40039E+05         0.00000E+00
    0.40039E+05        -0.50000E+08         0.00000E+00
    0.00000E+00         0.00000E+00        -0.48344E+08
 
   -0.45526E+08         0.11339E+06         0.00000E+00
    0.11339E+06        -0.49999E+08         0.00000E+00
    0.00000E+00         0.00000E+00        -0.48362E+08
 
   -0.45615E+08         0.18403E+06         0.00000E+00
    0.18403E+06        -0.49998E+08         0.00000E+00
    0.00000E+00         0.00000E+00        -0.48380E+08
 
   -0.45705E+08         0.25207E+06         0.00000E+00
    0.25207E+06        -0.49996E+08         0.00000E+00
    0.00000E+00         0.00000E+00        -0.48397E+08
 
   -0.45794E+08         0.31763E+06         0.00000E+00
    0.31763E+06        -0.49995E+08         0.00000E+00
    0.00000E+00         0.00000E+00        -0.48414E+08
 
   -0.45882E+08         0.38083E+06         0.00000E+00
    0.38083E+06        -0.49992E+08         0.00000E+00
    0.00000E+00         0.00000E+00        -0.48432E+08
 
   -0.45970E+08         0.44178E+06         0.00000E+00
    0.44178E+06        -0.49990E+08         0.00000E+00
    0.00000E+00         0.00000E+00        -0.48449E+08
 
   -0.46057E+08         0.50060E+06         0.00000E+00
    0.50060E+06        -0.49988E+08         0.00000E+00
    0.00000E+00         0.00000E+00        -0.48466E+08
 
   -0.46143E+08         0.55740E+06         0.00000E+00
    0.55740E+06        -0.49985E+08         0.00000E+00
    0.00000E+00         0.00000E+00        -0.48482E+08
 
   -0.46228E+08         0.61229E+06         0.00000E+00
    0.61229E+06        -0.49982E+08         0.00000E+00
    0.00000E+00         0.00000E+00        -0.48499E+08
 
   -0.46313E+08         0.66537E+06         0.00000E+00
    0.66537E+06        -0.49978E+08         0.00000E+00
    0.00000E+00         0.00000E+00        -0.48515E+08
 
   -0.46397E+08         0.71676E+06         0.00000E+00
    0.71676E+06        -0.49975E+08         0.00000E+00
    0.00000E+00         0.00000E+00        -0.48531E+08
 
   -0.46480E+08         0.76654E+06         0.00000E+00
    0.76654E+06        -0.49972E+08         0.00000E+00
    0.00000E+00         0.00000E+00        -0.48547E+08
 
   -0.46562E+08         0.81483E+06         0.00000E+00
    0.81483E+06        -0.49968E+08         0.00000E+00
    0.00000E+00         0.00000E+00        -0.48563E+08
 
   -0.46642E+08         0.86170E+06         0.00000E+00
    0.86170E+06        -0.49964E+08         0.00000E+00
    0.00000E+00         0.00000E+00        -0.48578E+08
 
   -0.46722E+08         0.90726E+06         0.00000E+00
    0.90726E+06        -0.49960E+08         0.00000E+00
    0.00000E+00         0.00000E+00        -0.48593E+08
 
   -0.46801E+08         0.95159E+06         0.00000E+00
    0.95159E+06        -0.49956E+08         0.00000E+00
    0.00000E+00         0.00000E+00        -0.48608E+08
 
   -0.46879E+08         0.99476E+06         0.00000E+00
    0.99476E+06        -0.49951E+08         0.00000E+00
    0.00000E+00         0.00000E+00        -0.48623E+08
 
   -0.46956E+08         0.10369E+07         0.00000E+00
    0.10369E+07        -0.49947E+08         0.00000E+00
    0.00000E+00         0.00000E+00        -0.48637E+08
 
   -0.47031E+08         0.10780E+07         0.00000E+00
    0.10780E+07        -0.49942E+08         0.00000E+00
    0.00000E+00         0.00000E+00        -0.48652E+08
 
   -0.47106E+08         0.11182E+07         0.00000E+00
    0.11182E+07        -0.49937E+08         0.00000E+00
    0.00000E+00         0.00000E+00        -0.48665E+08
 
   -0.47180E+08         0.11575E+07         0.00000E+00
    0.11575E+07        -0.49931E+08         0.00000E+00
    0.00000E+00         0.00000E+00        -0.48679E+08
 
   -0.47253E+08         0.11960E+07         0.00000E+00
    0.11960E+07        -0.49926E+08         0.00000E+00
    0.00000E+00         0.00000E+00        -0.48693E+08
 
   -0.47325E+08         0.12338E+07         0.00000E+00
    0.12338E+07        -0.49920E+08         0.00000E+00
    0.00000E+00         0.00000E+00        -0.48706E+08
 
   -0.47395E+08         0.12709E+07         0.00000E+00
    0.12709E+07        -0.49913E+08         0.00000E+00
    0.00000E+00         0.00000E+00        -0.48719E+08
 
   -0.47465E+08         0.13073E+07         0.00000E+00
    0.13073E+07        -0.49907E+08         0.00000E+00
    0.00000E+00         0.00000E+00        -0.48731E+08
 
   -0.47534E+08         0.13432E+07         0.00000E+00
    0.13432E+07        -0.49899E+08         0.00000E+00
    0.00000E+00         0.00000E+00        -0.48744E+08
 
   -0.47603E+08         0.13785E+07         0.00000E+00
    0.13785E+07        -0.49892E+08         0.00000E+00
    0.00000E+00         0.00000E+00        -0.48756E+08
 
   -0.47670E+08         0.14133E+07         0.00000E+00
    0.14133E+07        -0.49884E+08         0.00000E+00
    0.00000E+00         0.00000E+00        -0.48768E+08
 
   -0.47736E+08         0.14477E+07         0.00000E+00
    0.14477E+07        -0.49875E+08         0.00000E+00
    0.00000E+00         0.00000E+00        -0.48779E+08
 
   -0.47802E+08         0.14816E+07         0.00000E+00
    0.14816E+07        -0.49866E+08         0.00000E+00
    0.00000E+00         0.00000E+00        -0.48790E+08
 
   -0.47867E+08         0.15150E+07         0.00000E+00
    0.15150E+07        -0.49856E+08         0.00000E+00
    0.00000E+00         0.00000E+00        -0.48802E+08
 
   -0.47931E+08         0.15481E+07         0.00000E+00
    0.15481E+07        -0.49846E+08         0.00000E+00
    0.00000E+00         0.00000E+00        -0.48812E+08
 
   -0.47995E+08         0.15808E+07         0.00000E+00
    0.15808E+07        -0.49835E+08         0.00000E+00
    0.00000E+00         0.00000E+00        -0.48823E+08
 
   -0.48057E+08         0.16131E+07         0.00000E+00
    0.16131E+07        -0.49823E+08         0.00000E+00
    0.00000E+00         0.00000E+00        -0.48833E+08
 
   -0.48120E+08         0.16451E+07         0.00000E+00
    0.16451E+07        -0.49811E+08         0.00000E+00
    0.00000E+00         0.00000E+00        -0.48843E+08
 
   -0.48181E+08         0.16768E+07         0.00000E+00
    0.16768E+07        -0.49798E+08         0.00000E+00
    0.00000E+00         0.00000E+00        -0.48853E+08
 
   -0.48242E+08         0.17082E+07         0.00000E+00
    0.17082E+07        -0.49785E+08         0.00000E+00
    0.00000E+00         0.00000E+00        -0.48862E+08
 
   -0.48302E+08         0.17393E+07         0.00000E+00
    0.17393E+07        -0.49770E+08         0.00000E+00
    0.00000E+00         0.00000E+00        -0.48871E+08
 
   -0.48362E+08         0.17701E+07         0.00000E+00
    0.17701E+07        -0.49755E+08         0.00000E+00
    0.00000E+00         0.00000E+00        -0.48880E+08
 
   -0.48421E+08         0.18006E+07         0.00000E+00
    0.18006E+07        -0.49739E+08         0.00000E+00
    0.00000E+00         0.00000E+00        -0.48889E+08
 
   -0.48480E+08         0.18308E+07         0.00000E+00
    0.18308E+07        -0.49723E+08         0.00000E+00
    0.00000E+00         0.00000E+00        -0.48897E+08
 
   -0.48538E+08         0.18607E+07         0.00000E+00
    0.18607E+07        -0.49705E+08         0.00000E+00
    0.00000E+00         0.00000E+00        -0.48906E+08
 
   -0.48596E+08         0.18904E+07         0.00000E+00
    0.18904E+07        -0.49687E+08         0.00000E+00
    0.00000E+00         0.00000E+00        -0.48913E+08
 
   -0.48653E+08         0.19197E+07         0.00000E+00
    0.19197E+07        -0.49668E+08         0.00000E+00
    0.00000E+00         0.00000E+00        -0.48921E+08
 
   -0.48709E+08         0.19489E+07         0.00000E+00
    0.19489E+07        -0.49648E+08         0.00000E+00
    0.00000E+00         0.00000E+00        -0.48928E+08
 
   -0.48765E+08         0.19777E+07         0.00000E+00
    0.19777E+07        -0.49627E+08         0.00000E+00
    0.00000E+00         0.00000E+00        -0.48935E+08
 
   -0.48821E+08         0.20063E+07         0.00000E+00
    0.20063E+07        -0.49606E+08         0.00000E+00
    0.00000E+00         0.00000E+00        -0.48942E+08
 
   -0.48876E+08         0.20347E+07         0.00000E+00
    0.20347E+07        -0.49583E+08         0.00000E+00
    0.00000E+00         0.00000E+00        -0.48949E+08
 
   -0.48931E+08         0.20628E+07         0.00000E+00
    0.20628E+07        -0.49560E+08         0.00000E+00
    0.00000E+00         0.00000E+00        -0.48955E+08
 
   -0.45057E+08         0.41391E+05         0.00000E+00
    0.41391E+05        -0.49999E+08         0.00000E+00
    0.00000E+00         0.00000E+00        -0.48128E+08
 
   -0.45161E+08         0.11662E+06         0.00000E+00
    0.11662E+06        -0.49999E+08         0.00000E+00
    0.00000E+00         0.00000E+00        -0.48149E+08
 
   -0.45265E+08         0.18883E+06         0.00000E+00
    0.18883E+06        -0.49998E+08         0.00000E+00
    0.00000E+00         0.00000E+00        -0.48170E+08
 
   -0.45367E+08         0.25818E+06         0.00000E+00
    0.25818E+06        -0.49998E+08         0.00000E+00
    0.00000E+00         0.00000E+00        -0.48190E+08
 
   -0.45469E+08         0.32483E+06         0.00000E+00
    0.32483E+06        -0.49997E+08         0.00000E+00
    0.00000E+00         0.00000E+00        -0.48210E+08
 
   -0.45569E+08         0.38893E+06         0.00000E+00
    0.38893E+06        -0.49996E+08         0.00000E+00
    0.00000E+00         0.00000E+00        -0.48230E+08
 
   -0.45668E+08         0.45064E+06         0.00000E+00
    0.45064E+06        -0.49995E+08         0.00000E+00
    0.00000E+00         0.00000E+00        -0.48250E+08
 
   -0.45766E+08         0.51009E+06         0.00000E+00
    0.51009E+06        -0.49994E+08         0.00000E+00
    0.00000E+00         0.00000E+00        -0.48269E+08
 
   -0.45862E+08         0.56743E+06         0.00000E+00
    0.56743E+06        -0.49993E+08         0.00000E+00
    0.00000E+00         0.00000E+00        -0.48288E+08
 
   -0.45957E+08         0.62281E+06         0.00000E+00
    0.62281E+06        -0.49992E+08         0.00000E+00
    0.00000E+00         0.00000E+00        -0.48307E+08
 
   -0.46050E+08         0.67635E+06         0.00000E+00
    0.67635E+06        -0.49991E+08         0.00000E+00
    0.00000E+00         0.00000E+00        -0.48325E+08
 
   -0.46142E+08         0.72818E+06         0.00000E+00
    0.72818E+06        -0.49990E+08         0.00000E+00
    0.00000E+00         0.00000E+00        -0.48343E+08
 
   -0.46233E+08         0.77843E+06         0.00000E+00
    0.77843E+06        -0.49989E+08         0.00000E+00
    0.00000E+00         0.00000E+00        -0.48361E+08
 
   -0.46322E+08         0.82723E+06         0.00000E+00
    0.82723E+06        -0.49988E+08         0.00000E+00
    0.00000E+00         0.00000E+00        -0.48379E+08
 
   -0.46409E+08         0.87467E+06         0.00000E+00
    0.87467E+06        -0.49987E+08         0.00000E+00
    0.00000E+00         0.00000E+00        -0.48396E+08
 
   -0.46495E+08         0.92088E+06         0.00000E+00
    0.92088E+06        -0.49986E+08         0.00000E+00
    0.00000E+00         0.00000E+00        -0.48413E+08
 
   -0.46580E+08         0.96595E+06         0.00000E+00
    0.96595E+06        -0.49985E+08         0.00000E+00
    0.00000E+00         0.00000E+00        -0.48430E+08
 
   -0.46663E+08         0.10100E+07         0.00000E+00
    0.10100E+07        -0.49983E+08         0.00000E+00
    0.00000E+00         0.00000E+00        -0.48446E+08
 
   -0.46745E+08         0.10531E+07         0.00000E+00
    0.10531E+07        -0.49982E+08         0.00000E+00
    0.00000E+00         0.00000E+00        -0.48462E+08
 
   -0.46825E+08         0.10953E+07         0.00000E+00
    0.10953E+07        -0.49980E+08         0.00000E+00
    0.00000E+00         0.00000E+00        -0.48478E+08
 
   -0.46904E+08         0.11367E+07         0.00000E+00
    0.11367E+07        -0.49978E+08         0.00000E+00
    0.00000E+00         0.00000E+00        -0.48493E+08
 
   -0.46981E+08         0.11775E+07         0.00000E+00
    0.11775E+07        -0.49976E+08         0.00000E+00
    0.00000E+00         0.00000E+00        -0.48509E+08
 
   -0.47058E+08         0.12176E+07         0.00000E+00
    0.12176E+07        -0.49974E+08         0.00000E+00
    0.00000E+00         0.00000E+00        -0.48523E+08
 
   -0.47133E+08         0.12571E+07         0.00000E+00
    0.12571E+07        -0.49971E+08         0.00000E+00
    0.00000E+00         0.00000E+00        -0.48538E+08
 
   -0.47206E+08         0.12962E+07         0.00000E+00
    0.12962E+07        -0.49968E+08         0.00000E+00
    0.00000E+00         0.00000E+00        -0.48552E+08
 
   -0.47279E+08         0.13347E+07         0.00000E+00
    0.13347E+07        -0.49964E+08         0.00000E+00
    0.00000E+00         0.00000E+00        -0.48566E+08
 
   -0.47350E+08         0.13729E+07         0.00000E+00
    0.13729E+07        -0.49960E+08         0.00000E+00
    0.00000E+00         0.00000E+00        -0.48579E+08
 
   -0.47421E+08         0.14106E+07         0.00000E+00
    0.14106E+07        -0.49956E+08         0.00000E+00
    0.00000E+00         0.00000E+00        -0.48592E+08
 
   -0.47490E+08         0.14481E+07         0.00000E+00
    0.14481E+07        -0.49951E+08         0.00000E+00
    0.00000E+00         0.00000E+00        -0.48605E+08
 
   -0.47559E+08         0.14852E+07         0.00000E+00
    0.14852E+07        -0.49945E+08         0.00000E+00
    0.00000E+00         0.00000E+00        -0.48618E+08
 
   -0.47626E+08         0.15221E+07         0.00000E+00
    0.15221E+07        -0.49939E+08         0.00000E+00
    0.00000E+00         0.00000E+00        -0.48630E+08
 
   -0.47693E+08         0.15587E+07         0.00000E+00
    0.15587E+07        -0.49932E+08         0.00000E+00
    0.00000E+00         0.00000E+00        -0.48642E+08
 
   -0.47758E+08         0.15951E+07         0.00000E+00
    0.15951E+07        -0.49924E+08         0.00000E+00
    0.00000E+00         0.00000E+00        -0.48653E+08
 
   -0.47823E+08         0.16313E+07         0.00000E+00
    0.16313E+07        -0.49916E+08         0.00000E+00
    0.00000E+00         0.00000E+00        -0.48665E+08
 
   -0.47887E+08         0.16672E+07         0.00000E+00
    0.16672E+07        -0.49906E+08         0.00000E+00
    0.00000E+00         0.00000E+00        -0.48676E+08
 
   -0.47951E+08         0.17030E+07         0.00000E+00
    0.17030E+07        -0.49896E+08         0.00000E+00
    0.00000E+00         0.00000E+00        -0.48686E+08
 
   -0.48014E+08         0.17386E+07         0.00000E+00
    0.17386E+07        -0.49886E+08         0.00000E+00
    0.00000E+00         0.00000E+00        -0.48697E+08
 
   -0.48076E+08         0.17740E+07         0.00000E+00
    0.17740E+07        -0.49874E+08         0.00000E+00
    0.00000E+00         0.00000E+00        -0.48707E+08
 
   -0.48137E+08         0.18092E+07         0.00000E+00
    0.18092E+07        -0.49861E+08         0.00000E+00
    0.00000E+00         0.00000E+00        -0.48717E+08
 
   -0.48198E+08         0.18442E+07         0.00000E+00
    0.18442E+07        -0.49848E+08         0.00000E+00
    0.00000E+00         0.00000E+00        -0.48726E+08
 
   -0.48259E+08         0.18790E+07         0.00000E+00
    0.18790E+07        -0.49833E+08         0.00000E+00
    0.00000E+00         0.00000E+00        -0.48735E+08
 
   -0.48318E+08         0.19136E+07         0.00000E+00
    0.19136E+07        -0.49817E+08         0.00000E+00
    0.00000E+00         0.00000E+00        -0.48744E+08
 
   -0.48378E+08         0.19480E+07         0.00000E+00
    0.19480E+07        -0.49801E+08         0.00000E+00
    0.00000E+00         0.00000E+00        -0.48753E+08
 
   -0.48437E+08         0.19822E+07         0.00000E+00
    0.19822E+07        -0.49783E+08         0.00000E+00
    0.00000E+00         0.00000E+00        -0.48761E+08
 
   -0.48495E+08         0.20161E+07         0.00000E+00
    0.20161E+07        -0.49765E+08         0.00000E+00
    0.00000E+00         0.00000E+00        -0.48769E+08
 
   -0.48553E+08         0.20499E+07         0.00000E+00
    0.20499E+07        -0.49745E+08         0.00000E+00
    0.00000E+00         0.00000E+00        -0.48777E+08
 
   -0.48610E+08         0.20834E+07         0.00000E+00
    0.20834E+07        -0.49725E+08         0.00000E+00
    0.00000E+00         0.00000E+00        -0.48784E+08
 
   -0.48667E+08         0.21166E+07         0.00000E+00
    0.21166E+07        -0.49703E+08         0.00000E+00
    0.00000E+00         0.00000E+00        -0.48791E+08
 
   -0.48724E+08         0.21496E+07         0.00000E+00
    0.21496E+07        -0.49681E+08         0.00000E+00
    0.00000E+00         0.00000E+00        -0.48798E+08
 
   -0.48780E+08         0.21823E+07         0.00000E+00
    0.21823E+07        -0.49657E+08         0.00000E+00
    0.00000E+00         0.00000E+00        -0.48804E+08
 
   -0.44671E+08         0.41999E+05         0.00000E+00
    0.41999E+05        -0.49999E+08         0.00000E+00
    0.00000E+00         0.00000E+00        -0.47885E+08
 
   -0.44791E+08         0.11764E+06         0.00000E+00
    0.11764E+06        -0.49999E+08         0.00000E+00
    0.00000E+00         0.00000E+00        -0.47909E+08
 
   -0.44910E+08         0.19000E+06         0.00000E+00
    0.19000E+06        -0.49999E+08         0.00000E+00
    0.00000E+00         0.00000E+00        -0.47933E+08
 
   -0.45027E+08         0.25927E+06         0.00000E+00
    0.25927E+06        -0.50000E+08         0.00000E+00
    0.00000E+00         0.00000E+00        -0.47956E+08
 
   -0.45142E+08         0.32565E+06         0.00000E+00
    0.32565E+06        -0.50000E+08         0.00000E+00
    0.00000E+00         0.00000E+00        -0.47979E+08
 
   -0.45255E+08         0.38935E+06         0.00000E+00
    0.38935E+06        -0.50001E+08         0.00000E+00
    0.00000E+00         0.00000E+00        -0.48002E+08
 
   -0.45366E+08         0.45055E+06         0.00000E+00
    0.45055E+06        -0.50002E+08         0.00000E+00
    0.00000E+00         0.00000E+00        -0.48024E+08
 
   -0.45474E+08         0.50944E+06         0.00000E+00
    0.50944E+06        -0.50003E+08         0.00000E+00
    0.00000E+00         0.00000E+00        -0.48046E+08
 
   -0.45581E+08         0.56620E+06         0.00000E+00
    0.56620E+06        -0.50004E+08         0.00000E+00
    0.00000E+00         0.00000E+00        -0.48068E+08
 
   -0.45685E+08         0.62100E+06         0.00000E+00
    0.62100E+06        -0.50006E+08         0.00000E+00
    0.00000E+00         0.00000E+00        -0.48089E+08
 
   -0.45788E+08         0.67401E+06         0.00000E+00
    0.67401E+06        -0.50008E+08         0.00000E+00
    0.00000E+00         0.00000E+00        -0.48110E+08
 
   -0.45888E+08         0.72538E+06         0.00000E+00
    0.72538E+06        -0.50010E+08         0.00000E+00
    0.00000E+00         0.00000E+00        -0.48130E+08
 
   -0.45986E+08         0.77527E+06         0.00000E+00
    0.77527E+06        -0.50013E+08         0.00000E+00
    0.00000E+00         0.00000E+00        -0.48150E+08
 
   -0.46081E+08         0.82382E+06         0.00000E+00
    0.82382E+06        -0.50015E+08         0.00000E+00
    0.00000E+00         0.00000E+00        -0.48170E+08
 
   -0.46175E+08         0.87116E+06         0.00000E+00
    0.87116E+06        -0.50018E+08         0.00000E+00
    0.00000E+00         0.00000E+00        -0.48189E+08
 
   -0.46267E+08         0.91743E+06         0.00000E+00
    0.91743E+06        -0.50021E+08         0.00000E+00
    0.00000E+00         0.00000E+00        -0.48208E+08
 
   -0.46356E+08         0.96275E+06         0.00000E+00
    0.96275E+06        -0.50023E+08         0.00000E+00
    0.00000E+00         0.00000E+00        -0.48227E+08
 
   -0.46444E+08         0.10072E+07         0.00000E+00
    0.10072E+07        -0.50026E+08         0.00000E+00
    0.00000E+00         0.00000E+00        -0.48245E+08
 
   -0.46529E+08         0.10510E+07         0.00000E+00
    0.10510E+07        -0.50029E+08         0.00000E+00
    0.00000E+00         0.00000E+00        -0.48262E+08
 
   -0.46613E+08         0.10941E+07         0.00000E+00
    0.10941E+07        -0.50031E+08         0.00000E+00
    0.00000E+00         0.00000E+00        -0.48280E+08
 
   -0.46695E+08         0.11366E+07         0.00000E+00
    0.11366E+07        -0.50034E+08         0.00000E+00
    0.00000E+00         0.00000E+00        -0.48296E+08
 
   -0.46775E+08         0.11787E+07         0.00000E+00
    0.11787E+07        -0.50036E+08         0.00000E+00
    0.00000E+00         0.00000E+00        -0.48313E+08
 
   -0.46854E+08         0.12204E+07         0.00000E+00
    0.12204E+07        -0.50038E+08         0.00000E+00
    0.00000E+00         0.00000E+00        -0.48329E+08
 
   -0.46931E+08         0.12618E+07         0.00000E+00
    0.12618E+07        -0.50039E+08         0.00000E+00
    0.00000E+00         0.00000E+00        -0.48345E+08
 
   -0.47007E+08         0.13030E+07         0.00000E+00
    0.13030E+07        -0.50040E+08         0.00000E+00
    0.00000E+00         0.00000E+00        -0.48360E+08
 
   -0.47081E+08         0.13439E+07         0.00000E+00
    0.13439E+07        -0.50041E+08         0.00000E+00
    0.00000E+00         0.00000E+00        -0.48375E+08
 
   -0.47154E+08         0.13846E+07         0.00000E+00
    0.13846E+07        -0.50041E+08         0.00000E+00
    0.00000E+00         0.00000E+00        -0.48390E+08
 
   -0.47225E+08         0.14253E+07         0.00000E+00
    0.14253E+07        -0.50040E+08         0.00000E+00
    0.00000E+00         0.00000E+00        -0.48404E+08
 
   -0.47296E+08         0.14658E+07         0.00000E+00
    0.14658E+07        -0.50039E+08         0.00000E+00
    0.00000E+00         0.00000E+00        -0.48418E+08
 
   -0.47365E+08         0.15063E+07         0.00000E+00
    0.15063E+07        -0.50037E+08         0.00000E+00
    0.00000E+00         0.00000E+00        -0.48431E+08
 
   -0.47433E+08         0.15468E+07         0.00000E+00
    0.15468E+07        -0.50035E+08         0.00000E+00
    0.00000E+00         0.00000E+00        -0.48444E+08
 
   -0.47500E+08         0.15872E+07         0.00000E+00
    0.15872E+07        -0.50031E+08         0.00000E+00
    0.00000E+00         0.00000E+00        -0.48457E+08
 
   -0.47567E+08         0.16277E+07         0.00000E+00
    0.16277E+07        -0.50027E+08         0.00000E+00
    0.00000E+00         0.00000E+00        -0.48469E+08
 
   -0.47632E+08         0.16681E+07         0.00000E+00
    0.16681E+07        -0.50022E+08         0.00000E+00
    0.00000E+00         0.00000E+00        -0.48481E+08
 
   -0.47697E+08         0.17085E+07         0.00000E+00
    0.17085E+07        -0.50015E+08         0.00000E+00
    0.00000E+00         0.00000E+00        -0.48493E+08
 
   -0.47761E+08         0.17489E+07         0.00000E+00
    0.17489E+07        -0.50008E+08         0.00000E+00
    0.00000E+00         0.00000E+00        -0.48504E+08
 
   -0.47824E+08         0.17893E+07         0.00000E+00
    0.17893E+07        -0.50000E+08         0.00000E+00
    0.00000E+00         0.00000E+00        -0.48516E+08
 
   -0.47887E+08         0.18297E+07         0.00000E+00
    0.18297E+07        -0.49990E+08         0.00000E+00
    0.00000E+00         0.00000E+00        -0.48526E+08
 
   -0.47949E+08         0.18700E+07         0.00000E+00
    0.18700E+07        -0.49980E+08         0.00000E+00
    0.00000E+00         0.00000E+00        -0.48536E+08
 
   -0.48010E+08         0.19103E+07         0.00000E+00
    0.19103E+07        -0.49968E+08         0.00000E+00
    0.00000E+00         0.00000E+00        -0.48546E+08
 
   -0.48072E+08         0.19505E+07         0.00000E+00
    0.19505E+07        -0.49955E+08         0.00000E+00
    0.00000E+00         0.00000E+00        -0.48556E+08
 
   -0.48132E+08         0.19905E+07         0.00000E+00
    0.19905E+07        -0.49941E+08         0.00000E+00
    0.00000E+00         0.00000E+00        -0.48565E+08
 
   -0.48192E+08         0.20305E+07         0.00000E+00
    0.20305E+07        -0.49926E+08         0.00000E+00
    0.00000E+00         0.00000E+00        -0.48574E+08
 
   -0.48252E+08         0.20703E+07         0.00000E+00
    0.20703E+07        -0.49909E+08         0.00000E+00
    0.00000E+00         0.00000E+00        -0.48583E+08
 
   -0.48312E+08         0.21099E+07         0.00000E+00
    0.21099E+07        -0.49892E+08         0.00000E+00
    0.00000E+00         0.00000E+00        -0.48591E+08
 
   -0.48371E+08         0.21493E+07         0.00000E+00
    0.21493E+07        -0.49873E+08         0.00000E+00
    0.00000E+00         0.00000E+00        -0.48599E+08
 
   -0.48429E+08         0.21885E+07         0.00000E+00
    0.21885E+07        -0.49852E+08         0.00000E+00
    0.00000E+00         0.00000E+00        -0.48607E+08
 
   -0.48488E+08         0.22274E+07         0.00000E+00
    0.22274E+07        -0.49831E+08         0.00000E+00
    0.00000E+00         0.00000E+00        -0.48614E+08
 
   -0.48545E+08         0.22661E+07         0.00000E+00
    0.22661E+07        -0.49808E+08         0.00000E+00
    0.00000E+00         0.00000E+00        -0.48621E+08
 
   -0.48603E+08         0.23044E+07         0.00000E+00
    0.23044E+07        -0.49784E+08         0.00000E+00
    0.00000E+00         0.00000E+00        -0.48628E+08
 
   -0.44286E+08         0.41569E+05         0.00000E+00
    0.41569E+05        -0.49999E+08         0.00000E+00
    0.00000E+00         0.00000E+00        -0.47610E+08
 
   -0.44424E+08         0.11566E+06         0.00000E+00
    0.11566E+06        -0.49999E+08         0.00000E+00
    0.00000E+00         0.00000E+00        -0.47638E+08
 
   -0.44560E+08         0.18624E+06         0.00000E+00
    0.18624E+06        -0.50000E+08         0.00000E+00
    0.00000E+00         0.00000E+00        -0.47665E+08
 
   -0.44692E+08         0.25356E+06         0.00000E+00
    0.25356E+06        -0.50002E+08         0.00000E+00
    0.00000E+00         0.00000E+00        -0.47692E+08
 
   -0.44821E+08         0.31790E+06         0.00000E+00
    0.31790E+06        -0.50004E+08         0.00000E+00
    0.00000E+00         0.00000E+00        -0.47718E+08
 
   -0.44947E+08         0.37949E+06         0.00000E+00
    0.37949E+06        -0.50007E+08         0.00000E+00
    0.00000E+00         0.00000E+00        -0.47744E+08
 
   -0.45070E+08         0.43856E+06         0.00000E+00
    0.43856E+06        -0.50011E+08         0.00000E+00
    0.00000E+00         0.00000E+00        -0.47769E+08
 
   -0.45190E+08         0.49536E+06         0.00000E+00
    0.49536E+06        -0.50015E+08         0.00000E+00
    0.00000E+00         0.00000E+00        -0.47794E+08
 
   -0.45306E+08         0.55009E+06         0.00000E+00
    0.55009E+06        -0.50019E+08         0.00000E+00
    0.00000E+00         0.00000E+00        -0.47818E+08
 
   -0.45420E+08         0.60298E+06         0.00000E+00
    0.60298E+06        -0.50025E+08         0.00000E+00
    0.00000E+00         0.00000E+00        -0.47842E+08
 
   -0.45530E+08         0.65421E+06         0.00000E+00
    0.65421E+06        -0.50031E+08         0.00000E+00
    0.00000E+00         0.00000E+00        -0.47865E+08
 
   -0.45638E+08         0.70398E+06         0.00000E+00
    0.70398E+06        -0.50037E+08         0.00000E+00
    0.00000E+00         0.00000E+00        -0.47888E+08
 
   -0.45742E+08         0.75247E+06         0.00000E+00
    0.75247E+06        -0.50044E+08         0.00000E+00
    0.00000E+00         0.00000E+00        -0.47910E+08
 
   -0.45844E+08         0.79985E+06         0.00000E+00
    0.79985E+06        -0.50051E+08         0.00000E+00
    0.00000E+00         0.00000E+00        -0.47932E+08
 
   -0.45942E+08         0.84628E+06         0.00000E+00
    0.84628E+06        -0.50058E+08         0.00000E+00
    0.00000E+00         0.00000E+00        -0.47953E+08
 
   -0.46038E+08         0.89191E+06         0.00000E+00
    0.89191E+06        -0.50066E+08         0.00000E+00
    0.00000E+00         0.00000E+00        -0.47974E+08
 
   -0.46132E+08         0.93688E+06         0.00000E+00
    0.93688E+06        -0.50073E+08         0.00000E+00
    0.00000E+00         0.00000E+00        -0.47994E+08
 
   -0.46222E+08         0.98132E+06         0.00000E+00
    0.98132E+06        -0.50081E+08         0.00000E+00
    0.00000E+00         0.00000E+00        -0.48014E+08
 
   -0.46311E+08         0.10253E+07         0.00000E+00
    0.10253E+07        -0.50089E+08         0.00000E+00
    0.00000E+00         0.00000E+00        -0.48033E+08
 
   -0.46397E+08         0.10691E+07         0.00000E+00
    0.10691E+07        -0.50097E+08         0.00000E+00
    0.00000E+00         0.00000E+00        -0.48052E+08
 
   -0.46480E+08         0.11126E+07         0.00000E+00
    0.11126E+07        -0.50105E+08         0.00000E+00
    0.00000E+00         0.00000E+00        -0.48070E+08
 
   -0.46562E+08         0.11560E+07         0.00000E+00
    0.11560E+07        -0.50112E+08         0.00000E+00
    0.00000E+00         0.00000E+00        -0.48088E+08
 
   -0.46641E+08         0.11993E+07         0.00000E+00
    0.11993E+07        -0.50120E+08         0.00000E+00
    0.00000E+00         0.00000E+00        -0.48105E+08
 
   -0.46719E+08         0.12427E+07         0.00000E+00
    0.12427E+07        -0.50126E+08         0.00000E+00
    0.00000E+00         0.00000E+00        -0.48122E+08
 
   -0.46795E+08         0.12862E+07         0.00000E+00
    0.12862E+07        -0.50133E+08         0.00000E+00
    0.00000E+00         0.00000E+00        -0.48139E+08
 
   -0.46869E+08         0.13299E+07         0.00000E+00
    0.13299E+07        -0.50139E+08         0.00000E+00
    0.00000E+00         0.00000E+00        -0.48155E+08
 
   -0.46942E+08         0.13737E+07         0.00000E+00
    0.13737E+07        -0.50144E+08         0.00000E+00
    0.00000E+00         0.00000E+00        -0.48170E+08
 
   -0.47013E+08         0.14177E+07         0.00000E+00
    0.14177E+07        -0.50148E+08         0.00000E+00
    0.00000E+00         0.00000E+00        -0.48185E+08
 
   -0.47083E+08         0.14621E+07         0.00000E+00
    0.14621E+07        -0.50152E+08         0.00000E+00
    0.00000E+00         0.00000E+00        -0.48200E+08
 
   -0.47152E+08         0.15066E+07         0.00000E+00
    0.15066E+07        -0.50155E+08         0.00000E+00
    0.00000E+00         0.00000E+00        -0.48215E+08
 
   -0.47219E+08         0.15515E+07         0.00000E+00
    0.15515E+07        -0.50157E+08         0.00000E+00
    0.00000E+00         0.00000E+00        -0.48228E+08
 
   -0.47286E+08         0.15966E+07         0.00000E+00
    0.15966E+07        -0.50158E+08         0.00000E+00
    0.00000E+00         0.00000E+00        -0.48242E+08
 
   -0.47352E+08         0.16420E+07         0.00000E+00
    0.16420E+07        -0.50157E+08         0.00000E+00
    0.00000E+00         0.00000E+00        -0.48255E+08
 
   -0.47417E+08         0.16877E+07         0.00000E+00
    0.16877E+07        -0.50156E+08         0.00000E+00
    0.00000E+00         0.00000E+00        -0.48268E+08
 
   -0.47481E+08         0.17336E+07         0.00000E+00
    0.17336E+07        -0.50154E+08         0.00000E+00
    0.00000E+00         0.00000E+00        -0.48280E+08
 
   -0.47544E+08         0.17798E+07         0.00000E+00
    0.17798E+07        -0.50150E+08         0.00000E+00
    0.00000E+00         0.00000E+00        -0.48292E+08
 
   -0.47607E+08         0.18262E+07         0.00000E+00
    0.18262E+07        -0.50145E+08         0.00000E+00
    0.00000E+00         0.00000E+00        -0.48304E+08
 
   -0.47669E+08         0.18728E+07         0.00000E+00
    0.18728E+07        -0.50138E+08         0.00000E+00
    0.00000E+00         0.00000E+00        -0.48315E+08
 
   -0.47731E+08         0.19195E+07         0.00000E+00
    0.19195E+07        -0.50130E+08         0.00000E+00
    0.00000E+00         0.00000E+00        -0.48326E+08
 
   -0.47793E+08         0.19663E+07         0.00000E+00
    0.19663E+07        -0.50121E+08         0.00000E+00
    0.00000E+00         0.00000E+00        -0.48336E+08
 
   -0.47854E+08         0.20131E+07         0.00000E+00
    0.20131E+07        -0.50110E+08         0.00000E+00
    0.00000E+00         0.00000E+00        -0.48346E+08
 
   -0.47915E+08         0.20600E+07         0.00000E+00
    0.20600E+07        -0.50098E+08         0.00000E+00
    0.00000E+00         0.00000E+00        -0.48356E+08
 
   -0.47976E+08         0.21069E+07         0.00000E+00
    0.21069E+07        -0.50084E+08         0.00000E+00
    0.00000E+00         0.00000E+00        -0.48365E+08
 
   -0.48036E+08         0.21536E+07         0.00000E+00
    0.21536E+07        -0.50069E+08         0.00000E+00
    0.00000E+00         0.00000E+00        -0.48374E+08
 
   -0.48097E+08         0.22003E+07         0.00000E+00
    0.22003E+07        -0.50052E+08         0.00000E+00
    0.00000E+00         0.00000E+00        -0.48383E+08
 
   -0.48157E+08         0.22467E+07         0.00000E+00
    0.22467E+07        -0.50033E+08         0.00000E+00
    0.00000E+00         0.00000E+00        -0.48391E+08
 
   -0.48217E+08         0.22929E+07         0.00000E+00
    0.22929E+07        -0.50013E+08         0.00000E+00
    0.00000E+00         0.00000E+00        -0.48399E+08
 
   -0.48276E+08         0.23389E+07         0.00000E+00
    0.23389E+07        -0.49992E+08         0.00000E+00
    0.00000E+00         0.00000E+00        -0.48407E+08
 
   -0.48336E+08         0.23845E+07         0.00000E+00
    0.23845E+07        -0.49969E+08         0.00000E+00
    0.00000E+00         0.00000E+00        -0.48414E+08
 
   -0.48395E+08         0.24297E+07         0.00000E+00
    0.24297E+07        -0.49944E+08         0.00000E+00
    0.00000E+00         0.00000E+00        -0.48421E+08
 
   -0.43915E+08         0.39751E+05         0.00000E+00
    0.39751E+05        -0.49998E+08         0.00000E+00
    0.00000E+00         0.00000E+00        -0.47301E+08
 
   -0.44072E+08         0.10970E+06         0.00000E+00
    0.10970E+06        -0.50000E+08         0.00000E+00
    0.00000E+00         0.00000E+00        -0.47333E+08
 
   -0.44225E+08         0.17600E+06         0.00000E+00
    0.17600E+06        -0.50002E+08         0.00000E+00
    0.00000E+00         0.00000E+00        -0.47364E+08
 
   -0.44373E+08         0.23900E+06         0.00000E+00
    0.23900E+06        -0.50005E+08         0.00000E+00
    0.00000E+00         0.00000E+00        -0.47394E+08
 
   -0.44516E+08         0.29901E+06         0.00000E+00
    0.29901E+06        -0.50010E+08         0.00000E+00
    0.00000E+00         0.00000E+00        -0.47424E+08
 
   -0.44655E+08         0.35632E+06         0.00000E+00
    0.35632E+06        -0.50015E+08         0.00000E+00
    0.00000E+00         0.00000E+00        -0.47453E+08
 
   -0.44790E+08         0.41123E+06         0.00000E+00
    0.41123E+06        -0.50022E+08         0.00000E+00
    0.00000E+00         0.00000E+00        -0.47481E+08
 
   -0.44920E+08         0.46401E+06         0.00000E+00
    0.46401E+06        -0.50030E+08         0.00000E+00
    0.00000E+00         0.00000E+00        -0.47508E+08
 
   -0.45046E+08         0.51493E+06         0.00000E+00
    0.51493E+06        -0.50039E+08         0.00000E+00
    0.00000E+00         0.00000E+00        -0.47535E+08
 
   -0.45167E+08         0.56425E+06         0.00000E+00
    0.56425E+06        -0.50048E+08         0.00000E+00
    0.00000E+00         0.00000E+00        -0.47562E+08
 
   -0.45285E+08         0.61219E+06         0.00000E+00
    0.61219E+06        -0.50059E+08         0.00000E+00
    0.00000E+00         0.00000E+00        -0.47587E+08
 
   -0.45398E+08         0.65898E+06         0.00000E+00
    0.65898E+06        -0.50070E+08         0.00000E+00
    0.00000E+00         0.00000E+00        -0.47612E+08
 
   -0.45508E+08         0.70483E+06         0.00000E+00
    0.70483E+06        -0.50083E+08         0.00000E+00
    0.00000E+00         0.00000E+00        -0.47637E+08
 
   -0.45614E+08         0.74995E+06         0.00000E+00
    0.74995E+06        -0.50095E+08         0.00000E+00
    0.00000E+00         0.00000E+00        -0.47660E+08
 
   -0.45716E+08         0.79450E+06         0.00000E+00
    0.79450E+06        -0.50109E+08         0.00000E+00
    0.00000E+00         0.00000E+00        -0.47683E+08
 
   -0.45814E+08         0.83867E+06         0.00000E+00
    0.83867E+06        -0.50122E+08         0.00000E+00
    0.00000E+00         0.00000E+00        -0.47706E+08
 
   -0.45910E+08         0.88261E+06         0.00000E+00
    0.88261E+06        -0.50136E+08         0.00000E+00
    0.00000E+00         0.00000E+00        -0.47728E+08
 
   -0.46002E+08         0.92647E+06         0.00000E+00
    0.92647E+06        -0.50151E+08         0.00000E+00
    0.00000E+00         0.00000E+00        -0.47749E+08
 
   -0.46091E+08         0.97037E+06         0.00000E+00
    0.97037E+06        -0.50165E+08         0.00000E+00
    0.00000E+00         0.00000E+00        -0.47770E+08
 
   -0.46177E+08         0.10144E+07         0.00000E+00
    0.10144E+07        -0.50179E+08         0.00000E+00
    0.00000E+00         0.00000E+00        -0.47790E+08
 
   -0.46260E+08         0.10588E+07         0.00000E+00
    0.10588E+07        -0.50194E+08         0.00000E+00
    0.00000E+00         0.00000E+00        -0.47809E+08
 
   -0.46341E+08         0.11034E+07         0.00000E+00
    0.11034E+07        -0.50208E+08         0.00000E+00
    0.00000E+00         0.00000E+00        -0.47828E+08
 
   -0.46419E+08         0.11486E+07         0.00000E+00
    0.11486E+07        -0.50222E+08         0.00000E+00
    0.00000E+00         0.00000E+00        -0.47847E+08
 
   -0.46496E+08         0.11942E+07         0.00000E+00
    0.11942E+07        -0.50235E+08         0.00000E+00
    0.00000E+00         0.00000E+00        -0.47865E+08
 
   -0.46570E+08         0.12404E+07         0.00000E+00
    0.12404E+07        -0.50248E+08         0.00000E+00
    0.00000E+00         0.00000E+00        -0.47882E+08
 
   -0.46642E+08         0.12873E+07         0.00000E+00
    0.12873E+07        -0.50260E+08         0.00000E+00
    0.00000E+00         0.00000E+00        -0.47899E+08
 
   -0.46713E+08         0.13347E+07         0.00000E+00
    0.13347E+07        -0.50271E+08         0.00000E+00
    0.00000E+00         0.00000E+00        -0.47915E+08
 
   -0.46781E+08         0.13829E+07         0.00000E+00
    0.13829E+07        -0.50282E+08         0.00000E+00
    0.00000E+00         0.00000E+00        -0.47931E+08
 
   -0.46849E+08         0.14317E+07         0.00000E+00
    0.14317E+07        -0.50291E+08         0.00000E+00
    0.00000E+00         0.00000E+00        -0.47947E+08
 
   -0.46915E+08         0.14813E+07         0.00000E+00
    0.14813E+07        -0.50300E+08         0.00000E+00
    0.00000E+00         0.00000E+00        -0.47962E+08
 
   -0.46981E+08         0.15315E+07         0.00000E+00
    0.15315E+07        -0.50307E+08         0.00000E+00
    0.00000E+00         0.00000E+00        -0.47976E+08
 
   -0.47045E+08         0.15824E+07         0.00000E+00
    0.15824E+07        -0.50314E+08         0.00000E+00
    0.00000E+00         0.00000E+00        -0.47990E+08
 
   -0.47108E+08         0.16340E+07         0.00000E+00
    0.16340E+07        -0.50319E+08         0.00000E+00
    0.00000E+00         0.00000E+00        -0.48004E+08
 
   -0.47171E+08         0.16862E+07         0.00000E+00
    0.16862E+07        -0.50322E+08         0.00000E+00
    0.00000E+00         0.00000E+00        -0.48017E+08
 
   -0.47233E+08         0.17390E+07         0.00000E+00
    0.17390E+07        -0.50324E+08         0.00000E+00
    0.00000E+00         0.00000E+00        -0.48030E+08
 
   -0.47295E+08         0.17923E+07         0.00000E+00
    0.17923E+07        -0.50324E+08         0.00000E+00
    0.00000E+00         0.00000E+00        -0.48042E+08
 
   -0.47356E+08         0.18461E+07         0.00000E+00
    0.18461E+07        -0.50323E+08         0.00000E+00
    0.00000E+00         0.00000E+00        -0.48054E+08
 
   -0.47417E+08         0.19004E+07         0.00000E+00
    0.19004E+07        -0.50320E+08         0.00000E+00
    0.00000E+00         0.00000E+00        -0.48066E+08
 
   -0.47478E+08         0.19550E+07         0.00000E+00
    0.19550E+07        -0.50316E+08         0.00000E+00
    0.00000E+00         0.00000E+00        -0.48077E+08
 
   -0.47539E+08         0.20100E+07         0.00000E+00
    0.20100E+07        -0.50309E+08         0.00000E+00
    0.00000E+00         0.00000E+00        -0.48088E+08
 
   -0.47599E+08         0.20652E+07         0.00000E+00
    0.20652E+07        -0.50301E+08         0.00000E+00
    0.00000E+00         0.00000E+00        -0.48099E+08
 
   -0.47660E+08         0.21205E+07         0.00000E+00
    0.21205E+07        -0.50291E+08         0.00000E+00
    0.00000E+00         0.00000E+00        -0.48109E+08
 
   -0.47721E+08         0.21760E+07         0.00000E+00
    0.21760E+07        -0.50279E+08         0.00000E+00
    0.00000E+00         0.00000E+00        -0.48118E+08
 
   -0.47782E+08         0.22314E+07         0.00000E+00
    0.22314E+07        -0.50265E+08         0.00000E+00
    0.00000E+00         0.00000E+00        -0.48128E+08
 
   -0.47843E+08         0.22867E+07         0.00000E+00
    0.22867E+07        -0.50249E+08         0.00000E+00
    0.00000E+00         0.00000E+00        -0.48137E+08
 
   -0.47904E+08         0.23419E+07         0.00000E+00
    0.23419E+07        -0.50231E+08         0.00000E+00
    0.00000E+00         0.00000E+00        -0.48145E+08
 
   -0.47965E+08         0.23968E+07         0.00000E+00
    0.23968E+07        -0.50211E+08         0.00000E+00
    0.00000E+00         0.00000E+00        -0.48154E+08
 
   -0.48026E+08         0.24514E+07         0.00000E+00
    0.24514E+07        -0.50189E+08         0.00000E+00
    0.00000E+00         0.00000E+00        -0.48162E+08
 
   -0.48088E+08         0.25056E+07         0.00000E+00
    0.25056E+07        -0.50166E+08         0.00000E+00
    0.00000E+00         0.00000E+00        -0.48169E+08
 
   -0.48149E+08         0.25592E+07         0.00000E+00
    0.25592E+07        -0.50140E+08         0.00000E+00
    0.00000E+00         0.00000E+00        -0.48176E+08
 
   -0.43573E+08         0.36132E+05         0.00000E+00
    0.36132E+05        -0.49998E+08         0.00000E+00
    0.00000E+00         0.00000E+00        -0.46954E+08
 
   -0.43749E+08         0.98644E+05         0.00000E+00
    0.98644E+05        -0.50000E+08         0.00000E+00
    0.00000E+00         0.00000E+00        -0.46989E+08
 
   -0.43918E+08         0.15754E+06         0.00000E+00
    0.15754E+06        -0.50004E+08         0.00000E+00
    0.00000E+00         0.00000E+00        -0.47024E+08
 
   -0.44082E+08         0.21322E+06         0.00000E+00
    0.21322E+06        -0.50009E+08         0.00000E+00
    0.00000E+00         0.00000E+00        -0.47058E+08
 
   -0.44239E+08         0.26606E+06         0.00000E+00
    0.26606E+06        -0.50017E+08         0.00000E+00
    0.00000E+00         0.00000E+00        -0.47091E+08
 
   -0.44390E+08         0.31643E+06         0.00000E+00
    0.31643E+06        -0.50026E+08         0.00000E+00
    0.00000E+00         0.00000E+00        -0.47123E+08
 
   -0.44536E+08         0.36467E+06         0.00000E+00
    0.36467E+06        -0.50036E+08         0.00000E+00
    0.00000E+00         0.00000E+00        -0.47154E+08
 
   -0.44675E+08         0.41111E+06         0.00000E+00
    0.41111E+06        -0.50049E+08         0.00000E+00
    0.00000E+00         0.00000E+00        -0.47184E+08
 
   -0.44809E+08         0.45607E+06         0.00000E+00
    0.45607E+06        -0.50063E+08         0.00000E+00
    0.00000E+00         0.00000E+00        -0.47214E+08
 
   -0.44937E+08         0.49983E+06         0.00000E+00
    0.49983E+06        -0.50078E+08         0.00000E+00
    0.00000E+00         0.00000E+00        -0.47242E+08
 
   -0.45059E+08         0.54268E+06         0.00000E+00
    0.54268E+06        -0.50094E+08         0.00000E+00
    0.00000E+00         0.00000E+00        -0.47270E+08
 
   -0.45177E+08         0.58487E+06         0.00000E+00
    0.58487E+06        -0.50112E+08         0.00000E+00
    0.00000E+00         0.00000E+00        -0.47297E+08
 
   -0.45289E+08         0.62664E+06         0.00000E+00
    0.62664E+06        -0.50131E+08         0.00000E+00
    0.00000E+00         0.00000E+00        -0.47324E+08
 
   -0.45397E+08         0.66821E+06         0.00000E+00
    0.66821E+06        -0.50150E+08         0.00000E+00
    0.00000E+00         0.00000E+00        -0.47349E+08
 
   -0.45500E+08         0.70980E+06         0.00000E+00
    0.70980E+06        -0.50171E+08         0.00000E+00
    0.00000E+00         0.00000E+00        -0.47374E+08
 
   -0.45599E+08         0.75158E+06         0.00000E+00
    0.75158E+06        -0.50192E+08         0.00000E+00
    0.00000E+00         0.00000E+00        -0.47398E+08
 
   -0.45693E+08         0.79374E+06         0.00000E+00
    0.79374E+06        -0.50213E+08         0.00000E+00
    0.00000E+00         0.00000E+00        -0.47421E+08
 
   -0.45784E+08         0.83642E+06         0.00000E+00
    0.83642E+06        -0.50235E+08         0.00000E+00
    0.00000E+00         0.00000E+00        -0.47443E+08
 
   -0.45871E+08         0.87977E+06         0.00000E+00
    0.87977E+06        -0.50257E+08         0.00000E+00
    0.00000E+00         0.00000E+00        -0.47465E+08
 
   -0.45954E+08         0.92390E+06         0.00000E+00
    0.92390E+06        -0.50279E+08         0.00000E+00
    0.00000E+00         0.00000E+00        -0.47486E+08
 
   -0.46035E+08         0.96894E+06         0.00000E+00
    0.96894E+06        -0.50302E+08         0.00000E+00
    0.00000E+00         0.00000E+00        -0.47507E+08
 
   -0.46112E+08         0.10150E+07         0.00000E+00
    0.10150E+07        -0.50323E+08         0.00000E+00
    0.00000E+00         0.00000E+00        -0.47527E+08
 
   -0.46187E+08         0.10621E+07         0.00000E+00
    0.10621E+07        -0.50345E+08         0.00000E+00
    0.00000E+00         0.00000E+00        -0.47546E+08
 
   -0.46259E+08         0.11103E+07         0.00000E+00
    0.11103E+07        -0.50366E+08         0.00000E+00
    0.00000E+00         0.00000E+00        -0.47565E+08
 
   -0.46328E+08         0.11597E+07         0.00000E+00
    0.11597E+07        -0.50387E+08         0.00000E+00
    0.00000E+00         0.00000E+00        -0.47583E+08
 
   -0.46396E+08         0.12103E+07         0.00000E+00
    0.12103E+07        -0.50406E+08         0.00000E+00
    0.00000E+00         0.00000E+00        -0.47600E+08
 
   -0.46462E+08         0.12622E+07         0.00000E+00
    0.12622E+07        -0.50425E+08         0.00000E+00
    0.00000E+00         0.00000E+00        -0.47617E+08
 
   -0.46526E+08         0.13153E+07         0.00000E+00
    0.13153E+07        -0.50443E+08         0.00000E+00
    0.00000E+00         0.00000E+00        -0.47633E+08
 
   -0.46589E+08         0.13697E+07         0.00000E+00
    0.13697E+07        -0.50459E+08         0.00000E+00
    0.00000E+00         0.00000E+00        -0.47649E+08
 
   -0.46650E+08         0.14253E+07         0.00000E+00
    0.14253E+07        -0.50475E+08         0.00000E+00
    0.00000E+00         0.00000E+00        -0.47665E+08
 
   -0.46711E+08         0.14821E+07         0.00000E+00
    0.14821E+07        -0.50489E+08         0.00000E+00
    0.00000E+00         0.00000E+00        -0.47679E+08
 
   -0.46770E+08         0.15402E+07         0.00000E+00
    0.15402E+07        -0.50501E+08         0.00000E+00
    0.00000E+00         0.00000E+00        -0.47694E+08
 
   -0.46830E+08         0.15993E+07         0.00000E+00
    0.15993E+07        -0.50512E+08         0.00000E+00
    0.00000E+00         0.00000E+00        -0.47708E+08
 
   -0.46888E+08         0.16595E+07         0.00000E+00
    0.16595E+07        -0.50521E+08         0.00000E+00
    0.00000E+00         0.00000E+00        -0.47721E+08
 
   -0.46946E+08         0.17208E+07         0.00000E+00
    0.17208E+07        -0.50528E+08         0.00000E+00
    0.00000E+00         0.00000E+00        -0.47735E+08
 
   -0.47005E+08         0.17829E+07         0.00000E+00
    0.17829E+07        -0.50534E+08         0.00000E+00
    0.00000E+00         0.00000E+00        -0.47747E+08
 
   -0.47063E+08         0.18460E+07         0.00000E+00
    0.18460E+07        -0.50537E+08         0.00000E+00
    0.00000E+00         0.00000E+00        -0.47760E+08
 
   -0.47121E+08         0.19098E+07         0.00000E+00
    0.19098E+07        -0.50538E+08         0.00000E+00
    0.00000E+00         0.00000E+00        -0.47771E+08
 
   -0.47179E+08         0.19743E+07         0.00000E+00
    0.19743E+07        -0.50537E+08         0.00000E+00
    0.00000E+00         0.00000E+00        -0.47783E+08
 
   -0.47238E+08         0.20393E+07         0.00000E+00
    0.20393E+07        -0.50534E+08         0.00000E+00
    0.00000E+00         0.00000E+00        -0.47794E+08
 
   -0.47297E+08         0.21048E+07         0.00000E+00
    0.21048E+07        -0.50529E+08         0.00000E+00
    0.00000E+00         0.00000E+00        -0.47805E+08
 
   -0.47357E+08         0.21706E+07         0.00000E+00
    0.21706E+07        -0.50521E+08         0.00000E+00
    0.00000E+00         0.00000E+00        -0.47815E+08
 
   -0.47417E+08         0.22367E+07         0.00000E+00
    0.22367E+07        -0.50511E+08         0.00000E+00
    0.00000E+00         0.00000E+00        -0.47825E+08
 
   -0.47478E+08         0.23029E+07         0.00000E+00
    0.23029E+07        -0.50499E+08         0.00000E+00
    0.00000E+00         0.00000E+00        -0.47835E+08
 
   -0.47540E+08         0.23690E+07         0.00000E+00
    0.23690E+07        -0.50484E+08         0.00000E+00
    0.00000E+00         0.00000E+00        -0.47844E+08
 
   -0.47602E+08         0.24350E+07         0.00000E+00
    0.24350E+07        -0.50466E+08         0.00000E+00
    0.00000E+00         0.00000E+00        -0.47853E+08
 
   -0.47665E+08         0.25007E+07         0.00000E+00
    0.25007E+07        -0.50447E+08         0.00000E+00
    0.00000E+00         0.00000E+00        -0.47862E+08
 
   -0.47728E+08         0.25660E+07         0.00000E+00
    0.25660E+07        -0.50425E+08         0.00000E+00
    0.00000E+00         0.00000E+00        -0.47870E+08
 
   -0.47792E+08         0.26307E+07         0.00000E+00
    0.26307E+07        -0.50400E+08         0.00000E+00
    0.00000E+00         0.00000E+00        -0.47878E+08
 
   -0.47857E+08         0.26948E+07         0.00000E+00
    0.26948E+07        -0.50374E+08         0.00000E+00
    0.00000E+00         0.00000E+00        -0.47886E+08
 
   -0.43277E+08         0.30242E+05         0.00000E+00
    0.30242E+05        -0.49998E+08         0.00000E+00
    0.00000E+00         0.00000E+00        -0.46563E+08
 
   -0.43472E+08         0.81255E+05         0.00000E+00
    0.81255E+05        -0.50000E+08         0.00000E+00
    0.00000E+00         0.00000E+00        -0.46603E+08
 
   -0.43658E+08         0.12888E+06         0.00000E+00
    0.12888E+06        -0.50006E+08         0.00000E+00
    0.00000E+00         0.00000E+00        -0.46641E+08
 
   -0.43836E+08         0.17360E+06         0.00000E+00
    0.17360E+06        -0.50014E+08         0.00000E+00
    0.00000E+00         0.00000E+00        -0.46678E+08
 
   -0.44006E+08         0.21586E+06         0.00000E+00
    0.21586E+06        -0.50025E+08         0.00000E+00
    0.00000E+00         0.00000E+00        -0.46714E+08
 
   -0.44167E+08         0.25609E+06         0.00000E+00
    0.25609E+06        -0.50038E+08         0.00000E+00
    0.00000E+00         0.00000E+00        -0.46749E+08
 
   -0.44321E+08         0.29469E+06         0.00000E+00
    0.29469E+06        -0.50054E+08         0.00000E+00
    0.00000E+00         0.00000E+00        -0.46783E+08
 
   -0.44467E+08         0.33205E+06         0.00000E+00
    0.33205E+06        -0.50072E+08         0.00000E+00
    0.00000E+00         0.00000E+00        -0.46816E+08
 
   -0.44606E+08         0.36853E+06         0.00000E+00
    0.36853E+06        -0.50091E+08         0.00000E+00
    0.00000E+00         0.00000E+00        -0.46848E+08
 
   -0.44738E+08         0.40445E+06         0.00000E+00
    0.40445E+06        -0.50113E+08         0.00000E+00
    0.00000E+00         0.00000E+00        -0.46878E+08
 
   -0.44863E+08         0.44014E+06         0.00000E+00
    0.44014E+06        -0.50137E+08         0.00000E+00
    0.00000E+00         0.00000E+00        -0.46908E+08
 
   -0.44981E+08         0.47587E+06         0.00000E+00
    0.47587E+06        -0.50162E+08         0.00000E+00
    0.00000E+00         0.00000E+00        -0.46937E+08
 
   -0.45093E+08         0.51193E+06         0.00000E+00
    0.51193E+06        -0.50188E+08         0.00000E+00
    0.00000E+00         0.00000E+00        -0.46964E+08
 
   -0.45200E+08         0.54855E+06         0.00000E+00
    0.54855E+06        -0.50216E+08         0.00000E+00
    0.00000E+00         0.00000E+00        -0.46991E+08
 
   -0.45300E+08         0.58596E+06         0.00000E+00
    0.58596E+06        -0.50244E+08         0.00000E+00
    0.00000E+00         0.00000E+00        -0.47017E+08
 
   -0.45396E+08         0.62436E+06         0.00000E+00
    0.62436E+06        -0.50274E+08         0.00000E+00
    0.00000E+00         0.00000E+00        -0.47042E+08
 
   -0.45486E+08         0.66393E+06         0.00000E+00
    0.66393E+06        -0.50304E+08         0.00000E+00
    0.00000E+00         0.00000E+00        -0.47066E+08
 
   -0.45572E+08         0.70483E+06         0.00000E+00
    0.70483E+06        -0.50335E+08         0.00000E+00
    0.00000E+00         0.00000E+00        -0.47090E+08
 
   -0.45653E+08         0.74722E+06         0.00000E+00
    0.74722E+06        -0.50366E+08         0.00000E+00
    0.00000E+00         0.00000E+00        -0.47112E+08
 
   -0.45731E+08         0.79120E+06         0.00000E+00
    0.79120E+06        -0.50397E+08         0.00000E+00
    0.00000E+00         0.00000E+00        -0.47134E+08
 
   -0.45804E+08         0.83689E+06         0.00000E+00
    0.83689E+06        -0.50429E+08         0.00000E+00
    0.00000E+00         0.00000E+00        -0.47155E+08
 
   -0.45874E+08         0.88437E+06         0.00000E+00
    0.88437E+06        -0.50460E+08         0.00000E+00
    0.00000E+00         0.00000E+00        -0.47175E+08
 
   -0.45941E+08         0.93372E+06         0.00000E+00
    0.93372E+06        -0.50490E+08         0.00000E+00
    0.00000E+00         0.00000E+00        -0.47195E+08
 
   -0.46006E+08         0.98498E+06         0.00000E+00
    0.98498E+06        -0.50520E+08         0.00000E+00
    0.00000E+00         0.00000E+00        -0.47213E+08
 
   -0.46068E+08         0.10382E+07         0.00000E+00
    0.10382E+07        -0.50550E+08         0.00000E+00
    0.00000E+00         0.00000E+00        -0.47232E+08
 
   -0.46127E+08         0.10934E+07         0.00000E+00
    0.10934E+07        -0.50578E+08         0.00000E+00
    0.00000E+00         0.00000E+00        -0.47249E+08
 
   -0.46185E+08         0.11506E+07         0.00000E+00
    0.11506E+07        -0.50605E+08         0.00000E+00
    0.00000E+00         0.00000E+00        -0.47266E+08
 
   -0.46241E+08         0.12097E+07         0.00000E+00
    0.12097E+07        -0.50631E+08         0.00000E+00
    0.00000E+00         0.00000E+00        -0.47283E+08
 
   -0.46296E+08         0.12708E+07         0.00000E+00
    0.12708E+07        -0.50656E+08         0.00000E+00
    0.00000E+00         0.00000E+00        -0.47299E+08
 
   -0.46350E+08         0.13338E+07         0.00000E+00
    0.13338E+07        -0.50679E+08         0.00000E+00
    0.00000E+00         0.00000E+00        -0.47314E+08
 
   -0.46403E+08         0.13987E+07         0.00000E+00
    0.13987E+07        -0.50700E+08         0.00000E+00
    0.00000E+00         0.00000E+00        -0.47329E+08
 
   -0.46455E+08         0.14653E+07         0.00000E+00
    0.14653E+07        -0.50720E+08         0.00000E+00
    0.00000E+00         0.00000E+00        -0.47343E+08
 
   -0.46508E+08         0.15337E+07         0.00000E+00
    0.15337E+07        -0.50737E+08         0.00000E+00
    0.00000E+00         0.00000E+00        -0.47357E+08
 
   -0.46560E+08         0.16038E+07         0.00000E+00
    0.16038E+07        -0.50753E+08         0.00000E+00
    0.00000E+00         0.00000E+00        -0.47371E+08
 
   -0.46612E+08         0.16753E+07         0.00000E+00
    0.16753E+07        -0.50766E+08         0.00000E+00
    0.00000E+00         0.00000E+00        -0.47384E+08
 
   -0.46664E+08         0.17483E+07         0.00000E+00
    0.17483E+07        -0.50777E+08         0.00000E+00
    0.00000E+00         0.00000E+00        -0.47396E+08
 
   -0.46717E+08         0.18226E+07         0.00000E+00
    0.18226E+07        -0.50785E+08         0.00000E+00
    0.00000E+00         0.00000E+00        -0.47409E+08
 
   -0.46771E+08         0.18981E+07         0.00000E+00
    0.18981E+07        -0.50791E+08         0.00000E+00
    0.00000E+00         0.00000E+00        -0.47421E+08
 
   -0.46825E+08         0.19747E+07         0.00000E+00
    0.19747E+07        -0.50795E+08         0.00000E+00
    0.00000E+00         0.00000E+00        -0.47432E+08
 
   -0.46881E+08         0.20521E+07         0.00000E+00
    0.20521E+07        -0.50795E+08         0.00000E+00
    0.00000E+00         0.00000E+00        -0.47443E+08
 
   -0.46938E+08         0.21303E+07         0.00000E+00
    0.21303E+07        -0.50793E+08         0.00000E+00
    0.00000E+00         0.00000E+00        -0.47454E+08
 
   -0.46995E+08         0.22091E+07         0.00000E+00
    0.22091E+07        -0.50788E+08         0.00000E+00
    0.00000E+00         0.00000E+00        -0.47465E+08
 
   -0.47054E+08         0.22883E+07         0.00000E+00
    0.22883E+07        -0.50780E+08         0.00000E+00
    0.00000E+00         0.00000E+00        -0.47475E+08
 
   -0.47115E+08         0.23677E+07         0.00000E+00
    0.23677E+07        -0.50769E+08         0.00000E+00
    0.00000E+00         0.00000E+00        -0.47485E+08
 
   -0.47177E+08         0.24471E+07         0.00000E+00
    0.24471E+07        -0.50756E+08         0.00000E+00
    0.00000E+00         0.00000E+00        -0.47495E+08
 
   -0.47240E+08         0.25265E+07         0.00000E+00
    0.25265E+07        -0.50739E+08         0.00000E+00
    0.00000E+00         0.00000E+00        -0.47504E+08
 
   -0.47305E+08         0.26055E+07         0.00000E+00
    0.26055E+07        -0.50719E+08         0.00000E+00
    0.00000E+00         0.00000E+00        -0.47513E+08
 
   -0.47371E+08         0.26841E+07         0.00000E+00
    0.26841E+07        -0.50697E+08         0.00000E+00
    0.00000E+00         0.00000E+00        -0.47522E+08
 
   -0.47438E+08         0.27619E+07         0.00000E+00
    0.27619E+07        -0.50671E+08         0.00000E+00
    0.00000E+00         0.00000E+00        -0.47530E+08
 
   -0.47507E+08         0.28388E+07         0.00000E+00
    0.28388E+07        -0.50643E+08         0.00000E+00
    0.00000E+00         0.00000E+00        -0.47538E+08
 
   -0.43052E+08         0.21570E+05         0.00000E+00
    0.21570E+05        -0.49997E+08         0.00000E+00
    0.00000E+00         0.00000E+00        -0.46124E+08
 
   -0.43264E+08         0.56187E+05         0.00000E+00
    0.56187E+05        -0.50001E+08         0.00000E+00
    0.00000E+00         0.00000E+00        -0.46167E+08
 
   -0.43464E+08         0.87944E+05         0.00000E+00
    0.87944E+05        -0.50009E+08         0.00000E+00
    0.00000E+00         0.00000E+00        -0.46209E+08
 
   -0.43654E+08         0.11739E+06         0.00000E+00
    0.11739E+06        -0.50020E+08         0.00000E+00
    0.00000E+00         0.00000E+00        -0.46249E+08
 
   -0.43833E+08         0.14506E+06         0.00000E+00
    0.14506E+06        -0.50035E+08         0.00000E+00
    0.00000E+00         0.00000E+00        -0.46288E+08
 
   -0.44002E+08         0.17143E+06         0.00000E+00
    0.17143E+06        -0.50053E+08         0.00000E+00
    0.00000E+00         0.00000E+00        -0.46325E+08
 
   -0.44161E+08         0.19698E+06         0.00000E+00
    0.19698E+06        -0.50074E+08         0.00000E+00
    0.00000E+00         0.00000E+00        -0.46362E+08
 
   -0.44311E+08         0.22213E+06         0.00000E+00
    0.22213E+06        -0.50099E+08         0.00000E+00
    0.00000E+00         0.00000E+00        -0.46396E+08
 
   -0.44451E+08         0.24728E+06         0.00000E+00
    0.24728E+06        -0.50125E+08         0.00000E+00
    0.00000E+00         0.00000E+00        -0.46430E+08
 
   -0.44582E+08         0.27280E+06         0.00000E+00
    0.27280E+06        -0.50155E+08         0.00000E+00
    0.00000E+00         0.00000E+00        -0.46462E+08
 
   -0.44706E+08         0.29904E+06         0.00000E+00
    0.29904E+06        -0.50186E+08         0.00000E+00
    0.00000E+00         0.00000E+00        -0.46493E+08
 
   -0.44821E+08         0.32631E+06         0.00000E+00
    0.32631E+06        -0.50220E+08         0.00000E+00
    0.00000E+00         0.00000E+00        -0.46522E+08
 
   -0.44928E+08         0.35490E+06         0.00000E+00
    0.35490E+06        -0.50255E+08         0.00000E+00
    0.00000E+00         0.00000E+00        -0.46551E+08
 
   -0.45029E+08         0.38507E+06         0.00000E+00
    0.38507E+06        -0.50292E+08         0.00000E+00
    0.00000E+00         0.00000E+00        -0.46578E+08
 
   -0.45123E+08         0.41705E+06         0.00000E+00
    0.41705E+06        -0.50330E+08         0.00000E+00
    0.00000E+00         0.00000E+00        -0.46605E+08
 
   -0.45210E+08         0.45105E+06         0.00000E+00
    0.45105E+06        -0.50369E+08         0.00000E+00
    0.00000E+00         0.00000E+00        -0.46630E+08
 
   -0.45292E+08         0.48725E+06         0.00000E+00
    0.48725E+06        -0.50409E+08         0.00000E+00
    0.00000E+00         0.00000E+00        -0.46655E+08
 
   -0.45368E+08         0.52581E+06         0.00000E+00
    0.52581E+06        -0.50450E+08         0.00000E+00
    0.00000E+00         0.00000E+00        -0.46678E+08
 
   -0.45439E+08         0.56687E+06         0.00000E+00
    0.56687E+06        -0.50491E+08         0.00000E+00
    0.00000E+00         0.00000E+00        -0.46700E+08
 
   -0.45506E+08         0.61055E+06         0.00000E+00
    0.61055E+06        -0.50533E+08         0.00000E+00
    0.00000E+00         0.00000E+00        -0.46722E+08
 
   -0.45568E+08         0.65694E+06         0.00000E+00
    0.65694E+06        -0.50574E+08         0.00000E+00
    0.00000E+00         0.00000E+00        -0.46743E+08
 
   -0.45627E+08         0.70611E+06         0.00000E+00
    0.70611E+06        -0.50615E+08         0.00000E+00
    0.00000E+00         0.00000E+00        -0.46763E+08
 
   -0.45682E+08         0.75811E+06         0.00000E+00
    0.75811E+06        -0.50655E+08         0.00000E+00
    0.00000E+00         0.00000E+00        -0.46782E+08
 
   -0.45734E+08         0.81299E+06         0.00000E+00
    0.81299E+06        -0.50695E+08         0.00000E+00
    0.00000E+00         0.00000E+00        -0.46800E+08
 
   -0.45784E+08         0.87076E+06         0.00000E+00
    0.87076E+06        -0.50734E+08         0.00000E+00
    0.00000E+00         0.00000E+00        -0.46818E+08
 
   -0.45832E+08         0.93142E+06         0.00000E+00
    0.93142E+06        -0.50772E+08         0.00000E+00
    0.00000E+00         0.00000E+00        -0.46835E+08
 
   -0.45878E+08         0.99496E+06         0.00000E+00
    0.99496E+06        -0.50809E+08         0.00000E+00
    0.00000E+00         0.00000E+00        -0.46852E+08
 
   -0.45922E+08         0.10613E+07         0.00000E+00
    0.10613E+07        -0.50844E+08         0.00000E+00
    0.00000E+00         0.00000E+00        -0.46868E+08
 
   -0.45965E+08         0.11305E+07         0.00000E+00
    0.11305E+07        -0.50877E+08         0.00000E+00
    0.00000E+00         0.00000E+00        -0.46883E+08
 
   -0.46007E+08         0.12024E+07         0.00000E+00
    0.12024E+07        -0.50909E+08         0.00000E+00
    0.00000E+00         0.00000E+00        -0.46898E+08
 
   -0.46049E+08         0.12769E+07         0.00000E+00
    0.12769E+07        -0.50938E+08         0.00000E+00
    0.00000E+00         0.00000E+00        -0.46912E+08
 
   -0.46091E+08         0.13540E+07         0.00000E+00
    0.13540E+07        -0.50966E+08         0.00000E+00
    0.00000E+00         0.00000E+00        -0.46926E+08
 
   -0.46133E+08         0.14335E+07         0.00000E+00
    0.14335E+07        -0.50991E+08         0.00000E+00
    0.00000E+00         0.00000E+00        -0.46939E+08
 
   -0.46176E+08         0.15153E+07         0.00000E+00
    0.15153E+07        -0.51013E+08         0.00000E+00
    0.00000E+00         0.00000E+00        -0.46952E+08
 
   -0.46219E+08         0.15994E+07         0.00000E+00
    0.15994E+07        -0.51033E+08         0.00000E+00
    0.00000E+00         0.00000E+00        -0.46965E+08
 
   -0.46263E+08         0.16854E+07         0.00000E+00
    0.16854E+07        -0.51050E+08         0.00000E+00
    0.00000E+00         0.00000E+00        -0.46977E+08
 
   -0.46309E+08         0.17734E+07         0.00000E+00
    0.17734E+07        -0.51064E+08         0.00000E+00
    0.00000E+00         0.00000E+00        -0.46989E+08
 
   -0.46356E+08         0.18630E+07         0.00000E+00
    0.18630E+07        -0.51076E+08         0.00000E+00
    0.00000E+00         0.00000E+00        -0.47001E+08
 
   -0.46404E+08         0.19542E+07         0.00000E+00
    0.19542E+07        -0.51084E+08         0.00000E+00
    0.00000E+00         0.00000E+00        -0.47012E+08
 
   -0.46455E+08         0.20467E+07         0.00000E+00
    0.20467E+07        -0.51088E+08         0.00000E+00
    0.00000E+00         0.00000E+00        -0.47023E+08
 
   -0.46507E+08         0.21403E+07         0.00000E+00
    0.21403E+07        -0.51090E+08         0.00000E+00
    0.00000E+00         0.00000E+00        -0.47034E+08
 
   -0.46562E+08         0.22348E+07         0.00000E+00
    0.22348E+07        -0.51088E+08         0.00000E+00
    0.00000E+00         0.00000E+00        -0.47044E+08
 
   -0.46618E+08         0.23300E+07         0.00000E+00
    0.23300E+07        -0.51082E+08         0.00000E+00
    0.00000E+00         0.00000E+00        -0.47055E+08
 
   -0.46678E+08         0.24256E+07         0.00000E+00
    0.24256E+07        -0.51073E+08         0.00000E+00
    0.00000E+00         0.00000E+00        -0.47065E+08
 
   -0.46740E+08         0.25214E+07         0.00000E+00
    0.25214E+07        -0.51060E+08         0.00000E+00
    0.00000E+00         0.00000E+00        -0.47074E+08
 
   -0.46804E+08         0.26172E+07         0.00000E+00
    0.26172E+07        -0.51044E+08         0.00000E+00
    0.00000E+00         0.00000E+00        -0.47084E+08
 
   -0.46871E+08         0.27126E+07         0.00000E+00
    0.27126E+07        -0.51024E+08         0.00000E+00
    0.00000E+00         0.00000E+00        -0.47093E+08
 
   -0.46940E+08         0.28075E+07         0.00000E+00
    0.28075E+07        -0.51001E+08         0.00000E+00
    0.00000E+00         0.00000E+00        -0.47103E+08
 
   -0.47012E+08         0.29015E+07         0.00000E+00
    0.29015E+07        -0.50973E+08         0.00000E+00
    0.00000E+00         0.00000E+00        -0.47112E+08
 
   -0.47087E+08         0.29945E+07         0.00000E+00
    0.29945E+07        -0.50943E+08         0.00000E+00
    0.00000E+00         0.00000E+00        -0.47120E+08
 
   -0.42924E+08         0.95712E+04         0.00000E+00
    0.95712E+04        -0.49996E+08         0.00000E+00
    0.00000E+00         0.00000E+00        -0.45631E+08
 
   -0.43150E+08         0.22066E+05         0.00000E+00
    0.22066E+05        -0.50002E+08         0.00000E+00
    0.00000E+00         0.00000E+00        -0.45677E+08
 
   -0.43361E+08         0.32617E+05         0.00000E+00
    0.32617E+05        -0.50012E+08         0.00000E+00
    0.00000E+00         0.00000E+00        -0.45721E+08
 
   -0.43558E+08         0.41857E+05         0.00000E+00
    0.41857E+05        -0.50027E+08         0.00000E+00
    0.00000E+00         0.00000E+00        -0.45764E+08
 
   -0.43743E+08         0.50377E+05         0.00000E+00
    0.50377E+05        -0.50047E+08         0.00000E+00
    0.00000E+00         0.00000E+00        -0.45804E+08
 
   -0.43914E+08         0.58727E+05         0.00000E+00
    0.58727E+05        -0.50070E+08         0.00000E+00
    0.00000E+00         0.00000E+00        -0.45843E+08
 
   -0.44073E+08         0.67420E+05         0.00000E+00
    0.67420E+05        -0.50098E+08         0.00000E+00
    0.00000E+00         0.00000E+00        -0.45881E+08
 
   -0.44221E+08         0.76926E+05         0.00000E+00
    0.76926E+05        -0.50129E+08         0.00000E+00
    0.00000E+00         0.00000E+00        -0.45916E+08
 
   -0.44357E+08         0.87679E+05         0.00000E+00
    0.87679E+05        -0.50164E+08         0.00000E+00
    0.00000E+00         0.00000E+00        -0.45951E+08
 
   -0.44483E+08         0.10008E+06         0.00000E+00
    0.10008E+06        -0.50201E+08         0.00000E+00
    0.00000E+00         0.00000E+00        -0.45983E+08
 
   -0.44599E+08         0.11448E+06         0.00000E+00
    0.11448E+06        -0.50242E+08         0.00000E+00
    0.00000E+00         0.00000E+00        -0.46015E+08
 
   -0.44705E+08         0.13121E+06         0.00000E+00
    0.13121E+06        -0.50285E+08         0.00000E+00
    0.00000E+00         0.00000E+00        -0.46044E+08
 
   -0.44802E+08         0.15057E+06         0.00000E+00
    0.15057E+06        -0.50330E+08         0.00000E+00
    0.00000E+00         0.00000E+00        -0.46073E+08
 
   -0.44891E+08         0.17281E+06         0.00000E+00
    0.17281E+06        -0.50377E+08         0.00000E+00
    0.00000E+00         0.00000E+00        -0.46100E+08
 
   -0.44972E+08         0.19817E+06         0.00000E+00
    0.19817E+06        -0.50425E+08         0.00000E+00
    0.00000E+00         0.00000E+00        -0.46126E+08
 
   -0.45046E+08         0.22683E+06         0.00000E+00
    0.22683E+06        -0.50475E+08         0.00000E+00
    0.00000E+00         0.00000E+00        -0.46151E+08
 
   -0.45113E+08         0.25898E+06         0.00000E+00
    0.25898E+06        -0.50525E+08         0.00000E+00
    0.00000E+00         0.00000E+00        -0.46174E+08
 
   -0.45174E+08         0.29476E+06         0.00000E+00
    0.29476E+06        -0.50577E+08         0.00000E+00
    0.00000E+00         0.00000E+00        -0.46197E+08
 
   -0.45229E+08         0.33428E+06         0.00000E+00
    0.33428E+06        -0.50629E+08         0.00000E+00
    0.00000E+00         0.00000E+00        -0.46218E+08
 
   -0.45279E+08         0.37764E+06         0.00000E+00
    0.37764E+06        -0.50681E+08         0.00000E+00
    0.00000E+00         0.00000E+00        -0.46239E+08
 
   -0.45325E+08         0.42491E+06         0.00000E+00
    0.42491E+06        -0.50733E+08         0.00000E+00
    0.00000E+00         0.00000E+00        -0.46258E+08
 
   -0.45367E+08         0.47614E+06         0.00000E+00
    0.47614E+06        -0.50785E+08         0.00000E+00
    0.00000E+00         0.00000E+00        -0.46277E+08
 
   -0.45405E+08         0.53136E+06         0.00000E+00
    0.53136E+06        -0.50836E+08         0.00000E+00
    0.00000E+00         0.00000E+00        -0.46295E+08
 
   -0.45441E+08         0.59058E+06         0.00000E+00
    0.59058E+06        -0.50886E+08         0.00000E+00
    0.00000E+00         0.00000E+00        -0.46312E+08
 
   -0.45473E+08         0.65378E+06         0.00000E+00
    0.65378E+06        -0.50935E+08         0.00000E+00
    0.00000E+00         0.00000E+00        -0.46328E+08
 
   -0.45504E+08         0.72093E+06         0.00000E+00
    0.72093E+06        -0.50983E+08         0.00000E+00
    0.00000E+00         0.00000E+00        -0.46344E+08
 
   -0.45533E+08         0.79200E+06         0.00000E+00
    0.79200E+06        -0.51029E+08         0.00000E+00
    0.00000E+00         0.00000E+00        -0.46359E+08
 
   -0.45561E+08         0.86691E+06         0.00000E+00
    0.86691E+06        -0.51074E+08         0.00000E+00
    0.00000E+00         0.00000E+00        -0.46373E+08
 
   -0.45588E+08         0.94558E+06         0.00000E+00
    0.94558E+06        -0.51117E+08         0.00000E+00
    0.00000E+00         0.00000E+00        -0.46387E+08
 
   -0.45615E+08         0.10279E+07         0.00000E+00
    0.10279E+07        -0.51157E+08         0.00000E+00
    0.00000E+00         0.00000E+00        -0.46401E+08
 
   -0.45641E+08         0.11138E+07         0.00000E+00
    0.11138E+07        -0.51195E+08         0.00000E+00
    0.00000E+00         0.00000E+00        -0.46414E+08
 
   -0.45669E+08         0.12032E+07         0.00000E+00
    0.12032E+07        -0.51231E+08         0.00000E+00
    0.00000E+00         0.00000E+00        -0.46426E+08
 
   -0.45697E+08         0.12958E+07         0.00000E+00
    0.12958E+07        -0.51264E+08         0.00000E+00
    0.00000E+00         0.00000E+00        -0.46439E+08
 
   -0.45726E+08         0.13916E+07         0.00000E+00
    0.13916E+07        -0.51294E+08         0.00000E+00
    0.00000E+00         0.00000E+00        -0.46450E+08
 
   -0.45757E+08         0.14903E+07         0.00000E+00
    0.14903E+07        -0.51321E+08         0.00000E+00
    0.00000E+00         0.00000E+00        -0.46462E+08
 
   -0.45790E+08         0.15918E+07         0.00000E+00
    0.15918E+07        -0.51345E+08         0.00000E+00
    0.00000E+00         0.00000E+00        -0.46473E+08
 
   -0.45824E+08         0.16959E+07         0.00000E+00
    0.16959E+07        -0.51365E+08         0.00000E+00
    0.00000E+00         0.00000E+00        -0.46484E+08
 
   -0.45862E+08         0.18023E+07         0.00000E+00
    0.18023E+07        -0.51382E+08         0.00000E+00
    0.00000E+00         0.00000E+00        -0.46495E+08
 
   -0.45902E+08         0.19109E+07         0.00000E+00
    0.19109E+07        -0.51395E+08         0.00000E+00
    0.00000E+00         0.00000E+00        -0.46506E+08
 
   -0.45945E+08         0.20213E+07         0.00000E+00
    0.20213E+07        -0.51404E+08         0.00000E+00
    0.00000E+00         0.00000E+00        -0.46516E+08
 
   -0.45991E+08         0.21334E+07         0.00000E+00
    0.21334E+07        -0.51409E+08         0.00000E+00
    0.00000E+00         0.00000E+00        -0.46526E+08
 
   -0.46041E+08         0.22468E+07         0.00000E+00
    0.22468E+07        -0.51410E+08         0.00000E+00
    0.00000E+00         0.00000E+00        -0.46537E+08
 
   -0.46094E+08         0.23613E+07         0.00000E+00
    0.23613E+07        -0.51407E+08         0.00000E+00
    0.00000E+00         0.00000E+00        -0.46547E+08
 
   -0.46151E+08         0.24765E+07         0.00000E+00
    0.24765E+07        -0.51400E+08         0.00000E+00
    0.00000E+00         0.00000E+00        -0.46557E+08
 
   -0.46212E+08         0.25922E+07         0.00000E+00
    0.25922E+07        -0.51388E+08         0.00000E+00
    0.00000E+00         0.00000E+00        -0.46566E+08
 
   -0.46277E+08         0.27079E+07         0.00000E+00
    0.27079E+07        -0.51372E+08         0.00000E+00
    0.00000E+00         0.00000E+00        -0.46576E+08
 
   -0.46346E+08         0.28235E+07         0.00000E+00
    0.28235E+07        -0.51352E+08         0.00000E+00
    0.00000E+00         0.00000E+00        -0.46586E+08
 
   -0.46419E+08         0.29384E+07         0.00000E+00
    0.29384E+07        -0.51327E+08         0.00000E+00
    0.00000E+00         0.00000E+00        -0.46596E+08
 
   -0.46496E+08         0.30524E+07         0.00000E+00
    0.30524E+07        -0.51298E+08         0.00000E+00
    0.00000E+00         0.00000E+00        -0.46605E+08
 
   -0.46578E+08         0.31651E+07         0.00000E+00
    0.31651E+07        -0.51264E+08         0.00000E+00
    0.00000E+00         0.00000E+00        -0.46615E+08
 
   -0.42925E+08        -0.62975E+04         0.00000E+00
   -0.62975E+04        -0.49995E+08         0.00000E+00
    0.00000E+00         0.00000E+00        -0.45075E+08
 
   -0.43159E+08        -0.22435E+05         0.00000E+00
   -0.22435E+05        -0.50002E+08         0.00000E+00
    0.00000E+00         0.00000E+00        -0.45123E+08
 
   -0.43375E+08        -0.39077E+05         0.00000E+00
   -0.39077E+05        -0.50016E+08         0.00000E+00
    0.00000E+00         0.00000E+00        -0.45169E+08
 
   -0.43574E+08        -0.55523E+05         0.00000E+00
   -0.55523E+05        -0.50035E+08         0.00000E+00
    0.00000E+00         0.00000E+00        -0.45212E+08
 
   -0.43757E+08        -0.71124E+05         0.00000E+00
   -0.71124E+05        -0.50059E+08         0.00000E+00
    0.00000E+00         0.00000E+00        -0.45254E+08
 
   -0.43924E+08        -0.85284E+05         0.00000E+00
   -0.85284E+05        -0.50089E+08         0.00000E+00
    0.00000E+00         0.00000E+00        -0.45293E+08
 
   -0.44076E+08        -0.97458E+05         0.00000E+00
   -0.97458E+05        -0.50124E+08         0.00000E+00
    0.00000E+00         0.00000E+00        -0.45330E+08
 
   -0.44215E+08        -0.10715E+06         0.00000E+00
   -0.10715E+06        -0.50163E+08         0.00000E+00
    0.00000E+00         0.00000E+00        -0.45366E+08
 
   -0.44340E+08        -0.11391E+06         0.00000E+00
   -0.11391E+06        -0.50206E+08         0.00000E+00
    0.00000E+00         0.00000E+00        -0.45400E+08
 
   -0.44452E+08        -0.11734E+06         0.00000E+00
   -0.11734E+06        -0.50253E+08         0.00000E+00
    0.00000E+00         0.00000E+00        -0.45431E+08
 
   -0.44553E+08        -0.11708E+06         0.00000E+00
   -0.11708E+06        -0.50302E+08         0.00000E+00
    0.00000E+00         0.00000E+00        -0.45462E+08
 
   -0.44643E+08        -0.11282E+06         0.00000E+00
   -0.11282E+06        -0.50355E+08         0.00000E+00
    0.00000E+00         0.00000E+00        -0.45490E+08
 
   -0.44722E+08        -0.10428E+06         0.00000E+00
   -0.10428E+06        -0.50410E+08         0.00000E+00
    0.00000E+00         0.00000E+00        -0.45517E+08
 
   -0.44792E+08        -0.91218E+05         0.00000E+00
   -0.91218E+05        -0.50467E+08         0.00000E+00
    0.00000E+00         0.00000E+00        -0.45542E+08
 
   -0.44853E+08        -0.73444E+05         0.00000E+00
   -0.73444E+05        -0.50526E+08         0.00000E+00
    0.00000E+00         0.00000E+00        -0.45566E+08
 
   -0.44906E+08        -0.50787E+05         0.00000E+00
   -0.50787E+05        -0.50587E+08         0.00000E+00
    0.00000E+00         0.00000E+00        -0.45589E+08
 
   -0.44952E+08        -0.23111E+05         0.00000E+00
   -0.23111E+05        -0.50648E+08         0.00000E+00
    0.00000E+00         0.00000E+00        -0.45611E+08
 
   -0.44991E+08         0.96914E+04         0.00000E+00
    0.96914E+04        -0.50711E+08         0.00000E+00
    0.00000E+00         0.00000E+00        -0.45631E+08
 
   -0.45024E+08         0.47698E+05         0.00000E+00
    0.47698E+05        -0.50773E+08         0.00000E+00
    0.00000E+00         0.00000E+00        -0.45650E+08
 
   -0.45051E+08         0.90962E+05         0.00000E+00
    0.90962E+05        -0.50836E+08         0.00000E+00
    0.00000E+00         0.00000E+00        -0.45668E+08
 
   -0.45074E+08         0.13951E+06         0.00000E+00
    0.13951E+06        -0.50899E+08         0.00000E+00
    0.00000E+00         0.00000E+00        -0.45685E+08
 
   -0.45093E+08         0.19336E+06         0.00000E+00
    0.19336E+06        -0.50961E+08         0.00000E+00
    0.00000E+00         0.00000E+00        -0.45701E+08
 
   -0.45108E+08         0.25250E+06         0.00000E+00
    0.25250E+06        -0.51022E+08         0.00000E+00
    0.00000E+00         0.00000E+00        -0.45716E+08
 
   -0.45120E+08         0.31689E+06         0.00000E+00
    0.31689E+06        -0.51083E+08         0.00000E+00
    0.00000E+00         0.00000E+00        -0.45731E+08
 
   -0.45130E+08         0.38648E+06         0.00000E+00
    0.38648E+06        -0.51142E+08         0.00000E+00
    0.00000E+00         0.00000E+00        -0.45745E+08
 
   -0.45138E+08         0.46122E+06         0.00000E+00
    0.46122E+06        -0.51199E+08         0.00000E+00
    0.00000E+00         0.00000E+00        -0.45758E+08
 
   -0.45145E+08         0.54101E+06         0.00000E+00
    0.54101E+06        -0.51255E+08         0.00000E+00
    0.00000E+00         0.00000E+00        -0.45771E+08
 
   -0.45151E+08         0.62577E+06         0.00000E+00
    0.62577E+06        -0.51309E+08         0.00000E+00
    0.00000E+00         0.00000E+00        -0.45783E+08
 
   -0.45157E+08         0.71538E+06         0.00000E+00
    0.71538E+06        -0.51361E+08         0.00000E+00
    0.00000E+00         0.00000E+00        -0.45794E+08
 
   -0.45163E+08         0.80972E+06         0.00000E+00
    0.80972E+06        -0.51410E+08         0.00000E+00
    0.00000E+00         0.00000E+00        -0.45805E+08
 
   -0.45170E+08         0.90865E+06         0.00000E+00
    0.90865E+06        -0.51457E+08         0.00000E+00
    0.00000E+00         0.00000E+00        -0.45816E+08
 
   -0.45178E+08         0.10120E+07         0.00000E+00
    0.10120E+07        -0.51501E+08         0.00000E+00
    0.00000E+00         0.00000E+00        -0.45826E+08
 
   -0.45188E+08         0.11196E+07         0.00000E+00
    0.11196E+07        -0.51541E+08         0.00000E+00
    0.00000E+00         0.00000E+00        -0.45836E+08
 
   -0.45200E+08         0.12313E+07         0.00000E+00
    0.12313E+07        -0.51579E+08         0.00000E+00
    0.00000E+00         0.00000E+00        -0.45846E+08
 
   -0.45214E+08         0.13469E+07         0.00000E+00
    0.13469E+07        -0.51613E+08         0.00000E+00
    0.00000E+00         0.00000E+00        -0.45856E+08
 
   -0.45231E+08         0.14661E+07         0.00000E+00
    0.14661E+07        -0.51643E+08         0.00000E+00
    0.00000E+00         0.00000E+00        -0.45865E+08
 
   -0.45252E+08         0.15888E+07         0.00000E+00
    0.15888E+07        -0.51670E+08         0.00000E+00
    0.00000E+00         0.00000E+00        -0.45875E+08
 
   -0.45276E+08         0.17146E+07         0.00000E+00
    0.17146E+07        -0.51692E+08         0.00000E+00
    0.00000E+00         0.00000E+00        -0.45884E+08
 
   -0.45304E+08         0.18434E+07         0.00000E+00
    0.18434E+07        -0.51710E+08         0.00000E+00
    0.00000E+00         0.00000E+00        -0.45893E+08
 
   -0.45336E+08         0.19747E+07         0.00000E+00
    0.19747E+07        -0.51724E+08         0.00000E+00
    0.00000E+00         0.00000E+00        -0.45903E+08
 
   -0.45374E+08         0.21084E+07         0.00000E+00
    0.21084E+07        -0.51733E+08         0.00000E+00
    0.00000E+00         0.00000E+00        -0.45912E+08
 
   -0.45416E+08         0.22441E+07         0.00000E+00
    0.22441E+07        -0.51738E+08         0.00000E+00
    0.00000E+00         0.00000E+00        -0.45921E+08
 
   -0.45463E+08         0.23813E+07         0.00000E+00
    0.23813E+07        -0.51738E+08         0.00000E+00
    0.00000E+00         0.00000E+00        -0.45931E+08
 
   -0.45516E+08         0.25199E+07         0.00000E+00
    0.25199E+07        -0.51733E+08         0.00000E+00
    0.00000E+00         0.00000E+00        -0.45940E+08
 
   -0.45575E+08         0.26593E+07         0.00000E+00
    0.26593E+07        -0.51722E+08         0.00000E+00
    0.00000E+00         0.00000E+00        -0.45950E+08
 
   -0.45640E+08         0.27991E+07         0.00000E+00
    0.27991E+07        -0.51707E+08         0.00000E+00
    0.00000E+00         0.00000E+00        -0.45960E+08
 
   -0.45710E+08         0.29390E+07         0.00000E+00
    0.29390E+07        -0.51686E+08         0.00000E+00
    0.00000E+00         0.00000E+00        -0.45970E+08
 
   -0.45787E+08         0.30784E+07         0.00000E+00
    0.30784E+07        -0.51659E+08         0.00000E+00
    0.00000E+00         0.00000E+00        -0.45980E+08
 
   -0.45870E+08         0.32170E+07         0.00000E+00
    0.32170E+07        -0.51628E+08         0.00000E+00
    0.00000E+00         0.00000E+00        -0.45990E+08
 
   -0.45960E+08         0.33541E+07         0.00000E+00
    0.33541E+07        -0.51591E+08         0.00000E+00
    0.00000E+00         0.00000E+00        -0.46000E+08
 
   -0.43092E+08        -0.26558E+05         0.00000E+00
   -0.26558E+05        -0.49994E+08         0.00000E+00
    0.00000E+00         0.00000E+00        -0.44447E+08
 
   -0.43325E+08        -0.78490E+05         0.00000E+00
   -0.78490E+05        -0.50003E+08         0.00000E+00
    0.00000E+00         0.00000E+00        -0.44495E+08
 
   -0.43537E+08        -0.12881E+06         0.00000E+00
   -0.12881E+06        -0.50020E+08         0.00000E+00
    0.00000E+00         0.00000E+00        -0.44541E+08
 
   -0.43728E+08        -0.17676E+06         0.00000E+00
   -0.17676E+06        -0.50043E+08         0.00000E+00
    0.00000E+00         0.00000E+00        -0.44584E+08
 
   -0.43899E+08        -0.22165E+06         0.00000E+00
   -0.22165E+06        -0.50073E+08         0.00000E+00
    0.00000E+00         0.00000E+00        -0.44624E+08
 
   -0.44053E+08        -0.26288E+06         0.00000E+00
   -0.26288E+06        -0.50110E+08         0.00000E+00
    0.00000E+00         0.00000E+00        -0.44662E+08
 
   -0.44188E+08        -0.29987E+06         0.00000E+00
   -0.29987E+06        -0.50152E+08         0.00000E+00
    0.00000E+00         0.00000E+00        -0.44698E+08
 
   -0.44308E+08        -0.33215E+06         0.00000E+00
   -0.33215E+06        -0.50199E+08         0.00000E+00
    0.00000E+00         0.00000E+00        -0.44731E+08
 
   -0.44412E+08        -0.35928E+06         0.00000E+00
   -0.35928E+06        -0.50250E+08         0.00000E+00
    0.00000E+00         0.00000E+00        -0.44762E+08
 
   -0.44502E+08        -0.38089E+06         0.00000E+00
   -0.38089E+06        -0.50306E+08         0.00000E+00
    0.00000E+00         0.00000E+00        -0.44791E+08
 
   -0.44578E+08        -0.39667E+06         0.00000E+00
   -0.39667E+06        -0.50365E+08         0.00000E+00
    0.00000E+00         0.00000E+00        -0.44818E+08
 
   -0.44642E+08        -0.40634E+06         0.00000E+00
   -0.40634E+06        -0.50427E+08         0.00000E+00
    0.00000E+00         0.00000E+00        -0.44844E+08
 
   -0.44695E+08        -0.40970E+06         0.00000E+00
   -0.40970E+06        -0.50492E+08         0.00000E+00
    0.00000E+00         0.00000E+00        -0.44867E+08
 
   -0.44737E+08        -0.40656E+06         0.00000E+00
   -0.40656E+06        -0.50559E+08         0.00000E+00
    0.00000E+00         0.00000E+00        -0.44889E+08
 
   -0.44769E+08        -0.39679E+06         0.00000E+00
   -0.39679E+06        -0.50628E+08         0.00000E+00
    0.00000E+00         0.00000E+00        -0.44909E+08
 
   -0.44793E+08        -0.38029E+06         0.00000E+00
   -0.38029E+06        -0.50699E+08         0.00000E+00
    0.00000E+00         0.00000E+00        -0.44928E+08
 
   -0.44809E+08        -0.35701E+06         0.00000E+00
   -0.35701E+06        -0.50770E+08         0.00000E+00
    0.00000E+00         0.00000E+00        -0.44946E+08
 
   -0.44818E+08        -0.32690E+06         0.00000E+00
   -0.32690E+06        -0.50842E+08         0.00000E+00
    0.00000E+00         0.00000E+00        -0.44962E+08
 
   -0.44821E+08        -0.28996E+06         0.00000E+00
   -0.28996E+06        -0.50914E+08         0.00000E+00
    0.00000E+00         0.00000E+00        -0.44977E+08
 
   -0.44819E+08        -0.24621E+06         0.00000E+00
   -0.24621E+06        -0.50986E+08         0.00000E+00
    0.00000E+00         0.00000E+00        -0.44991E+08
 
   -0.44812E+08        -0.19567E+06         0.00000E+00
   -0.19567E+06        -0.51058E+08         0.00000E+00
    0.00000E+00         0.00000E+00        -0.45004E+08
 
   -0.44800E+08        -0.13841E+06         0.00000E+00
   -0.13841E+06        -0.51129E+08         0.00000E+00
    0.00000E+00         0.00000E+00        -0.45016E+08
 
   -0.44786E+08        -0.74492E+05         0.00000E+00
   -0.74492E+05        -0.51199E+08         0.00000E+00
    0.00000E+00         0.00000E+00        -0.45027E+08
 
   -0.44769E+08        -0.40045E+04         0.00000E+00
   -0.40045E+04        -0.51269E+08         0.00000E+00
    0.00000E+00         0.00000E+00        -0.45037E+08
 
   -0.44750E+08         0.72956E+05         0.00000E+00
    0.72956E+05        -0.51336E+08         0.00000E+00
    0.00000E+00         0.00000E+00        -0.45047E+08
 
   -0.44729E+08         0.15628E+06         0.00000E+00
    0.15628E+06        -0.51402E+08         0.00000E+00
    0.00000E+00         0.00000E+00        -0.45056E+08
 
   -0.44708E+08         0.24586E+06         0.00000E+00
    0.24586E+06        -0.51466E+08         0.00000E+00
    0.00000E+00         0.00000E+00        -0.45065E+08
 
   -0.44687E+08         0.34155E+06         0.00000E+00
    0.34155E+06        -0.51528E+08         0.00000E+00
    0.00000E+00         0.00000E+00        -0.45073E+08
 
   -0.44666E+08         0.44323E+06         0.00000E+00
    0.44323E+06        -0.51587E+08         0.00000E+00
    0.00000E+00         0.00000E+00        -0.45080E+08
 
   -0.44646E+08         0.55074E+06         0.00000E+00
    0.55074E+06        -0.51644E+08         0.00000E+00
    0.00000E+00         0.00000E+00        -0.45088E+08
 
   -0.44628E+08         0.66393E+06         0.00000E+00
    0.66393E+06        -0.51698E+08         0.00000E+00
    0.00000E+00         0.00000E+00        -0.45095E+08
 
   -0.44612E+08         0.78263E+06         0.00000E+00
    0.78263E+06        -0.51749E+08         0.00000E+00
    0.00000E+00         0.00000E+00        -0.45102E+08
 
   -0.44598E+08         0.90665E+06         0.00000E+00
    0.90665E+06        -0.51797E+08         0.00000E+00
    0.00000E+00         0.00000E+00        -0.45109E+08
 
   -0.44587E+08         0.10358E+07         0.00000E+00
    0.10358E+07        -0.51841E+08         0.00000E+00
    0.00000E+00         0.00000E+00        -0.45115E+08
 
   -0.44580E+08         0.11699E+07         0.00000E+00
    0.11699E+07        -0.51882E+08         0.00000E+00
    0.00000E+00         0.00000E+00        -0.45122E+08
 
   -0.44577E+08         0.13087E+07         0.00000E+00
    0.13087E+07        -0.51919E+08         0.00000E+00
    0.00000E+00         0.00000E+00        -0.45129E+08
 
   -0.44579E+08         0.14519E+07         0.00000E+00
    0.14519E+07        -0.51951E+08         0.00000E+00
    0.00000E+00         0.00000E+00        -0.45136E+08
 
   -0.44585E+08         0.15993E+07         0.00000E+00
    0.15993E+07        -0.51979E+08         0.00000E+00
    0.00000E+00         0.00000E+00        -0.45143E+08
 
   -0.44597E+08         0.17507E+07         0.00000E+00
    0.17507E+07        -0.52003E+08         0.00000E+00
    0.00000E+00         0.00000E+00        -0.45150E+08
 
   -0.44615E+08         0.19056E+07         0.00000E+00
    0.19056E+07        -0.52022E+08         0.00000E+00
    0.00000E+00         0.00000E+00        -0.45157E+08
 
   -0.44639E+08         0.20638E+07         0.00000E+00
    0.20638E+07        -0.52036E+08         0.00000E+00
    0.00000E+00         0.00000E+00        -0.45165E+08
 
   -0.44670E+08         0.22249E+07         0.00000E+00
    0.22249E+07        -0.52044E+08         0.00000E+00
    0.00000E+00         0.00000E+00        -0.45173E+08
 
   -0.44709E+08         0.23884E+07         0.00000E+00
    0.23884E+07        -0.52047E+08         0.00000E+00
    0.00000E+00         0.00000E+00        -0.45181E+08
 
   -0.44754E+08         0.25541E+07         0.00000E+00
    0.25541E+07        -0.52044E+08         0.00000E+00
    0.00000E+00         0.00000E+00        -0.45190E+08
 
   -0.44808E+08         0.27214E+07         0.00000E+00
    0.27214E+07        -0.52036E+08         0.00000E+00
    0.00000E+00         0.00000E+00        -0.45199E+08
 
   -0.44870E+08         0.28898E+07         0.00000E+00
    0.28898E+07        -0.52021E+08         0.00000E+00
    0.00000E+00         0.00000E+00        -0.45208E+08
 
   -0.44941E+08         0.30588E+07         0.00000E+00
    0.30588E+07        -0.52000E+08         0.00000E+00
    0.00000E+00         0.00000E+00        -0.45218E+08
 
   -0.45020E+08         0.32278E+07         0.00000E+00
    0.32278E+07        -0.51973E+08         0.00000E+00
    0.00000E+00         0.00000E+00        -0.45228E+08
 
   -0.45108E+08         0.33963E+07         0.00000E+00
    0.33963E+07        -0.51939E+08         0.00000E+00
    0.00000E+00         0.00000E+00        -0.45239E+08
 
   -0.45205E+08         0.35636E+07         0.00000E+00
    0.35636E+07        -0.51898E+08         0.00000E+00
    0.00000E+00         0.00000E+00        -0.45250E+08
 
   -0.43462E+08        -0.51692E+05         0.00000E+00
   -0.51692E+05        -0.49993E+08         0.00000E+00
    0.00000E+00         0.00000E+00        -0.43736E+08
 
   -0.43682E+08        -0.14703E+06         0.00000E+00
   -0.14703E+06        -0.50004E+08         0.00000E+00
    0.00000E+00         0.00000E+00        -0.43782E+08
 
   -0.43877E+08        -0.23774E+06         0.00000E+00
   -0.23774E+06        -0.50024E+08         0.00000E+00
    0.00000E+00         0.00000E+00        -0.43825E+08
 
   -0.44047E+08        -0.32304E+06         0.00000E+00
   -0.32304E+06        -0.50052E+08         0.00000E+00
    0.00000E+00         0.00000E+00        -0.43865E+08
 
   -0.44194E+08        -0.40223E+06         0.00000E+00
   -0.40223E+06        -0.50088E+08         0.00000E+00
    0.00000E+00         0.00000E+00        -0.43901E+08
 
   -0.44321E+08        -0.47472E+06         0.00000E+00
   -0.47472E+06        -0.50131E+08         0.00000E+00
    0.00000E+00         0.00000E+00        -0.43935E+08
 
   -0.44427E+08        -0.53998E+06         0.00000E+00
   -0.53998E+06        -0.50180E+08         0.00000E+00
    0.00000E+00         0.00000E+00        -0.43966E+08
 
   -0.44515E+08        -0.59757E+06         0.00000E+00
   -0.59757E+06        -0.50234E+08         0.00000E+00
    0.00000E+00         0.00000E+00        -0.43995E+08
 
   -0.44585E+08        -0.64715E+06         0.00000E+00
   -0.64715E+06        -0.50294E+08         0.00000E+00
    0.00000E+00         0.00000E+00        -0.44021E+08
 
   -0.44640E+08        -0.68843E+06         0.00000E+00
   -0.68843E+06        -0.50358E+08         0.00000E+00
    0.00000E+00         0.00000E+00        -0.44044E+08
 
   -0.44680E+08        -0.72120E+06         0.00000E+00
   -0.72120E+06        -0.50425E+08         0.00000E+00
    0.00000E+00         0.00000E+00        -0.44066E+08
 
   -0.44707E+08        -0.74529E+06         0.00000E+00
   -0.74529E+06        -0.50496E+08         0.00000E+00
    0.00000E+00         0.00000E+00        -0.44085E+08
 
   -0.44722E+08        -0.76061E+06         0.00000E+00
   -0.76061E+06        -0.50569E+08         0.00000E+00
    0.00000E+00         0.00000E+00        -0.44103E+08
 
   -0.44726E+08        -0.76711E+06         0.00000E+00
   -0.76711E+06        -0.50644E+08         0.00000E+00
    0.00000E+00         0.00000E+00        -0.44119E+08
 
   -0.44720E+08        -0.76479E+06         0.00000E+00
   -0.76479E+06        -0.50721E+08         0.00000E+00
    0.00000E+00         0.00000E+00        -0.44133E+08
 
   -0.44705E+08        -0.75368E+06         0.00000E+00
   -0.75368E+06        -0.50799E+08         0.00000E+00
    0.00000E+00         0.00000E+00        -0.44145E+08
 
   -0.44682E+08        -0.73384E+06         0.00000E+00
   -0.73384E+06        -0.50877E+08         0.00000E+00
    0.00000E+00         0.00000E+00        -0.44157E+08
 
   -0.44653E+08        -0.70537E+06         0.00000E+00
   -0.70537E+06        -0.50956E+08         0.00000E+00
    0.00000E+00         0.00000E+00        -0.44167E+08
 
   -0.44618E+08        -0.66838E+06         0.00000E+00
   -0.66838E+06        -0.51035E+08         0.00000E+00
    0.00000E+00         0.00000E+00        -0.44175E+08
 
   -0.44577E+08        -0.62299E+06         0.00000E+00
   -0.62299E+06        -0.51113E+08         0.00000E+00
    0.00000E+00         0.00000E+00        -0.44183E+08
 
   -0.44533E+08        -0.56934E+06         0.00000E+00
   -0.56934E+06        -0.51191E+08         0.00000E+00
    0.00000E+00         0.00000E+00        -0.44190E+08
 
   -0.44485E+08        -0.50759E+06         0.00000E+00
   -0.50759E+06        -0.51268E+08         0.00000E+00
    0.00000E+00         0.00000E+00        -0.44195E+08
 
   -0.44434E+08        -0.43789E+06         0.00000E+00
   -0.43789E+06        -0.51344E+08         0.00000E+00
    0.00000E+00         0.00000E+00        -0.44200E+08
 
   -0.44382E+08        -0.36038E+06         0.00000E+00
   -0.36038E+06        -0.51418E+08         0.00000E+00
    0.00000E+00         0.00000E+00        -0.44205E+08
 
   -0.44328E+08        -0.27524E+06         0.00000E+00
   -0.27524E+06        -0.51491E+08         0.00000E+00
    0.00000E+00         0.00000E+00        -0.44208E+08
 
   -0.44273E+08        -0.18261E+06         0.00000E+00
   -0.18261E+06        -0.51562E+08         0.00000E+00
    0.00000E+00         0.00000E+00        -0.44212E+08
 
   -0.44218E+08        -0.82653E+05         0.00000E+00
   -0.82653E+05        -0.51631E+08         0.00000E+00
    0.00000E+00         0.00000E+00        -0.44215E+08
 
   -0.44164E+08         0.24487E+05         0.00000E+00
    0.24487E+05        -0.51698E+08         0.00000E+00
    0.00000E+00         0.00000E+00        -0.44217E+08
 
   -0.44111E+08         0.13866E+06         0.00000E+00
    0.13866E+06        -0.51762E+08         0.00000E+00
    0.00000E+00         0.00000E+00        -0.44219E+08
 
   -0.44060E+08         0.25971E+06         0.00000E+00
    0.25971E+06        -0.51824E+08         0.00000E+00
    0.00000E+00         0.00000E+00        -0.44221E+08
 
   -0.44011E+08         0.38749E+06         0.00000E+00
    0.38749E+06        -0.51883E+08         0.00000E+00
    0.00000E+00         0.00000E+00        -0.44224E+08
 
   -0.43965E+08         0.52185E+06         0.00000E+00
    0.52185E+06        -0.51939E+08         0.00000E+00
    0.00000E+00         0.00000E+00        -0.44226E+08
 
   -0.43922E+08         0.66263E+06         0.00000E+00
    0.66263E+06        -0.51992E+08         0.00000E+00
    0.00000E+00         0.00000E+00        -0.44228E+08
 
   -0.43884E+08         0.80966E+06         0.00000E+00
    0.80966E+06        -0.52042E+08         0.00000E+00
    0.00000E+00         0.00000E+00        -0.44230E+08
 
   -0.43850E+08         0.96277E+06         0.00000E+00
    0.96277E+06        -0.52088E+08         0.00000E+00
    0.00000E+00         0.00000E+00        -0.44232E+08
 
   -0.43821E+08         0.11218E+07         0.00000E+00
    0.11218E+07        -0.52130E+08         0.00000E+00
    0.00000E+00         0.00000E+00        -0.44235E+08
 
   -0.43798E+08         0.12865E+07         0.00000E+00
    0.12865E+07        -0.52168E+08         0.00000E+00
    0.00000E+00         0.00000E+00        -0.44238E+08
 
   -0.43781E+08         0.14566E+07         0.00000E+00
    0.14566E+07        -0.52202E+08         0.00000E+00
    0.00000E+00         0.00000E+00        -0.44241E+08
 
   -0.43771E+08         0.16319E+07         0.00000E+00
    0.16319E+07        -0.52231E+08         0.00000E+00
    0.00000E+00         0.00000E+00        -0.44245E+08
 
   -0.43769E+08         0.18121E+07         0.00000E+00
    0.18121E+07        -0.52255E+08         0.00000E+00
    0.00000E+00         0.00000E+00        -0.44249E+08
 
   -0.43774E+08         0.19970E+07         0.00000E+00
    0.19970E+07        -0.52274E+08         0.00000E+00
    0.00000E+00         0.00000E+00        -0.44254E+08
 
   -0.43789E+08         0.21860E+07         0.00000E+00
    0.21860E+07        -0.52287E+08         0.00000E+00
    0.00000E+00         0.00000E+00        -0.44260E+08
 
   -0.43812E+08         0.23789E+07         0.00000E+00
    0.23789E+07        -0.52294E+08         0.00000E+00
    0.00000E+00         0.00000E+00        -0.44266E+08
 
   -0.43846E+08         0.25752E+07         0.00000E+00
    0.25752E+07        -0.52295E+08         0.00000E+00
    0.00000E+00         0.00000E+00        -0.44273E+08
 
   -0.43890E+08         0.27743E+07         0.00000E+00
    0.27743E+07        -0.52289E+08         0.00000E+00
    0.00000E+00         0.00000E+00        -0.44281E+08
 
   -0.43945E+08         0.29758E+07         0.00000E+00
    0.29758E+07        -0.52277E+08         0.00000E+00
    0.00000E+00         0.00000E+00        -0.44289E+08
 
   -0.44011E+08         0.31791E+07         0.00000E+00
    0.31791E+07        -0.52257E+08         0.00000E+00
    0.00000E+00         0.00000E+00        -0.44298E+08
 
   -0.44089E+08         0.33834E+07         0.00000E+00
    0.33834E+07        -0.52230E+08         0.00000E+00
    0.00000E+00         0.00000E+00        -0.44309E+08
 
   -0.44180E+08         0.35881E+07         0.00000E+00
    0.35881E+07        -0.52195E+08         0.00000E+00
    0.00000E+00         0.00000E+00        -0.44320E+08
 
   -0.44283E+08         0.37925E+07         0.00000E+00
    0.37925E+07        -0.52152E+08         0.00000E+00
    0.00000E+00         0.00000E+00        -0.44332E+08
 
   -0.44078E+08        -0.82153E+05         0.00000E+00
   -0.82153E+05        -0.49992E+08         0.00000E+00
    0.00000E+00         0.00000E+00        -0.42926E+08
 
   -0.44267E+08        -0.22866E+06         0.00000E+00
   -0.22866E+06        -0.50005E+08         0.00000E+00
    0.00000E+00         0.00000E+00        -0.42966E+08
 
   -0.44426E+08        -0.36634E+06         0.00000E+00
   -0.36634E+06        -0.50028E+08         0.00000E+00
    0.00000E+00         0.00000E+00        -0.43003E+08
 
   -0.44558E+08        -0.49436E+06         0.00000E+00
   -0.49436E+06        -0.50061E+08         0.00000E+00
    0.00000E+00         0.00000E+00        -0.43036E+08
 
   -0.44663E+08        -0.61211E+06         0.00000E+00
   -0.61211E+06        -0.50102E+08         0.00000E+00
    0.00000E+00         0.00000E+00        -0.43065E+08
 
   -0.44745E+08        -0.71905E+06         0.00000E+00
   -0.71905E+06        -0.50151E+08         0.00000E+00
    0.00000E+00         0.00000E+00        -0.43091E+08
 
   -0.44804E+08        -0.81478E+06         0.00000E+00
   -0.81478E+06        -0.50206E+08         0.00000E+00
    0.00000E+00         0.00000E+00        -0.43114E+08
 
   -0.44844E+08        -0.89900E+06         0.00000E+00
   -0.89900E+06        -0.50268E+08         0.00000E+00
    0.00000E+00         0.00000E+00        -0.43134E+08
 
   -0.44865E+08        -0.97152E+06         0.00000E+00
   -0.97152E+06        -0.50334E+08         0.00000E+00
    0.00000E+00         0.00000E+00        -0.43152E+08
 
   -0.44870E+08        -0.10322E+07         0.00000E+00
   -0.10322E+07        -0.50404E+08         0.00000E+00
    0.00000E+00         0.00000E+00        -0.43166E+08
 
   -0.44859E+08        -0.10811E+07         0.00000E+00
   -0.10811E+07        -0.50477E+08         0.00000E+00
    0.00000E+00         0.00000E+00        -0.43179E+08
 
   -0.44835E+08        -0.11183E+07         0.00000E+00
   -0.11183E+07        -0.50553E+08         0.00000E+00
    0.00000E+00         0.00000E+00        -0.43189E+08
 
   -0.44799E+08        -0.11439E+07         0.00000E+00
   -0.11439E+07        -0.50631E+08         0.00000E+00
    0.00000E+00         0.00000E+00        -0.43198E+08
 
   -0.44753E+08        -0.11580E+07         0.00000E+00
   -0.11580E+07        -0.50710E+08         0.00000E+00
    0.00000E+00         0.00000E+00        -0.43204E+08
 
   -0.44697E+08        -0.11609E+07         0.00000E+00
   -0.11609E+07        -0.50790E+08         0.00000E+00
    0.00000E+00         0.00000E+00        -0.43209E+08
 
   -0.44634E+08        -0.11529E+07         0.00000E+00
   -0.11529E+07        -0.50871E+08         0.00000E+00
    0.00000E+00         0.00000E+00        -0.43213E+08
 
   -0.44563E+08        -0.11342E+07         0.00000E+00
   -0.11342E+07        -0.50951E+08         0.00000E+00
    0.00000E+00         0.00000E+00        -0.43215E+08
 
   -0.44487E+08        -0.11051E+07         0.00000E+00
   -0.11051E+07        -0.51032E+08         0.00000E+00
    0.00000E+00         0.00000E+00        -0.43216E+08
 
   -0.44406E+08        -0.10660E+07         0.00000E+00
   -0.10660E+07        -0.51111E+08         0.00000E+00
    0.00000E+00         0.00000E+00        -0.43215E+08
 
   -0.44320E+08        -0.10171E+07         0.00000E+00
   -0.10171E+07        -0.51190E+08         0.00000E+00
    0.00000E+00         0.00000E+00        -0.43214E+08
 
   -0.44232E+08        -0.95865E+06         0.00000E+00
   -0.95865E+06        -0.51268E+08         0.00000E+00
    0.00000E+00         0.00000E+00        -0.43212E+08
 
   -0.44141E+08        -0.89105E+06         0.00000E+00
   -0.89105E+06        -0.51344E+08         0.00000E+00
    0.00000E+00         0.00000E+00        -0.43209E+08
 
   -0.44049E+08        -0.81453E+06         0.00000E+00
   -0.81453E+06        -0.51420E+08         0.00000E+00
    0.00000E+00         0.00000E+00        -0.43206E+08
 
   -0.43955E+08        -0.72931E+06         0.00000E+00
   -0.72931E+06        -0.51493E+08         0.00000E+00
    0.00000E+00         0.00000E+00        -0.43202E+08
 
   -0.43861E+08        -0.63563E+06         0.00000E+00
   -0.63563E+06        -0.51565E+08         0.00000E+00
    0.00000E+00         0.00000E+00        -0.43197E+08
 
   -0.43768E+08        -0.53369E+06         0.00000E+00
   -0.53369E+06        -0.51635E+08         0.00000E+00
    0.00000E+00         0.00000E+00        -0.43192E+08
 
   -0.43675E+08        -0.42367E+06         0.00000E+00
   -0.42367E+06        -0.51704E+08         0.00000E+00
    0.00000E+00         0.00000E+00        -0.43188E+08
 
   -0.43583E+08        -0.30572E+06         0.00000E+00
   -0.30572E+06        -0.51770E+08         0.00000E+00
    0.00000E+00         0.00000E+00        -0.43183E+08
 
   -0.43494E+08        -0.17997E+06         0.00000E+00
   -0.17997E+06        -0.51834E+08         0.00000E+00
    0.00000E+00         0.00000E+00        -0.43177E+08
 
   -0.43406E+08        -0.46546E+05         0.00000E+00
   -0.46546E+05        -0.51897E+08         0.00000E+00
    0.00000E+00         0.00000E+00        -0.43172E+08
 
   -0.43322E+08         0.94462E+05         0.00000E+00
    0.94462E+05        -0.51957E+08         0.00000E+00
    0.00000E+00         0.00000E+00        -0.43168E+08
 
   -0.43241E+08         0.24297E+06         0.00000E+00
    0.24297E+06        -0.52014E+08         0.00000E+00
    0.00000E+00         0.00000E+00        -0.43163E+08
 
   -0.43164E+08         0.39890E+06         0.00000E+00
    0.39890E+06        -0.52069E+08         0.00000E+00
    0.00000E+00         0.00000E+00        -0.43158E+08
 
   -0.43091E+08         0.56218E+06         0.00000E+00
    0.56218E+06        -0.52122E+08         0.00000E+00
    0.00000E+00         0.00000E+00        -0.43154E+08
 
   -0.43024E+08         0.73274E+06         0.00000E+00
    0.73274E+06        -0.52171E+08         0.00000E+00
    0.00000E+00         0.00000E+00        -0.43151E+08
 
   -0.42963E+08         0.91050E+06         0.00000E+00
    0.91050E+06        -0.52217E+08         0.00000E+00
    0.00000E+00         0.00000E+00        -0.43148E+08
 
   -0.42909E+08         0.10954E+07         0.00000E+00
    0.10954E+07        -0.52260E+08         0.00000E+00
    0.00000E+00         0.00000E+00        -0.43146E+08
 
   -0.42861E+08         0.12872E+07         0.00000E+00
    0.12872E+07        -0.52298E+08         0.00000E+00
    0.00000E+00         0.00000E+00        -0.43144E+08
 
   -0.42822E+08         0.14859E+07         0.00000E+00
    0.14859E+07        -0.52333E+08         0.00000E+00
    0.00000E+00         0.00000E+00        -0.43143E+08
 
   -0.42792E+08         0.16913E+07         0.00000E+00
    0.16913E+07        -0.52363E+08         0.00000E+00
    0.00000E+00         0.00000E+00        -0.43143E+08
 
   -0.42771E+08         0.19032E+07         0.00000E+00
    0.19032E+07        -0.52387E+08         0.00000E+00
    0.00000E+00         0.00000E+00        -0.43143E+08
 
   -0.42760E+08         0.21212E+07         0.00000E+00
    0.21212E+07        -0.52407E+08         0.00000E+00
    0.00000E+00         0.00000E+00        -0.43145E+08
 
   -0.42761E+08         0.23451E+07         0.00000E+00
    0.23451E+07        -0.52420E+08         0.00000E+00
    0.00000E+00         0.00000E+00        -0.43148E+08
 
   -0.42774E+08         0.25744E+07         0.00000E+00
    0.25744E+07        -0.52427E+08         0.00000E+00
    0.00000E+00         0.00000E+00        -0.43152E+08
 
   -0.42800E+08         0.28087E+07         0.00000E+00
    0.28087E+07        -0.52427E+08         0.00000E+00
    0.00000E+00         0.00000E+00        -0.43157E+08
 
   -0.42839E+08         0.30475E+07         0.00000E+00
    0.30475E+07        -0.52420E+08         0.00000E+00
    0.00000E+00         0.00000E+00        -0.43164E+08
 
   -0.42894E+08         0.32901E+07         0.00000E+00
    0.32901E+07        -0.52404E+08         0.00000E+00
    0.00000E+00         0.00000E+00        -0.43171E+08
 
   -0.42964E+08         0.35358E+07         0.00000E+00
    0.35358E+07        -0.52380E+08         0.00000E+00
    0.00000E+00         0.00000E+00        -0.43181E+08
 
   -0.43050E+08         0.37838E+07         0.00000E+00
    0.37838E+07        -0.52346E+08         0.00000E+00
    0.00000E+00         0.00000E+00        -0.43191E+08
 
   -0.43154E+08         0.40331E+07         0.00000E+00
    0.40331E+07        -0.52303E+08         0.00000E+00
    0.00000E+00         0.00000E+00        -0.43203E+08
 
   -0.44981E+08        -0.11846E+06         0.00000E+00
   -0.11846E+06        -0.49991E+08         0.00000E+00
    0.00000E+00         0.00000E+00        -0.41998E+08
 
   -0.45114E+08        -0.32375E+06         0.00000E+00
   -0.32375E+06        -0.50006E+08         0.00000E+00
    0.00000E+00         0.00000E+00        -0.42027E+08
 
   -0.45212E+08        -0.51413E+06         0.00000E+00
   -0.51413E+06        -0.50033E+08         0.00000E+00
    0.00000E+00         0.00000E+00        -0.42052E+08
 
   -0.45280E+08        -0.68909E+06         0.00000E+00
   -0.68909E+06        -0.50070E+08         0.00000E+00
    0.00000E+00         0.00000E+00        -0.42073E+08
 
   -0.45319E+08        -0.84800E+06         0.00000E+00
   -0.84800E+06        -0.50116E+08         0.00000E+00
    0.00000E+00         0.00000E+00        -0.42090E+08
 
   -0.45333E+08        -0.99049E+06         0.00000E+00
   -0.99049E+06        -0.50169E+08         0.00000E+00
    0.00000E+00         0.00000E+00        -0.42104E+08
 
   -0.45323E+08        -0.11164E+07         0.00000E+00
   -0.11164E+07        -0.50229E+08         0.00000E+00
    0.00000E+00         0.00000E+00        -0.42114E+08
 
   -0.45293E+08        -0.12258E+07         0.00000E+00
   -0.12258E+07        -0.50294E+08         0.00000E+00
    0.00000E+00         0.00000E+00        -0.42121E+08
 
   -0.45245E+08        -0.13188E+07         0.00000E+00
   -0.13188E+07        -0.50363E+08         0.00000E+00
    0.00000E+00         0.00000E+00        -0.42125E+08
 
   -0.45180E+08        -0.13957E+07         0.00000E+00
   -0.13957E+07        -0.50435E+08         0.00000E+00
    0.00000E+00         0.00000E+00        -0.42126E+08
 
   -0.45102E+08        -0.14568E+07         0.00000E+00
   -0.14568E+07        -0.50509E+08         0.00000E+00
    0.00000E+00         0.00000E+00        -0.42126E+08
 
   -0.45011E+08        -0.15027E+07         0.00000E+00
   -0.15027E+07        -0.50585E+08         0.00000E+00
    0.00000E+00         0.00000E+00        -0.42123E+08
 
   -0.44911E+08        -0.15338E+07         0.00000E+00
   -0.15338E+07        -0.50661E+08         0.00000E+00
    0.00000E+00         0.00000E+00        -0.42118E+08
 
   -0.44801E+08        -0.15507E+07         0.00000E+00
   -0.15507E+07        -0.50737E+08         0.00000E+00
    0.00000E+00         0.00000E+00        -0.42111E+08
 
   -0.44685E+08        -0.15542E+07         0.00000E+00
   -0.15542E+07        -0.50813E+08         0.00000E+00
    0.00000E+00         0.00000E+00        -0.42103E+08
 
   -0.44563E+08        -0.15447E+07         0.00000E+00
   -0.15447E+07        -0.50888E+08         0.00000E+00
    0.00000E+00         0.00000E+00        -0.42094E+08
 
   -0.44436E+08        -0.15229E+07         0.00000E+00
   -0.15229E+07        -0.50962E+08         0.00000E+00
    0.00000E+00         0.00000E+00        -0.42083E+08
 
   -0.44306E+08        -0.14894E+07         0.00000E+00
   -0.14894E+07        -0.51034E+08         0.00000E+00
    0.00000E+00         0.00000E+00        -0.42071E+08
 
   -0.44172E+08        -0.14448E+07         0.00000E+00
   -0.14448E+07        -0.51105E+08         0.00000E+00
    0.00000E+00         0.00000E+00        -0.42059E+08
 
   -0.44037E+08        -0.13896E+07         0.00000E+00
   -0.13896E+07        -0.51174E+08         0.00000E+00
    0.00000E+00         0.00000E+00        -0.42046E+08
 
   -0.43901E+08        -0.13244E+07         0.00000E+00
   -0.13244E+07        -0.51242E+08         0.00000E+00
    0.00000E+00         0.00000E+00        -0.42032E+08
 
   -0.43764E+08        -0.12496E+07         0.00000E+00
   -0.12496E+07        -0.51309E+08         0.00000E+00
    0.00000E+00         0.00000E+00        -0.42018E+08
 
   -0.43626E+08        -0.11655E+07         0.00000E+00
   -0.11655E+07        -0.51373E+08         0.00000E+00
    0.00000E+00         0.00000E+00        -0.42003E+08
 
   -0.43489E+08        -0.10726E+07         0.00000E+00
   -0.10726E+07        -0.51437E+08         0.00000E+00
    0.00000E+00         0.00000E+00        -0.41989E+08
 
   -0.43353E+08        -0.97105E+06         0.00000E+00
   -0.97105E+06        -0.51498E+08         0.00000E+00
    0.00000E+00         0.00000E+00        -0.41974E+08
 
   -0.43218E+08        -0.86115E+06         0.00000E+00
   -0.86115E+06        -0.51559E+08         0.00000E+00
    0.00000E+00         0.00000E+00        -0.41959E+08
 
   -0.43085E+08        -0.74305E+06         0.00000E+00
   -0.74305E+06        -0.51618E+08         0.00000E+00
    0.00000E+00         0.00000E+00        -0.41944E+08
 
   -0.42953E+08        -0.61689E+06         0.00000E+00
   -0.61689E+06        -0.51676E+08         0.00000E+00
    0.00000E+00         0.00000E+00        -0.41929E+08
 
   -0.42824E+08        -0.48273E+06         0.00000E+00
   -0.48273E+06        -0.51733E+08         0.00000E+00
    0.00000E+00         0.00000E+00        -0.41915E+08
 
   -0.42698E+08        -0.34059E+06         0.00000E+00
   -0.34059E+06        -0.51789E+08         0.00000E+00
    0.00000E+00         0.00000E+00        -0.41901E+08
 
   -0.42574E+08        -0.19046E+06         0.00000E+00
   -0.19046E+06        -0.51843E+08         0.00000E+00
    0.00000E+00         0.00000E+00        -0.41887E+08
 
   -0.42454E+08        -0.32284E+05         0.00000E+00
   -0.32284E+05        -0.51896E+08         0.00000E+00
    0.00000E+00         0.00000E+00        -0.41874E+08
 
   -0.42338E+08         0.13404E+06         0.00000E+00
    0.13404E+06        -0.51949E+08         0.00000E+00
    0.00000E+00         0.00000E+00        -0.41861E+08
 
   -0.42227E+08         0.30862E+06         0.00000E+00
    0.30862E+06        -0.51999E+08         0.00000E+00
    0.00000E+00         0.00000E+00        -0.41849E+08
 
   -0.42120E+08         0.49160E+06         0.00000E+00
    0.49160E+06        -0.52048E+08         0.00000E+00
    0.00000E+00         0.00000E+00        -0.41837E+08
 
   -0.42020E+08         0.68312E+06         0.00000E+00
    0.68312E+06        -0.52096E+08         0.00000E+00
    0.00000E+00         0.00000E+00        -0.41827E+08
 
   -0.41926E+08         0.88333E+06         0.00000E+00
    0.88333E+06        -0.52141E+08         0.00000E+00
    0.00000E+00         0.00000E+00        -0.41817E+08
 
   -0.41839E+08         0.10924E+07         0.00000E+00
    0.10924E+07        -0.52184E+08         0.00000E+00
    0.00000E+00         0.00000E+00        -0.41808E+08
 
   -0.41761E+08         0.13104E+07         0.00000E+00
    0.13104E+07        -0.52225E+08         0.00000E+00
    0.00000E+00         0.00000E+00        -0.41800E+08
 
   -0.41692E+08         0.15374E+07         0.00000E+00
    0.15374E+07        -0.52261E+08         0.00000E+00
    0.00000E+00         0.00000E+00        -0.41794E+08
 
   -0.41633E+08         0.17734E+07         0.00000E+00
    0.17734E+07        -0.52294E+08         0.00000E+00
    0.00000E+00         0.00000E+00        -0.41789E+08
 
   -0.41585E+08         0.20184E+07         0.00000E+00
    0.20184E+07        -0.52323E+08         0.00000E+00
    0.00000E+00         0.00000E+00        -0.41785E+08
 
   -0.41550E+08         0.22723E+07         0.00000E+00
    0.22723E+07        -0.52346E+08         0.00000E+00
    0.00000E+00         0.00000E+00        -0.41783E+08
 
   -0.41529E+08         0.25349E+07         0.00000E+00
    0.25349E+07        -0.52363E+08         0.00000E+00
    0.00000E+00         0.00000E+00        -0.41782E+08
 
   -0.41523E+08         0.28059E+07         0.00000E+00
    0.28059E+07        -0.52373E+08         0.00000E+00
    0.00000E+00         0.00000E+00        -0.41783E+08
 
   -0.41533E+08         0.30848E+07         0.00000E+00
    0.30848E+07        -0.52376E+08         0.00000E+00
    0.00000E+00         0.00000E+00        -0.41785E+08
 
   -0.41562E+08         0.33711E+07         0.00000E+00
    0.33711E+07        -0.52370E+08         0.00000E+00
    0.00000E+00         0.00000E+00        -0.41790E+08
 
   -0.41610E+08         0.36641E+07         0.00000E+00
    0.36641E+07        -0.52355E+08         0.00000E+00
    0.00000E+00         0.00000E+00        -0.41796E+08
 
   -0.41679E+08         0.39628E+07         0.00000E+00
    0.39628E+07        -0.52329E+08         0.00000E+00
    0.00000E+00         0.00000E+00        -0.41805E+08
 
   -0.41770E+08         0.42665E+07         0.00000E+00
    0.42665E+07        -0.52292E+08         0.00000E+00
    0.00000E+00         0.00000E+00        -0.41816E+08
 
   -0.46213E+08        -0.16139E+06         0.00000E+00
   -0.16139E+06        -0.49990E+08         0.00000E+00
    0.00000E+00         0.00000E+00        -0.40927E+08
 
   -0.46253E+08        -0.43216E+06         0.00000E+00
   -0.43216E+06        -0.50007E+08         0.00000E+00
    0.00000E+00         0.00000E+00        -0.40938E+08
 
   -0.46256E+08        -0.67992E+06         0.00000E+00
   -0.67992E+06        -0.50037E+08         0.00000E+00
    0.00000E+00         0.00000E+00        -0.40945E+08
 
   -0.46225E+08        -0.90329E+06         0.00000E+00
   -0.90329E+06        -0.50078E+08         0.00000E+00
    0.00000E+00         0.00000E+00        -0.40947E+08
 
   -0.46164E+08        -0.11023E+07         0.00000E+00
   -0.11023E+07        -0.50127E+08         0.00000E+00
    0.00000E+00         0.00000E+00        -0.40944E+08
 
   -0.46077E+08        -0.12772E+07         0.00000E+00
   -0.12772E+07        -0.50183E+08         0.00000E+00
    0.00000E+00         0.00000E+00        -0.40938E+08
 
   -0.45968E+08        -0.14285E+07         0.00000E+00
   -0.14285E+07        -0.50243E+08         0.00000E+00
    0.00000E+00         0.00000E+00        -0.40929E+08
 
   -0.45841E+08        -0.15566E+07         0.00000E+00
   -0.15566E+07        -0.50307E+08         0.00000E+00
    0.00000E+00         0.00000E+00        -0.40916E+08
 
   -0.45698E+08        -0.16625E+07         0.00000E+00
   -0.16625E+07        -0.50373E+08         0.00000E+00
    0.00000E+00         0.00000E+00        -0.40900E+08
 
   -0.45542E+08        -0.17470E+07         0.00000E+00
   -0.17470E+07        -0.50439E+08         0.00000E+00
    0.00000E+00         0.00000E+00        -0.40882E+08
 
   -0.45376E+08        -0.18113E+07         0.00000E+00
   -0.18113E+07        -0.50505E+08         0.00000E+00
    0.00000E+00         0.00000E+00        -0.40862E+08
 
   -0.45202E+08        -0.18566E+07         0.00000E+00
   -0.18566E+07        -0.50569E+08         0.00000E+00
    0.00000E+00         0.00000E+00        -0.40841E+08
 
   -0.45023E+08        -0.18841E+07         0.00000E+00
   -0.18841E+07        -0.50632E+08         0.00000E+00
    0.00000E+00         0.00000E+00        -0.40817E+08
 
   -0.44839E+08        -0.18952E+07         0.00000E+00
   -0.18952E+07        -0.50692E+08         0.00000E+00
    0.00000E+00         0.00000E+00        -0.40792E+08
 
   -0.44653E+08        -0.18910E+07         0.00000E+00
   -0.18910E+07        -0.50750E+08         0.00000E+00
    0.00000E+00         0.00000E+00        -0.40767E+08
 
   -0.44465E+08        -0.18729E+07         0.00000E+00
   -0.18729E+07        -0.50805E+08         0.00000E+00
    0.00000E+00         0.00000E+00        -0.40740E+08
 
   -0.44277E+08        -0.18417E+07         0.00000E+00
   -0.18417E+07        -0.50858E+08         0.00000E+00
    0.00000E+00         0.00000E+00        -0.40713E+08
 
   -0.44089E+08        -0.17987E+07         0.00000E+00
   -0.17987E+07        -0.50908E+08         0.00000E+00
    0.00000E+00         0.00000E+00        -0.40686E+08
 
   -0.43902E+08        -0.17446E+07         0.00000E+00
   -0.17446E+07        -0.50955E+08         0.00000E+00
    0.00000E+00         0.00000E+00        -0.40658E+08
 
   -0.43716E+08        -0.16804E+07         0.00000E+00
   -0.16804E+07        -0.51001E+08         0.00000E+00
    0.00000E+00         0.00000E+00        -0.40630E+08
 
   -0.43532E+08        -0.16066E+07         0.00000E+00
   -0.16066E+07        -0.51044E+08         0.00000E+00
    0.00000E+00         0.00000E+00        -0.40601E+08
 
   -0.43349E+08        -0.15240E+07         0.00000E+00
   -0.15240E+07        -0.51086E+08         0.00000E+00
    0.00000E+00         0.00000E+00        -0.40573E+08
 
   -0.43169E+08        -0.14330E+07         0.00000E+00
   -0.14330E+07        -0.51127E+08         0.00000E+00
    0.00000E+00         0.00000E+00        -0.40545E+08
 
   -0.42990E+08        -0.13340E+07         0.00000E+00
   -0.13340E+07        -0.51166E+08         0.00000E+00
    0.00000E+00         0.00000E+00        -0.40518E+08
 
   -0.42813E+08        -0.12273E+07         0.00000E+00
   -0.12273E+07        -0.51205E+08         0.00000E+00
    0.00000E+00         0.00000E+00        -0.40490E+08
 
   -0.42639E+08        -0.11131E+07         0.00000E+00
   -0.11131E+07        -0.51244E+08         0.00000E+00
    0.00000E+00         0.00000E+00        -0.40463E+08
 
   -0.42466E+08        -0.99159E+06         0.00000E+00
   -0.99159E+06        -0.51282E+08         0.00000E+00
    0.00000E+00         0.00000E+00        -0.40436E+08
 
   -0.42296E+08        -0.86276E+06         0.00000E+00
   -0.86276E+06        -0.51321E+08         0.00000E+00
    0.00000E+00         0.00000E+00        -0.40410E+08
 
   -0.42128E+08        -0.72658E+06         0.00000E+00
   -0.72658E+06        -0.51360E+08         0.00000E+00
    0.00000E+00         0.00000E+00        -0.40384E+08
 
   -0.41963E+08        -0.58292E+06         0.00000E+00
   -0.58292E+06        -0.51399E+08         0.00000E+00
    0.00000E+00         0.00000E+00        -0.40359E+08
 
   -0.41799E+08        -0.43159E+06         0.00000E+00
   -0.43159E+06        -0.51440E+08         0.00000E+00
    0.00000E+00         0.00000E+00        -0.40334E+08
 
   -0.41639E+08        -0.27230E+06         0.00000E+00
   -0.27230E+06        -0.51481E+08         0.00000E+00
    0.00000E+00         0.00000E+00        -0.40310E+08
 
   -0.41481E+08        -0.10473E+06         0.00000E+00
   -0.10473E+06        -0.51523E+08         0.00000E+00
    0.00000E+00         0.00000E+00        -0.40287E+08
 
   -0.41326E+08         0.71528E+05         0.00000E+00
    0.71528E+05        -0.51566E+08         0.00000E+00
    0.00000E+00         0.00000E+00        -0.40265E+08
 
   -0.41175E+08         0.25694E+06         0.00000E+00
    0.25694E+06        -0.51611E+08         0.00000E+00
    0.00000E+00         0.00000E+00        -0.40243E+08
 
   -0.41028E+08         0.45203E+06         0.00000E+00
    0.45203E+06        -0.51656E+08         0.00000E+00
    0.00000E+00         0.00000E+00        -0.40223E+08
 
   -0.40886E+08         0.65733E+06         0.00000E+00
    0.65733E+06        -0.51702E+08         0.00000E+00
    0.00000E+00         0.00000E+00        -0.40204E+08
 
   -0.40749E+08         0.87344E+06         0.00000E+00
    0.87344E+06        -0.51748E+08         0.00000E+00
    0.00000E+00         0.00000E+00        -0.40186E+08
 
   -0.40619E+08         0.11009E+07         0.00000E+00
    0.11009E+07        -0.51794E+08         0.00000E+00
    0.00000E+00         0.00000E+00        -0.40169E+08
 
   -0.40497E+08         0.13404E+07         0.00000E+00
    0.13404E+07        -0.51840E+08         0.00000E+00
    0.00000E+00         0.00000E+00        -0.40154E+08
 
   -0.40384E+08         0.15923E+07         0.00000E+00
    0.15923E+07        -0.51884E+08         0.00000E+00
    0.00000E+00         0.00000E+00        -0.40140E+08
 
   -0.40282E+08         0.18572E+07         0.00000E+00
    0.18572E+07        -0.51926E+08         0.00000E+00
    0.00000E+00         0.00000E+00        -0.40128E+08
 
   -0.40192E+08         0.21354E+07         0.00000E+00
    0.21354E+07        -0.51965E+08         0.00000E+00
    0.00000E+00         0.00000E+00        -0.40118E+08
 
   -0.40116E+08         0.24271E+07         0.00000E+00
    0.24271E+07        -0.51999E+08         0.00000E+00
    0.00000E+00         0.00000E+00        -0.40109E+08
 
   -0.40056E+08         0.27324E+07         0.00000E+00
    0.27324E+07        -0.52028E+08         0.00000E+00
    0.00000E+00         0.00000E+00        -0.40103E+08
 
   -0.40015E+08         0.30512E+07         0.00000E+00
    0.30512E+07        -0.52050E+08         0.00000E+00
    0.00000E+00         0.00000E+00        -0.40099E+08
 
   -0.39994E+08         0.33833E+07         0.00000E+00
    0.33833E+07        -0.52064E+08         0.00000E+00
    0.00000E+00         0.00000E+00        -0.40098E+08
 
   -0.39996E+08         0.37283E+07         0.00000E+00
    0.37283E+07        -0.52068E+08         0.00000E+00
    0.00000E+00         0.00000E+00        -0.40099E+08
 
   -0.40024E+08         0.40857E+07         0.00000E+00
    0.40857E+07        -0.52061E+08         0.00000E+00
    0.00000E+00         0.00000E+00        -0.40103E+08
 
   -0.40079E+08         0.44534E+07         0.00000E+00
    0.44534E+07        -0.52040E+08         0.00000E+00
    0.00000E+00         0.00000E+00        -0.40110E+08
 
   -0.47815E+08        -0.21276E+06         0.00000E+00
   -0.21276E+06        -0.49988E+08         0.00000E+00
    0.00000E+00         0.00000E+00        -0.39682E+08
 
   -0.47708E+08        -0.55542E+06         0.00000E+00
   -0.55542E+06        -0.50011E+08         0.00000E+00
    0.00000E+00         0.00000E+00        -0.39665E+08
 
   -0.47560E+08        -0.85893E+06         0.00000E+00
   -0.85893E+06        -0.50043E+08         0.00000E+00
    0.00000E+00         0.00000E+00        -0.39642E+08
 
   -0.47379E+08        -0.11265E+07         0.00000E+00
   -0.11265E+07        -0.50084E+08         0.00000E+00
    0.00000E+00         0.00000E+00        -0.39614E+08
 
   -0.47170E+08        -0.13585E+07         0.00000E+00
   -0.13585E+07        -0.50133E+08         0.00000E+00
    0.00000E+00         0.00000E+00        -0.39582E+08
 
   -0.46939E+08        -0.15554E+07         0.00000E+00
   -0.15554E+07        -0.50185E+08         0.00000E+00
    0.00000E+00         0.00000E+00        -0.39546E+08
 
   -0.46691E+08        -0.17184E+07         0.00000E+00
   -0.17184E+07        -0.50239E+08         0.00000E+00
    0.00000E+00         0.00000E+00        -0.39507E+08
 
   -0.46431E+08        -0.18493E+07         0.00000E+00
   -0.18493E+07        -0.50291E+08         0.00000E+00
    0.00000E+00         0.00000E+00        -0.39465E+08
 
   -0.46163E+08        -0.19507E+07         0.00000E+00
   -0.19507E+07        -0.50339E+08         0.00000E+00
    0.00000E+00         0.00000E+00        -0.39422E+08
 
   -0.45891E+08        -0.20252E+07         0.00000E+00
   -0.20252E+07        -0.50384E+08         0.00000E+00
    0.00000E+00         0.00000E+00        -0.39376E+08
 
   -0.45619E+08        -0.20755E+07         0.00000E+00
   -0.20755E+07        -0.50423E+08         0.00000E+00
    0.00000E+00         0.00000E+00        -0.39329E+08
 
   -0.45348E+08        -0.21041E+07         0.00000E+00
   -0.21041E+07        -0.50456E+08         0.00000E+00
    0.00000E+00         0.00000E+00        -0.39282E+08
 
   -0.45080E+08        -0.21137E+07         0.00000E+00
   -0.21137E+07        -0.50484E+08         0.00000E+00
    0.00000E+00         0.00000E+00        -0.39234E+08
 
   -0.44817E+08        -0.21064E+07         0.00000E+00
   -0.21064E+07        -0.50507E+08         0.00000E+00
    0.00000E+00         0.00000E+00        -0.39186E+08
 
   -0.44558E+08        -0.20842E+07         0.00000E+00
   -0.20842E+07        -0.50525E+08         0.00000E+00
    0.00000E+00         0.00000E+00        -0.39138E+08
 
   -0.44306E+08        -0.20490E+07         0.00000E+00
   -0.20490E+07        -0.50539E+08         0.00000E+00
    0.00000E+00         0.00000E+00        -0.39090E+08
 
   -0.44059E+08        -0.20023E+07         0.00000E+00
   -0.20023E+07        -0.50549E+08         0.00000E+00
    0.00000E+00         0.00000E+00        -0.39043E+08
 
   -0.43818E+08        -0.19454E+07         0.00000E+00
   -0.19454E+07        -0.50556E+08         0.00000E+00
    0.00000E+00         0.00000E+00        -0.38996E+08
 
   -0.43582E+08        -0.18795E+07         0.00000E+00
   -0.18795E+07        -0.50560E+08         0.00000E+00
    0.00000E+00         0.00000E+00        -0.38950E+08
 
   -0.43352E+08        -0.18055E+07         0.00000E+00
   -0.18055E+07        -0.50562E+08         0.00000E+00
    0.00000E+00         0.00000E+00        -0.38904E+08
 
   -0.43126E+08        -0.17242E+07         0.00000E+00
   -0.17242E+07        -0.50563E+08         0.00000E+00
    0.00000E+00         0.00000E+00        -0.38859E+08
 
   -0.42906E+08        -0.16362E+07         0.00000E+00
   -0.16362E+07        -0.50563E+08         0.00000E+00
    0.00000E+00         0.00000E+00        -0.38815E+08
 
   -0.42689E+08        -0.15420E+07         0.00000E+00
   -0.15420E+07        -0.50563E+08         0.00000E+00
    0.00000E+00         0.00000E+00        -0.38772E+08
 
   -0.42476E+08        -0.14419E+07         0.00000E+00
   -0.14419E+07        -0.50564E+08         0.00000E+00
    0.00000E+00         0.00000E+00        -0.38729E+08
 
   -0.42266E+08        -0.13362E+07         0.00000E+00
   -0.13362E+07        -0.50565E+08         0.00000E+00
    0.00000E+00         0.00000E+00        -0.38687E+08
 
   -0.42059E+08        -0.12250E+07         0.00000E+00
   -0.12250E+07        -0.50568E+08         0.00000E+00
    0.00000E+00         0.00000E+00        -0.38647E+08
 
   -0.41854E+08        -0.11084E+07         0.00000E+00
   -0.11084E+07        -0.50573E+08         0.00000E+00
    0.00000E+00         0.00000E+00        -0.38607E+08
 
   -0.41651E+08        -0.98615E+06         0.00000E+00
   -0.98615E+06        -0.50579E+08         0.00000E+00
    0.00000E+00         0.00000E+00        -0.38567E+08
 
   -0.41450E+08        -0.85816E+06         0.00000E+00
   -0.85816E+06        -0.50589E+08         0.00000E+00
    0.00000E+00         0.00000E+00        -0.38529E+08
 
   -0.41249E+08        -0.72412E+06         0.00000E+00
   -0.72412E+06        -0.50602E+08         0.00000E+00
    0.00000E+00         0.00000E+00        -0.38491E+08
 
   -0.41049E+08        -0.58364E+06         0.00000E+00
   -0.58364E+06        -0.50618E+08         0.00000E+00
    0.00000E+00         0.00000E+00        -0.38455E+08
 
   -0.40850E+08        -0.43624E+06         0.00000E+00
   -0.43624E+06        -0.50638E+08         0.00000E+00
    0.00000E+00         0.00000E+00        -0.38419E+08
 
   -0.40651E+08        -0.28132E+06         0.00000E+00
   -0.28132E+06        -0.50662E+08         0.00000E+00
    0.00000E+00         0.00000E+00        -0.38384E+08
 
   -0.40452E+08        -0.11817E+06         0.00000E+00
   -0.11817E+06        -0.50690E+08         0.00000E+00
    0.00000E+00         0.00000E+00        -0.38350E+08
 
   -0.40253E+08         0.54034E+05         0.00000E+00
    0.54034E+05        -0.50723E+08         0.00000E+00
    0.00000E+00         0.00000E+00        -0.38316E+08
 
   -0.40054E+08         0.23622E+06         0.00000E+00
    0.23622E+06        -0.50761E+08         0.00000E+00
    0.00000E+00         0.00000E+00        -0.38284E+08
 
   -0.39857E+08         0.42946E+06         0.00000E+00
    0.42946E+06        -0.50803E+08         0.00000E+00
    0.00000E+00         0.00000E+00        -0.38253E+08
 
   -0.39660E+08         0.63493E+06         0.00000E+00
    0.63493E+06        -0.50850E+08         0.00000E+00
    0.00000E+00         0.00000E+00        -0.38223E+08
 
   -0.39465E+08         0.85392E+06         0.00000E+00
    0.85392E+06        -0.50901E+08         0.00000E+00
    0.00000E+00         0.00000E+00        -0.38194E+08
 
   -0.39273E+08         0.10878E+07         0.00000E+00
    0.10878E+07        -0.50956E+08         0.00000E+00
    0.00000E+00         0.00000E+00        -0.38167E+08
 
   -0.39086E+08         0.13381E+07         0.00000E+00
    0.13381E+07        -0.51015E+08         0.00000E+00
    0.00000E+00         0.00000E+00        -0.38141E+08
 
   -0.38904E+08         0.16063E+07         0.00000E+00
    0.16063E+07        -0.51076E+08         0.00000E+00
    0.00000E+00         0.00000E+00        -0.38117E+08
 
   -0.38731E+08         0.18939E+07         0.00000E+00
    0.18939E+07        -0.51139E+08         0.00000E+00
    0.00000E+00         0.00000E+00        -0.38095E+08
 
   -0.38570E+08         0.22022E+07         0.00000E+00
    0.22022E+07        -0.51202E+08         0.00000E+00
    0.00000E+00         0.00000E+00        -0.38075E+08
 
   -0.38422E+08         0.25323E+07         0.00000E+00
    0.25323E+07        -0.51263E+08         0.00000E+00
    0.00000E+00         0.00000E+00        -0.38058E+08
 
   -0.38292E+08         0.28848E+07         0.00000E+00
    0.28848E+07        -0.51320E+08         0.00000E+00
    0.00000E+00         0.00000E+00        -0.38044E+08
 
   -0.38183E+08         0.32600E+07         0.00000E+00
    0.32600E+07        -0.51370E+08         0.00000E+00
    0.00000E+00         0.00000E+00        -0.38032E+08
 
   -0.38098E+08         0.36574E+07         0.00000E+00
    0.36574E+07        -0.51410E+08         0.00000E+00
    0.00000E+00         0.00000E+00        -0.38023E+08
 
   -0.38041E+08         0.40772E+07         0.00000E+00
    0.40772E+07        -0.51440E+08         0.00000E+00
    0.00000E+00         0.00000E+00        -0.38017E+08
 
   -0.38019E+08         0.45217E+07         0.00000E+00
    0.45217E+07        -0.51458E+08         0.00000E+00
    0.00000E+00         0.00000E+00        -0.38017E+08
 
   -0.49819E+08        -0.27596E+06         0.00000E+00
   -0.27596E+06        -0.49990E+08         0.00000E+00
    0.00000E+00         0.00000E+00        -0.38223E+08
 
   -0.49476E+08        -0.68487E+06         0.00000E+00
   -0.68487E+06        -0.50004E+08         0.00000E+00
    0.00000E+00         0.00000E+00        -0.38157E+08
 
   -0.49096E+08        -0.10439E+07         0.00000E+00
   -0.10439E+07        -0.50043E+08         0.00000E+00
    0.00000E+00         0.00000E+00        -0.38089E+08
 
   -0.48684E+08        -0.13430E+07         0.00000E+00
   -0.13430E+07        -0.50090E+08         0.00000E+00
    0.00000E+00         0.00000E+00        -0.38016E+08
 
   -0.48250E+08        -0.15826E+07         0.00000E+00
   -0.15826E+07        -0.50132E+08         0.00000E+00
    0.00000E+00         0.00000E+00        -0.37938E+08
 
   -0.47809E+08        -0.17679E+07         0.00000E+00
   -0.17679E+07        -0.50166E+08         0.00000E+00
    0.00000E+00         0.00000E+00        -0.37856E+08
 
   -0.47369E+08        -0.19058E+07         0.00000E+00
   -0.19058E+07        -0.50188E+08         0.00000E+00
    0.00000E+00         0.00000E+00        -0.37773E+08
 
   -0.46939E+08        -0.20033E+07         0.00000E+00
   -0.20033E+07        -0.50197E+08         0.00000E+00
    0.00000E+00         0.00000E+00        -0.37689E+08
 
   -0.46521E+08        -0.20670E+07         0.00000E+00
   -0.20670E+07        -0.50194E+08         0.00000E+00
    0.00000E+00         0.00000E+00        -0.37605E+08
 
   -0.46120E+08        -0.21026E+07         0.00000E+00
   -0.21026E+07        -0.50180E+08         0.00000E+00
    0.00000E+00         0.00000E+00        -0.37521E+08
 
   -0.45736E+08        -0.21149E+07         0.00000E+00
   -0.21149E+07        -0.50155E+08         0.00000E+00
    0.00000E+00         0.00000E+00        -0.37440E+08
 
   -0.45369E+08        -0.21082E+07         0.00000E+00
   -0.21082E+07        -0.50121E+08         0.00000E+00
    0.00000E+00         0.00000E+00        -0.37359E+08
 
   -0.45019E+08        -0.20858E+07         0.00000E+00
   -0.20858E+07        -0.50080E+08         0.00000E+00
    0.00000E+00         0.00000E+00        -0.37281E+08
 
   -0.44685E+08        -0.20505E+07         0.00000E+00
   -0.20505E+07        -0.50032E+08         0.00000E+00
    0.00000E+00         0.00000E+00        -0.37205E+08
 
   -0.44366E+08        -0.20046E+07         0.00000E+00
   -0.20046E+07        -0.49980E+08         0.00000E+00
    0.00000E+00         0.00000E+00        -0.37131E+08
 
   -0.44062E+08        -0.19500E+07         0.00000E+00
   -0.19500E+07        -0.49924E+08         0.00000E+00
    0.00000E+00         0.00000E+00        -0.37059E+08
 
   -0.43770E+08        -0.18881E+07         0.00000E+00
   -0.18881E+07        -0.49866E+08         0.00000E+00
    0.00000E+00         0.00000E+00        -0.36989E+08
 
   -0.43490E+08        -0.18201E+07         0.00000E+00
   -0.18201E+07        -0.49806E+08         0.00000E+00
    0.00000E+00         0.00000E+00        -0.36921E+08
 
   -0.43221E+08        -0.17470E+07         0.00000E+00
   -0.17470E+07        -0.49746E+08         0.00000E+00
    0.00000E+00         0.00000E+00        -0.36855E+08
 
   -0.42961E+08        -0.16695E+07         0.00000E+00
   -0.16695E+07        -0.49686E+08         0.00000E+00
    0.00000E+00         0.00000E+00        -0.36791E+08
 
   -0.42708E+08        -0.15883E+07         0.00000E+00
   -0.15883E+07        -0.49627E+08         0.00000E+00
    0.00000E+00         0.00000E+00        -0.36729E+08
 
   -0.42463E+08        -0.15036E+07         0.00000E+00
   -0.15036E+07        -0.49570E+08         0.00000E+00
    0.00000E+00         0.00000E+00        -0.36668E+08
 
   -0.42223E+08        -0.14158E+07         0.00000E+00
   -0.14158E+07        -0.49516E+08         0.00000E+00
    0.00000E+00         0.00000E+00        -0.36609E+08
 
   -0.41988E+08        -0.13250E+07         0.00000E+00
   -0.13250E+07        -0.49465E+08         0.00000E+00
    0.00000E+00         0.00000E+00        -0.36552E+08
 
   -0.41757E+08        -0.12313E+07         0.00000E+00
   -0.12313E+07        -0.49417E+08         0.00000E+00
    0.00000E+00         0.00000E+00        -0.36496E+08
 
   -0.41528E+08        -0.11347E+07         0.00000E+00
   -0.11347E+07        -0.49373E+08         0.00000E+00
    0.00000E+00         0.00000E+00        -0.36442E+08
 
   -0.41301E+08        -0.10350E+07         0.00000E+00
   -0.10350E+07        -0.49334E+08         0.00000E+00
    0.00000E+00         0.00000E+00        -0.36388E+08
 
   -0.41075E+08        -0.93212E+06         0.00000E+00
   -0.93212E+06        -0.49300E+08         0.00000E+00
    0.00000E+00         0.00000E+00        -0.36336E+08
 
   -0.40849E+08        -0.82566E+06         0.00000E+00
   -0.82566E+06        -0.49271E+08         0.00000E+00
    0.00000E+00         0.00000E+00        -0.36286E+08
 
   -0.40622E+08        -0.71525E+06         0.00000E+00
   -0.71525E+06        -0.49249E+08         0.00000E+00
    0.00000E+00         0.00000E+00        -0.36236E+08
 
   -0.40393E+08        -0.60043E+06         0.00000E+00
   -0.60043E+06        -0.49232E+08         0.00000E+00
    0.00000E+00         0.00000E+00        -0.36187E+08
 
   -0.40162E+08        -0.48059E+06         0.00000E+00
   -0.48059E+06        -0.49223E+08         0.00000E+00
    0.00000E+00         0.00000E+00        -0.36139E+08
 
   -0.39927E+08        -0.35503E+06         0.00000E+00
   -0.35503E+06        -0.49221E+08         0.00000E+00
    0.00000E+00         0.00000E+00        -0.36091E+08
 
   -0.39689E+08        -0.22291E+06         0.00000E+00
   -0.22291E+06        -0.49227E+08         0.00000E+00
    0.00000E+00         0.00000E+00        -0.36045E+08
 
   -0.39445E+08        -0.83233E+05         0.00000E+00
   -0.83233E+05        -0.49241E+08         0.00000E+00
    0.00000E+00         0.00000E+00        -0.35999E+08
 
   -0.39196E+08         0.65172E+05         0.00000E+00
    0.65172E+05        -0.49263E+08         0.00000E+00
    0.00000E+00         0.00000E+00        -0.35953E+08
 
   -0.38941E+08         0.22368E+06         0.00000E+00
    0.22368E+06        -0.49295E+08         0.00000E+00
    0.00000E+00         0.00000E+00        -0.35909E+08
 
   -0.38680E+08         0.39391E+06         0.00000E+00
    0.39391E+06        -0.49336E+08         0.00000E+00
    0.00000E+00         0.00000E+00        -0.35865E+08
 
   -0.38412E+08         0.57775E+06         0.00000E+00
    0.57775E+06        -0.49387E+08         0.00000E+00
    0.00000E+00         0.00000E+00        -0.35821E+08
 
   -0.38137E+08         0.77741E+06         0.00000E+00
    0.77741E+06        -0.49448E+08         0.00000E+00
    0.00000E+00         0.00000E+00        -0.35778E+08
 
   -0.37856E+08         0.99546E+06         0.00000E+00
    0.99546E+06        -0.49519E+08         0.00000E+00
    0.00000E+00         0.00000E+00        -0.35737E+08
 
   -0.37570E+08         0.12349E+07         0.00000E+00
    0.12349E+07        -0.49601E+08         0.00000E+00
    0.00000E+00         0.00000E+00        -0.35696E+08
 
   -0.37280E+08         0.14991E+07         0.00000E+00
    0.14991E+07        -0.49693E+08         0.00000E+00
    0.00000E+00         0.00000E+00        -0.35656E+08
 
   -0.36989E+08         0.17919E+07         0.00000E+00
    0.17919E+07        -0.49795E+08         0.00000E+00
    0.00000E+00         0.00000E+00        -0.35618E+08
 
   -0.36700E+08         0.21174E+07         0.00000E+00
    0.21174E+07        -0.49905E+08         0.00000E+00
    0.00000E+00         0.00000E+00        -0.35582E+08
 
   -0.36419E+08         0.24798E+07         0.00000E+00
    0.24798E+07        -0.50021E+08         0.00000E+00
    0.00000E+00         0.00000E+00        -0.35549E+08
 
   -0.36154E+08         0.28829E+07         0.00000E+00
    0.28829E+07        -0.50139E+08         0.00000E+00
    0.00000E+00         0.00000E+00        -0.35520E+08
 
   -0.35914E+08         0.33288E+07         0.00000E+00
    0.33288E+07        -0.50253E+08         0.00000E+00
    0.00000E+00         0.00000E+00        -0.35495E+08
 
   -0.35705E+08         0.38156E+07         0.00000E+00
    0.38156E+07        -0.50355E+08         0.00000E+00
    0.00000E+00         0.00000E+00        -0.35474E+08
 
   -0.35526E+08         0.43336E+07         0.00000E+00
    0.43336E+07        -0.50431E+08         0.00000E+00
    0.00000E+00         0.00000E+00        -0.35453E+08
 
   -0.52263E+08        -0.36396E+06         0.00000E+00
   -0.36396E+06        -0.49981E+08         0.00000E+00
    0.00000E+00         0.00000E+00        -0.36500E+08
 
   -0.51503E+08        -0.86731E+06         0.00000E+00
   -0.86731E+06        -0.50069E+08         0.00000E+00
    0.00000E+00         0.00000E+00        -0.36366E+08
 
   -0.50690E+08        -0.12147E+07         0.00000E+00
   -0.12147E+07        -0.50108E+08         0.00000E+00
    0.00000E+00         0.00000E+00        -0.36211E+08
 
   -0.49890E+08        -0.14487E+07         0.00000E+00
   -0.14487E+07        -0.50104E+08         0.00000E+00
    0.00000E+00         0.00000E+00        -0.36051E+08
 
   -0.49133E+08        -0.16008E+07         0.00000E+00
   -0.16008E+07        -0.50064E+08         0.00000E+00
    0.00000E+00         0.00000E+00        -0.35891E+08
 
   -0.48430E+08        -0.16938E+07         0.00000E+00
   -0.16938E+07        -0.49995E+08         0.00000E+00
    0.00000E+00         0.00000E+00        -0.35737E+08
 
   -0.47781E+08        -0.17441E+07         0.00000E+00
   -0.17441E+07        -0.49902E+08         0.00000E+00
    0.00000E+00         0.00000E+00        -0.35588E+08
 
   -0.47184E+08        -0.17633E+07         0.00000E+00
   -0.17633E+07        -0.49791E+08         0.00000E+00
    0.00000E+00         0.00000E+00        -0.35447E+08
 
   -0.46634E+08        -0.17600E+07         0.00000E+00
   -0.17600E+07        -0.49666E+08         0.00000E+00
    0.00000E+00         0.00000E+00        -0.35312E+08
 
   -0.46129E+08        -0.17400E+07         0.00000E+00
   -0.17400E+07        -0.49531E+08         0.00000E+00
    0.00000E+00         0.00000E+00        -0.35184E+08
 
   -0.45662E+08        -0.17080E+07         0.00000E+00
   -0.17080E+07        -0.49390E+08         0.00000E+00
    0.00000E+00         0.00000E+00        -0.35062E+08
 
   -0.45230E+08        -0.16670E+07         0.00000E+00
   -0.16670E+07        -0.49244E+08         0.00000E+00
    0.00000E+00         0.00000E+00        -0.34946E+08
 
   -0.44828E+08        -0.16195E+07         0.00000E+00
   -0.16195E+07        -0.49096E+08         0.00000E+00
    0.00000E+00         0.00000E+00        -0.34836E+08
 
   -0.44453E+08        -0.15672E+07         0.00000E+00
   -0.15672E+07        -0.48948E+08         0.00000E+00
    0.00000E+00         0.00000E+00        -0.34732E+08
 
   -0.44101E+08        -0.15114E+07         0.00000E+00
   -0.15114E+07        -0.48801E+08         0.00000E+00
    0.00000E+00         0.00000E+00        -0.34632E+08
 
   -0.43770E+08        -0.14531E+07         0.00000E+00
   -0.14531E+07        -0.48655E+08         0.00000E+00
    0.00000E+00         0.00000E+00        -0.34537E+08
 
   -0.43457E+08        -0.13929E+07         0.00000E+00
   -0.13929E+07        -0.48513E+08         0.00000E+00
    0.00000E+00         0.00000E+00        -0.34446E+08
 
   -0.43160E+08        -0.13313E+07         0.00000E+00
   -0.13313E+07        -0.48375E+08         0.00000E+00
    0.00000E+00         0.00000E+00        -0.34359E+08
 
   -0.42876E+08        -0.12687E+07         0.00000E+00
   -0.12687E+07        -0.48241E+08         0.00000E+00
    0.00000E+00         0.00000E+00        -0.34275E+08
 
   -0.42603E+08        -0.12053E+07         0.00000E+00
   -0.12053E+07        -0.48112E+08         0.00000E+00
    0.00000E+00         0.00000E+00        -0.34195E+08
 
   -0.42340E+08        -0.11413E+07         0.00000E+00
   -0.11413E+07        -0.47989E+08         0.00000E+00
    0.00000E+00         0.00000E+00        -0.34117E+08
 
   -0.42084E+08        -0.10768E+07         0.00000E+00
   -0.10768E+07        -0.47871E+08         0.00000E+00
    0.00000E+00         0.00000E+00        -0.34043E+08
 
   -0.41835E+08        -0.10117E+07         0.00000E+00
   -0.10117E+07        -0.47760E+08         0.00000E+00
    0.00000E+00         0.00000E+00        -0.33971E+08
 
   -0.41591E+08        -0.94596E+06         0.00000E+00
   -0.94596E+06        -0.47656E+08         0.00000E+00
    0.00000E+00         0.00000E+00        -0.33901E+08
 
   -0.41351E+08        -0.87956E+06         0.00000E+00
   -0.87956E+06        -0.47558E+08         0.00000E+00
    0.00000E+00         0.00000E+00        -0.33833E+08
 
   -0.41112E+08        -0.81232E+06         0.00000E+00
   -0.81232E+06        -0.47468E+08         0.00000E+00
    0.00000E+00         0.00000E+00        -0.33768E+08
 
   -0.40874E+08        -0.74406E+06         0.00000E+00
   -0.74406E+06        -0.47385E+08         0.00000E+00
    0.00000E+00         0.00000E+00        -0.33704E+08
 
   -0.40636E+08        -0.67455E+06         0.00000E+00
   -0.67455E+06        -0.47311E+08         0.00000E+00
    0.00000E+00         0.00000E+00        -0.33641E+08
 
   -0.40396E+08        -0.60351E+06         0.00000E+00
   -0.60351E+06        -0.47244E+08         0.00000E+00
    0.00000E+00         0.00000E+00        -0.33580E+08
 
   -0.40153E+08        -0.53059E+06         0.00000E+00
   -0.53059E+06        -0.47185E+08         0.00000E+00
    0.00000E+00         0.00000E+00        -0.33519E+08
 
   -0.39906E+08        -0.45541E+06         0.00000E+00
   -0.45541E+06        -0.47136E+08         0.00000E+00
    0.00000E+00         0.00000E+00        -0.33460E+08
 
   -0.39653E+08        -0.37748E+06         0.00000E+00
   -0.37748E+06        -0.47096E+08         0.00000E+00
    0.00000E+00         0.00000E+00        -0.33401E+08
 
   -0.39394E+08        -0.29625E+06         0.00000E+00
   -0.29625E+06        -0.47065E+08         0.00000E+00
    0.00000E+00         0.00000E+00        -0.33343E+08
 
   -0.39126E+08        -0.21105E+06         0.00000E+00
   -0.21105E+06        -0.47045E+08         0.00000E+00
    0.00000E+00         0.00000E+00        -0.33286E+08
 
   -0.38848E+08        -0.12108E+06         0.00000E+00
   -0.12108E+06        -0.47035E+08         0.00000E+00
    0.00000E+00         0.00000E+00        -0.33228E+08
 
   -0.38559E+08        -0.25382E+05         0.00000E+00
   -0.25382E+05        -0.47037E+08         0.00000E+00
    0.00000E+00         0.00000E+00        -0.33171E+08
 
   -0.38257E+08         0.77190E+05         0.00000E+00
    0.77190E+05        -0.47052E+08         0.00000E+00
    0.00000E+00         0.00000E+00        -0.33113E+08
 
   -0.37940E+08         0.18805E+06         0.00000E+00
    0.18805E+06        -0.47079E+08         0.00000E+00
    0.00000E+00         0.00000E+00        -0.33055E+08
 
   -0.37606E+08         0.30891E+06         0.00000E+00
    0.30891E+06        -0.47120E+08         0.00000E+00
    0.00000E+00         0.00000E+00        -0.32997E+08
 
   -0.37253E+08         0.44192E+06         0.00000E+00
    0.44192E+06        -0.47177E+08         0.00000E+00
    0.00000E+00         0.00000E+00        -0.32937E+08
 
   -0.36878E+08         0.58975E+06         0.00000E+00
    0.58975E+06        -0.47250E+08         0.00000E+00
    0.00000E+00         0.00000E+00        -0.32877E+08
 
   -0.36480E+08         0.75576E+06         0.00000E+00
    0.75576E+06        -0.47341E+08         0.00000E+00
    0.00000E+00         0.00000E+00        -0.32816E+08
 
   -0.36057E+08         0.94425E+06         0.00000E+00
    0.94425E+06        -0.47451E+08         0.00000E+00
    0.00000E+00         0.00000E+00        -0.32753E+08
 
   -0.35606E+08         0.11607E+07         0.00000E+00
    0.11607E+07        -0.47583E+08         0.00000E+00
    0.00000E+00         0.00000E+00        -0.32689E+08
 
   -0.35126E+08         0.14124E+07         0.00000E+00
    0.14124E+07        -0.47738E+08         0.00000E+00
    0.00000E+00         0.00000E+00        -0.32624E+08
 
   -0.34618E+08         0.17088E+07         0.00000E+00
    0.17088E+07        -0.47917E+08         0.00000E+00
    0.00000E+00         0.00000E+00        -0.32559E+08
 
   -0.34085E+08         0.20622E+07         0.00000E+00
    0.20622E+07        -0.48123E+08         0.00000E+00
    0.00000E+00         0.00000E+00        -0.32493E+08
 
   -0.33538E+08         0.24894E+07         0.00000E+00
    0.24894E+07        -0.48356E+08         0.00000E+00
    0.00000E+00         0.00000E+00        -0.32430E+08
 
   -0.33002E+08         0.30122E+07         0.00000E+00
    0.30122E+07        -0.48615E+08         0.00000E+00
    0.00000E+00         0.00000E+00        -0.32375E+08
 
   -0.32533E+08         0.36581E+07         0.00000E+00
    0.36581E+07        -0.48896E+08         0.00000E+00
    0.00000E+00         0.00000E+00        -0.32338E+08
 
   -0.54850E+08        -0.58253E+06         0.00000E+00
   -0.58253E+06        -0.50098E+08         0.00000E+00
    0.00000E+00         0.00000E+00        -0.34416E+08
 
   -0.53100E+08        -0.73700E+06         0.00000E+00
   -0.73700E+06        -0.49903E+08         0.00000E+00
    0.00000E+00         0.00000E+00        -0.34026E+08
 
   -0.51675E+08        -0.80523E+06         0.00000E+00
   -0.80523E+06        -0.49664E+08         0.00000E+00
    0.00000E+00         0.00000E+00        -0.33694E+08
 
   -0.50486E+08        -0.82859E+06         0.00000E+00
   -0.82859E+06        -0.49398E+08         0.00000E+00
    0.00000E+00         0.00000E+00        -0.33403E+08
 
   -0.49473E+08        -0.82794E+06         0.00000E+00
   -0.82794E+06        -0.49119E+08         0.00000E+00
    0.00000E+00         0.00000E+00        -0.33144E+08
 
   -0.48597E+08        -0.81420E+06         0.00000E+00
   -0.81420E+06        -0.48834E+08         0.00000E+00
    0.00000E+00         0.00000E+00        -0.32912E+08
 
   -0.47830E+08        -0.79324E+06         0.00000E+00
   -0.79324E+06        -0.48548E+08         0.00000E+00
    0.00000E+00         0.00000E+00        -0.32701E+08
 
   -0.47151E+08        -0.76835E+06         0.00000E+00
   -0.76835E+06        -0.48265E+08         0.00000E+00
    0.00000E+00         0.00000E+00        -0.32509E+08
 
   -0.46544E+08        -0.74137E+06         0.00000E+00
   -0.74137E+06        -0.47988E+08         0.00000E+00
    0.00000E+00         0.00000E+00        -0.32332E+08
 
   -0.45998E+08        -0.71338E+06         0.00000E+00
   -0.71338E+06        -0.47718E+08         0.00000E+00
    0.00000E+00         0.00000E+00        -0.32169E+08
 
   -0.45503E+08        -0.68503E+06         0.00000E+00
   -0.68503E+06        -0.47455E+08         0.00000E+00
    0.00000E+00         0.00000E+00        -0.32017E+08
 
   -0.45050E+08        -0.65669E+06         0.00000E+00
   -0.65669E+06        -0.47202E+08         0.00000E+00
    0.00000E+00         0.00000E+00        -0.31876E+08
 
   -0.44634E+08        -0.62857E+06         0.00000E+00
   -0.62857E+06        -0.46958E+08         0.00000E+00
    0.00000E+00         0.00000E+00        -0.31744E+08
 
   -0.44249E+08        -0.60081E+06         0.00000E+00
   -0.60081E+06        -0.46723E+08         0.00000E+00
    0.00000E+00         0.00000E+00        -0.31620E+08
 
   -0.43890E+08        -0.57348E+06         0.00000E+00
   -0.57348E+06        -0.46497E+08         0.00000E+00
    0.00000E+00         0.00000E+00        -0.31503E+08
 
   -0.43555E+08        -0.54659E+06         0.00000E+00
   -0.54659E+06        -0.46282E+08         0.00000E+00
    0.00000E+00         0.00000E+00        -0.31393E+08
 
   -0.43239E+08        -0.52015E+06         0.00000E+00
   -0.52015E+06        -0.46076E+08         0.00000E+00
    0.00000E+00         0.00000E+00        -0.31289E+08
 
   -0.42939E+08        -0.49414E+06         0.00000E+00
   -0.49414E+06        -0.45880E+08         0.00000E+00
    0.00000E+00         0.00000E+00        -0.31190E+08
 
   -0.42654E+08        -0.46854E+06         0.00000E+00
   -0.46854E+06        -0.45693E+08         0.00000E+00
    0.00000E+00         0.00000E+00        -0.31095E+08
 
   -0.42380E+08        -0.44330E+06         0.00000E+00
   -0.44330E+06        -0.45516E+08         0.00000E+00
    0.00000E+00         0.00000E+00        -0.31005E+08
 
   -0.42116E+08        -0.41838E+06         0.00000E+00
   -0.41838E+06        -0.45349E+08         0.00000E+00
    0.00000E+00         0.00000E+00        -0.30919E+08
 
   -0.41860E+08        -0.39371E+06         0.00000E+00
   -0.39371E+06        -0.45191E+08         0.00000E+00
    0.00000E+00         0.00000E+00        -0.30836E+08
 
   -0.41610E+08        -0.36925E+06         0.00000E+00
   -0.36925E+06        -0.45042E+08         0.00000E+00
    0.00000E+00         0.00000E+00        -0.30756E+08
 
   -0.41364E+08        -0.34491E+06         0.00000E+00
   -0.34491E+06        -0.44903E+08         0.00000E+00
    0.00000E+00         0.00000E+00        -0.30679E+08
 
   -0.41122E+08        -0.32063E+06         0.00000E+00
   -0.32063E+06        -0.44773E+08         0.00000E+00
    0.00000E+00         0.00000E+00        -0.30605E+08
 
   -0.40881E+08        -0.29632E+06         0.00000E+00
   -0.29632E+06        -0.44653E+08         0.00000E+00
    0.00000E+00         0.00000E+00        -0.30533E+08
 
   -0.40639E+08        -0.27189E+06         0.00000E+00
   -0.27189E+06        -0.44542E+08         0.00000E+00
    0.00000E+00         0.00000E+00        -0.30462E+08
 
   -0.40397E+08        -0.24723E+06         0.00000E+00
   -0.24723E+06        -0.44441E+08         0.00000E+00
    0.00000E+00         0.00000E+00        -0.30393E+08
 
   -0.40152E+08        -0.22222E+06         0.00000E+00
   -0.22222E+06        -0.44349E+08         0.00000E+00
    0.00000E+00         0.00000E+00        -0.30326E+08
 
   -0.39902E+08        -0.19674E+06         0.00000E+00
   -0.19674E+06        -0.44268E+08         0.00000E+00
    0.00000E+00         0.00000E+00        -0.30260E+08
 
   -0.39647E+08        -0.17062E+06         0.00000E+00
   -0.17062E+06        -0.44197E+08         0.00000E+00
    0.00000E+00         0.00000E+00        -0.30195E+08
 
   -0.39384E+08        -0.14369E+06         0.00000E+00
   -0.14369E+06        -0.44136E+08         0.00000E+00
    0.00000E+00         0.00000E+00        -0.30130E+08
 
   -0.39112E+08        -0.11573E+06         0.00000E+00
   -0.11573E+06        -0.44086E+08         0.00000E+00
    0.00000E+00         0.00000E+00        -0.30065E+08
 
   -0.38830E+08        -0.86514E+05         0.00000E+00
   -0.86514E+05        -0.44047E+08         0.00000E+00
    0.00000E+00         0.00000E+00        -0.30001E+08
 
   -0.38534E+08        -0.55732E+05         0.00000E+00
   -0.55732E+05        -0.44020E+08         0.00000E+00
    0.00000E+00         0.00000E+00        -0.29937E+08
 
   -0.38223E+08        -0.23030E+05         0.00000E+00
   -0.23030E+05        -0.44006E+08         0.00000E+00
    0.00000E+00         0.00000E+00        -0.29872E+08
 
   -0.37895E+08         0.12029E+05         0.00000E+00
    0.12029E+05        -0.44005E+08         0.00000E+00
    0.00000E+00         0.00000E+00        -0.29806E+08
 
   -0.37546E+08         0.49990E+05         0.00000E+00
    0.49990E+05        -0.44018E+08         0.00000E+00
    0.00000E+00         0.00000E+00        -0.29739E+08
 
   -0.37172E+08         0.91535E+05         0.00000E+00
    0.91535E+05        -0.44047E+08         0.00000E+00
    0.00000E+00         0.00000E+00        -0.29670E+08
 
   -0.36771E+08         0.13754E+06         0.00000E+00
    0.13754E+06        -0.44093E+08         0.00000E+00
    0.00000E+00         0.00000E+00        -0.29599E+08
 
   -0.36337E+08         0.18913E+06         0.00000E+00
    0.18913E+06        -0.44159E+08         0.00000E+00
    0.00000E+00         0.00000E+00        -0.29525E+08
 
   -0.35865E+08         0.24782E+06         0.00000E+00
    0.24782E+06        -0.44246E+08         0.00000E+00
    0.00000E+00         0.00000E+00        -0.29448E+08
 
   -0.35347E+08         0.31562E+06         0.00000E+00
    0.31562E+06        -0.44357E+08         0.00000E+00
    0.00000E+00         0.00000E+00        -0.29367E+08
 
   -0.34774E+08         0.39534E+06         0.00000E+00
    0.39534E+06        -0.44496E+08         0.00000E+00
    0.00000E+00         0.00000E+00        -0.29280E+08
 
   -0.34136E+08         0.49097E+06         0.00000E+00
    0.49097E+06        -0.44668E+08         0.00000E+00
    0.00000E+00         0.00000E+00        -0.29187E+08
 
   -0.33418E+08         0.60835E+06         0.00000E+00
    0.60835E+06        -0.44880E+08         0.00000E+00
    0.00000E+00         0.00000E+00        -0.29085E+08
 
   -0.32598E+08         0.75636E+06         0.00000E+00
    0.75636E+06        -0.45138E+08         0.00000E+00
    0.00000E+00         0.00000E+00        -0.28973E+08
 
   -0.31650E+08         0.94917E+06         0.00000E+00
    0.94917E+06        -0.45456E+08         0.00000E+00
    0.00000E+00         0.00000E+00        -0.28847E+08
 
   -0.30531E+08         0.12104E+07         0.00000E+00
    0.12104E+07        -0.45847E+08         0.00000E+00
    0.00000E+00         0.00000E+00        -0.28701E+08
 
   -0.29178E+08         0.15818E+07         0.00000E+00
    0.15818E+07        -0.46332E+08         0.00000E+00
    0.00000E+00         0.00000E+00        -0.28528E+08
 
SCALARS stresss double 
LOOKUP_TABLE default
  -51822205.0491662     
  -52371963.9938939     
  -52871220.0345360     
  -53324330.5135076     
  -53735576.5612125     
  -54109256.8843792     
  -54449145.7900888     
  -54758464.7054172     
  -55019679.1436771     
  -55254995.1750553     
  -55471005.0266848     
  -55670584.9821757     
  -55855981.0455920     
  -56029000.8370790     
  -56191133.5069771     
  -56343628.8701815     
  -56487552.0865088     
  -56623822.9168604     
  -56753244.8187004     
  -56876527.1001031     
  -56994302.1880534     
  -57107139.3749306     
  -57215555.9796390     
  -57320026.5867927     
  -57420990.8481711     
  -57518860.2107261     
  -57614023.8543678     
  -57706854.0682749     
  -57797711.2591143     
  -57886948.7638751     
  -57974917.6316744     
  -58061971.5421007     
  -58148472.0431201     
  -58234794.3215769     
  -58321333.7682858     
  -58408513.6751511     
  -58496794.5161099     
  -58586685.4375976     
  -58678758.8525351     
  -58773669.4547947     
  -58872179.6563197     
  -58975194.5950572     
  -59083811.8487575     
  -59199394.5739143     
  -59323683.5371043     
  -59458976.7938426     
  -59608433.1658718     
  -59776614.7861570     
  -59970517.2871278     
  -60201649.4289799     
  -52700949.1935629     
  -52792712.0504459     
  -52941022.6617715     
  -53117300.4084471     
  -53306809.5858884     
  -53501692.0700250     
  -53693076.2319527     
  -53866486.9572412     
  -54041479.9987016     
  -54211705.5022030     
  -54375002.9721542     
  -54531021.3776819     
  -54679832.8339457     
  -54821714.9788921     
  -54957041.4471590     
  -55086225.1553116     
  -55209688.4568644     
  -55327847.4790576     
  -55441104.1816748     
  -55549842.7240854     
  -55654428.2753151     
  -55755207.2188711     
  -55852508.1498861     
  -55946643.3129816     
  -56037910.2741249     
  -56126593.7052214     
  -56212967.2113127     
  -56297295.1608974     
  -56379834.4977960     
  -56460836.5224420     
  -56540548.6336498     
  -56619216.0194775     
  -56697083.2771387     
  -56774395.9249104     
  -56851401.7393901     
  -56928351.8015654     
  -57005501.0512254     
  -57083108.0065642     
  -57161433.0590979     
  -57240734.3181250     
  -57321259.1893740     
  -57403228.4012681     
  -57486806.3643951     
  -57572046.1285690     
  -57658785.6239599     
  -57746447.1349017     
  -57833637.1102074     
  -57917317.3331472     
  -57991018.4053562     
  -58040828.8195681     
  -52781997.1274030     
  -52858887.6351905     
  -52931994.8665025     
  -53011171.1571126     
  -53097950.7666094     
  -53190856.6117072     
  -53288550.3527794     
  -53392203.1885628     
  -53495451.5673641     
  -53599100.4018707     
  -53702700.6156722     
  -53805505.1573965     
  -53906913.7122057     
  -54006488.6473806     
  -54103933.1247826     
  -54199061.9948483     
  -54291775.2871839     
  -54382036.6628452     
  -54469856.6998339     
  -54555280.1957921     
  -54638376.6087329     
  -54719232.8808531     
  -54797948.0468472     
  -54874629.1670820     
  -54949388.2361443     
  -55022339.8000485     
  -55093599.0754632     
  -55163280.4063910     
  -55231495.9215343     
  -55298354.2716737     
  -55363959.3322470     
  -55428408.7523919     
  -55491792.2174498     
  -55554189.2656847     
  -55615666.4588927     
  -55676273.6464197     
  -55736038.9771368     
  -55794962.1974258     
  -55853005.6195172     
  -55910081.9555288     
  -55966038.0159868     
  -56020633.1695535     
  -56073511.7562663     
  -56124170.1734572     
  -56171924.3359043     
  -56215897.5296962     
  -56255087.9029773     
  -56288680.5070368     
  -56317052.9292156     
  -56344691.8316381     
  -52834661.6730369     
  -52856718.7782816     
  -52886460.0450385     
  -52920599.6174964     
  -52958811.5963884     
  -53001291.9194537     
  -53047950.2240585     
  -53097712.7563670     
  -53151201.2753385     
  -53207261.8103894     
  -53265293.1193973     
  -53324848.2434267     
  -53385502.7639753     
  -53446864.9780466     
  -53508586.8561746     
  -53570368.9783832     
  -53631960.2720999     
  -53693154.5836121     
  -53753785.7200666     
  -53813722.0048926     
  -53872860.9293969     
  -53931124.1851396     
  -53988453.1848958     
  -54044805.0816326     
  -54100149.2435986     
  -54154464.1190900     
  -54207734.4144197     
  -54259948.5058163     
  -54311096.0063309     
  -54361165.4100386     
  -54410141.7368295     
  -54458004.1015508     
  -54504723.1315829     
  -54550258.1583158     
  -54594554.1128694     
  -54637538.0692805     
  -54679115.4072145     
  -54719165.6249063     
  -54757537.9450132     
  -54794047.0601377     
  -54828469.7214706     
  -54860543.4676854     
  -54889969.7074251     
  -54916424.5783603     
  -54939581.9438391     
  -54959151.0851202     
  -54974918.5046899     
  -54986731.3284379     
  -54994184.9516688     
  -54995226.9816704     
  -52896139.4120869     
  -52879146.7586045     
  -52868691.5593884     
  -52864671.7763820     
  -52866256.7795203     
  -52872709.8142425     
  -52883467.5755329     
  -52898290.2891876     
  -52916548.4842658     
  -52938047.4228545     
  -52962418.4742268     
  -52989285.7759343     
  -53018305.0884532     
  -53049157.8337301     
  -53081548.1612540     
  -53115202.4565265     
  -53149869.6272181     
  -53185321.1736884     
  -53221350.6824391     
  -53257772.7273813     
  -53294421.3026179     
  -53331147.9391279     
  -53367819.6391962     
  -53404316.7294450     
  -53440530.7006274     
  -53476362.0752772     
  -53511718.3239875     
  -53546511.8369413     
  -53580657.9483684     
  -53614073.0069780     
  -53646672.4846040     
  -53678369.1181697     
  -53709071.0869714     
  -53738680.2389731     
  -53767090.3975045     
  -53794185.8049020     
  -53819839.7934885     
  -53843913.8166969     
  -53866257.0199715     
  -53886706.5686678     
  -53905088.9446612     
  -53921222.3017650     
  -53934919.5924966     
  -53945991.3177912     
  -53954245.1630262     
  -53959477.7030750     
  -53961453.5850191     
  -53959883.0323635     
  -53954487.5833477     
  -53945553.1495775     
  -52919616.2844172     
  -52879888.6648665     
  -52845841.4354336     
  -52817099.1790712     
  -52793431.5068628     
  -52774534.5143546     
  -52760072.6372652     
  -52749649.2507429     
  -52742987.3901836     
  -52739728.4066751     
  -52739585.1259318     
  -52742282.0163384     
  -52747548.6622018     
  -52755124.8005228     
  -52764762.2809274     
  -52776225.5715933     
  -52789291.7798702     
  -52803750.5289937     
  -52819403.7422167     
  -52836065.3026201     
  -52853560.5584111     
  -52871725.6665444     
  -52890406.7878702     
  -52909459.1589246     
  -52928746.0699593     
  -52948137.7785124     
  -52967510.3851766     
  -52986744.6949532     
  -53005725.0847704     
  -53024338.3960031     
  -53042472.8704489     
  -53060017.1492567     
  -53076859.3566313     
  -53092886.2933461     
  -53107982.7683642     
  -53122031.0987300     
  -53134910.8058643     
  -53146498.5266544     
  -53156668.1349996     
  -53165291.0279981     
  -53172236.4683296     
  -53177371.8021507     
  -53180562.3396692     
  -53181670.8268455     
  -53180557.0253729     
  -53177079.3250033     
  -53171102.3144839     
  -53162512.5185442     
  -53151216.5217827     
  -53136948.9358798     
  -52907027.6474321     
  -52852955.9470427     
  -52803976.6805313     
  -52759821.7742583     
  -52720206.5301852     
  -52684879.3436392     
  -52653594.5547547     
  -52626122.8179626     
  -52602210.1969708     
  -52581629.7516847     
  -52564144.3117538     
  -52549526.0716408     
  -52537556.6054127     
  -52528024.8679143     
  -52520726.8487625     
  -52515465.6925884     
  -52512051.8319652     
  -52510303.0271562     
  -52510044.3138193     
  -52511107.8748119     
  -52513332.8453460     
  -52516565.0548014     
  -52520656.7073188     
  -52525466.0052400     
  -52530856.7224650     
  -52536697.7375949     
  -52542862.5388091     
  -52549228.7137258     
  -52555677.4381707     
  -52562092.9779712     
  -52568362.2177380     
  -52574374.2300633     
  -52580019.8975549     
  -52585191.5983967     
  -52589782.9633715     
  -52593688.7082322     
  -52596804.5399339     
  -52599027.1291934     
  -52600254.1371210     
  -52600384.2845141     
  -52599317.4658996     
  -52596954.9450055     
  -52593199.7256057     
  -52587957.2415771     
  -52581136.4362008     
  -52572650.8272324     
  -52562417.9396866     
  -52550354.3907301     
  -52536371.6905070     
  -52520439.6469928     
  -52859022.9220423     
  -52797409.4395929     
  -52740122.2208248     
  -52686987.4342837     
  -52637828.7614606     
  -52592459.7789454     
  -52550695.9565494     
  -52512351.3127797     
  -52477248.1209152     
  -52445204.7967104     
  -52416046.0278456     
  -52389597.7443583     
  -52365688.3990507     
  -52344150.0667429     
  -52324818.7607248     
  -52307534.5647037     
  -52292141.7354379     
  -52278488.7885235     
  -52266428.5549791     
  -52255818.2012179     
  -52246519.2116032     
  -52238397.3361000     
  -52231322.5066164     
  -52225168.7259559     
  -52219813.9336216     
  -52215139.8532173     
  -52211031.8267936     
  -52207378.6420479     
  -52204072.3586746     
  -52201008.1403005     
  -52198084.0982827     
  -52195201.1531807     
  -52192262.9189671     
  -52189175.6140855     
  -52185848.0024390     
  -52182191.3665709     
  -52178119.5150394     
  -52173548.8267206     
  -52168398.3367473     
  -52162589.8714752     
  -52156048.2409825     
  -52148701.4918552     
  -52140481.2022173     
  -52131322.7608011     
  -52121165.5369435     
  -52109952.9313252     
  -52097632.7565406     
  -52084159.3108858     
  -52069497.0186599     
  -52053601.6703627     
  -52779889.5919777     
  -52715346.4085862     
  -52654460.8589454     
  -52597100.1080859     
  -52543131.4666123     
  -52492423.4271103     
  -52444842.3756214     
  -52400254.6355924     
  -52358524.8982458     
  -52319519.6316328     
  -52283104.9123468     
  -52249148.2576630     
  -52217518.4951241     
  -52188085.8571583     
  -52160722.2769826     
  -52135301.6553209     
  -52111700.0693814     
  -52089795.9375868     
  -52069470.1522382     
  -52050606.1862582     
  -52033090.1769906     
  -52016810.9891938     
  -52001660.2594512     
  -51987532.4244912     
  -51974324.7361226     
  -51961937.2656246     
  -51950272.9005124     
  -51939237.3366477     
  -51928739.0686774     
  -51918689.3817471     
  -51909002.3473536     
  -51899594.8260679     
  -51890386.4797094     
  -51881299.7954033     
  -51872260.1238460     
  -51863195.7340366     
  -51854037.8866434     
  -51844720.9278878     
  -51835182.4050490     
  -51825363.2030870     
  -51815207.6994976     
  -51804663.9326308     
  -51793683.7811446     
  -51782223.1654187     
  -51770242.3076812     
  -51757706.0966976     
  -51744584.4775808     
  -51730852.3514374     
  -51716488.4798066     
  -51701481.4803095     
  -52674870.2313258     
  -52610698.8139874     
  -52549551.4113323     
  -52491339.9475361     
  -52435973.1614229     
  -52383357.2610229     
  -52333397.3195767     
  -52285996.9846680     
  -52241059.2256166     
  -52198485.9321309     
  -52158178.8602027     
  -52120039.4884777     
  -52083969.4273347     
  -52049870.6849595     
  -52017645.8608896     
  -51987198.3386498     
  -51958432.4748336     
  -51931253.7758810     
  -51905569.0589953     
  -51881286.5971498     
  -51858316.2493832     
  -51836569.5778394     
  -51815959.9530030     
  -51796402.6485915     
  -51777814.9276034     
  -51760116.1210663     
  -51743227.7010648     
  -51727073.3496375     
  -51711579.0251286     
  -51696673.0275500     
  -51682286.0644800     
  -51668351.3189708     
  -51654804.5208779     
  -51641584.0229396     
  -51628630.8828119     
  -51615888.9520891     
  -51603304.9730894     
  -51590828.6838927     
  -51578412.9318587     
  -51566013.7958342     
  -51553590.7177433     
  -51541106.6452772     
  -51528528.1880798     
  -51515825.7872567     
  -51502973.8878914     
  -51489951.0896412     
  -51476740.2715827     
  -51463328.8505248     
  -51449709.5017572     
  -51435878.7351069     
  -52549710.7110443     
  -52488146.6242410     
  -52429042.1011993     
  -52372338.9413130     
  -52317976.7199128     
  -52265892.8624082     
  -52216022.6449361     
  -52168299.6690680     
  -52122656.0120230     
  -52079022.6290857     
  -52037329.4203612     
  -51997505.5738952     
  -51959479.7353284     
  -51923180.2164804     
  -51888535.2044057     
  -51855472.9523350     
  -51823921.9573537     
  -51793811.1284347     
  -51765069.9458047     
  -51737628.6117251     
  -51711418.1927930     
  -51686370.7541070     
  -51662419.4858435     
  -51639498.8229077     
  -51617544.5583940     
  -51596493.9516347     
  -51576285.8316429     
  -51556860.6967686     
  -51538160.8113917     
  -51520130.3004626     
  -51502715.2426806     
  -51485863.7630609     
  -51469526.1255947     
  -51453654.8266376     
  -51438204.6895886     
  -51423132.9613431     
  -51408399.4109323     
  -51393966.4307173     
  -51379799.1404847     
  -51365865.4947509     
  -51352136.3933988     
  -51338585.7952840     
  -51325190.8336624     
  -51311931.9320155     
  -51298792.9213141     
  -51285761.1667540     
  -51272827.7131045     
  -51259987.4059968     
  -51247238.8360646     
  -51234584.9139770     
  -52410081.7921311     
  -52352563.8931781     
  -52297008.6225473     
  -52243382.0069760     
  -52191647.3745827     
  -52141765.6726604     
  -52093695.7569781     
  -52047394.5462618     
  -52002817.2655435     
  -51959917.6209521     
  -51918648.0448492     
  -51878959.8593918     
  -51840803.4803550     
  -51804128.5977506     
  -51768884.3488797     
  -51735019.4877498     
  -51702482.5485074     
  -51671222.0020876     
  -51641186.4062930     
  -51612324.5497067     
  -51584585.5897788     
  -51557919.1853723     
  -51532275.6240504     
  -51507605.9444151     
  -51483862.0538335     
  -51460996.8419171     
  -51438964.2901365     
  -51417719.5779610     
  -51397219.1859179     
  -51377420.9959559     
  -51358284.3894866     
  -51339770.3434569     
  -51321841.5247763     
  -51304462.3833981     
  -51287599.2443127     
  -51271220.3986792     
  -51255296.1942765     
  -51239799.1253991     
  -51224703.9222507     
  -51209987.6397893     
  -51195629.7458929     
  -51181612.2087153     
  -51167919.5832825     
  -51154539.0976448     
  -51141460.7384635     
  -51128677.3333464     
  -51116184.6241994     
  -51103981.3397895     
  -51092069.3271592     
  -51080453.4976263     
  -52261237.8684615     
  -52208596.4806487     
  -52157490.5898523     
  -52107903.9266745     
  -52059817.7374036     
  -52013210.9440708     
  -51968060.3180174     
  -51924340.6817181     
  -51882025.0786523     
  -51841084.9548027     
  -51801490.3181452     
  -51763209.9131907     
  -51726211.3778566     
  -51690461.4012144     
  -51655925.8764545     
  -51622570.0485011     
  -51590358.6571810     
  -51559256.0761334     
  -51529226.4474088     
  -51500233.8117581     
  -51472242.2346873     
  -51445215.9284009     
  -51419119.3697728     
  -51393917.4144916     
  -51369575.4075346     
  -51346059.2901300     
  -51323335.7033713     
  -51301372.0886498     
  -51280136.7850691     
  -51259599.1240021     
  -51239729.5209417     
  -51220499.5647851     
  -51201882.1046778     
  -51183851.3345225     
  -51166382.8752397     
  -51149453.8548370     
  -51133042.9863166     
  -51117130.6434178     
  -51101698.9341591     
  -51086731.7721257     
  -51072214.9454270     
  -51058136.1832221     
  -51044485.2196112     
  -51031253.8545020     
  -51018436.0109611     
  -51006027.7892179     
  -50994027.5190849     
  -50982435.8094385     
  -50971255.5726461     
  -50960492.0950676     
  -52107797.5332792     
  -52060411.6264540     
  -52014200.7277313     
  -51969161.5068976     
  -51925288.2871984     
  -51882573.2085664     
  -51841006.3810454     
  -51800576.0283633     
  -51761268.6369183     
  -51723069.0978575     
  -51685960.8504822     
  -51649926.0178883     
  -51614945.5433778     
  -51580999.3222048     
  -51548066.3304945     
  -51516124.7512751     
  -51485152.0973184     
  -51455125.3307756     
  -51426020.9796487     
  -51397815.2511211     
  -51370484.1417582     
  -51344003.5445945     
  -51318349.3531352     
  -51293497.5623067     
  -51269424.3664007     
  -51246106.2540551     
  -51223520.1003204     
  -51201643.2558568     
  -51180453.6333086     
  -51159929.7908941     
  -51140051.0132482     
  -51120797.3895453     
  -51102149.8889188     
  -51084090.4331872     
  -51066601.9668784     
  -51049668.5245331     
  -51033275.2952522     
  -51017408.6844350     
  -51002056.3726421     
  -50987207.3714898     
  -50972852.0764624     
  -50958982.3164943     
  -50945591.4001627     
  -50932674.1583571     
  -50920226.9833414     
  -50908247.8639577     
  -50896736.4160388     
  -50885693.9075059     
  -50875123.2852341     
  -50865029.1828110     
  -51953638.8422577     
  -51911561.8691812     
  -51870361.1827552     
  -51830042.4162431     
  -51790609.1004136     
  -51752062.7817010     
  -51714403.1420508     
  -51677628.1191071     
  -51641734.0228393     
  -51606715.6518513     
  -51572566.4070968     
  -51539278.4050577     
  -51506842.5880446     
  -51475248.8330540     
  -51444486.0584895     
  -51414542.3287287     
  -51385404.9565466     
  -51357060.6033216     
  -51329495.3769606     
  -51302694.9274970     
  -51276644.5403282     
  -51251329.2270634     
  -51226733.8139537     
  -51202843.0278823     
  -51179641.5798936     
  -51157114.2462413     
  -51135245.9469399     
  -51114021.8217986     
  -51093427.3039221     
  -51073448.1906542     
  -51054070.7119419     
  -51035281.5960894     
  -51017068.1328697     
  -50999418.2339528     
  -50982320.4906034     
  -50965764.2285943     
  -50949739.5602706     
  -50934237.4336923     
  -50919249.6787721     
  -50904769.0503137     
  -50890789.2678473     
  -50877305.0521529     
  -50864312.1583510     
  -50851807.4054205     
  -50839788.7019577     
  -50828255.0679989     
  -50817206.6529399     
  -50806644.7496388     
  -50796571.8021367     
  -50786991.4126243     
  -51801877.7993401     
  -51764938.5822363     
  -51728632.3191562     
  -51692970.5201115     
  -51657962.8487292     
  -51623617.2161497     
  -51589939.8738251     
  -51556935.5056741     
  -51524607.3202981     
  -51492957.1421890     
  -51461985.5023653     
  -51431691.7277828     
  -51402074.0299694     
  -51373129.5923492     
  -51344854.6563400     
  -51317244.6060991     
  -51290294.0518101     
  -51263996.9114343     
  -51238346.4908558     
  -51213335.5623442     
  -51188956.4412706     
  -51165201.0610105     
  -51142061.0459752     
  -51119527.7827163     
  -51097592.4890479     
  -51076246.2811344     
  -51055480.2384931     
  -51035285.4668601     
  -51015653.1588697     
  -50996574.6524940     
  -50978041.4871922     
  -50960045.4577127     
  -50942578.6654935     
  -50925633.5675989     
  -50909203.0231312     
  -50893280.3370503     
  -50877859.3013291     
  -50862934.2333716     
  -50848500.0116128     
  -50834552.1082162     
  -50821086.6187818     
  -50808100.2889667     
  -50795590.5379208     
  -50783555.4784298     
  -50771993.9336709     
  -50760905.4504853     
  -50750290.3089996     
  -50740149.5283511     
  -50730484.8691373     
  -50721298.8308494     
  -51654904.9045539     
  -51622786.5785772     
  -51591106.3037858     
  -51559879.0915919     
  -51529118.3708167     
  -51498836.0568479     
  -51469042.6214800     
  -51439747.1630245     
  -51410957.4763521     
  -51382680.1229641     
  -51354920.5007968     
  -51327682.9137553     
  -51300970.6407095     
  -51274786.0039485     
  -51249130.4369266     
  -51224004.5512055     
  -51199408.2024965     
  -51175340.5557054     
  -51151800.1488884     
  -51128784.9560334     
  -51106292.4485849     
  -51084319.6556341     
  -51062863.2226988     
  -51041919.4690201     
  -51021484.4433059     
  -51001553.9778531     
  -50982123.7409814     
  -50963189.2877145     
  -50944746.1086422     
  -50926789.6769016     
  -50909315.4932129     
  -50892319.1289049     
  -50875796.2668682     
  -50859742.7403691     
  -50844154.5696603     
  -50829027.9963206     
  -50814359.5152567     
  -50800145.9042968     
  -50786384.2513067     
  -50773071.9787564     
  -50760206.8656622     
  -50747787.0668322     
  -50735811.1293385     
  -50724278.0061418     
  -50713187.0667874     
  -50702538.1050896     
  -50692331.3437361     
  -50682567.4357896     
  -50673247.4627836     
  -50664372.9297828     
  -51514457.2238951     
  -51486757.5242769     
  -51459342.3825818     
  -51432228.5471862     
  -51405431.4352253     
  -51378965.1826656     
  -51352842.6950560     
  -51327075.6988911     
  -51301674.7934774     
  -51276649.5030968     
  -51252008.3293800     
  -51227758.8037291     
  -51203907.5397033     
  -51180460.2852196     
  -51157421.9744759     
  -51134796.7794826     
  -51112588.1611030     
  -51090798.9195038     
  -51069431.2439222     
  -51048486.7616610     
  -51027966.5862227     
  -51007871.3645021     
  -50988201.3229542     
  -50968956.3126627     
  -50950135.8532321     
  -50931739.1754302     
  -50913765.2625121     
  -50896212.8901538     
  -50879080.6649305     
  -50862367.0612703     
  -50846070.4568216     
  -50830189.1661668     
  -50814721.4728218     
  -50799665.6594569     
  -50785020.0362793     
  -50770782.9675130     
  -50756952.8959198     
  -50743528.3652963     
  -50730508.0408921     
  -50717890.7276863     
  -50705675.3864660     
  -50693861.1476498     
  -50682447.3227968     
  -50671433.4137479     
  -50660819.1193435     
  -50650604.3396674     
  -50640789.1777650     
  -50631373.9387667     
  -50622359.1264355     
  -50613745.4369764     
  -51381708.5460096     
  -51357984.4677808     
  -51334426.1811956     
  -51311050.9036577     
  -51287874.7521190     
  -51264912.7775838     
  -51242179.0005943     
  -51219686.4475338     
  -51197447.1876138     
  -51175472.3704361     
  -51153772.2639963     
  -51132356.2930216     
  -51111233.0775208     
  -51090410.4714485     
  -51069895.6013729     
  -51049694.9050481     
  -51029814.1697965     
  -51010258.5706052     
  -50991032.7078482     
  -50972140.6445469     
  -50953585.9430857     
  -50935371.7013014     
  -50917500.5878683     
  -50899974.8769037     
  -50882796.4817195     
  -50865966.9876512     
  -50849487.6838924     
  -50833359.5942709     
  -50817583.5068998     
  -50802160.0026407     
  -50787089.4823189     
  -50772372.1926290     
  -50758008.2506743     
  -50743997.6670832     
  -50730340.3676465     
  -50717036.2134236     
  -50704085.0192642     
  -50691486.5706955     
  -50679240.6391260     
  -50667346.9953184     
  -50655805.4210858     
  -50644615.7191668     
  -50633777.7212392     
  -50623291.2940298     
  -50613156.3434855     
  -50603372.8169672     
  -50593940.7034355     
  -50584860.0316028     
  -50576130.8660086     
  -50567753.3010234     
  -51257364.9606390     
  -51237164.6770534     
  -51217040.0378910     
  -51197007.8581235     
  -51177084.0572089     
  -51157283.6815856     
  -51137620.9281853     
  -51118109.1688594     
  -51098760.9756059     
  -51079588.1464868     
  -51060601.7321334     
  -51041812.0627343     
  -51023228.7754118     
  -51004860.8418862     
  -50986716.5963372     
  -50968803.7633731     
  -50951129.4860184     
  -50933700.3536368     
  -50916522.4297077     
  -50899601.2793760     
  -50882941.9967001     
  -50866549.2315218     
  -50850427.2158885     
  -50834579.7899566     
  -50819010.4273090     
  -50803722.2596228     
  -50788718.1006220     
  -50774000.4692568     
  -50759571.6120488     
  -50745433.5245449     
  -50731587.9718276     
  -50718036.5080246     
  -50704780.4947696     
  -50691821.1185643     
  -50679159.4069927     
  -50666796.2437445     
  -50654732.3824021     
  -50642968.4589505     
  -50631505.0029708     
  -50620342.4474785     
  -50609481.1373734     
  -50598921.3364655     
  -50588663.2330481     
  -50578706.9439893     
  -50569052.5173151     
  -50559699.9332630     
  -50550649.1037846     
  -50541899.8704787     
  -50533452.0009466     
  -50525305.1835496     
  -51141757.4126216     
  -51124642.0698665     
  -51107535.4350109     
  -51090453.3564859     
  -51073410.9646635     
  -51056422.6852490     
  -51039502.2536870     
  -51022662.7304856     
  -51005916.5173643     
  -50989275.3741385     
  -50972750.4362491     
  -50956352.2328522     
  -50940090.7053854     
  -50923975.2265265     
  -50908014.6194667     
  -50892217.1774191     
  -50876590.6832876     
  -50861142.4294216     
  -50845879.2373862     
  -50830807.4776770     
  -50815933.0893138     
  -50801261.5992462     
  -50786798.1415092     
  -50772547.4760664     
  -50758514.0072824     
  -50744701.8019658     
  -50731114.6069294     
  -50717755.8660117     
  -50704628.7365107     
  -50691736.1049779     
  -50679080.6023272     
  -50666664.6182112     
  -50654490.3146221     
  -50642559.6386748     
  -50630874.3345335     
  -50619435.9544418     
  -50608245.8688235     
  -50597305.2754174     
  -50586615.2074170     
  -50576176.5405844     
  -50565989.9993117     
  -50556056.1616053     
  -50546375.4629709     
  -50536948.1991787     
  -50527774.5278922     
  -50518854.4691464     
  -50510187.9046618     
  -50501774.5759889     
  -50493614.0814719     
  -50485705.8720355     
  -51034926.1278927     
  -51020483.8114162     
  -51006001.8084759     
  -50991494.6687489     
  -50976976.3742606     
  -50962460.3461070     
  -50947959.4521230     
  -50933486.0154231     
  -50919051.8237373     
  -50904668.1394707     
  -50890345.7104132     
  -50876094.7810291     
  -50861925.1042563     
  -50847845.9537472     
  -50833866.1364853     
  -50819994.0057104     
  -50806237.4740912     
  -50792604.0270805     
  -50779100.7363953     
  -50765734.2735604     
  -50752510.9234594     
  -50739436.5978374     
  -50726516.8487019     
  -50713756.8815678     
  -50701161.5684986     
  -50688735.4608915     
  -50676482.8019633     
  -50664407.5388876     
  -50652513.3345419     
  -50640803.5788232     
  -50629281.3994888     
  -50617949.6724881     
  -50606811.0317451     
  -50595867.8783595     
  -50585122.3891925     
  -50574576.5248065     
  -50564232.0367300     
  -50554090.4740208     
  -50544153.1891029     
  -50534421.3428534     
  -50524895.9089208     
  -50515577.6772537     
  -50506467.2568265     
  -50497565.0775467     
  -50488871.3913323     
  -50480386.2723523     
  -50472109.6164217     
  -50464041.1395489     
  -50456180.3756339     
  -50448526.6733191     
  -50936694.2939966     
  -50924548.1103444     
  -50912328.4430888     
  -50900048.3805866     
  -50887720.5687273     
  -50875357.2129291     
  -50862970.0809876     
  -50850570.5067190     
  -50838169.3943368     
  -50825777.2235063     
  -50813404.0550174     
  -50801059.5370198     
  -50788752.9117641     
  -50776493.0227942     
  -50764288.3225365     
  -50752146.8802326     
  -50740076.3901635     
  -50728084.1801151     
  -50716177.2200334     
  -50704362.1308230     
  -50692645.1932397     
  -50681032.3568321     
  -50669529.2488872     
  -50658141.1833361     
  -50646873.1695794     
  -50635729.9211889     
  -50624715.8644491     
  -50613835.1466996     
  -50603091.6444417     
  -50592488.9711756     
  -50582030.4849345     
  -50571719.2954846     
  -50561558.2711596     
  -50551550.0453041     
  -50541697.0222965     
  -50532001.3831293     
  -50522465.0905216     
  -50513089.8935441     
  -50503877.3317360     
  -50494828.7386983     
  -50485945.2451454     
  -50477227.7814038     
  -50468677.0793451     
  -50460293.6737445     
  -50452077.9030568     
  -50444029.9096059     
  -50436149.6391841     
  -50428436.8400607     
  -50420891.0614019     
  -50413511.6511059     
  -50846730.1107233     
  -50836541.9822575     
  -50826257.8974755     
  -50815889.4406233     
  -50805447.8560063     
  -50794944.0467811     
  -50784388.5744936     
  -50773791.6593181     
  -50763163.1809529     
  -50752512.6801268     
  -50741849.3606716     
  -50731182.0921172     
  -50720519.4127647     
  -50709869.5331936     
  -50699240.3401609     
  -50688639.4008502     
  -50678073.9674278     
  -50667550.9818665     
  -50657077.0809964     
  -50646658.6017435     
  -50636301.5865183     
  -50626011.7887171     
  -50615794.6782990     
  -50605655.4474045     
  -50595599.0159814     
  -50585630.0373838     
  -50575752.9039148     
  -50565971.7522796     
  -50556290.4689217     
  -50546712.6952135     
  -50537241.8324740     
  -50527881.0467897     
  -50518633.2736124     
  -50509501.2221141     
  -50500487.3792758     
  -50491594.0136911     
  -50482823.1790679     
  -50474176.7174089     
  -50465656.2618591     
  -50457263.2392049     
  -50448998.8720141     
  -50440864.1804063     
  -50432859.9834467     
  -50424986.9001557     
  -50417245.3501301     
  -50409635.5537742     
  -50402157.5321378     
  -50394811.1063649     
  -50387595.8967537     
  -50380511.3214346     
  -50764597.4560589     
  -50756068.9050801     
  -50747430.5782688     
  -50738692.5938081     
  -50729864.8126936     
  -50720956.8354802     
  -50711977.9996671     
  -50702937.3776879     
  -50693843.7754716     
  -50684705.7315406     
  -50675531.5166123     
  -50666329.1336703     
  -50657106.3184709     
  -50647870.5404528     
  -50638629.0040156     
  -50629388.6501345     
  -50620156.1582805     
  -50610937.9486110     
  -50601740.1844025     
  -50592568.7746933     
  -50583429.3771062     
  -50574327.4008209     
  -50565268.0096703     
  -50556256.1253289     
  -50547296.4305692     
  -50538393.3725591     
  -50529551.1661748     
  -50520773.7973044     
  -50512065.0261206     
  -50503428.3902989     
  -50494867.2081600     
  -50486384.5817175     
  -50477983.3996111     
  -50469666.3399075     
  -50461435.8727533     
  -50453294.2628633     
  -50445243.5718322     
  -50437285.6602543     
  -50429422.1896426     
  -50421654.6241351     
  -50413984.2319817     
  -50406412.0868018     
  -50398939.0686104     
  -50391565.8646050     
  -50384292.9697133     
  -50377120.6868980     
  -50370049.1272216     
  -50363078.2096710     
  -50356207.6607459     
  -50349437.0138171     
  -50689796.0860354     
  -50682667.0018545     
  -50675420.8275163     
  -50668066.3044123     
  -50660611.9826358     
  -50653066.2165444     
  -50645437.1608577     
  -50637732.7672664     
  -50629960.7815282     
  -50622128.7410263     
  -50614243.9727641     
  -50606313.5917731     
  -50598344.4999064     
  -50590343.3849952     
  -50582316.7203418     
  -50574270.7645241     
  -50566211.5614882     
  -50558144.9409040     
  -50550076.5187588     
  -50542011.6981683     
  -50533955.6703776     
  -50525913.4159334     
  -50517889.7060025     
  -50509889.1038169     
  -50501915.9662223     
  -50493974.4453125     
  -50486068.4901274     
  -50478201.8483975     
  -50470378.0683160     
  -50462600.5003209     
  -50454872.2988722     
  -50447196.4242062     
  -50439575.6440546     
  -50432012.5353130     
  -50424509.4856475     
  -50417068.6950258     
  -50409692.1771641     
  -50402381.7608789     
  -50395139.0913355     
  -50387965.6311859     
  -50380862.6615888     
  -50373831.2831088     
  -50366872.4164875     
  -50359986.8032872     
  -50353175.0064026     
  -50346437.4104420     
  -50339774.2219781     
  -50333185.4696709     
  -50326671.0042651     
  -50320230.4984683     
  -50621792.6333240     
  -50615838.7754892     
  -50609765.3150693     
  -50603579.7352366     
  -50597289.3796487     
  -50590901.4474447     
  -50584422.9886848     
  -50577860.9002139     
  -50571221.9219339     
  -50564512.6334662     
  -50557739.4511873     
  -50550908.6256177     
  -50544026.2391483     
  -50537098.2040842     
  -50530130.2609881     
  -50523127.9773051     
  -50516096.7462502     
  -50509041.7859414     
  -50501968.1387590     
  -50494880.6709143     
  -50487784.0722105     
  -50480682.8559775     
  -50473581.3591648     
  -50466483.7425762     
  -50459393.9912295     
  -50452315.9148261     
  -50445253.1483165     
  -50438209.1525453     
  -50431187.2149641     
  -50424190.4503971     
  -50417221.8018488     
  -50410284.0413401     
  -50403379.7707628     
  -50396511.4227419     
  -50389681.2614956     
  -50382891.3836843     
  -50376143.7192415     
  -50369440.0321772     
  -50362781.9213498     
  -50356170.8211996     
  -50349608.0024394     
  -50343094.5726988     
  -50336631.4771196     
  -50330219.4988998     
  -50323859.2597861     
  -50317551.2205139     
  -50311295.6811970     
  -50305092.7816686     
  -50298942.5017753     
  -50292844.6616313     
  -50560043.7927919     
  -50555073.5858384     
  -50549984.7332105     
  -50544783.5919989     
  -50539476.4199554     
  -50534069.3703545     
  -50528568.4872156     
  -50522979.7008720     
  -50517308.8238784     
  -50511561.5472423     
  -50505743.4369684     
  -50499859.9309025     
  -50493916.3358632     
  -50487917.8250476     
  -50481869.4356978     
  -50475776.0670162     
  -50469642.4783147     
  -50463473.2873865     
  -50457272.9690859     
  -50451045.8541044     
  -50444796.1279290     
  -50438527.8299714     
  -50432244.8528546     
  -50425950.9418454     
  -50419649.6944206     
  -50413344.5599561     
  -50407038.8395265     
  -50400735.6858059     
  -50394438.1030580     
  -50388148.9472075     
  -50381870.9259819     
  -50375606.5991152     
  -50369358.3786054     
  -50363128.5290187     
  -50356919.1678310     
  -50350732.2658026     
  -50344569.6473789     
  -50338432.9911113     
  -50332323.8300951     
  -50326243.5524186     
  -50320193.4016217     
  -50314174.4771599     
  -50308187.7348729     
  -50302233.9874566     
  -50296313.9049364     
  -50290428.0151444     
  -50284576.7042000     
  -50278760.2169953     
  -50272978.6576897     
  -50267231.9902148     
  -50504013.0625258     
  -50499864.0791344     
  -50495599.8477032     
  -50491225.7340477     
  -50486747.0354099     
  -50482168.9754700     
  -50477496.6996484     
  -50472735.2706879     
  -50467889.6645113     
  -50462964.7663460     
  -50457965.3671063     
  -50452896.1600271     
  -50447761.7375383     
  -50442566.5883732     
  -50437315.0948994     
  -50432011.5306657     
  -50426660.0581543     
  -50421264.7267289     
  -50415829.4707708     
  -50410358.1079927     
  -50404854.3379210     
  -50399321.7405385     
  -50393763.7750774     
  -50388183.7789554     
  -50382584.9668443     
  -50376970.4298646     
  -50371343.1348971     
  -50365705.9240035     
  -50360061.5139493     
  -50354412.4958208     
  -50348761.3347301     
  -50343110.3696014     
  -50337461.8130322     
  -50331817.7512239     
  -50326180.1439767     
  -50320550.8247438     
  -50314931.5007408     
  -50309323.7531053     
  -50303729.0371052     
  -50298148.6823913     
  -50292583.8932923     
  -50287035.7491501     
  -50281505.2046948     
  -50275993.0904577     
  -50270500.1132227     
  -50265026.8565156     
  -50259573.7811335     
  -50254141.2257140     
  -50248729.4073480     
  -50243338.4222365     
  -50453182.3044129     
  -50449717.7100741     
  -50446142.9229394     
  -50442462.4478361     
  -50438680.7442537     
  -50434802.2216830     
  -50430831.2351855     
  -50426772.0811875     
  -50422628.9934957     
  -50418406.1395293     
  -50414107.6167627     
  -50409737.4493765     
  -50405299.5851067     
  -50400797.8922909     
  -50396236.1571038     
  -50391618.0809746     
  -50386947.2781830     
  -50382227.2736252     
  -50377461.5007453     
  -50372653.2996246     
  -50367805.9152233     
  -50362922.4957679     
  -50358006.0912784     
  -50353059.6522291     
  -50348086.0283365     
  -50343087.9674698     
  -50338068.1146760     
  -50333029.0113167     
  -50327973.0943092     
  -50322902.6954675     
  -50317820.0409387     
  -50312727.2507292     
  -50307626.3383177     
  -50302519.2103491     
  -50297407.6664073     
  -50292293.3988626     
  -50287177.9927903     
  -50282062.9259583     
  -50276949.5688813     
  -50271839.1849386     
  -50266732.9305552     
  -50261631.8554437     
  -50256536.9029069     
  -50251448.9102002     
  -50246368.6089530     
  -50241296.6256513     
  -50236233.4821796     
  -50231179.5964252     
  -50226135.2829454     
  -50221100.7536996     
  -50407059.2403037     
  -50404164.3782053     
  -50401165.4486736     
  -50398066.2168909     
  -50394870.4199850     
  -50391581.7627952     
  -50388203.9138179     
  -50384740.5013299     
  -50381195.1096888     
  -50377571.2758070     
  -50373872.4857954     
  -50370102.1717780     
  -50366263.7088687     
  -50362360.4123113     
  -50358395.5347778     
  -50354372.2638196     
  -50350293.7194712     
  -50346162.9519986     
  -50341982.9397923     
  -50337756.5873964     
  -50333486.7236744     
  -50329176.1001041     
  -50324827.3891977     
  -50320443.1830461     
  -50316025.9919790     
  -50311578.2433404     
  -50307102.2803731     
  -50302600.3612100     
  -50298074.6579676     
  -50293527.2559392     
  -50288960.1528828     
  -50284375.2584017     
  -50279774.3934146     
  -50275159.2897124     
  -50270531.5895982     
  -50265892.8456094     
  -50261244.5203187     
  -50256587.9862123     
  -50251924.5256445     
  -50247255.3308652     
  -50242581.5041213     
  -50237904.0578298     
  -50233223.9148227     
  -50228541.9086624     
  -50223858.7840279     
  -50219175.1971726     
  -50214491.7164540     
  -50209808.8229343     
  -50205126.9110558     
  -50200446.2893897     
  -50365181.8356048     
  -50362761.0603079     
  -50360242.9794925     
  -50357630.7286750     
  -50354927.4279520     
  -50352136.1782340     
  -50349260.0576192     
  -50346302.1179079     
  -50343265.3812539     
  -50340152.8369561     
  -50336967.4383852     
  -50333712.1000477     
  -50330389.6947836     
  -50327003.0510964     
  -50323554.9506141     
  -50320048.1256788     
  -50316485.2570621     
  -50312868.9718058     
  -50309201.8411835     
  -50305486.3787817     
  -50301725.0386974     
  -50297920.2138509     
  -50294074.2344086     
  -50290189.3663164     
  -50286267.8099382     
  -50282311.6987992     
  -50278323.0984297     
  -50274304.0053082     
  -50270256.3459007     
  -50266181.9757937     
  -50262082.6789195     
  -50257960.1668707     
  -50253816.0783022     
  -50249651.9784194     
  -50245469.3585494     
  -50241269.6357949     
  -50237054.1527692     
  -50232824.1774094     
  -50228580.9028692     
  -50224325.4474878     
  -50220058.8548361     
  -50215782.0938372     
  -50211496.0589642     
  -50207201.5705115     
  -50202899.3749408     
  -50198590.1453035     
  -50194274.4817369     
  -50189952.9120371     
  -50185625.8923074     
  -50181293.8076848     
  -50327120.3594311     
  -50325094.1771720     
  -50322977.7739570     
  -50320773.7532479     
  -50318484.7121277     
  -50316113.2380082     
  -50313661.9054456     
  -50311133.2730631     
  -50308529.8805835     
  -50305854.2459695     
  -50303108.8626731     
  -50300296.1969944     
  -50297418.6855471     
  -50294478.7328335     
  -50291478.7089251     
  -50288420.9472495     
  -50285307.7424834     
  -50282141.3485478     
  -50278923.9767078     
  -50275657.7937729     
  -50272344.9203969     
  -50268987.4294778     
  -50265587.3446539     
  -50262146.6388956     
  -50258667.2331918     
  -50255150.9953283     
  -50251599.7387581     
  -50248015.2215598     
  -50244399.1454858     
  -50240753.1550952     
  -50237078.8369735     
  -50233377.7190346     
  -50229651.2699063     
  -50225900.8983963     
  -50222127.9530389     
  -50218333.7217200     
  -50214519.4313804     
  -50210686.2477961     
  -50206835.2754353     
  -50202967.5573904     
  -50199084.0753855     
  -50195185.7498580     
  -50191273.4401154     
  -50187347.9445653     
  -50183410.0010192     
  -50179460.2870710     
  -50175499.4205488     
  -50171527.9600416     
  -50167546.4054999     
  -50163555.1989122     
  -50292477.7595461     
  -50290780.2974833     
  -50288999.7997204     
  -50287138.4228560     
  -50285198.3234055     
  -50283181.6549623     
  -50281090.5654418     
  -50278927.1944076     
  -50276693.6704821     
  -50274392.1088419     
  -50272024.6087997     
  -50269593.2514712     
  -50267100.0975296     
  -50264547.1850460     
  -50261936.5274177     
  -50259270.1113819     
  -50256549.8951173     
  -50253777.8064306     
  -50250955.7410304     
  -50248085.5608847     
  -50245169.0926648     
  -50242208.1262721     
  -50239204.4134494     
  -50236159.6664736     
  -50233075.5569322     
  -50229953.7145787     
  -50226795.7262704     
  -50223603.1349841     
  -50220377.4389113     
  -50217120.0906309     
  -50213832.4963589     
  -50210516.0152740     
  -50207171.9589190     
  -50203801.5906768     
  -50200406.1253199     
  -50196986.7286332     
  -50193544.5171104     
  -50190080.5577209     
  -50186595.8677493     
  -50183091.4147060     
  -50179568.1163082     
  -50176026.8405308     
  -50172468.4057289     
  -50168893.5808283     
  -50165303.0855875     
  -50161697.5909283     
  -50158077.7193364     
  -50154444.0453324     
  -50150797.0960114     
  -50147137.3516543     
  -50260888.8565943     
  -50259465.6594551     
  -50257966.5604537     
  -50256393.3426607     
  -50254747.7932825     
  -50253031.7012423     
  -50251246.8548238     
  -50249395.0393774     
  -50247478.0350908     
  -50245497.6148268     
  -50243455.5420258     
  -50241353.5686789     
  -50239193.4333673     
  -50236976.8593727     
  -50234705.5528568     
  -50232381.2011114     
  -50230005.4708795     
  -50227580.0067467     
  -50225106.4296042     
  -50222586.3351825     
  -50220021.2926566     
  -50217412.8433219     
  -50214762.4993407     
  -50212071.7425600     
  -50209342.0233990     
  -50206574.7598071     
  -50203771.3362909     
  -50200933.1030116     
  -50198061.3749511     
  -50195157.4311454     
  -50192222.5139884     
  -50189257.8286017     
  -50186264.5422721     
  -50183243.7839574     
  -50180196.6438564     
  -50177124.1730471     
  -50174027.3831901     
  -50170907.2462970     
  -50167764.6945644     
  -50164600.6202729     
  -50161415.8757505     
  -50158211.2734001     
  -50154987.5857914     
  -50151745.5458171     
  -50148485.8469122     
  -50145209.1433375     
  -50141916.0505267     
  -50138607.1454965     
  -50135282.9673208     
  -50131944.0176684     
  -50232018.7476140     
  -50230824.8850437     
  -50229562.1033619     
  -50228231.8745134     
  -50226835.6772448     
  -50225374.9950633     
  -50223851.3142431     
  -50222266.1218784     
  -50220620.9039868     
  -50218917.1436626     
  -50217156.3192819     
  -50215339.9027612     
  -50213469.3578701     
  -50211546.1385991     
  -50209571.6875831     
  -50207547.4345820     
  -50205474.7950181     
  -50203355.1685721     
  -50201189.9378363     
  -50198980.4670279     
  -50196728.1007600     
  -50194434.1628732     
  -50192099.9553252     
  -50189726.7571417     
  -50187315.8234256     
  -50184868.3844262     
  -50182385.6446691     
  -50179868.7821445     
  -50177318.9475560     
  -50174737.2636285     
  -50172124.8244756     
  -50169482.6950263     
  -50166811.9105106     
  -50164113.4760047     
  -50161388.3660338     
  -50158637.5242346     
  -50155861.8630752     
  -50153062.2636345     
  -50150239.5754377     
  -50147394.6163516     
  -50144528.1725362     
  -50141640.9984541     
  -50138733.8169371     
  -50135807.3193107     
  -50132862.1655741     
  -50129898.9846378     
  -50126918.3746183     
  -50123920.9031882     
  -50120907.1079833     
  -50117877.4970660     
  -50205560.7134318     
  -50204559.1725607     
  -50203495.4834825     
  -50202370.8595929     
  -50201186.5226045     
  -50199943.7008417     
  -50198643.6275676     
  -50197287.5393486     
  -50195876.6744548     
  -50194412.2712999     
  -50192895.5669202     
  -50191327.7954961     
  -50189710.1869153     
  -50188043.9653789     
  -50186330.3480535     
  -50184570.5437672     
  -50182765.7517525     
  -50180917.1604359     
  -50179025.9462749     
  -50177093.2726436     
  -50175120.2887660     
  -50173108.1286996     
  -50171057.9103673     
  -50168970.7346400     
  -50166847.6844691     
  -50164689.8240691     
  -50162498.1981508     
  -50160273.8312059     
  -50158017.7268416     
  -50155730.8671666     
  -50153414.2122281     
  -50151068.6994995     
  -50148695.2434199     
  -50146294.7349837     
  -50143868.0413821     
  -50141416.0056946     
  -50138939.4466322     
  -50136439.1583310     
  -50133915.9101964     
  -50131370.4467981     
  -50128803.4878153     
  -50126215.7280323     
  -50123607.8373844     
  -50120980.4610531     
  -50118334.2196126     
  -50115669.7092238     
  -50112987.5018795     
  -50110288.1456985     
  -50107572.1652676     
  -50104840.0620342     
  -50181233.8469428     
  -50180394.1804082     
  -50179498.8924837     
  -50178548.9819297     
  -50177545.4564990     
  -50176489.3315213     
  -50175381.6285131     
  -50174223.3738133     
  -50173015.5972476     
  -50171759.3308209     
  -50170455.6074414     
  -50169105.4596769     
  -50167709.9185426     
  -50166270.0123247     
  -50164786.7654378     
  -50163261.1973192     
  -50161694.3213602     
  -50160087.1438739     
  -50158440.6631034     
  -50156755.8682673     
  -50155033.7386461     
  -50153275.2427085     
  -50151481.3372789     
  -50149652.9667452     
  -50147791.0623098     
  -50145896.5412811     
  -50143970.3064088     
  -50142013.2452608     
  -50140026.2296433     
  -50138010.1150644     
  -50135965.7402403     
  -50133893.9266456     
  -50131795.4781064     
  -50129671.1804378     
  -50127521.8011242     
  -50125348.0890437     
  -50123150.7742364     
  -50120930.5677158     
  -50118688.1613241     
  -50116424.2276310     
  -50114139.4198758     
  -50111834.3719531     
  -50109509.6984413     
  -50107165.9946746     
  -50104803.8368572     
  -50102423.7822210     
  -50100026.3692250     
  -50097612.1177975     
  -50095181.5296199     
  -50092735.0884524     
  -50158780.5574824     
  -50158077.7559617     
  -50157325.6041693     
  -50156524.9226253     
  -50155676.5409093     
  -50154781.2964949     
  -50153840.0336021     
  -50152853.6020692     
  -50151822.8562448     
  -50150748.6539031     
  -50149631.8551818     
  -50148473.3215439     
  -50147273.9147667     
  -50146034.4959559     
  -50144755.9245878     
  -50143439.0575804     
  -50142084.7483935     
  -50140693.8461585     
  -50139267.1948408     
  -50137805.6324313     
  -50136309.9901727     
  -50134781.0918169     
  -50133219.7529167     
  -50131626.7801512     
  -50130002.9706853     
  -50128349.1115646     
  -50126665.9791449     
  -50124954.3385576     
  -50123214.9432104     
  -50121448.5343249     
  -50119655.8405095     
  -50117837.5773699     
  -50115994.4471549     
  -50114127.1384402     
  -50112236.3258488     
  -50110322.6698073     
  -50108386.8163410     
  -50106429.3969041     
  -50104451.0282487     
  -50102452.3123292     
  -50100433.8362444     
  -50098396.1722164     
  -50096339.8776060     
  -50094265.4949645     
  -50092173.5521218     
  -50090064.5623117     
  -50087939.0243312     
  -50085797.4227377     
  -50083640.2280797     
  -50081467.8971645     
  -50137964.0582572     
  -50137377.6174107     
  -50136747.8448176     
  -50136075.4127023     
  -50135361.0019817     
  -50134605.3013119     
  -50133809.0061488     
  -50132972.8178210     
  -50132097.4426202     
  -50131183.5909063     
  -50130231.9762313     
  -50129243.3144820     
  -50128218.3230412     
  -50127157.7199709     
  -50126062.2232163     
  -50124932.5498326     
  -50123769.4152348     
  -50122573.5324716     
  -50121345.6115241     
  -50120086.3586296     
  -50118796.4756317     
  -50117476.6593573     
  -50116127.6010197     
  -50114749.9856505     
  -50113344.4915591     
  -50111911.7898205     
  -50110452.5437926     
  -50108967.4086626     
  -50107457.0310224     
  -50105922.0484747     
  -50104363.0892691     
  -50102780.7719681     
  -50101175.7051435     
  -50099548.4871048     
  -50097899.7056564     
  -50096229.9378877     
  -50094539.7499926     
  -50092829.6971206     
  -50091100.3232593     
  -50089352.1611473     
  -50087585.7322180     
  -50085801.5465749     
  -50084000.1029968     
  -50082181.8889742     
  -50080347.3807761     
  -50078497.0435471     
  -50076631.3314339     
  -50074750.6877427     
  -50072855.5451253     
  -50070946.3257950     
  -50118565.9068749     
  -50118079.0606869     
  -50117554.6621336     
  -50116993.2596051     
  -50116395.4095105     
  -50115761.6755046     
  -50115092.6277241     
  -50114388.8420329     
  -50113650.8992804     
  -50112879.3845706     
  -50112074.8865458     
  -50111237.9966834     
  -50110369.3086086     
  -50109469.4174224     
  -50108538.9190473     
  -50107578.4095895     
  -50106588.4847203     
  -50105569.7390758     
  -50104522.7656764     
  -50103448.1553667     
  -50102346.4962765     
  -50101218.3733025     
  -50100064.3676123     
  -50098885.0561708     
  -50097681.0112891     
  -50096452.8001971     
  -50095200.9846394     
  -50093926.1204947     
  -50092628.7574202     
  -50091309.4385203     
  -50089968.7000398     
  -50088607.0710820     
  -50087225.0733525     
  -50085823.2209278     
  -50084402.0200495     
  -50082961.9689444     
  -50081503.5576693     
  -50080027.2679827     
  -50078533.5732413     
  -50077022.9383222     
  -50075495.8195712     
  -50073952.6647764     
  -50072393.9131671     
  -50070819.9954382     
  -50069231.3338002     
  -50067628.3420536     
  -50066011.4256883     
  -50064380.9820079     
  -50062737.4002784     
  -50061081.0618999     
  -50100383.6413032     
  -50099982.7365812     
  -50099549.8403336     
  -50099085.3969466     
  -50098589.8579385     
  -50098063.6813377     
  -50097507.3310675     
  -50096921.2763380     
  -50096305.9910466     
  -50095661.9531873     
  -50094989.6442704     
  -50094289.5487523     
  -50093562.1534776     
  -50092807.9471331     
  -50092027.4197144     
  -50091221.0620072     
  -50090389.3650818     
  -50089532.8198030     
  -50088651.9163556     
  -50087747.1437859     
  -50086818.9895592     
  -50085867.9391355     
  -50084894.4755613     
  -50083899.0790806     
  -50082882.2267632     
  -50081844.3921526     
  -50080786.0449325     
  -50079707.6506125     
  -50078609.6702335     
  -50077492.5600936     
  -50076356.7714935     
  -50075202.7505021     
  -50074030.9377436     
  -50072841.7682039     
  -50071635.6710588     
  -50070413.0695228     
  -50069174.3807186     
  -50067920.0155682     
  -50066650.3787041     
  -50065365.8684025     
  -50064066.8765365     
  -50062753.7885515     
  -50061426.9834598     
  -50060086.8338577     
  -50058733.7059614     
  -50057367.9596652     
  -50055989.9486184     
  -50054600.0203232     
  -50053198.5162523     
  -50051785.7719852     
  -50083228.5332088     
  -50082902.5230749     
  -50082549.8891785     
  -50082170.9878355     
  -50081766.1814594     
  -50081335.8380675     
  -50080880.3307913     
  -50080400.0373917     
  -50079895.3397811     
  -50079366.6235515     
  -50078814.2775104     
  -50078238.6932249     
  -50077640.2645743     
  -50077019.3873123     
  -50076376.4586389     
  -50075711.8767833     
  -50075026.0405977     
  -50074319.3491625     
  -50073592.2014041     
  -50072844.9957246     
  -50072078.1296456     
  -50071291.9994643     
  -50070486.9999245     
  -50069663.5239008     
  -50068821.9620988     
  -50067962.7027683     
  -50067086.1314339     
  -50066192.6306394     
  -50065282.5797085     
  -50064356.3545220     
  -50063414.3273101     
  -50062456.8664621     
  -50061484.3363521     
  -50060497.0971812     
  -50059495.5048370     
  -50058479.9107696     
  -50057450.6618842     
  -50056408.1004516     
  -50055352.5640346     
  -50054284.3854320     
  -50053203.8926396     
  -50052111.4088277     
  -50051007.2523359     
  -50049891.7366839     
  -50048765.1705999     
  -50047627.8580647     
  -50046480.0983728     
  -50045322.1862086     
  -50044154.4117396     
  -50042977.0607249     
  -50066923.4659906     
  -50066663.5033136     
  -50066382.1202750     
  -50066079.5977762     
  -50065756.2216821     
  -50065412.2824344     
  -50065048.0746691     
  -50064663.8968363     
  -50064260.0508254     
  -50063836.8415951     
  -50063394.5768087     
  -50062933.5664755     
  -50062454.1225994     
  -50061956.5588335     
  -50061441.1901437     
  -50060908.3324796     
  -50060358.3024533     
  -50059791.4170292     
  -50059207.9932212     
  -50058608.3478002     
  -50057992.7970127     
  -50057361.6563090     
  -50056715.2400825     
  -50056053.8614199     
  -50055377.8318638     
  -50054687.4611855     
  -50053983.0571716     
  -50053264.9254212     
  -50052533.3691569     
  -50051788.6890471     
  -50051031.1830424     
  -50050261.1462237     
  -50049478.8706650     
  -50048684.6453074     
  -50047878.7558484     
  -50047061.4846432     
  -50046233.1106199     
  -50045393.9092084     
  -50044544.1522822     
  -50043684.1081145     
  -50042814.0413472     
  -50041934.2129731     
  -50041044.8803326     
  -50040146.2971219     
  -50039238.7134164     
  -50038322.3757055     
  -50037397.5269414     
  -50036464.4065999     
  -50035523.2507546     
  -50034574.2921629     
  -50051300.9345473     
  -50051100.0492637     
  -50050882.8135099     
  -50050649.4426649     
  -50050400.1558683     
  -50050135.1757259     
  -50049854.7280170     
  -50049559.0414051     
  -50049248.3471508     
  -50048922.8788295     
  -50048582.8720522     
  -50048228.5641917     
  -50047860.1941128     
  -50047478.0019091     
  -50047082.2286443     
  -50046673.1161006     
  -50046250.9065331     
  -50045815.8424311     
  -50045368.1662868     
  -50044908.1203713     
  -50044435.9465181     
  -50043951.8859157     
  -50043456.1789076     
  -50042949.0648009     
  -50042430.7816842     
  -50041901.5662547     
  -50041361.6536541     
  -50040811.2773138     
  -50040250.6688105     
  -50039680.0577310     
  -50039099.6715472     
  -50038509.7355007     
  -50037910.4724984     
  -50037302.1030177     
  -50036684.8450221     
  -50036058.9138873     
  -50035424.5223382     
  -50034781.8803953     
  -50034131.1953328     
  -50033472.6716464     
  -50032806.5110317     
  -50032132.9123730     
  -50031452.0717434     
  -50030764.1824133     
  -50030069.4348709     
  -50029368.0168524     
  -50028660.1133813     
  -50027945.9068190     
  -50027225.5769242     
  -50026499.3009219     
  -50036201.1568117     
  -50036054.0038793     
  -50035895.4691103     
  -50035725.7099033     
  -50035544.8861678     
  -50035353.1601091     
  -50035150.6960135     
  -50034937.6600372     
  -50034714.2199964     
  -50034480.5451602     
  -50034236.8060470     
  -50033983.1742238     
  -50033719.8221098     
  -50033446.9227827     
  -50033164.6497907     
  -50032873.1769680     
  -50032572.6782562     
  -50032263.3275297     
  -50031945.2984268     
  -50031618.7641870     
  -50031283.8974935     
  -50030940.8703215     
  -50030589.8537936     
  -50030231.0180412     
  -50029864.5320721     
  -50029490.5636456     
  -50029109.2791542     
  -50028720.8435124     
  -50028325.4200527     
  -50027923.1704294     
  -50027514.2545290     
  -50027098.8303889     
  -50026677.0541234     
  -50026249.0798578     
  -50025815.0596693     
  -50025375.1435370     
  -50024929.4792988     
  -50024478.2126167     
  -50024021.4869496     
  -50023559.4435342     
  -50023092.2213738     
  -50022619.9572346     
  -50022142.7856506     
  -50021660.8389349     
  -50021174.2472003     
  -50020683.1383857     
  -50020187.6382920     
  -50019687.8706236     
  -50019183.9570384     
  -50018676.0172041     
  -50021470.2824458     
  -50021372.9497321     
  -50021269.1357346     
  -50021158.9453895     
  -50021042.4848604     
  -50020919.8613932     
  -50020791.1831703     
  -50020656.5591686     
  -50020516.0990177     
  -50020369.9128600     
  -50020218.1112141     
  -50020060.8048391     
  -50019898.1046035     
  -50019730.1213547     
  -50019556.9657932     
  -50019378.7483495     
  -50019195.5790645     
  -50019007.5674734     
  -50018814.8224939     
  -50018617.4523176     
  -50018415.5643064     
  -50018209.2648922     
  -50017998.6594825     
  -50017783.8523692     
  -50017564.9466426     
  -50017342.0441102     
  -50017115.2452210     
  -50016884.6489938     
  -50016650.3529515     
  -50016412.4530604     
  -50016171.0436741     
  -50015926.2174839     
  -50015678.0654741     
  -50015426.6768825     
  -50015172.1391664     
  -50014914.5379751     
  -50014653.9571267     
  -50014390.4785912     
  -50014124.1824790     
  -50013855.1470348     
  -50013583.4486378     
  -50013309.1618062     
  -50013032.3592083     
  -50012753.1116786     
  -50012471.4882395     
  -50012187.5561279     
  -50011901.3808282     
  -50011613.0261087     
  -50011322.5540654     
  -50011030.0251690     
  -50006958.6811246     
  -50006908.5488413     
  -50006856.8015682     
  -50006803.4955164     
  -50006748.6868161     
  -50006692.4314337     
  -50006634.7850903     
  -50006575.8031809     
  -50006515.5406950     
  -50006454.0521385     
  -50006391.3914576     
  -50006327.6119633     
  -50006262.7662590     
  -50006196.9061690     
  -50006130.0826694     
  -50006062.3458217     
  -50005993.7447072     
  -50005924.3273658     
  -50005854.1407355     
  -50005783.2305956     
  -50005711.6415119     
  -50005639.4167854     
  -50005566.5984032     
  -50005493.2269923     
  -50005419.3417773     
  -50005344.9805402     
  -50005270.1795839     
  -50005194.9736983     
  -50005119.3961306     
  -50005043.4785583     
  -50004967.2510652     
  -50004890.7421219     
  -50004813.9785685     
  -50004736.9856018     
  -50004659.7867646     
  -50004582.4039404     
  -50004504.8573498     
  -50004427.1655516     
  -50004349.3454464     
  -50004271.4122850     
  -50004193.3796787     
  -50004115.2596145     
  -50004037.0624732     
  -50003958.7970501     
  -50003880.4705809     
  -50003802.0887692     
  -50003723.6558185     
  -50003645.1744665     
  -50003566.6460235     
  -50003488.0704137     
  -49992519.2909796     
  -49992514.9363688     
  -49992513.8331211     
  -49992515.9908501     
  -49992521.4177594     
  -49992530.1206187     
  -49992542.1047415     
  -49992557.3739626     
  -49992575.9306176     
  -49992597.7755225     
  -49992622.9079546     
  -49992651.3256347     
  -49992683.0247094     
  -49992717.9997355     
  -49992756.2436655     
  -49992797.7478334     
  -49992842.5019425     
  -49992890.4940545     
  -49992941.7105790     
  -49992996.1362655     
  -49993053.7541960     
  -49993114.5457792     
  -49993178.4907458     
  -49993245.5671458     
  -49993315.7513469     
  -49993389.0180341     
  -49993465.3402115     
  -49993544.6892047     
  -49993627.0346658     
  -49993712.3445785     
  -49993800.5852663     
  -49993891.7214011     
  -49993985.7160139     
  -49994082.5305067     
  -49994182.1246664     
  -49994284.4566801     
  -49994389.4831515     
  -49994497.1591196     
  -49994607.4380784     
  -49994720.2719985     
  -49994835.6113503     
  -49994953.4051277     
  -49995073.6008754     
  -49995196.1447153     
  -49995320.9813765     
  -49995448.0542250     
  -49995577.3052965     
  -49995708.6753292     
  -49995842.1037991     
  -49995977.5289560     
  -49978006.0066385     
  -49978047.1495217     
  -49978096.4449340     
  -49978153.8565114     
  -49978219.3451316     
  -49978292.8689494     
  -49978374.3834307     
  -49978463.8413883     
  -49978561.1930185     
  -49978666.3859368     
  -49978779.3652158     
  -49978900.0734221     
  -49979028.4506545     
  -49979164.4345821     
  -49979307.9604827     
  -49979458.9612814     
  -49979617.3675899     
  -49979783.1077452     
  -49979956.1078492     
  -49980136.2918077     
  -49980323.5813699     
  -49980517.8961678     
  -49980719.1537555     
  -49980927.2696488     
  -49981142.1573643     
  -49981363.7284583     
  -49981591.8925664     
  -49981826.5574419     
  -49982067.6289947     
  -49982315.0113297     
  -49982568.6067851     
  -49982828.3159703     
  -49983094.0378038     
  -49983365.6695504     
  -49983643.1068585     
  -49983926.2437971     
  -49984214.9728917     
  -49984509.1851613     
  -49984808.7701533     
  -49985113.6159796     
  -49985423.6093517     
  -49985738.6356148     
  -49986058.5787830     
  -49986383.3215730     
  -49986712.7454374     
  -49987046.7305985     
  -49987385.1560812     
  -49987727.8997453     
  -49988074.8383182     
  -49988425.8474266     
  -49963272.0855638     
  -49963359.5721348     
  -49963460.1824019     
  -49963573.8331701     
  -49963700.4371218     
  -49963839.9029102     
  -49963992.1352533     
  -49964157.0350277     
  -49964334.4993630     
  -49964524.4217364     
  -49964726.6920670     
  -49964941.1968099     
  -49965167.8190501     
  -49965406.4385962     
  -49965656.9320725     
  -49965919.1730118     
  -49966193.0319462     
  -49966478.3764979     
  -49966775.0714680     
  -49967082.9789250     
  -49967401.9582915     
  -49967731.8664295     
  -49968072.5577248     
  -49968423.8841696     
  -49968785.6954427     
  -49969157.8389894     
  -49969540.1600985     
  -49969932.5019777     
  -49970334.7058275     
  -49970746.6109127     
  -49971168.0546317     
  -49971598.8725844     
  -49972038.8986373     
  -49972487.9649865     
  -49972945.9022189     
  -49973412.5393709     
  -49973887.7039848     
  -49974371.2221627     
  -49974862.9186190     
  -49975362.6167291     
  -49975870.1385776     
  -49976385.3050026     
  -49976907.9356385     
  -49977437.8489568     
  -49977974.8623038     
  -49978518.7919366     
  -49979069.4530570     
  -49979626.6598430     
  -49980190.2254782     
  -49980759.9621791     
  -49948168.5508487     
  -49948304.3747830     
  -49948458.3992251     
  -49948630.4917943     
  -49948820.5146072     
  -49949028.3244334     
  -49949253.7728519     
  -49949496.7064073     
  -49949756.9667661     
  -49950034.3908724     
  -49950328.8111033     
  -49950640.0554226     
  -49950967.9475342     
  -49951312.3070344     
  -49951672.9495612     
  -49952049.6869435     
  -49952442.3273476     
  -49952850.6754212     
  -49953274.5324358     
  -49953713.6964264     
  -49954167.9623279     
  -49954637.1221094     
  -49955120.9649052     
  -49955619.2771423     
  -49956131.8426654     
  -49956658.4428575     
  -49957198.8567578     
  -49957752.8611750     
  -49958320.2307980     
  -49958900.7383013     
  -49959494.1544476     
  -49960100.2481859     
  -49960718.7867452     
  -49961349.5357241     
  -49961992.2591771     
  -49962646.7196946     
  -49963312.6784808     
  -49963989.8954256     
  -49964678.1291727     
  -49965377.1371838     
  -49966086.6757974     
  -49966806.5002840     
  -49967536.3648968     
  -49968276.0229176     
  -49969025.2266995     
  -49969783.7277036     
  -49970551.2765337     
  -49971327.6229648     
  -49972112.5159692     
  -49972905.7037374     
  -49932542.5681482     
  -49932729.9297671     
  -49932940.7104751     
  -49933174.7247543     
  -49933431.7801901     
  -49933711.6776963     
  -49934014.2117399     
  -49934339.1705662     
  -49934686.3364231     
  -49935055.4857837     
  -49935446.3895687     
  -49935858.8133658     
  -49936292.5176482     
  -49936747.2579902     
  -49937222.7852799     
  -49937718.8459295     
  -49938235.1820819     
  -49938771.5318142     
  -49939327.6293367     
  -49939903.2051888     
  -49940497.9864296     
  -49941111.6968245     
  -49941744.0570270     
  -49942394.7847553     
  -49943063.5949640     
  -49943750.2000100     
  -49944454.3098131     
  -49945175.6320111     
  -49945913.8721084     
  -49946668.7336190     
  -49947439.9182034     
  -49948227.1257991     
  -49949030.0547448     
  -49949848.4018977     
  -49950681.8627450     
  -49951530.1315083     
  -49952392.9012420     
  -49953269.8639235     
  -49954160.7105389     
  -49955065.1311601     
  -49955982.8150161     
  -49956913.4505574     
  -49957856.7255140     
  -49958812.3269464     
  -49959779.9412902     
  -49960759.2543943     
  -49961749.9515525     
  -49962751.7175291     
  -49963764.2365782     
  -49964787.1924567     
  -49916235.7739296     
  -49916479.1798653     
  -49916751.4018492     
  -49917052.1955109     
  -49917381.3081809     
  -49917738.4791933     
  -49918123.4401899     
  -49918535.9154219     
  -49918975.6220516     
  -49919442.2704512     
  -49919935.5644996     
  -49920455.2018770     
  -49921000.8743557     
  -49921572.2680873     
  -49922169.0638866     
  -49922790.9375094     
  -49923437.5599279     
  -49924108.5975990     
  -49924803.7127272     
  -49925522.5635229     
  -49926264.8044530     
  -49927030.0864859     
  -49927818.0573292     
  -49928628.3616603     
  -49929460.6413498     
  -49930314.5356775     
  -49931189.6815395     
  -49932085.7136485     
  -49933002.2647249     
  -49933938.9656797     
  -49934895.4457891     
  -49935871.3328595     
  -49936866.2533845     
  -49937879.8326922     
  -49938911.6950832     
  -49939961.4639606     
  -49941028.7619492     
  -49942113.2110061     
  -49943214.4325222     
  -49944332.0474137     
  -49945465.6762047     
  -49946614.9391004     
  -49947779.4560507     
  -49948958.8468050     
  -49950152.7309577     
  -49951360.7279844     
  -49952582.4572697     
  -49953817.5381252     
  -49955065.5898004     
  -49956326.2314833     
  -49899082.5317162     
  -49899387.9393361     
  -49899727.7753802     
  -49900101.7289044     
  -49900509.4792619     
  -49900950.6964977     
  -49901425.0417427     
  -49901932.1676061     
  -49902471.7185653     
  -49903043.3313530     
  -49903646.6353406     
  -49904281.2529176     
  -49904946.7998668     
  -49905642.8857332     
  -49906369.1141887     
  -49907125.0833888     
  -49907910.3863241     
  -49908724.6111636     
  -49909567.3415909     
  -49910438.1571319     
  -49911336.6334739     
  -49912262.3427762     
  -49913214.8539713     
  -49914193.7330560     
  -49915198.5433730     
  -49916228.8458820     
  -49917284.1994198     
  -49918364.1609504     
  -49919468.2858032     
  -49920596.1279001     
  -49921747.2399710     
  -49922921.1737575     
  -49924117.4802050     
  -49925335.7096421     
  -49926575.4119485     
  -49927836.1367100     
  -49929117.4333616     
  -49930418.8513180     
  -49931739.9400918     
  -49933080.2493986     
  -49934439.3292509     
  -49935816.7300379     
  -49937212.0025949     
  -49938624.6982583     
  -49940054.3689107     
  -49941500.5670114     
  -49942962.8456176     
  -49944440.7583916     
  -49945933.8595976     
  -49947441.7040875     
  -49880908.0925344     
  -49881283.1053624     
  -49881698.4117382     
  -49882153.6240871     
  -49882648.3437412     
  -49883182.1614426     
  -49883754.6578438     
  -49884365.4040064     
  -49885013.9618946     
  -49885699.8848660     
  -49886422.7181558     
  -49887181.9993561     
  -49887977.2588881     
  -49888808.0204676     
  -49889673.8015619     
  -49890574.1138387     
  -49891508.4636059     
  -49892476.3522410     
  -49893477.2766110     
  -49894510.7294810     
  -49895576.1999117     
  -49896673.1736446     
  -49897801.1334756     
  -49898959.5596157     
  -49900147.9300376     
  -49901365.7208104     
  -49902612.4064190     
  -49903887.4600702     
  -49905190.3539838     
  -49906520.5596690     
  -49907877.5481860     
  -49909260.7903918     
  -49910669.7571712     
  -49912103.9196517     
  -49913562.7494028     
  -49915045.7186190     
  -49916552.3002877     
  -49918081.9683400     
  -49919634.1977862     
  -49921208.4648347     
  -49922804.2469950     
  -49924421.0231647     
  -49926058.2737004     
  -49927715.4804727     
  -49929392.1269057     
  -49931087.6980004     
  -49932801.6803430     
  -49934533.5620983     
  -49936282.8329866     
  -49938048.9842483     
  -49861526.6354853     
  -49861980.7580752     
  -49862481.3294291     
  -49863027.8725221     
  -49863619.8978822     
  -49864256.9042212     
  -49864938.3790632     
  -49865663.7993683     
  -49866432.6321499     
  -49867244.3350872     
  -49868098.3571291     
  -49868994.1390910     
  -49869931.1142410     
  -49870908.7088783     
  -49871926.3428992     
  -49872983.4303523     
  -49874079.3799820     
  -49875213.5957583     
  -49876385.4773934     
  -49877594.4208447     
  -49878839.8188016     
  -49880121.0611584     
  -49881437.5354705     
  -49882788.6273941     
  -49884173.7211092     
  -49885592.1997252     
  -49887043.4456685     
  -49888526.8410522     
  -49890041.7680268     
  -49891587.6091127     
  -49893163.7475125     
  -49894769.5674048     
  -49896404.4542180     
  -49898067.7948837     
  -49899758.9780711     
  -49901477.3944004     
  -49903222.4366360     
  -49904993.4998597     
  -49906789.9816230     
  -49908611.2820797     
  -49910456.8040970     
  -49912325.9533477     
  -49914218.1383806     
  -49916132.7706719     
  -49918069.2646560     
  -49920027.0377369     
  -49922005.5102794     
  -49924004.1055814     
  -49926022.2498268     
  -49928059.3720198     
  -49840739.1644819     
  -49841284.1277078     
  -49841882.0218870     
  -49842532.2644268     
  -49843234.2590025     
  -49843987.3963422     
  -49844791.0550082     
  -49845644.6021694     
  -49846547.3943676     
  -49847498.7782734     
  -49848498.0914324     
  -49849544.6630001     
  -49850637.8144652     
  -49851776.8603581     
  -49852961.1089470     
  -49854189.8629175     
  -49855462.4200371     
  -49856778.0738026     
  -49858136.1140696     
  -49859535.8276644     
  -49860976.4989758     
  -49862457.4105286     
  -49863977.8435353     
  -49865537.0784274     
  -49867134.3953653     
  -49868769.0747262     
  -49870440.3975690     
  -49872147.6460764     
  -49873890.1039741     
  -49875667.0569253     
  -49877477.7929015     
  -49879321.6025296     
  -49881197.7794129     
  -49883105.6204284     
  -49885044.4259984     
  -49887013.5003369     
  -49889012.1516712     
  -49891039.6924369     
  -49893095.4394490     
  -49895178.7140454     
  -49897288.8422075     
  -49899425.1546527     
  -49901586.9869040     
  -49903773.6793325     
  -49905984.5771761     
  -49908219.0305328     
  -49910476.3943298     
  -49912756.0282675     
  -49915057.2967409     
  -49917379.5687359     
  -49818331.2380274     
  -49818981.4086140     
  -49819691.3549708     
  -49820460.3688584     
  -49821287.7271391     
  -49822172.6927481     
  -49823114.5156563     
  -49824112.4338228     
  -49825165.6741360     
  -49826273.4533423     
  -49827434.9789604     
  -49828649.4501807     
  -49829916.0587482     
  -49831233.9898273     
  -49832602.4228491     
  -49834020.5323374     
  -49835487.4887152     
  -49837002.4590890     
  -49838564.6080105     
  -49840173.0982151     
  -49841827.0913353     
  -49843525.7485901     
  -49845268.2314480     
  -49847053.7022638     
  -49848881.3248879     
  -49850750.2652485     
  -49852659.6919049     
  -49854608.7765727     
  -49856596.6946197     
  -49858622.6255313     
  -49860685.7533480     
  -49862785.2670698     
  -49864920.3610324     
  -49867090.2352518     
  -49869294.0957371     
  -49871531.1547731     
  -49873800.6311712     
  -49876101.7504888     
  -49878433.7452174     
  -49880795.8549390     
  -49883187.3264516     
  -49885607.4138627     
  -49888055.3786518     
  -49890530.4897021     
  -49893032.0233007     
  -49895559.2631088     
  -49898111.5001008     
  -49900688.0324741     
  -49903288.1655281     
  -49905911.2115149     
  -49794070.5109187     
  -49794843.4022920     
  -49795683.3101432     
  -49796589.3757423     
  -49797560.7244867     
  -49798596.4670941     
  -49799695.7007840     
  -49800857.5104437     
  -49802080.9697788     
  -49803365.1424464     
  -49804709.0831685     
  -49806111.8388256     
  -49807572.4495285     
  -49809089.9496664     
  -49810663.3689308     
  -49812291.7333145     
  -49813974.0660823     
  -49815709.3887158     
  -49817496.7218281     
  -49819335.0860489     
  -49821223.5028793     
  -49823160.9955143     
  -49825146.5896344     
  -49827179.3141622     
  -49829258.2019872     
  -49831382.2906543     
  -49833550.6230189     
  -49835762.2478652     
  -49838016.2204896     
  -49840311.6032468     
  -49842647.4660595     
  -49845022.8868904     
  -49847436.9521771     
  -49849888.7572297     
  -49852377.4065893     
  -49854902.0143490     
  -49857461.7044366     
  -49860055.6108593     
  -49862682.8779090     
  -49865342.6603306     
  -49868034.1234503     
  -49870756.4432674     
  -49873508.8065067     
  -49876290.4106333     
  -49879100.4638300     
  -49881938.1849368     
  -49884802.8033532     
  -49887693.5589038     
  -49890609.7016675     
  -49893550.4917703     
  -49767704.0705718     
  -49768620.9757722     
  -49769612.5632029     
  -49770677.7930768     
  -49771815.6090524     
  -49773024.9396923     
  -49774304.6999046     
  -49775653.7923636     
  -49777071.1089078     
  -49778555.5319146     
  -49780105.9356491     
  -49781721.1875861     
  -49783400.1497023     
  -49785141.6797392     
  -49786944.6324344     
  -49788807.8607189     
  -49790730.2168815     
  -49792710.5536974     
  -49794747.7255194     
  -49796840.5893332     
  -49798988.0057730     
  -49801188.8400980     
  -49803441.9631290     
  -49805746.2521439     
  -49808100.5917310     
  -49810503.8746001     
  -49812955.0023514     
  -49815452.8861994     
  -49817996.4476540     
  -49820584.6191566     
  -49823216.3446710     
  -49825890.5802294     
  -49828606.2944334     
  -49831362.4689083     
  -49834158.0987114     
  -49836992.1926954     
  -49839863.7738241     
  -49842771.8794425     
  -49845715.5615007     
  -49848693.8867310     
  -49851705.9367792     
  -49854750.8082891     
  -49857827.6129420     
  -49860935.4774494     
  -49864073.5435005     
  -49867240.9676646     
  -49870436.9212480     
  -49873660.5901065     
  -49876911.1744138     
  -49880187.8883858     
  -49738955.5570671     
  -49740042.3285337     
  -49741211.8956007     
  -49742463.0000080     
  -49743794.3666929     
  -49745204.7055653     
  -49746692.7132564     
  -49748257.0748398     
  -49749896.4655212     
  -49751609.5522970     
  -49753394.9955777     
  -49755251.4507764     
  -49757177.5698584     
  -49759172.0028522     
  -49761233.3993205     
  -49763360.4097876     
  -49765551.6871246     
  -49767805.8878891     
  -49770121.6736197     
  -49772497.7120831     
  -49774932.6784739     
  -49777425.2565645     
  -49779974.1398072     
  -49782578.0323833     
  -49785235.6502041     
  -49787945.7218568     
  -49790706.9895011     
  -49793518.2097107     
  -49796378.1542626     
  -49799285.6108724     
  -49802239.3838745     
  -49805238.2948498     
  -49808281.1831969     
  -49811366.9066490     
  -49814494.3417361     
  -49817662.3841917     
  -49820869.9493036     
  -49824115.9722108     
  -49827399.4081437     
  -49830719.2326099     
  -49834074.4415241     
  -49837464.0512840     
  -49840887.0987903     
  -49844342.6414123     
  -49847829.7568997     
  -49851347.5432388     
  -49854895.1184565     
  -49858471.6203700     
  -49862076.2062829     
  -49865708.0526296     
  -49707522.0660708     
  -49708810.0715084     
  -49710189.4460372     
  -49711658.6673589     
  -49713216.1967523     
  -49714860.4812215     
  -49716589.9556063     
  -49718403.0446541     
  -49720298.1650510     
  -49722273.7274094     
  -49724328.1382105     
  -49726459.8016993     
  -49728667.1217312     
  -49730948.5035678     
  -49733302.3556209     
  -49735727.0911423     
  -49738221.1298598     
  -49740782.8995563     
  -49743410.8375919     
  -49746103.3923686     
  -49748859.0247342     
  -49751676.2093280     
  -49754553.4358643     
  -49757489.2103551     
  -49760482.0562706     
  -49763530.5156366     
  -49766633.1500689     
  -49769788.5417446     
  -49772995.2943084     
  -49776252.0337152     
  -49779557.4090079     
  -49782910.0930304     
  -49786308.7830754     
  -49789752.2014674     
  -49793239.0960803     
  -49796768.2407897     
  -49800338.4358597     
  -49803948.5082647     
  -49807597.3119462     
  -49811283.7280035     
  -49815006.6648209     
  -49818765.0581289     
  -49822557.8710007     
  -49826384.0937850     
  -49830242.7439746     
  -49834132.8660096     
  -49838053.5310191     
  -49842003.8364982     
  -49845982.9059226     
  -49849989.8883005     
  -49673070.8488510     
  -49674598.1369868     
  -49676225.8254194     
  -49677952.0726261     
  -49679775.0219332     
  -49681692.8040969     
  -49683703.5398354     
  -49685805.3423066     
  -49687996.3195329     
  -49690274.5767662     
  -49692638.2187951     
  -49695085.3521904     
  -49697614.0874872     
  -49700222.5413029     
  -49702908.8383889     
  -49705671.1136141     
  -49708507.5138810     
  -49711416.1999705     
  -49714395.3483172     
  -49717443.1527121     
  -49720557.8259330     
  -49723737.6013017     
  -49726980.7341674     
  -49730285.5033159     
  -49733650.2123031     
  -49737073.1907147     
  -49740552.7953491     
  -49744087.4113251     
  -49747675.4531135     
  -49751315.3654923     
  -49755005.6244261     
  -49758744.7378692     
  -49762531.2464914     
  -49766363.7243285     
  -49770240.7793567     
  -49774161.0539893     
  -49778123.2254988     
  -49782126.0063624     
  -49786168.1445314     
  -49790248.4236256     
  -49794365.6630513     
  -49798518.7180446     
  -49802706.4796396     
  -49806927.8745611     
  -49811181.8650438     
  -49815467.4485756     
  -49819783.6575684     
  -49824129.5589535     
  -49828504.2537052     
  -49832906.8762898     
  -49635235.8453085     
  -49637048.5599024     
  -49638971.1397766     
  -49641001.3577576     
  -49643136.9740342     
  -49645375.7392394     
  -49647715.3974640     
  -49650153.6891989     
  -49652688.3542057     
  -49655317.1343091     
  -49658037.7761147     
  -49660848.0336458     
  -49663745.6709004     
  -49666728.4643255     
  -49669794.2052086     
  -49672940.7019835     
  -49676165.7824520     
  -49679467.2959179     
  -49682843.1152348     
  -49686291.1387652     
  -49689809.2922532     
  -49693395.5306062     
  -49697047.8395899     
  -49700764.2374327     
  -49704542.7763415     
  -49708381.5439285     
  -49712278.6645476     
  -49716232.3005430     
  -49720240.6534069     
  -49724301.9648501     
  -49728414.5177819     
  -49732576.6372027     
  -49736786.6910073     
  -49741043.0907002     
  -49745344.2920235     
  -49749688.7954964     
  -49754075.1468673     
  -49758501.9374795     
  -49762967.8045492     
  -49767471.4313573     
  -49772011.5473550     
  -49776586.9281830     
  -49781196.3956052     
  -49785838.8173561     
  -49790513.1069042     
  -49795218.2231288     
  -49799953.1699132     
  -49804716.9956519     
  -49809508.7926741     
  -49814327.6965834     
  -49593614.1163560     
  -49595768.2009409     
  -49598041.9951678     
  -49600432.8068139     
  -49602937.9352404     
  -49605554.6750419     
  -49608280.3196035     
  -49611112.1645630     
  -49614047.5111785     
  -49617083.6695951     
  -49620217.9620136     
  -49623447.7257570     
  -49626770.3162339     
  -49630183.1097989     
  -49633683.5065085     
  -49637268.9327709     
  -49640936.8438908     
  -49644684.7265085     
  -49648510.1009313     
  -49652410.5233604     
  -49656383.5880100     
  -49660426.9291209     
  -49664538.2228678     
  -49668715.1891615     
  -49672955.5933449     
  -49677257.2477852     
  -49681618.0133610     
  -49686035.8008458     
  -49690508.5721879     
  -49695034.3416885     
  -49699611.1770771     
  -49704237.2004853     
  -49708910.5893198     
  -49713629.5770356     
  -49718392.4538090     
  -49723197.5671113     
  -49728043.3221850     
  -49732928.1824200     
  -49737850.6696343     
  -49742809.3642558     
  -49747802.9054083     
  -49752829.9909006     
  -49757889.3771197     
  -49762979.8788276     
  -49768100.3688633     
  -49773249.7777483     
  -49778427.0931973     
  -49783631.3595335     
  -49788861.6770086     
  -49794117.2010275     
  -49547762.2835052     
  -49550325.5224326     
  -49553018.5979714     
  -49555838.2587170     
  -49558781.2513887     
  -49561844.3251085     
  -49565024.2355582     
  -49568317.7490112     
  -49571721.6462402     
  -49575232.7262957     
  -49578847.8101576     
  -49582563.7442573     
  -49586377.4038702     
  -49590285.6963780     
  -49594285.5644021     
  -49598373.9888053     
  -49602547.9915658     
  -49606804.6385211     
  -49611141.0419827     
  -49615554.3632247     
  -49620041.8148441     
  -49624600.6629950     
  -49629228.2294992     
  -49633921.8938308     
  -49638679.0949807     
  -49643497.3331968     
  -49648374.1716059     
  -49653307.2377167     
  -49658294.2248024     
  -49663332.8931706     
  -49668421.0713156     
  -49673556.6569561     
  -49678737.6179620     
  -49683961.9931677     
  -49689227.8930757     
  -49694533.5004498     
  -49699877.0707995     
  -49705256.9327569     
  -49710671.4883463     
  -49716119.2131463     
  -49721598.6563471     
  -49727108.4407018     
  -49732647.2623725     
  -49738213.8906712     
  -49743807.1676975     
  -49749426.0078697     
  -49755069.3973526     
  -49760736.3933807     
  -49766426.1234755     
  -49772137.7845589     
  -49497193.1390045     
  -49500247.5815986     
  -49503442.1155594     
  -49506772.8197623     
  -49510235.7808524     
  -49513827.0982055     
  -49517542.8887271     
  -49521379.2914903     
  -49525332.4722102     
  -49529398.6275561     
  -49533573.9892992     
  -49537854.8282986     
  -49542237.4583246     
  -49546718.2397206     
  -49551293.5829050     
  -49555959.9517132     
  -49560713.8665831     
  -49565551.9075844     
  -49570470.7172929     
  -49575467.0035147     
  -49580537.5418587     
  -49585679.1781615     
  -49590888.8307679     
  -49596163.4926660     
  -49601500.2334835     
  -49606896.2013432     
  -49612348.6245833     
  -49617854.8133437     
  -49623412.1610194     
  -49629018.1455852     
  -49634670.3307931     
  -49640366.3672424     
  -49646103.9933284     
  -49651881.0360683     
  -49657695.4118079     
  -49663545.1268088     
  -49669428.2777196     
  -49675343.0519321     
  -49681287.7278221     
  -49687260.6748769     
  -49693260.3537108     
  -49699285.3159690     
  -49705334.2041195     
  -49711405.7511337     
  -49717498.7800578     
  -49723612.2034717     
  -49729745.0228372     
  -49735896.3277352     
  -49742065.2949906     
  -49748251.1876848     
  -49441372.6624639     
  -49445017.4752656     
  -49448812.5286964     
  -49452753.1035706     
  -49456834.5022346     
  -49461052.0542384     
  -49465401.1217976     
  -49469877.1050454     
  -49474475.4470768     
  -49479191.6387859     
  -49484021.2234958     
  -49488959.8013864     
  -49494003.0337201     
  -49499146.6468686     
  -49504386.4361437     
  -49509718.2694353     
  -49515138.0906596     
  -49520641.9230213     
  -49526225.8720921     
  -49531886.1287123     
  -49537618.9717152     
  -49543420.7704817     
  -49549287.9873265     
  -49555217.1797221     
  -49561205.0023620     
  -49567248.2090691     
  -49573343.6545524     
  -49579488.2960149     
  -49585679.1946180     
  -49591913.5168040     
  -49598188.5354828     
  -49604501.6310820     
  -49610850.2924681     
  -49617232.1177380     
  -49623644.8148855     
  -49630086.2023445     
  -49636554.2094107     
  -49643046.8765459     
  -49649562.3555637     
  -49656098.9096999     
  -49662654.9135687     
  -49669228.8530053     
  -49675819.3247959     
  -49682425.0362946     
  -49689044.8049288     
  -49695677.5575923     
  -49702322.3299244     
  -49708978.2654768     
  -49715644.6147650     
  -49722320.7342045     
  -49379717.7730025     
  -49384072.5586053     
  -49388587.2906294     
  -49393256.3048350     
  -49398073.9776693     
  -49403034.7326413     
  -49408133.0464269     
  -49413363.4547060     
  -49418720.5577355     
  -49424199.0256601     
  -49429793.6035679     
  -49435499.1162914     
  -49441310.4729627     
  -49447222.6713242     
  -49453230.8018031     
  -49459330.0513535     
  -49465515.7070731     
  -49471783.1595988     
  -49478127.9062897     
  -49484545.5542010     
  -49491031.8228570     
  -49497582.5468290     
  -49504193.6781229     
  -49510861.2883854     
  -49517581.5709322     
  -49524350.8426059     
  -49531165.5454688     
  -49538022.2483368     
  -49544917.6481596     
  -49551848.5712517     
  -49558811.9743817     
  -49565804.9457219     
  -49572824.7056652     
  -49579868.6075113     
  -49586934.1380283     
  -49594018.9178919     
  -49601120.7020063     
  -49608237.3797089     
  -49615366.9748622     
  -49622507.6458346     
  -49629657.6853719     
  -49636815.5203612     
  -49643979.7114872     
  -49651148.9527835     
  -49658322.0710756     
  -49665498.0253197     
  -49672675.9058326     
  -49679854.9334138     
  -49687034.4583578     
  -49694213.9593541     
  -49311595.2629626     
  -49316803.8706567     
  -49322181.2110890     
  -49327720.5093963     
  -49333415.0575425     
  -49339258.2213342     
  -49345243.4470897     
  -49351364.2679703     
  -49357614.3099789     
  -49363987.2976337     
  -49370477.0593231     
  -49377077.5323515     
  -49383782.7676829     
  -49390586.9343911     
  -49397484.3238265     
  -49404469.3535059     
  -49411536.5707381     
  -49418680.6559915     
  -49425896.4260146     
  -49433178.8367196     
  -49440522.9858362     
  -49447924.1153482     
  -49455377.6137191     
  -49462879.0179184     
  -49470424.0152562     
  -49478008.4450353     
  -49485628.3000304     
  -49493279.7278003     
  -49500959.0318447     
  -49508662.6726103     
  -49516387.2683543     
  -49524129.5958742     
  -49531886.5911072     
  -49539655.3496083     
  -49547433.1269113     
  -49555217.3387781     
  -49563005.5613405     
  -49570795.5311404     
  -49578585.1450704     
  -49586372.4602174     
  -49594155.6936145     
  -49601933.2219001     
  -49609703.5808868     
  -49617465.4650420     
  -49625217.7268781     
  -49632959.3762537     
  -49640689.5795843     
  -49648407.6589602     
  -49656113.0911703     
  -49663805.5066288     
  -49236322.5031567     
  -49242557.3337158     
  -49248968.1080370     
  -49255546.7580046     
  -49262285.3174204     
  -49269175.9295092     
  -49276210.8539888     
  -49283382.4737175     
  -49290683.3009277     
  -49298105.9830585     
  -49305643.3081998     
  -49313288.2101591     
  -49321033.7731661     
  -49328873.2362263     
  -49336799.9971388     
  -49344807.6161909     
  -49352889.8195435     
  -49361040.5023225     
  -49369253.7314277     
  -49377523.7480753     
  -49385844.9700872     
  -49394211.9939393     
  -49402619.5965847     
  -49411062.7370628     
  -49419536.5579088     
  -49428036.3863750     
  -49436557.7354768     
  -49445096.3048754     
  -49453647.9816073     
  -49462208.8406738     
  -49470775.1454979     
  -49479343.3482606     
  -49487910.0901256     
  -49496472.2013592     
  -49505026.7013561     
  -49513570.7985755     
  -49522101.8903963     
  -49530617.5628963     
  -49539115.5905603     
  -49547593.9359218     
  -49556050.7491422     
  -49564484.3675293     
  -49572893.3149984     
  -49581276.3014757     
  -49589632.2222454     
  -49597960.1572403     
  -49606259.3702732     
  -49614529.3082078     
  -49622769.6000668     
  -49630980.0560719     
  -49153170.6824801     
  -49160637.4533979     
  -49168284.9165181     
  -49176103.5144363     
  -49184083.8380838     
  -49192216.6344567     
  -49200492.8138035     
  -49208903.4562880     
  -49217439.8181450     
  -49226093.3373487     
  -49234855.6388085     
  -49243718.5391157     
  -49252674.0508574     
  -49261714.3865179     
  -49270831.9619879     
  -49280019.3997007     
  -49289269.5314151     
  -49298575.4006658     
  -49307930.2649007     
  -49317327.5973225     
  -49326761.0884586     
  -49336224.6474732     
  -49345712.4032439     
  -49355218.7052199     
  -49364738.1240787     
  -49374265.4522006     
  -49383795.7039766     
  -49393324.1159661     
  -49402846.1469193     
  -49412357.4776809     
  -49421854.0109877     
  -49431331.8711742     
  -49440787.4037979     
  -49450217.1751978     
  -49459617.9719949     
  -49468986.8005461     
  -49478320.8863596     
  -49487617.6734807     
  -49496874.8238541     
  -49506090.2166699     
  -49515261.9476967     
  -49524388.3286075     
  -49533467.8862999     
  -49542499.3622137     
  -49551481.7116440     
  -49560414.1030543     
  -49569295.9173812     
  -49578126.7473354     
  -49586906.3966888     
  -49595634.8795468     
  -49061371.5466922     
  -49070314.4305657     
  -49079439.1108522     
  -49088734.3380919     
  -49098189.0717452     
  -49107792.4877141     
  -49117533.9851978     
  -49127403.1929085     
  -49137389.9746728     
  -49147484.4344452     
  -49157676.9207612     
  -49167958.0306576     
  -49178318.6130858     
  -49188749.7718473     
  -49199242.8680792     
  -49209789.5223163     
  -49220381.6161577     
  -49231011.2935662     
  -49241670.9618260     
  -49252353.2921872     
  -49263051.2202215     
  -49273757.9459175     
  -49284466.9335376     
  -49295171.9112654     
  -49305866.8706632     
  -49316546.0659664     
  -49327204.0132363     
  -49337835.4893916     
  -49348435.5311420     
  -49358999.4338415     
  -49369522.7502823     
  -49380001.2894451     
  -49390431.1152242     
  -49400808.5451435     
  -49411130.1490760     
  -49421392.7479815     
  -49431593.4126754     
  -49441729.4626366     
  -49451798.4648686     
  -49461798.2328174     
  -49471726.8253562     
  -49481582.5458418     
  -49491363.9412455     
  -49501069.8013632     
  -49510699.1581053     
  -49520251.2848651     
  -49529725.6959656     
  -49539122.1461819     
  -49548440.6303326     
  -49557681.3829358     
  -48960128.8291984     
  -48970835.8013888     
  -48981720.4787491     
  -48992769.7211201     
  -49003970.6753252     
  -49015310.7818329     
  -49026777.7806167     
  -49038359.7162412     
  -49050044.9422176     
  -49061822.1246620     
  -49073680.2452967     
  -49085608.6038306     
  -49097596.8197582     
  -49109634.8336128     
  -49121712.9077150     
  -49133821.6264502     
  -49145951.8961155     
  -49158094.9443706     
  -49170242.3193297     
  -49182385.8883309     
  -49194517.8364160     
  -49206630.6645574     
  -49218717.1876644     
  -49230770.5324007     
  -49242784.1348474     
  -49254751.7380382     
  -49266667.3894015     
  -49278525.4381325     
  -49290320.5325270     
  -49302047.6173014     
  -49313701.9309222     
  -49325279.0029713     
  -49336774.6515675     
  -49348184.9808648     
  -49359506.3786482     
  -49370735.5140420     
  -49381869.3353505     
  -49392905.0680417     
  -49403840.2128892     
  -49414672.5442842     
  -49425400.1087243     
  -49436021.2234902     
  -49446534.4755124     
  -49456938.7204366     
  -49467233.0818876     
  -49477416.9509305     
  -49487489.9857321     
  -49497452.1114169     
  -49507303.5201106     
  -49517044.6711692     
  -48848635.8126973     
  -48861443.9385186     
  -48874418.4738631     
  -48887544.2097935     
  -48900806.3236647     
  -48914190.3839955     
  -48927682.3543808     
  -48941268.5964912     
  -48954935.8722131     
  -48968671.3449797     
  -48982462.5803446     
  -48996297.5458479     
  -49010164.6102265     
  -49024052.5420193     
  -49037950.5076157     
  -49051848.0687998     
  -49065735.1798360     
  -49079602.1841460     
  -49093439.8106246     
  -49107239.1696398     
  -49120991.7487633     
  -49134689.4082755     
  -49148324.3764888     
  -49161889.2449307     
  -49175376.9634280     
  -49188780.8351311     
  -49202094.5115171     
  -49215311.9874078     
  -49228427.5960383     
  -49241436.0042097     
  -49254332.2075571     
  -49267111.5259640     
  -49279769.5991519     
  -49292302.3824706     
  -49304706.1429154     
  -49316977.4553941     
  -49329113.1992636     
  -49341110.5551573     
  -49352967.0021188     
  -49364680.3150577     
  -49376248.5625404     
  -49387670.1049263     
  -49398943.5928589     
  -49410067.9661158     
  -49421042.4528271     
  -49431866.5690557     
  -49442540.1187469     
  -49453063.1940401     
  -49463436.1759382     
  -49473659.7353265     
  -48726100.7089846     
  -48741400.9582577     
  -48756846.5495620     
  -48772420.0714199     
  -48788104.6233629     
  -48803883.8177149     
  -48819741.7802501     
  -48835663.1497950     
  -48851633.0768415     
  -48867637.2212396     
  -48883661.7490372     
  -48899693.3285338     
  -48915719.1256141     
  -48931726.7984287     
  -48947704.4914833     
  -48963640.8292053     
  -48979524.9090450     
  -48995346.2941768     
  -49011095.0058597     
  -49026761.5155160     
  -49042336.7365853     
  -49057812.0162123     
  -49073179.1268198     
  -49088430.2576234     
  -49103558.0061366     
  -49118555.3697188     
  -49133415.7372111     
  -49148132.8807096     
  -49162700.9475169     
  -49177114.4523174     
  -49191368.2696150     
  -49205457.6264713     
  -49219378.0955818     
  -49233125.5887237     
  -49246696.3506059     
  -49260086.9531532     
  -49273294.2902498     
  -49286315.5729681     
  -49299148.3253051     
  -49311790.3804465     
  -49324239.8775755     
  -49336495.2592418     
  -49348555.2693025     
  -49360418.9514452     
  -49372085.6482988     
  -49383555.0011379     
  -49394826.9501789     
  -49405901.7354707     
  -49416779.8983706     
  -49427462.2835996     
  -48591781.7686460     
  -48610022.7586709     
  -48628375.0138383     
  -48646818.8637638     
  -48665335.3035902     
  -48683905.9909318     
  -48702513.2415315     
  -48721140.0237232     
  -48739769.9517859     
  -48758387.2782784     
  -48776976.8854418     
  -48795524.2757550     
  -48814015.5617276     
  -48832437.4550148     
  -48850777.2549339     
  -48869022.8364648     
  -48887162.6378116     
  -48905185.6476034     
  -48923081.3918087     
  -48940839.9204377     
  -48958451.7941028     
  -48975908.0705090     
  -48993200.2909391     
  -49010320.4668020     
  -49027261.0663063     
  -49044015.0013200     
  -49060575.6144775     
  -49076936.6665889     
  -49093092.3244079     
  -49109037.1488095     
  -49124766.0834282     
  -49140274.4438048     
  -49155557.9070856     
  -49170612.5023186     
  -49185434.6013843     
  -49200020.9106011     
  -49214368.4630388     
  -49228474.6115714     
  -49242337.0227005     
  -49255953.6711738     
  -49269322.8354229     
  -49282443.0938406     
  -49295313.3219151     
  -49307932.6902353     
  -49320300.6633775     
  -49332416.9996819     
  -49344281.7519227     
  -49355895.2688729     
  -49367258.1977603     
  -49378371.4876091     
  -48445034.1913246     
  -48466724.0202847     
  -48488474.0019230     
  -48510262.2726615     
  -48532067.8231241     
  -48553870.4879452     
  -48575650.9341509     
  -48597390.6482255     
  -48619071.9219785     
  -48640677.8373210     
  -48662192.2500624     
  -48683599.7728323     
  -48704885.7572357     
  -48726036.2753410     
  -48747038.1006050     
  -48767878.6883308     
  -48788546.1557559     
  -48809029.2618644     
  -48829317.3870150     
  -48849400.5124724     
  -48869269.1999307     
  -48888914.5711117     
  -48908328.2875199     
  -48927502.5304334     
  -48946429.9812077     
  -48965103.8019653     
  -48983517.6167444     
  -49001665.4931727     
  -49019541.9247360     
  -49037141.8137019     
  -49054460.4547611     
  -49071493.5194450     
  -49088237.0413722     
  -49104687.4023802     
  -49120841.3195881     
  -49136695.8334402     
  -49152248.2967719     
  -49167496.3649400     
  -49182437.9870542     
  -49197071.3983442     
  -49211395.1136944     
  -49225407.9223720     
  -49239108.8839750     
  -49252497.3256186     
  -49265572.8403795     
  -49278335.2870081     
  -49290784.7909219     
  -49302921.7464818     
  -49314746.8205550     
  -49326260.9573614     
  -48285370.9391262     
  -48311075.9736554     
  -48336768.0796787     
  -48362423.4469489     
  -48388019.3461355     
  -48413534.1085628     
  -48438947.1044228     
  -48464238.7196013     
  -48489390.3312605     
  -48514384.2823127     
  -48539203.8549184     
  -48563833.2431394     
  -48588257.5248757     
  -48612462.6332065     
  -48636435.3272604     
  -48660163.1627292     
  -48683634.4621413     
  -48706838.2850063     
  -48729764.3979369     
  -48752403.2448559     
  -48774745.9173880     
  -48796784.1255371     
  -48818510.1687427     
  -48839916.9074107     
  -48860997.7350063     
  -48881746.5507977     
  -48902157.7333324     
  -48922226.1147295     
  -48941946.9558642     
  -48961315.9225206     
  -48980329.0625845     
  -48998982.7843458     
  -49017273.8359772     
  -49035199.2862521     
  -49052756.5065619     
  -49069943.1542903     
  -49086757.1575995     
  -49103196.7016778     
  -49119260.2164975     
  -49134946.3661275     
  -49150254.0396407     
  -49165182.3436545     
  -49179730.5965378     
  -49193898.3243143     
  -49207685.2582879     
  -49221091.3344135     
  -49234116.6944284     
  -49246761.6887593     
  -49259026.8812146     
  -49270913.0554615     
  -48112539.3730011     
  -48142878.4915269     
  -48173103.6847378     
  -48203189.6982604     
  -48233112.6261572     
  -48262849.8769432     
  -48292380.1380494     
  -48321683.3389141     
  -48350740.6128617     
  -48379534.2579389     
  -48408047.6968625     
  -48436265.4362357     
  -48464173.0251780     
  -48491757.0135199     
  -48519004.9096962     
  -48545905.1384794     
  -48572446.9986819     
  -48598620.6209555     
  -48624416.9258136     
  -48649827.5819942     
  -48674844.9652798     
  -48699462.1178890     
  -48723672.7085457     
  -48747470.9933329     
  -48770851.7774336     
  -48793810.3778563     
  -48816342.5872415     
  -48838444.6388417     
  -48860113.1727638     
  -48881345.2035613     
  -48902138.0892585     
  -48922489.5018894     
  -48942397.3996260     
  -48961860.0005745     
  -48980875.7583084     
  -48999443.3392087     
  -49017561.6016786     
  -49035229.5772932     
  -49052446.4539467     
  -49069211.5610524     
  -49085524.3568501     
  -49101384.4178698     
  -49116791.4306002     
  -49131745.1854024     
  -49146245.5727102     
  -49160292.5815490     
  -49173886.3004058     
  -49187026.9204777     
  -49199714.7413118     
  -49211950.1788653     
  -47926615.1155442     
  -47962247.4830372     
  -47997629.9738301     
  -48032736.7417746     
  -48067543.5982323     
  -48102027.9599278     
  -48136168.7953748     
  -48169946.5700432     
  -48203343.1904821     
  -48236341.9475846     
  -48268927.4591701     
  -48301085.6120671     
  -48332803.5038602     
  -48364069.3844698     
  -48394872.5977172     
  -48425203.5230302     
  -48455053.5174344     
  -48484414.8579712     
  -48513280.6846796     
  -48541644.9442730     
  -48569502.3346374     
  -48596848.2502759     
  -48623678.7288156     
  -48649990.3986933     
  -48675780.4281323     
  -48701046.4755157     
  -48725786.6412630     
  -48749999.4213110     
  -48773683.6622972     
  -48796838.5185427     
  -48819463.4109263     
  -48841557.9877433     
  -48863122.0876337     
  -48884155.7046707     
  -48904658.9556873     
  -48924632.0499286     
  -48944075.2611042     
  -48962988.9019203     
  -48981373.3011649     
  -48999228.7834178     
  -49016555.6514563     
  -49033354.1714197     
  -49049624.5608030     
  -49065366.9793314     
  -49080581.5227800     
  -49095268.2197890     
  -49109427.0317264     
  -49123057.8556327     
  -49136160.5303158     
  -49148734.8455851     
  -47728113.5389275     
  -47769717.5063461     
  -47810892.5341705     
  -47851613.5004234     
  -47891857.2887246     
  -47931602.7128503     
  -47970830.4400506     
  -48009522.9134907     
  -48047664.2739515     
  -48085240.2810293     
  -48122238.2340350     
  -48158646.8927828     
  -48194456.3984495     
  -48229658.1946867     
  -48264244.9491476     
  -48298210.4755968     
  -48331549.6567535     
  -48364258.3680180     
  -48396333.4022244     
  -48427772.3955557     
  -48458573.7547538     
  -48488736.5857510     
  -48518260.6238452     
  -48547146.1655384     
  -48575394.0021516     
  -48603005.3553290     
  -48629981.8145400     
  -48656325.2766822     
  -48682037.8878926     
  -48707121.9876648     
  -48731580.0553733     
  -48755414.6593023     
  -48778628.4082756     
  -48801223.9059819     
  -48823203.7080903     
  -48844570.2822493     
  -48865325.9710607     
  -48885472.9581210     
  -48905013.2372194     
  -48923948.5847836     
  -48942280.5356609     
  -48960010.3623218     
  -48977139.0575743     
  -48993667.3208708     
  -49009595.5482933     
  -49024923.8262899     
  -49039651.9292456     
  -49053779.3209879     
  -49067305.1602009     
  -49080228.3099926     
  -47518117.5943925     
  -47566357.7957111     
  -47613937.6663597     
  -47660834.7217807     
  -47707028.8630086     
  -47752502.2717802     
  -47797239.3053292     
  -47841226.3905928     
  -47884451.9183591     
  -47926906.1374940     
  -47968581.0494496     
  -48009470.3032643     
  -48049569.0912482     
  -48088874.0455334     
  -48127383.1356552     
  -48165095.5673287     
  -48202011.6825724     
  -48238132.8613283     
  -48273461.4247125     
  -48308000.5400326     
  -48341754.1276953     
  -48374726.7701267     
  -48406923.6228205     
  -48438350.3276262     
  -48469012.9283862     
  -48498917.7890251     
  -48528071.5141960     
  -48556480.8725819     
  -48584152.7229535     
  -48611093.9430798     
  -48637311.3615899     
  -48662811.6928834     
  -48687601.4751873     
  -48711687.0118574     
  -48735074.3160274     
  -48757769.0587017     
  -48779776.5203992     
  -48801101.5464522     
  -48821748.5060655     
  -48841721.2552466     
  -48861023.1037178     
  -48879656.7859227     
  -48897624.4362409     
  -48914927.5685245     
  -48931567.0600789     
  -48947543.1402157     
  -48962855.3834762     
  -48977502.7075683     
  -48991483.3764677     
  -49004795.0081297     
  -47298418.1271437     
  -47353897.3209696     
  -47408422.3700722     
  -47461976.0903202     
  -47514544.0805636     
  -47566114.5829311     
  -47616678.3421988     
  -47666228.4664083     
  -47714760.2879662     
  -47762271.2256842     
  -47808760.6480294     
  -47854229.7377466     
  -47898681.3580204     
  -47942119.9203543     
  -47984551.2543295     
  -48025982.4793904     
  -48066421.8787979     
  -48105878.7758761     
  -48144363.4126752     
  -48181886.8311606     
  -48218460.7570363     
  -48254097.4863008     
  -48288809.7746294     
  -48322610.7296725     
  -48355513.7063544     
  -48387532.2052560     
  -48418679.7741612     
  -48448969.9128460     
  -48478415.9811902     
  -48507031.1106912     
  -48534828.1194595     
  -48561819.4307821     
  -48588016.9953384     
  -48613432.2171585     
  -48638075.8834239     
  -48661958.0982054     
  -48685088.2202476     
  -48707474.8049156     
  -48729125.5504193     
  -48750047.2484435     
  -48770245.7393198     
  -48789725.8718799     
  -48808491.4681454     
  -48826545.2930106     
  -48843889.0290652     
  -48860523.2567035     
  -48876447.4397676     
  -48891659.9171046     
  -48906157.8990998     
  -48919937.4718058     
  -47071659.1540304     
  -47134850.8708312     
  -47196721.5845416     
  -47257262.9889419     
  -47316469.9559311     
  -47374340.3503067     
  -47430874.8504834     
  -47486076.7683660     
  -47539951.8719208     
  -47592508.2101069     
  -47643755.9400898     
  -47693707.1569852     
  -47742375.7263523     
  -47789777.1195868     
  -47835928.2523335     
  -47880847.3260306     
  -47924553.6726959     
  -47967067.6030509     
  -48008410.2580678     
  -48048603.4640138     
  -48087669.5910546     
  -48125631.4154735     
  -48162511.9855539     
  -48198334.4911657     
  -48233122.1370949     
  -48266898.0201471     
  -48299685.0100596     
  -48331505.6342479     
  -48362381.9664236     
  -48392335.5191127     
  -48421387.1401145     
  -48449556.9129440     
  -48476864.0613089     
  -48503326.8576786     
  -48528962.5360167     
  -48553787.2087549     
  -48577815.7881029     
  -48601061.9118015     
  -48623537.8734411     
  -48645254.5574858     
  -48666221.3791557     
  -48686446.2293316     
  -48705935.4246596     
  -48724693.6630692     
  -48742723.9849815     
  -48760027.7404789     
  -48776604.5623845     
  -48792452.3451310     
  -48807567.2332661     
  -48821943.6111606     
  -46841475.6901899     
  -46912633.3560752     
  -46982019.5289454     
  -47049639.4538238     
  -47115501.9039099     
  -47179618.9588355     
  -47242005.7695731     
  -47302680.3356909     
  -47361663.2845002     
  -47418977.6532928     
  -47474648.6758763     
  -47528703.5734999     
  -47581171.3501086     
  -47632082.5919961     
  -47681469.2719790     
  -47729364.5581997     
  -47775802.6276253     
  -47820818.4842807     
  -47864447.7822377     
  -47906726.6533671     
  -47947691.5398477     
  -47987379.0314123     
  -48025825.7073012     
  -48063067.9828766     
  -48099141.9608469     
  -48134083.2870410     
  -48167927.0106677     
  -48200707.4489955     
  -48232458.0563866     
  -48263211.2976233     
  -48292998.5254738     
  -48321849.8624492     
  -48349794.0867214     
  -48376858.5221820     
  -48403068.9326460     
  -48428449.4202181     
  -48453022.3278706     
  -48476808.1462950     
  -48499825.4251272     
  -48522090.6886682     
  -48543618.3562694     
  -48564420.6675938     
  -48584507.6129899     
  -48603886.8691728     
  -48622563.7403364     
  -48640541.1050781     
  -48657819.3705311     
  -48674396.4344987     
  -48690267.6449730     
  -48705425.7883569     
  -46612605.6762261     
  -46691643.6033591     
  -46768366.1862451     
  -46842798.1446863     
  -46914968.0301700     
  -46984907.9006109     
  -47052653.0619683     
  -47118241.7861747     
  -47181715.0385340     
  -47243116.2143124     
  -47302490.8812554     
  -47359886.5277805     
  -47415352.3174980     
  -47468938.8504304     
  -47520697.9309994     
  -47570682.3427426     
  -47618945.6297268     
  -47665541.8846272     
  -47710525.5434344     
  -47753951.1867143     
  -47795873.3473108     
  -47836346.3243517     
  -47875424.0033827     
  -47913159.6824382     
  -47949605.9038334     
  -47984814.2914500     
  -48018835.3932736     
  -48051718.5289361     
  -48083511.6420130     
  -48114261.1568282     
  -48144011.8395277     
  -48172806.6631968     
  -48200686.6768156     
  -48227690.8778692     
  -48253856.0884663     
  -48279216.8348491     
  -48303805.2302307     
  -48327650.8609355     
  -48350780.6758734     
  -48373218.8794060     
  -48394986.8276938     
  -48416102.9286623     
  -48436582.5458720     
  -48456437.9068680     
  -48475678.0167336     
  -48494308.5765948     
  -48512331.9044296     
  -48529746.8602181     
  -48546548.8086175     
  -48562729.5124797     
  -46390950.8269519     
  -46477292.2781899     
  -46560673.2933201     
  -46641145.5353229     
  -46718764.5393112     
  -46793589.5062603     
  -46865682.8800303     
  -46935110.0258238     
  -47001938.9138483     
  -47066239.8008411     
  -47128084.9195918     
  -47187548.1797354     
  -47244704.8791179     
  -47299631.4248430     
  -47352405.0638015     
  -47403103.6228323     
  -47451805.2586646     
  -47498588.2176364     
  -47543530.6050429     
  -47586710.1638794     
  -47628204.0626676     
  -47668088.6920163     
  -47706439.4695126     
  -47743330.6524938     
  -47778835.1582060     
  -47813024.3908095     
  -47845968.0746607     
  -47877734.0932767     
  -47908388.3333761     
  -47937994.5333887     
  -47966614.1358420     
  -47994306.1430501     
  -48021126.9755703     
  -48047130.3329251     
  -48072367.0561449     
  -48096884.9917326     
  -48120728.8567196     
  -48143940.1045661     
  -48166556.7917746     
  -48188613.4452305     
  -48210140.9304242     
  -48231166.3207108     
  -48251712.7674961     
  -48271799.3708497     
  -48291441.0507102     
  -48310648.4226966     
  -48329427.6871187     
  -48347780.5189006     
  -48365703.8689604     
  -48383190.0434708     
  -46183555.1303759     
  -46275942.0012107     
  -46364617.5297753     
  -46449669.1626363     
  -46531188.5831428     
  -46609270.7415735     
  -46684013.7029758     
  -46755518.2252784     
  -46823887.3310062     
  -46889225.9245225     
  -46951640.4326672     
  -47011238.4558373     
  -47068128.4293426     
  -47122419.2981488     
  -47174220.2069661     
  -47223640.2061300     
  -47270787.9729805     
  -47315771.5482771     
  -47358698.0872216     
  -47399673.6246683     
  -47438802.8540181     
  -47476188.9191758     
  -47511933.2187789     
  -47546135.2217738     
  -47578892.2932829     
  -47610299.5296182     
  -47640449.6012168     
  -47669432.6022337     
  -47697335.9054946     
  -47724244.0215080     
  -47750238.4602507     
  -47775397.5944781     
  -47799796.5233802     
  -47823506.9354903     
  -47846596.9698713     
  -47869131.0747243     
  -47891169.8626750     
  -47912769.9620771     
  -47933983.8637072     
  -47954859.7623054     
  -47975441.3926997     
  -47995767.8609940     
  -48015873.4724945     
  -48035787.5584626     
  -48055534.3001129     
  -48075132.5377756     
  -48094595.5515075     
  -48113930.8771573     
  -48133140.3875207     
  -48152219.4265459     
  -45998466.0353437     
  -46094723.5121517     
  -46186411.9225618     
  -46273666.8031502     
  -46356626.0397350     
  -46435431.3524939     
  -46510226.9564913     
  -46581159.0243690     
  -46648375.3159595     
  -46712024.7480282     
  -46772256.9360864     
  -46829221.7546726     
  -46883068.9306208     
  -46933947.6669736     
  -46982006.2927804     
  -47027391.9364476     
  -47070250.2224795     
  -47110724.9922041     
  -47148958.0488300     
  -47185088.9265390     
  -47219254.6826798     
  -47251589.7116324     
  -47282225.5785595     
  -47311290.8710141     
  -47338911.0661901     
  -47365208.4114621     
  -47390301.8157333     
  -47414306.7490360     
  -47437335.1477583     
  -47459495.3228726     
  -47480891.8685463     
  -47501625.5685906     
  -47521793.2982936     
  -47541487.9193416     
  -47560798.1657428     
  -47579808.5189751     
  -47598599.0709848     
  -47617245.3741519     
  -47635818.2777482     
  -47654383.7504781     
  -47673002.6879888     
  -47691730.7027168     
  -47710617.8924399     
  -47729708.5877597     
  -47749041.0939685     
  -47768647.4646753     
  -47788553.3129230     
  -47808777.4209588     
  -47829330.6552047     
  -47850218.0971086     
  -45844447.6252344     
  -45941189.3007683     
  -46032404.8332702     
  -46118287.7038016     
  -46199039.3039695     
  -46274860.9285523     
  -46345955.4994616     
  -46412527.3498915     
  -46474781.3155894     
  -46532921.9597235     
  -46587152.9932202     
  -46637676.7847172     
  -46684693.8980071     
  -46728402.6470060     
  -46768998.6794001     
  -46806674.6010271     
  -46841619.6474898     
  -46874019.4043390     
  -46904055.5741812     
  -46931905.7878476     
  -46957743.4564199     
  -46981737.6608253     
  -47004053.0755369     
  -47024849.9225733     
  -47044283.9515509     
  -47062506.4410623     
  -47079664.2162613     
  -47095899.6772515     
  -47111350.8327769     
  -47126151.3337779     
  -47140430.5015886     
  -47154313.3458877     
  -47167920.5678968     
  -47181368.5446907     
  -47194769.2907880     
  -47208230.3934051     
  -47221854.9179880     
  -47235741.2811366     
  -47249983.0892566     
  -47264668.9437173     
  -47279882.2168933     
  -47295700.8062864     
  -47312196.8702804     
  -47329436.5293273     
  -47347479.4774670     
  -47366378.4354219     
  -47386178.5644223     
  -47406917.6136681     
  -47428627.5589572     
  -47451325.6027945     
  -45730524.1076604     
  -45822778.6175775     
  -45908450.4964629     
  -45987827.9452286     
  -46061182.7666699     
  -46128795.2966941     
  -46190947.2370525     
  -46247918.4185244     
  -46299986.2938880     
  -46347425.7145690     
  -46390508.3740001     
  -46429502.0489107     
  -46464669.8421299     
  -46496269.5310604     
  -46524553.0442988     
  -46549766.0535765     
  -46572147.6624825     
  -46591930.1789893     
  -46609338.9653866     
  -46624592.3630928     
  -46637901.6906659     
  -46649471.3121331     
  -46659498.7705568     
  -46668174.9794011     
  -46675684.4622129     
  -46682205.6296178     
  -46687911.0816987     
  -46692967.9234390     
  -46697538.0810185     
  -46701778.6072794     
  -46705841.9655951     
  -46709876.2826375     
  -46714025.5621012     
  -46718429.8531996     
  -46723225.3694969     
  -46728544.5550153     
  -46734516.0950159     
  -46741264.8677775     
  -46748911.8307344     
  -46757573.8302786     
  -46767363.3228158     
  -46778388.0032487     
  -46790750.3681885     
  -46804547.3013899     
  -46819869.8212044     
  -46836803.0053996     
  -46855425.4197167     
  -46875806.0050468     
  -46897998.6131804     
  -46922070.1409033     
  -45665376.9978923     
  -45746041.2650620     
  -45819028.2609102     
  -45884679.4580707     
  -45943405.4051032     
  -45995595.3878148     
  -46041628.6072926     
  -46081881.7979231     
  -46116728.7691935     
  -46146537.6102206     
  -46171668.3176242     
  -46192471.3153062     
  -46209286.5841734     
  -46222443.0857928     
  -46232258.3093140     
  -46239037.8948160     
  -46243075.3498961     
  -46244651.8941021     
  -46244036.4593475     
  -46241485.8593969     
  -46237245.1263730     
  -46231548.0005366     
  -46224617.5520499     
  -46216666.9094668     
  -46207900.0683547     
  -46198512.7537492     
  -46188693.3113255     
  -46178623.6036731     
  -46168479.8895582     
  -46158433.6654020     
  -46148652.4494321     
  -46139300.4902583     
  -46130539.3833173     
  -46122528.5812066     
  -46115425.7879128     
  -46109387.2328180     
  -46104567.8282038     
  -46101121.2228205     
  -46099199.7709633     
  -46098954.4350397     
  -46100534.6192003     
  -46104087.8795625     
  -46109759.3705331     
  -46117690.8117793     
  -46128018.8709986     
  -46140873.5678090     
  -46156379.1258530     
  -46174661.3464514     
  -46195853.9079072     
  -46220003.2580626     
  -45656589.2132056     
  -45715706.2425803     
  -45765847.9427262     
  -45807735.0234784     
  -45841840.5891854     
  -45868677.0256945     
  -45888781.6562889     
  -45902685.6981490     
  -45910901.7448286     
  -45913921.9683306     
  -45912219.1521132     
  -45906247.2599563     
  -45896440.9621082     
  -45883214.5251099     
  -45866960.6064808     
  -45848049.3413747     
  -45826827.9170864     
  -45803620.6861277     
  -45778729.7808577     
  -45752436.1501570     
  -45725000.9255815     
  -45696667.0280374     
  -45667660.9375100     
  -45638194.5624381     
  -45608467.1589510     
  -45578667.2618944     
  -45548974.5987397     
  -45519561.9639158     
  -45490597.0348899     
  -45462244.1125680     
  -45434665.7674780     
  -45408024.3699584     
  -45382483.4775646     
  -45358209.0468057     
  -45335370.4303525     
  -45314141.1172138     
  -45294699.1757451     
  -45277227.3734479     
  -45261912.9812092     
  -45248947.3315406     
  -45238525.2940937     
  -45230844.9399101     
  -45226107.7139635     
  -45224519.2235280     
  -45226289.8667722     
  -45231632.4155449     
  -45240750.6629537     
  -45253815.8245181     
  -45270969.3614902     
  -45292611.0414694     
  -45709978.3540513     
  -45732896.4320393     
  -45746183.6301869     
  -45749957.3301853     
  -45745170.0522017     
  -45732720.3918186     
  -45713383.0801218     
  -45687864.9168327     
  -45656842.8415649     
  -45620974.4683622     
  -45580893.8494638     
  -45537202.8031561     
  -45490463.0739074     
  -45441191.2059916     
  -45389856.3084760     
  -45336880.2138919     
  -45282639.3723228     
  -45227467.8801384     
  -45171661.1695668     
  -45115480.0162222     
  -45059154.6324745     
  -45002888.6999494     
  -44946863.2566989     
  -44891240.3982212     
  -44836166.7810321     
  -44781776.9367395     
  -44728196.4163896     
  -44675544.7912837     
  -44623938.5387754     
  -44573493.8404176     
  -44524329.3153212     
  -44476568.7032868     
  -44430343.4991931     
  -44385795.5207302     
  -44343079.3637964     
  -44302364.6613523     
  -44263838.0102477     
  -44227704.3666266     
  -44194187.6401138     
  -44163530.1605397     
  -44135990.6992202     
  -44111840.9092568     
  -44091360.6157227     
  -44074833.6780852     
  -44062548.5296495     
  -44054810.6198614     
  -44051973.6465222     
  -44054473.3122267     
  -44062728.7362756     
  -44076312.8929398     
  -45828382.3393016     
  -45794691.7092659     
  -45748054.7441794     
  -45692214.6628133     
  -45628214.3981223     
  -45556805.0879159     
  -45478909.6592051     
  -45395587.8521029     
  -45307925.3548517     
  -45216949.8596390     
  -45123585.1423328     
  -45028633.2558755     
  -44932773.7548513     
  -44836571.9302436     
  -44740491.0532103     
  -44644905.7702898     
  -44550115.1414909     
  -44456354.6081685     
  -44363806.6246493     
  -44272609.9267609     
  -44182867.5299577     
  -44094653.6025700     
  -44008019.3767267     
  -43922998.2584445     
  -43839610.2891909     
  -43757866.0994102     
  -43677770.4829766     
  -43599325.7118210     
  -43522534.7027221     
  -43447404.1436282     
  -43373947.6847187     
  -43302189.2991065     
  -43232166.9184959     
  -43163936.4481103     
  -43097576.2589537     
  -43033192.2371610     
  -42970923.4278281     
  -42910948.2235284     
  -42853490.8804313     
  -42798827.8393970     
  -42747292.7948853     
  -42699278.5644239     
  -42655232.4374341     
  -42615639.8680999     
  -42580989.9701944     
  -42551718.9766193     
  -42528147.5404159     
  -42510505.6458666     
  -42499401.1627787     
  -42497913.9656675     
  -46010937.5159800     
  -45879133.0331164     
  -45743124.7662619     
  -45596462.4045186     
  -45440127.7391397     
  -45276996.0596990     
  -45109978.8337129     
  -44941493.4185305     
  -44773391.6908414     
  -44607030.2103323     
  -44443369.4442112     
  -44283065.4247132     
  -44126544.6310066     
  -43974062.1832869     
  -43825746.0709025     
  -43681630.4403314     
  -43541680.5584369     
  -43405811.5211429     
  -43273902.2854034     
  -43145806.2078097     
  -43021358.9725764     
  -42900384.5680390     
  -42782699.8064178     
  -42668117.7616451     
  -42556450.4130976     
  -42447510.7207866     
  -42341114.3140155     
  -42237080.9466496     
  -42135235.8554016     
  -42035411.1515050     
  -41937447.3805295     
  -41841195.4005688     
  -41746518.7574629     
  -41653296.7802586     
  -41561428.6855515     
  -41470839.0724533     
  -41381485.3195127     
  -41293367.5712842     
  -41206542.2340253     
  -41121140.1844450     
  -41037391.1909992     
  -40955656.2008938     
  -40876468.7030484     
  -40800584.0873605     
  -40729028.4473588     
  -40663116.7967547     
  -40604351.8351526     
  -40553955.8930598     
  -40511362.4946779     
  -40469841.5686369     
  -46248031.3761181     
  -45979508.0848842     
  -45669615.0329092     
  -45348286.7656417     
  -45029669.3345706     
  -44720446.3705038     
  -44423630.3760481     
  -44140366.9812111     
  -43870831.2607288     
  -43614690.9518948     
  -43371354.1003891     
  -43140104.9793275     
  -42920179.9269542     
  -42710809.8187198     
  -42511243.5096345     
  -42320760.1986344     
  -42138675.2550984     
  -41964342.1637679     
  -41797152.1727330     
  -41636532.6034760     
  -41481944.4082355     
  -41332879.3324278     
  -41188856.8991573     
  -41049421.3448240     
  -40914138.5793779     
  -40782593.2098624     
  -40654385.6442146     
  -40529129.2794679     
  -40406447.7719711     
  -40285972.3857123     
  -40167339.4180857     
  -40050187.7111913     
  -39934156.2730430     
  -39818882.0607036     
  -39703998.0231243     
  -39589131.5772115     
  -39473903.8171036     
  -39357929.9710334     
  -39240821.9904643     
  -39122194.8101558     
  -39001679.0022636     
  -38878944.7544251     
  -38753746.3435491     
  -38626004.7088085     
  -38495963.0941736     
  -38364487.8375951     
  -38233668.6510731     
  -38108061.8568372     
  -37997370.1481549     
  -37922458.9623103     
  -46454729.3682655     
  -45676548.5168233     
  -45010882.5115300     
  -44428843.1387646     
  -43911915.5708041     
  -43447438.7732763     
  -43026289.4543777     
  -42641616.3657573     
  -42288104.7199450     
  -41961524.0012389     
  -41658435.9105378     
  -41375997.5650986     
  -41111824.0338929     
  -40863889.3584036     
  -40630453.4216446     
  -40410006.7039047     
  -40201227.7347370     
  -40002949.7535714     
  -39814134.1721746     
  -39633849.1380221     
  -39461251.9701850     
  -39295574.5624256     
  -39136111.0730251     
  -38982207.3794154     
  -38833251.8883631     
  -38688667.3725535     
  -38547903.5605928     
  -38410430.2453225     
  -38275730.6984104     
  -38143295.1893272     
  -38012614.4045795     
  -37883172.5476575     
  -37754439.8692486     
  -37625864.3265816     
  -37496861.9930814     
  -37366805.7231680     
  -37235011.4030654     
  -37100720.8557606     
  -36963080.0643609     
  -36821110.7425021     
  -36673672.2517340     
  -36519409.1460809     
  -36356676.6430284     
  -36183430.9433137     
  -35997061.1994765     
  -35794120.0008889     
  -35569868.1488764     
  -35317460.8175689     
  -35026402.2362599     
  -34679426.1966050     
SCALARS 2waySource double 
LOOKUP_TABLE default
  0.000000000000000E+000
  0.000000000000000E+000
  0.000000000000000E+000
  0.000000000000000E+000
  0.000000000000000E+000
  0.000000000000000E+000
  0.000000000000000E+000
  0.000000000000000E+000
  0.000000000000000E+000
  0.000000000000000E+000
  0.000000000000000E+000
  0.000000000000000E+000
  0.000000000000000E+000
  0.000000000000000E+000
  0.000000000000000E+000
  0.000000000000000E+000
  0.000000000000000E+000
  0.000000000000000E+000
  0.000000000000000E+000
  0.000000000000000E+000
  0.000000000000000E+000
  0.000000000000000E+000
  0.000000000000000E+000
  0.000000000000000E+000
  0.000000000000000E+000
  0.000000000000000E+000
  0.000000000000000E+000
  0.000000000000000E+000
  0.000000000000000E+000
  0.000000000000000E+000
  0.000000000000000E+000
  0.000000000000000E+000
  0.000000000000000E+000
  0.000000000000000E+000
  0.000000000000000E+000
  0.000000000000000E+000
  0.000000000000000E+000
  0.000000000000000E+000
  0.000000000000000E+000
  0.000000000000000E+000
  0.000000000000000E+000
  0.000000000000000E+000
  0.000000000000000E+000
  0.000000000000000E+000
  0.000000000000000E+000
  0.000000000000000E+000
  0.000000000000000E+000
  0.000000000000000E+000
  0.000000000000000E+000
  0.000000000000000E+000
  0.000000000000000E+000
  0.000000000000000E+000
  0.000000000000000E+000
  0.000000000000000E+000
  0.000000000000000E+000
  0.000000000000000E+000
  0.000000000000000E+000
  0.000000000000000E+000
  0.000000000000000E+000
  0.000000000000000E+000
  0.000000000000000E+000
  0.000000000000000E+000
  0.000000000000000E+000
  0.000000000000000E+000
  0.000000000000000E+000
  0.000000000000000E+000
  0.000000000000000E+000
  0.000000000000000E+000
  0.000000000000000E+000
  0.000000000000000E+000
  0.000000000000000E+000
  0.000000000000000E+000
  0.000000000000000E+000
  0.000000000000000E+000
  0.000000000000000E+000
  0.000000000000000E+000
  0.000000000000000E+000
  0.000000000000000E+000
  0.000000000000000E+000
  0.000000000000000E+000
  0.000000000000000E+000
  0.000000000000000E+000
  0.000000000000000E+000
  0.000000000000000E+000
  0.000000000000000E+000
  0.000000000000000E+000
  0.000000000000000E+000
  0.000000000000000E+000
  0.000000000000000E+000
  0.000000000000000E+000
  0.000000000000000E+000
  0.000000000000000E+000
  0.000000000000000E+000
  0.000000000000000E+000
  0.000000000000000E+000
  0.000000000000000E+000
  0.000000000000000E+000
  0.000000000000000E+000
  0.000000000000000E+000
  0.000000000000000E+000
  0.000000000000000E+000
  0.000000000000000E+000
  0.000000000000000E+000
  0.000000000000000E+000
  0.000000000000000E+000
  0.000000000000000E+000
  0.000000000000000E+000
  0.000000000000000E+000
  0.000000000000000E+000
  0.000000000000000E+000
  0.000000000000000E+000
  0.000000000000000E+000
  0.000000000000000E+000
  0.000000000000000E+000
  0.000000000000000E+000
  0.000000000000000E+000
  0.000000000000000E+000
  0.000000000000000E+000
  0.000000000000000E+000
  0.000000000000000E+000
  0.000000000000000E+000
  0.000000000000000E+000
  0.000000000000000E+000
  0.000000000000000E+000
  0.000000000000000E+000
  0.000000000000000E+000
  0.000000000000000E+000
  0.000000000000000E+000
  0.000000000000000E+000
  0.000000000000000E+000
  0.000000000000000E+000
  0.000000000000000E+000
  0.000000000000000E+000
  0.000000000000000E+000
  0.000000000000000E+000
  0.000000000000000E+000
  0.000000000000000E+000
  0.000000000000000E+000
  0.000000000000000E+000
  0.000000000000000E+000
  0.000000000000000E+000
  0.000000000000000E+000
  0.000000000000000E+000
  0.000000000000000E+000
  0.000000000000000E+000
  0.000000000000000E+000
  0.000000000000000E+000
  0.000000000000000E+000
  0.000000000000000E+000
  0.000000000000000E+000
  0.000000000000000E+000
  0.000000000000000E+000
  0.000000000000000E+000
  0.000000000000000E+000
  0.000000000000000E+000
  0.000000000000000E+000
  0.000000000000000E+000
  0.000000000000000E+000
  0.000000000000000E+000
  0.000000000000000E+000
  0.000000000000000E+000
  0.000000000000000E+000
  0.000000000000000E+000
  0.000000000000000E+000
  0.000000000000000E+000
  0.000000000000000E+000
  0.000000000000000E+000
  0.000000000000000E+000
  0.000000000000000E+000
  0.000000000000000E+000
  0.000000000000000E+000
  0.000000000000000E+000
  0.000000000000000E+000
  0.000000000000000E+000
  0.000000000000000E+000
  0.000000000000000E+000
  0.000000000000000E+000
  0.000000000000000E+000
  0.000000000000000E+000
  0.000000000000000E+000
  0.000000000000000E+000
  0.000000000000000E+000
  0.000000000000000E+000
  0.000000000000000E+000
  0.000000000000000E+000
  0.000000000000000E+000
  0.000000000000000E+000
  0.000000000000000E+000
  0.000000000000000E+000
  0.000000000000000E+000
  0.000000000000000E+000
  0.000000000000000E+000
  0.000000000000000E+000
  0.000000000000000E+000
  0.000000000000000E+000
  0.000000000000000E+000
  0.000000000000000E+000
  0.000000000000000E+000
  0.000000000000000E+000
  0.000000000000000E+000
  0.000000000000000E+000
  0.000000000000000E+000
  0.000000000000000E+000
  0.000000000000000E+000
  0.000000000000000E+000
  0.000000000000000E+000
  0.000000000000000E+000
  0.000000000000000E+000
  0.000000000000000E+000
  0.000000000000000E+000
  0.000000000000000E+000
  0.000000000000000E+000
  0.000000000000000E+000
  0.000000000000000E+000
  0.000000000000000E+000
  0.000000000000000E+000
  0.000000000000000E+000
  0.000000000000000E+000
  0.000000000000000E+000
  0.000000000000000E+000
  0.000000000000000E+000
  0.000000000000000E+000
  0.000000000000000E+000
  0.000000000000000E+000
  0.000000000000000E+000
  0.000000000000000E+000
  0.000000000000000E+000
  0.000000000000000E+000
  0.000000000000000E+000
  0.000000000000000E+000
  0.000000000000000E+000
  0.000000000000000E+000
  0.000000000000000E+000
  0.000000000000000E+000
  0.000000000000000E+000
  0.000000000000000E+000
  0.000000000000000E+000
  0.000000000000000E+000
  0.000000000000000E+000
  0.000000000000000E+000
  0.000000000000000E+000
  0.000000000000000E+000
  0.000000000000000E+000
  0.000000000000000E+000
  0.000000000000000E+000
  0.000000000000000E+000
  0.000000000000000E+000
  0.000000000000000E+000
  0.000000000000000E+000
  0.000000000000000E+000
  0.000000000000000E+000
  0.000000000000000E+000
  0.000000000000000E+000
  0.000000000000000E+000
  0.000000000000000E+000
  0.000000000000000E+000
  0.000000000000000E+000
  0.000000000000000E+000
  0.000000000000000E+000
  0.000000000000000E+000
  0.000000000000000E+000
  0.000000000000000E+000
  0.000000000000000E+000
  0.000000000000000E+000
  0.000000000000000E+000
  0.000000000000000E+000
  0.000000000000000E+000
  0.000000000000000E+000
  0.000000000000000E+000
  0.000000000000000E+000
  0.000000000000000E+000
  0.000000000000000E+000
  0.000000000000000E+000
  0.000000000000000E+000
  0.000000000000000E+000
  0.000000000000000E+000
  0.000000000000000E+000
  0.000000000000000E+000
  0.000000000000000E+000
  0.000000000000000E+000
  0.000000000000000E+000
  0.000000000000000E+000
  0.000000000000000E+000
  0.000000000000000E+000
  0.000000000000000E+000
  0.000000000000000E+000
  0.000000000000000E+000
  0.000000000000000E+000
  0.000000000000000E+000
  0.000000000000000E+000
  0.000000000000000E+000
  0.000000000000000E+000
  0.000000000000000E+000
  0.000000000000000E+000
  0.000000000000000E+000
  0.000000000000000E+000
  0.000000000000000E+000
  0.000000000000000E+000
  0.000000000000000E+000
  0.000000000000000E+000
  0.000000000000000E+000
  0.000000000000000E+000
  0.000000000000000E+000
  0.000000000000000E+000
  0.000000000000000E+000
  0.000000000000000E+000
  0.000000000000000E+000
  0.000000000000000E+000
  0.000000000000000E+000
  0.000000000000000E+000
  0.000000000000000E+000
  0.000000000000000E+000
  0.000000000000000E+000
  0.000000000000000E+000
  0.000000000000000E+000
  0.000000000000000E+000
  0.000000000000000E+000
  0.000000000000000E+000
  0.000000000000000E+000
  0.000000000000000E+000
  0.000000000000000E+000
  0.000000000000000E+000
  0.000000000000000E+000
  0.000000000000000E+000
  0.000000000000000E+000
  0.000000000000000E+000
  0.000000000000000E+000
  0.000000000000000E+000
  0.000000000000000E+000
  0.000000000000000E+000
  0.000000000000000E+000
  0.000000000000000E+000
  0.000000000000000E+000
  0.000000000000000E+000
  0.000000000000000E+000
  0.000000000000000E+000
  0.000000000000000E+000
  0.000000000000000E+000
  0.000000000000000E+000
  0.000000000000000E+000
  0.000000000000000E+000
  0.000000000000000E+000
  0.000000000000000E+000
  0.000000000000000E+000
  0.000000000000000E+000
  0.000000000000000E+000
  0.000000000000000E+000
  0.000000000000000E+000
  0.000000000000000E+000
  0.000000000000000E+000
  0.000000000000000E+000
  0.000000000000000E+000
  0.000000000000000E+000
  0.000000000000000E+000
  0.000000000000000E+000
  0.000000000000000E+000
  0.000000000000000E+000
  0.000000000000000E+000
  0.000000000000000E+000
  0.000000000000000E+000
  0.000000000000000E+000
  0.000000000000000E+000
  0.000000000000000E+000
  0.000000000000000E+000
  0.000000000000000E+000
  0.000000000000000E+000
  0.000000000000000E+000
  0.000000000000000E+000
  0.000000000000000E+000
  0.000000000000000E+000
  0.000000000000000E+000
  0.000000000000000E+000
  0.000000000000000E+000
  0.000000000000000E+000
  0.000000000000000E+000
  0.000000000000000E+000
  0.000000000000000E+000
  0.000000000000000E+000
  0.000000000000000E+000
  0.000000000000000E+000
  0.000000000000000E+000
  0.000000000000000E+000
  0.000000000000000E+000
  0.000000000000000E+000
  0.000000000000000E+000
  0.000000000000000E+000
  0.000000000000000E+000
  0.000000000000000E+000
  0.000000000000000E+000
  0.000000000000000E+000
  0.000000000000000E+000
  0.000000000000000E+000
  0.000000000000000E+000
  0.000000000000000E+000
  0.000000000000000E+000
  0.000000000000000E+000
  0.000000000000000E+000
  0.000000000000000E+000
  0.000000000000000E+000
  0.000000000000000E+000
  0.000000000000000E+000
  0.000000000000000E+000
  0.000000000000000E+000
  0.000000000000000E+000
  0.000000000000000E+000
  0.000000000000000E+000
  0.000000000000000E+000
  0.000000000000000E+000
  0.000000000000000E+000
  0.000000000000000E+000
  0.000000000000000E+000
  0.000000000000000E+000
  0.000000000000000E+000
  0.000000000000000E+000
  0.000000000000000E+000
  0.000000000000000E+000
  0.000000000000000E+000
  0.000000000000000E+000
  0.000000000000000E+000
  0.000000000000000E+000
  0.000000000000000E+000
  0.000000000000000E+000
  0.000000000000000E+000
  0.000000000000000E+000
  0.000000000000000E+000
  0.000000000000000E+000
  0.000000000000000E+000
  0.000000000000000E+000
  0.000000000000000E+000
  0.000000000000000E+000
  0.000000000000000E+000
  0.000000000000000E+000
  0.000000000000000E+000
  0.000000000000000E+000
  0.000000000000000E+000
  0.000000000000000E+000
  0.000000000000000E+000
  0.000000000000000E+000
  0.000000000000000E+000
  0.000000000000000E+000
  0.000000000000000E+000
  0.000000000000000E+000
  0.000000000000000E+000
  0.000000000000000E+000
  0.000000000000000E+000
  0.000000000000000E+000
  0.000000000000000E+000
  0.000000000000000E+000
  0.000000000000000E+000
  0.000000000000000E+000
  0.000000000000000E+000
  0.000000000000000E+000
  0.000000000000000E+000
  0.000000000000000E+000
  0.000000000000000E+000
  0.000000000000000E+000
  0.000000000000000E+000
  0.000000000000000E+000
  0.000000000000000E+000
  0.000000000000000E+000
  0.000000000000000E+000
  0.000000000000000E+000
  0.000000000000000E+000
  0.000000000000000E+000
  0.000000000000000E+000
  0.000000000000000E+000
  0.000000000000000E+000
  0.000000000000000E+000
  0.000000000000000E+000
  0.000000000000000E+000
  0.000000000000000E+000
  0.000000000000000E+000
  0.000000000000000E+000
  0.000000000000000E+000
  0.000000000000000E+000
  0.000000000000000E+000
  0.000000000000000E+000
  0.000000000000000E+000
  0.000000000000000E+000
  0.000000000000000E+000
  0.000000000000000E+000
  0.000000000000000E+000
  0.000000000000000E+000
  0.000000000000000E+000
  0.000000000000000E+000
  0.000000000000000E+000
  0.000000000000000E+000
  0.000000000000000E+000
  0.000000000000000E+000
  0.000000000000000E+000
  0.000000000000000E+000
  0.000000000000000E+000
  0.000000000000000E+000
  0.000000000000000E+000
  0.000000000000000E+000
  0.000000000000000E+000
  0.000000000000000E+000
  0.000000000000000E+000
  0.000000000000000E+000
  0.000000000000000E+000
  0.000000000000000E+000
  0.000000000000000E+000
  0.000000000000000E+000
  0.000000000000000E+000
  0.000000000000000E+000
  0.000000000000000E+000
  0.000000000000000E+000
  0.000000000000000E+000
  0.000000000000000E+000
  0.000000000000000E+000
  0.000000000000000E+000
  0.000000000000000E+000
  0.000000000000000E+000
  0.000000000000000E+000
  0.000000000000000E+000
  0.000000000000000E+000
  0.000000000000000E+000
  0.000000000000000E+000
  0.000000000000000E+000
  0.000000000000000E+000
  0.000000000000000E+000
  0.000000000000000E+000
  0.000000000000000E+000
  0.000000000000000E+000
  0.000000000000000E+000
  0.000000000000000E+000
  0.000000000000000E+000
  0.000000000000000E+000
  0.000000000000000E+000
  0.000000000000000E+000
  0.000000000000000E+000
  0.000000000000000E+000
  0.000000000000000E+000
  0.000000000000000E+000
  0.000000000000000E+000
  0.000000000000000E+000
  0.000000000000000E+000
  0.000000000000000E+000
  0.000000000000000E+000
  0.000000000000000E+000
  0.000000000000000E+000
  0.000000000000000E+000
  0.000000000000000E+000
  0.000000000000000E+000
  0.000000000000000E+000
  0.000000000000000E+000
  0.000000000000000E+000
  0.000000000000000E+000
  0.000000000000000E+000
  0.000000000000000E+000
  0.000000000000000E+000
  0.000000000000000E+000
  0.000000000000000E+000
  0.000000000000000E+000
  0.000000000000000E+000
  0.000000000000000E+000
  0.000000000000000E+000
  0.000000000000000E+000
  0.000000000000000E+000
  0.000000000000000E+000
  0.000000000000000E+000
  0.000000000000000E+000
  0.000000000000000E+000
  0.000000000000000E+000
  0.000000000000000E+000
  0.000000000000000E+000
  0.000000000000000E+000
  0.000000000000000E+000
  0.000000000000000E+000
  0.000000000000000E+000
  0.000000000000000E+000
  0.000000000000000E+000
  0.000000000000000E+000
  0.000000000000000E+000
  0.000000000000000E+000
  0.000000000000000E+000
  0.000000000000000E+000
  0.000000000000000E+000
  0.000000000000000E+000
  0.000000000000000E+000
  0.000000000000000E+000
  0.000000000000000E+000
  0.000000000000000E+000
  0.000000000000000E+000
  0.000000000000000E+000
  0.000000000000000E+000
  0.000000000000000E+000
  0.000000000000000E+000
  0.000000000000000E+000
  0.000000000000000E+000
  0.000000000000000E+000
  0.000000000000000E+000
  0.000000000000000E+000
  0.000000000000000E+000
  0.000000000000000E+000
  0.000000000000000E+000
  0.000000000000000E+000
  0.000000000000000E+000
  0.000000000000000E+000
  0.000000000000000E+000
  0.000000000000000E+000
  0.000000000000000E+000
  0.000000000000000E+000
  0.000000000000000E+000
  0.000000000000000E+000
  0.000000000000000E+000
  0.000000000000000E+000
  0.000000000000000E+000
  0.000000000000000E+000
  0.000000000000000E+000
  0.000000000000000E+000
  0.000000000000000E+000
  0.000000000000000E+000
  0.000000000000000E+000
  0.000000000000000E+000
  0.000000000000000E+000
  0.000000000000000E+000
  0.000000000000000E+000
  0.000000000000000E+000
  0.000000000000000E+000
  0.000000000000000E+000
  0.000000000000000E+000
  0.000000000000000E+000
  0.000000000000000E+000
  0.000000000000000E+000
  0.000000000000000E+000
  0.000000000000000E+000
  0.000000000000000E+000
  0.000000000000000E+000
  0.000000000000000E+000
  0.000000000000000E+000
  0.000000000000000E+000
  0.000000000000000E+000
  0.000000000000000E+000
  0.000000000000000E+000
  0.000000000000000E+000
  0.000000000000000E+000
  0.000000000000000E+000
  0.000000000000000E+000
  0.000000000000000E+000
  0.000000000000000E+000
  0.000000000000000E+000
  0.000000000000000E+000
  0.000000000000000E+000
  0.000000000000000E+000
  0.000000000000000E+000
  0.000000000000000E+000
  0.000000000000000E+000
  0.000000000000000E+000
  0.000000000000000E+000
  0.000000000000000E+000
  0.000000000000000E+000
  0.000000000000000E+000
  0.000000000000000E+000
  0.000000000000000E+000
  0.000000000000000E+000
  0.000000000000000E+000
  0.000000000000000E+000
  0.000000000000000E+000
  0.000000000000000E+000
  0.000000000000000E+000
  0.000000000000000E+000
  0.000000000000000E+000
  0.000000000000000E+000
  0.000000000000000E+000
  0.000000000000000E+000
  0.000000000000000E+000
  0.000000000000000E+000
  0.000000000000000E+000
  0.000000000000000E+000
  0.000000000000000E+000
  0.000000000000000E+000
  0.000000000000000E+000
  0.000000000000000E+000
  0.000000000000000E+000
  0.000000000000000E+000
  0.000000000000000E+000
  0.000000000000000E+000
  0.000000000000000E+000
  0.000000000000000E+000
  0.000000000000000E+000
  0.000000000000000E+000
  0.000000000000000E+000
  0.000000000000000E+000
  0.000000000000000E+000
  0.000000000000000E+000
  0.000000000000000E+000
  0.000000000000000E+000
  0.000000000000000E+000
  0.000000000000000E+000
  0.000000000000000E+000
  0.000000000000000E+000
  0.000000000000000E+000
  0.000000000000000E+000
  0.000000000000000E+000
  0.000000000000000E+000
  0.000000000000000E+000
  0.000000000000000E+000
  0.000000000000000E+000
  0.000000000000000E+000
  0.000000000000000E+000
  0.000000000000000E+000
  0.000000000000000E+000
  0.000000000000000E+000
  0.000000000000000E+000
  0.000000000000000E+000
  0.000000000000000E+000
  0.000000000000000E+000
  0.000000000000000E+000
  0.000000000000000E+000
  0.000000000000000E+000
  0.000000000000000E+000
  0.000000000000000E+000
  0.000000000000000E+000
  0.000000000000000E+000
  0.000000000000000E+000
  0.000000000000000E+000
  0.000000000000000E+000
  0.000000000000000E+000
  0.000000000000000E+000
  0.000000000000000E+000
  0.000000000000000E+000
  0.000000000000000E+000
  0.000000000000000E+000
  0.000000000000000E+000
  0.000000000000000E+000
  0.000000000000000E+000
  0.000000000000000E+000
  0.000000000000000E+000
  0.000000000000000E+000
  0.000000000000000E+000
  0.000000000000000E+000
  0.000000000000000E+000
  0.000000000000000E+000
  0.000000000000000E+000
  0.000000000000000E+000
  0.000000000000000E+000
  0.000000000000000E+000
  0.000000000000000E+000
  0.000000000000000E+000
  0.000000000000000E+000
  0.000000000000000E+000
  0.000000000000000E+000
  0.000000000000000E+000
  0.000000000000000E+000
  0.000000000000000E+000
  0.000000000000000E+000
  0.000000000000000E+000
  0.000000000000000E+000
  0.000000000000000E+000
  0.000000000000000E+000
  0.000000000000000E+000
  0.000000000000000E+000
  0.000000000000000E+000
  0.000000000000000E+000
  0.000000000000000E+000
  0.000000000000000E+000
  0.000000000000000E+000
  0.000000000000000E+000
  0.000000000000000E+000
  0.000000000000000E+000
  0.000000000000000E+000
  0.000000000000000E+000
  0.000000000000000E+000
  0.000000000000000E+000
  0.000000000000000E+000
  0.000000000000000E+000
  0.000000000000000E+000
  0.000000000000000E+000
  0.000000000000000E+000
  0.000000000000000E+000
  0.000000000000000E+000
  0.000000000000000E+000
  0.000000000000000E+000
  0.000000000000000E+000
  0.000000000000000E+000
  0.000000000000000E+000
  0.000000000000000E+000
  0.000000000000000E+000
  0.000000000000000E+000
  0.000000000000000E+000
  0.000000000000000E+000
  0.000000000000000E+000
  0.000000000000000E+000
  0.000000000000000E+000
  0.000000000000000E+000
  0.000000000000000E+000
  0.000000000000000E+000
  0.000000000000000E+000
  0.000000000000000E+000
  0.000000000000000E+000
  0.000000000000000E+000
  0.000000000000000E+000
  0.000000000000000E+000
  0.000000000000000E+000
  0.000000000000000E+000
  0.000000000000000E+000
  0.000000000000000E+000
  0.000000000000000E+000
  0.000000000000000E+000
  0.000000000000000E+000
  0.000000000000000E+000
  0.000000000000000E+000
  0.000000000000000E+000
  0.000000000000000E+000
  0.000000000000000E+000
  0.000000000000000E+000
  0.000000000000000E+000
  0.000000000000000E+000
  0.000000000000000E+000
  0.000000000000000E+000
  0.000000000000000E+000
  0.000000000000000E+000
  0.000000000000000E+000
  0.000000000000000E+000
  0.000000000000000E+000
  0.000000000000000E+000
  0.000000000000000E+000
  0.000000000000000E+000
  0.000000000000000E+000
  0.000000000000000E+000
  0.000000000000000E+000
  0.000000000000000E+000
  0.000000000000000E+000
  0.000000000000000E+000
  0.000000000000000E+000
  0.000000000000000E+000
  0.000000000000000E+000
  0.000000000000000E+000
  0.000000000000000E+000
  0.000000000000000E+000
  0.000000000000000E+000
  0.000000000000000E+000
  0.000000000000000E+000
  0.000000000000000E+000
  0.000000000000000E+000
  0.000000000000000E+000
  0.000000000000000E+000
  0.000000000000000E+000
  0.000000000000000E+000
  0.000000000000000E+000
  0.000000000000000E+000
  0.000000000000000E+000
  0.000000000000000E+000
  0.000000000000000E+000
  0.000000000000000E+000
  0.000000000000000E+000
  0.000000000000000E+000
  0.000000000000000E+000
  0.000000000000000E+000
  0.000000000000000E+000
  0.000000000000000E+000
  0.000000000000000E+000
  0.000000000000000E+000
  0.000000000000000E+000
  0.000000000000000E+000
  0.000000000000000E+000
  0.000000000000000E+000
  0.000000000000000E+000
  0.000000000000000E+000
  0.000000000000000E+000
  0.000000000000000E+000
  0.000000000000000E+000
  0.000000000000000E+000
  0.000000000000000E+000
  0.000000000000000E+000
  0.000000000000000E+000
  0.000000000000000E+000
  0.000000000000000E+000
  0.000000000000000E+000
  0.000000000000000E+000
  0.000000000000000E+000
  0.000000000000000E+000
  0.000000000000000E+000
  0.000000000000000E+000
  0.000000000000000E+000
  0.000000000000000E+000
  0.000000000000000E+000
  0.000000000000000E+000
  0.000000000000000E+000
  0.000000000000000E+000
  0.000000000000000E+000
  0.000000000000000E+000
  0.000000000000000E+000
  0.000000000000000E+000
  0.000000000000000E+000
  0.000000000000000E+000
  0.000000000000000E+000
  0.000000000000000E+000
  0.000000000000000E+000
  0.000000000000000E+000
  0.000000000000000E+000
  0.000000000000000E+000
  0.000000000000000E+000
  0.000000000000000E+000
  0.000000000000000E+000
  0.000000000000000E+000
  0.000000000000000E+000
  0.000000000000000E+000
  0.000000000000000E+000
  0.000000000000000E+000
  0.000000000000000E+000
  0.000000000000000E+000
  0.000000000000000E+000
  0.000000000000000E+000
  0.000000000000000E+000
  0.000000000000000E+000
  0.000000000000000E+000
  0.000000000000000E+000
  0.000000000000000E+000
  0.000000000000000E+000
  0.000000000000000E+000
  0.000000000000000E+000
  0.000000000000000E+000
  0.000000000000000E+000
  0.000000000000000E+000
  0.000000000000000E+000
  0.000000000000000E+000
  0.000000000000000E+000
  0.000000000000000E+000
  0.000000000000000E+000
  0.000000000000000E+000
  0.000000000000000E+000
  0.000000000000000E+000
  0.000000000000000E+000
  0.000000000000000E+000
  0.000000000000000E+000
  0.000000000000000E+000
  0.000000000000000E+000
  0.000000000000000E+000
  0.000000000000000E+000
  0.000000000000000E+000
  0.000000000000000E+000
  0.000000000000000E+000
  0.000000000000000E+000
  0.000000000000000E+000
  0.000000000000000E+000
  0.000000000000000E+000
  0.000000000000000E+000
  0.000000000000000E+000
  0.000000000000000E+000
  0.000000000000000E+000
  0.000000000000000E+000
  0.000000000000000E+000
  0.000000000000000E+000
  0.000000000000000E+000
  0.000000000000000E+000
  0.000000000000000E+000
  0.000000000000000E+000
  0.000000000000000E+000
  0.000000000000000E+000
  0.000000000000000E+000
  0.000000000000000E+000
  0.000000000000000E+000
  0.000000000000000E+000
  0.000000000000000E+000
  0.000000000000000E+000
  0.000000000000000E+000
  0.000000000000000E+000
  0.000000000000000E+000
  0.000000000000000E+000
  0.000000000000000E+000
  0.000000000000000E+000
  0.000000000000000E+000
  0.000000000000000E+000
  0.000000000000000E+000
  0.000000000000000E+000
  0.000000000000000E+000
  0.000000000000000E+000
  0.000000000000000E+000
  0.000000000000000E+000
  0.000000000000000E+000
  0.000000000000000E+000
  0.000000000000000E+000
  0.000000000000000E+000
  0.000000000000000E+000
  0.000000000000000E+000
  0.000000000000000E+000
  0.000000000000000E+000
  0.000000000000000E+000
  0.000000000000000E+000
  0.000000000000000E+000
  0.000000000000000E+000
  0.000000000000000E+000
  0.000000000000000E+000
  0.000000000000000E+000
  0.000000000000000E+000
  0.000000000000000E+000
  0.000000000000000E+000
  0.000000000000000E+000
  0.000000000000000E+000
  0.000000000000000E+000
  0.000000000000000E+000
  0.000000000000000E+000
  0.000000000000000E+000
  0.000000000000000E+000
  0.000000000000000E+000
  0.000000000000000E+000
  0.000000000000000E+000
  0.000000000000000E+000
  0.000000000000000E+000
  0.000000000000000E+000
  0.000000000000000E+000
  0.000000000000000E+000
  0.000000000000000E+000
  0.000000000000000E+000
  0.000000000000000E+000
  0.000000000000000E+000
  0.000000000000000E+000
  0.000000000000000E+000
  0.000000000000000E+000
  0.000000000000000E+000
  0.000000000000000E+000
  0.000000000000000E+000
  0.000000000000000E+000
  0.000000000000000E+000
  0.000000000000000E+000
  0.000000000000000E+000
  0.000000000000000E+000
  0.000000000000000E+000
  0.000000000000000E+000
  0.000000000000000E+000
  0.000000000000000E+000
  0.000000000000000E+000
  0.000000000000000E+000
  0.000000000000000E+000
  0.000000000000000E+000
  0.000000000000000E+000
  0.000000000000000E+000
  0.000000000000000E+000
  0.000000000000000E+000
  0.000000000000000E+000
  0.000000000000000E+000
  0.000000000000000E+000
  0.000000000000000E+000
  0.000000000000000E+000
  0.000000000000000E+000
  0.000000000000000E+000
  0.000000000000000E+000
  0.000000000000000E+000
  0.000000000000000E+000
  0.000000000000000E+000
  0.000000000000000E+000
  0.000000000000000E+000
  0.000000000000000E+000
  0.000000000000000E+000
  0.000000000000000E+000
  0.000000000000000E+000
  0.000000000000000E+000
  0.000000000000000E+000
  0.000000000000000E+000
  0.000000000000000E+000
  0.000000000000000E+000
  0.000000000000000E+000
  0.000000000000000E+000
  0.000000000000000E+000
  0.000000000000000E+000
  0.000000000000000E+000
  0.000000000000000E+000
  0.000000000000000E+000
  0.000000000000000E+000
  0.000000000000000E+000
  0.000000000000000E+000
  0.000000000000000E+000
  0.000000000000000E+000
  0.000000000000000E+000
  0.000000000000000E+000
  0.000000000000000E+000
  0.000000000000000E+000
  0.000000000000000E+000
  0.000000000000000E+000
  0.000000000000000E+000
  0.000000000000000E+000
  0.000000000000000E+000
  0.000000000000000E+000
  0.000000000000000E+000
  0.000000000000000E+000
  0.000000000000000E+000
  0.000000000000000E+000
  0.000000000000000E+000
  0.000000000000000E+000
  0.000000000000000E+000
  0.000000000000000E+000
  0.000000000000000E+000
  0.000000000000000E+000
  0.000000000000000E+000
  0.000000000000000E+000
  0.000000000000000E+000
  0.000000000000000E+000
  0.000000000000000E+000
  0.000000000000000E+000
  0.000000000000000E+000
  0.000000000000000E+000
  0.000000000000000E+000
  0.000000000000000E+000
  0.000000000000000E+000
  0.000000000000000E+000
  0.000000000000000E+000
  0.000000000000000E+000
  0.000000000000000E+000
  0.000000000000000E+000
  0.000000000000000E+000
  0.000000000000000E+000
  0.000000000000000E+000
  0.000000000000000E+000
  0.000000000000000E+000
  0.000000000000000E+000
  0.000000000000000E+000
  0.000000000000000E+000
  0.000000000000000E+000
  0.000000000000000E+000
  0.000000000000000E+000
  0.000000000000000E+000
  0.000000000000000E+000
  0.000000000000000E+000
  0.000000000000000E+000
  0.000000000000000E+000
  0.000000000000000E+000
  0.000000000000000E+000
  0.000000000000000E+000
  0.000000000000000E+000
  0.000000000000000E+000
  0.000000000000000E+000
  0.000000000000000E+000
  0.000000000000000E+000
  0.000000000000000E+000
  0.000000000000000E+000
  0.000000000000000E+000
  0.000000000000000E+000
  0.000000000000000E+000
  0.000000000000000E+000
  0.000000000000000E+000
  0.000000000000000E+000
  0.000000000000000E+000
  0.000000000000000E+000
  0.000000000000000E+000
  0.000000000000000E+000
  0.000000000000000E+000
  0.000000000000000E+000
  0.000000000000000E+000
  0.000000000000000E+000
  0.000000000000000E+000
  0.000000000000000E+000
  0.000000000000000E+000
  0.000000000000000E+000
  0.000000000000000E+000
  0.000000000000000E+000
  0.000000000000000E+000
  0.000000000000000E+000
  0.000000000000000E+000
  0.000000000000000E+000
  0.000000000000000E+000
  0.000000000000000E+000
  0.000000000000000E+000
  0.000000000000000E+000
  0.000000000000000E+000
  0.000000000000000E+000
  0.000000000000000E+000
  0.000000000000000E+000
  0.000000000000000E+000
  0.000000000000000E+000
  0.000000000000000E+000
  0.000000000000000E+000
  0.000000000000000E+000
  0.000000000000000E+000
  0.000000000000000E+000
  0.000000000000000E+000
  0.000000000000000E+000
  0.000000000000000E+000
  0.000000000000000E+000
  0.000000000000000E+000
  0.000000000000000E+000
  0.000000000000000E+000
  0.000000000000000E+000
  0.000000000000000E+000
  0.000000000000000E+000
  0.000000000000000E+000
  0.000000000000000E+000
  0.000000000000000E+000
  0.000000000000000E+000
  0.000000000000000E+000
  0.000000000000000E+000
  0.000000000000000E+000
  0.000000000000000E+000
  0.000000000000000E+000
  0.000000000000000E+000
  0.000000000000000E+000
  0.000000000000000E+000
  0.000000000000000E+000
  0.000000000000000E+000
  0.000000000000000E+000
  0.000000000000000E+000
  0.000000000000000E+000
  0.000000000000000E+000
  0.000000000000000E+000
  0.000000000000000E+000
  0.000000000000000E+000
  0.000000000000000E+000
  0.000000000000000E+000
  0.000000000000000E+000
  0.000000000000000E+000
  0.000000000000000E+000
  0.000000000000000E+000
  0.000000000000000E+000
  0.000000000000000E+000
  0.000000000000000E+000
  0.000000000000000E+000
  0.000000000000000E+000
  0.000000000000000E+000
  0.000000000000000E+000
  0.000000000000000E+000
  0.000000000000000E+000
  0.000000000000000E+000
  0.000000000000000E+000
  0.000000000000000E+000
  0.000000000000000E+000
  0.000000000000000E+000
  0.000000000000000E+000
  0.000000000000000E+000
  0.000000000000000E+000
  0.000000000000000E+000
  0.000000000000000E+000
  0.000000000000000E+000
  0.000000000000000E+000
  0.000000000000000E+000
  0.000000000000000E+000
  0.000000000000000E+000
  0.000000000000000E+000
  0.000000000000000E+000
  0.000000000000000E+000
  0.000000000000000E+000
  0.000000000000000E+000
  0.000000000000000E+000
  0.000000000000000E+000
  0.000000000000000E+000
  0.000000000000000E+000
  0.000000000000000E+000
  0.000000000000000E+000
  0.000000000000000E+000
  0.000000000000000E+000
  0.000000000000000E+000
  0.000000000000000E+000
  0.000000000000000E+000
  0.000000000000000E+000
  0.000000000000000E+000
  0.000000000000000E+000
  0.000000000000000E+000
  0.000000000000000E+000
  0.000000000000000E+000
  0.000000000000000E+000
  0.000000000000000E+000
  0.000000000000000E+000
  0.000000000000000E+000
  0.000000000000000E+000
  0.000000000000000E+000
  0.000000000000000E+000
  0.000000000000000E+000
  0.000000000000000E+000
  0.000000000000000E+000
  0.000000000000000E+000
  0.000000000000000E+000
  0.000000000000000E+000
  0.000000000000000E+000
  0.000000000000000E+000
  0.000000000000000E+000
  0.000000000000000E+000
  0.000000000000000E+000
  0.000000000000000E+000
  0.000000000000000E+000
  0.000000000000000E+000
  0.000000000000000E+000
  0.000000000000000E+000
  0.000000000000000E+000
  0.000000000000000E+000
  0.000000000000000E+000
  0.000000000000000E+000
  0.000000000000000E+000
  0.000000000000000E+000
  0.000000000000000E+000
  0.000000000000000E+000
  0.000000000000000E+000
  0.000000000000000E+000
  0.000000000000000E+000
  0.000000000000000E+000
  0.000000000000000E+000
  0.000000000000000E+000
  0.000000000000000E+000
  0.000000000000000E+000
  0.000000000000000E+000
  0.000000000000000E+000
  0.000000000000000E+000
  0.000000000000000E+000
  0.000000000000000E+000
  0.000000000000000E+000
  0.000000000000000E+000
  0.000000000000000E+000
  0.000000000000000E+000
  0.000000000000000E+000
  0.000000000000000E+000
  0.000000000000000E+000
  0.000000000000000E+000
  0.000000000000000E+000
  0.000000000000000E+000
  0.000000000000000E+000
  0.000000000000000E+000
  0.000000000000000E+000
  0.000000000000000E+000
  0.000000000000000E+000
  0.000000000000000E+000
  0.000000000000000E+000
  0.000000000000000E+000
  0.000000000000000E+000
  0.000000000000000E+000
  0.000000000000000E+000
  0.000000000000000E+000
  0.000000000000000E+000
  0.000000000000000E+000
  0.000000000000000E+000
  0.000000000000000E+000
  0.000000000000000E+000
  0.000000000000000E+000
  0.000000000000000E+000
  0.000000000000000E+000
  0.000000000000000E+000
  0.000000000000000E+000
  0.000000000000000E+000
  0.000000000000000E+000
  0.000000000000000E+000
  0.000000000000000E+000
  0.000000000000000E+000
  0.000000000000000E+000
  0.000000000000000E+000
  0.000000000000000E+000
  0.000000000000000E+000
  0.000000000000000E+000
  0.000000000000000E+000
  0.000000000000000E+000
  0.000000000000000E+000
  0.000000000000000E+000
  0.000000000000000E+000
  0.000000000000000E+000
  0.000000000000000E+000
  0.000000000000000E+000
  0.000000000000000E+000
  0.000000000000000E+000
  0.000000000000000E+000
  0.000000000000000E+000
  0.000000000000000E+000
  0.000000000000000E+000
  0.000000000000000E+000
  0.000000000000000E+000
  0.000000000000000E+000
  0.000000000000000E+000
  0.000000000000000E+000
  0.000000000000000E+000
  0.000000000000000E+000
  0.000000000000000E+000
  0.000000000000000E+000
  0.000000000000000E+000
  0.000000000000000E+000
  0.000000000000000E+000
  0.000000000000000E+000
  0.000000000000000E+000
  0.000000000000000E+000
  0.000000000000000E+000
  0.000000000000000E+000
  0.000000000000000E+000
  0.000000000000000E+000
  0.000000000000000E+000
  0.000000000000000E+000
  0.000000000000000E+000
  0.000000000000000E+000
  0.000000000000000E+000
  0.000000000000000E+000
  0.000000000000000E+000
  0.000000000000000E+000
  0.000000000000000E+000
  0.000000000000000E+000
  0.000000000000000E+000
  0.000000000000000E+000
  0.000000000000000E+000
  0.000000000000000E+000
  0.000000000000000E+000
  0.000000000000000E+000
  0.000000000000000E+000
  0.000000000000000E+000
  0.000000000000000E+000
  0.000000000000000E+000
  0.000000000000000E+000
  0.000000000000000E+000
  0.000000000000000E+000
  0.000000000000000E+000
  0.000000000000000E+000
  0.000000000000000E+000
  0.000000000000000E+000
  0.000000000000000E+000
  0.000000000000000E+000
  0.000000000000000E+000
  0.000000000000000E+000
  0.000000000000000E+000
  0.000000000000000E+000
  0.000000000000000E+000
  0.000000000000000E+000
  0.000000000000000E+000
  0.000000000000000E+000
  0.000000000000000E+000
  0.000000000000000E+000
  0.000000000000000E+000
  0.000000000000000E+000
  0.000000000000000E+000
  0.000000000000000E+000
  0.000000000000000E+000
  0.000000000000000E+000
  0.000000000000000E+000
  0.000000000000000E+000
  0.000000000000000E+000
  0.000000000000000E+000
  0.000000000000000E+000
  0.000000000000000E+000
  0.000000000000000E+000
  0.000000000000000E+000
  0.000000000000000E+000
  0.000000000000000E+000
  0.000000000000000E+000
  0.000000000000000E+000
  0.000000000000000E+000
  0.000000000000000E+000
  0.000000000000000E+000
  0.000000000000000E+000
  0.000000000000000E+000
  0.000000000000000E+000
  0.000000000000000E+000
  0.000000000000000E+000
  0.000000000000000E+000
  0.000000000000000E+000
  0.000000000000000E+000
  0.000000000000000E+000
  0.000000000000000E+000
  0.000000000000000E+000
  0.000000000000000E+000
  0.000000000000000E+000
  0.000000000000000E+000
  0.000000000000000E+000
  0.000000000000000E+000
  0.000000000000000E+000
  0.000000000000000E+000
  0.000000000000000E+000
  0.000000000000000E+000
  0.000000000000000E+000
  0.000000000000000E+000
  0.000000000000000E+000
  0.000000000000000E+000
  0.000000000000000E+000
  0.000000000000000E+000
  0.000000000000000E+000
  0.000000000000000E+000
  0.000000000000000E+000
  0.000000000000000E+000
  0.000000000000000E+000
  0.000000000000000E+000
  0.000000000000000E+000
  0.000000000000000E+000
  0.000000000000000E+000
  0.000000000000000E+000
  0.000000000000000E+000
  0.000000000000000E+000
  0.000000000000000E+000
  0.000000000000000E+000
  0.000000000000000E+000
  0.000000000000000E+000
  0.000000000000000E+000
  0.000000000000000E+000
  0.000000000000000E+000
  0.000000000000000E+000
  0.000000000000000E+000
  0.000000000000000E+000
  0.000000000000000E+000
  0.000000000000000E+000
  0.000000000000000E+000
  0.000000000000000E+000
  0.000000000000000E+000
  0.000000000000000E+000
  0.000000000000000E+000
  0.000000000000000E+000
  0.000000000000000E+000
  0.000000000000000E+000
  0.000000000000000E+000
  0.000000000000000E+000
  0.000000000000000E+000
  0.000000000000000E+000
  0.000000000000000E+000
  0.000000000000000E+000
  0.000000000000000E+000
  0.000000000000000E+000
  0.000000000000000E+000
  0.000000000000000E+000
  0.000000000000000E+000
  0.000000000000000E+000
  0.000000000000000E+000
  0.000000000000000E+000
  0.000000000000000E+000
  0.000000000000000E+000
  0.000000000000000E+000
  0.000000000000000E+000
  0.000000000000000E+000
  0.000000000000000E+000
  0.000000000000000E+000
  0.000000000000000E+000
  0.000000000000000E+000
  0.000000000000000E+000
  0.000000000000000E+000
  0.000000000000000E+000
  0.000000000000000E+000
  0.000000000000000E+000
  0.000000000000000E+000
  0.000000000000000E+000
  0.000000000000000E+000
  0.000000000000000E+000
  0.000000000000000E+000
  0.000000000000000E+000
  0.000000000000000E+000
  0.000000000000000E+000
  0.000000000000000E+000
  0.000000000000000E+000
  0.000000000000000E+000
  0.000000000000000E+000
  0.000000000000000E+000
  0.000000000000000E+000
  0.000000000000000E+000
  0.000000000000000E+000
  0.000000000000000E+000
  0.000000000000000E+000
  0.000000000000000E+000
  0.000000000000000E+000
  0.000000000000000E+000
  0.000000000000000E+000
  0.000000000000000E+000
  0.000000000000000E+000
  0.000000000000000E+000
  0.000000000000000E+000
  0.000000000000000E+000
  0.000000000000000E+000
  0.000000000000000E+000
  0.000000000000000E+000
  0.000000000000000E+000
  0.000000000000000E+000
  0.000000000000000E+000
  0.000000000000000E+000
  0.000000000000000E+000
  0.000000000000000E+000
  0.000000000000000E+000
  0.000000000000000E+000
  0.000000000000000E+000
  0.000000000000000E+000
  0.000000000000000E+000
  0.000000000000000E+000
  0.000000000000000E+000
  0.000000000000000E+000
  0.000000000000000E+000
  0.000000000000000E+000
  0.000000000000000E+000
  0.000000000000000E+000
  0.000000000000000E+000
  0.000000000000000E+000
  0.000000000000000E+000
  0.000000000000000E+000
  0.000000000000000E+000
  0.000000000000000E+000
  0.000000000000000E+000
  0.000000000000000E+000
  0.000000000000000E+000
  0.000000000000000E+000
  0.000000000000000E+000
  0.000000000000000E+000
  0.000000000000000E+000
  0.000000000000000E+000
  0.000000000000000E+000
  0.000000000000000E+000
  0.000000000000000E+000
  0.000000000000000E+000
  0.000000000000000E+000
  0.000000000000000E+000
  0.000000000000000E+000
  0.000000000000000E+000
  0.000000000000000E+000
  0.000000000000000E+000
  0.000000000000000E+000
  0.000000000000000E+000
  0.000000000000000E+000
  0.000000000000000E+000
  0.000000000000000E+000
  0.000000000000000E+000
  0.000000000000000E+000
  0.000000000000000E+000
  0.000000000000000E+000
  0.000000000000000E+000
  0.000000000000000E+000
  0.000000000000000E+000
  0.000000000000000E+000
  0.000000000000000E+000
  0.000000000000000E+000
  0.000000000000000E+000
  0.000000000000000E+000
  0.000000000000000E+000
  0.000000000000000E+000
  0.000000000000000E+000
  0.000000000000000E+000
  0.000000000000000E+000
  0.000000000000000E+000
  0.000000000000000E+000
  0.000000000000000E+000
  0.000000000000000E+000
  0.000000000000000E+000
  0.000000000000000E+000
  0.000000000000000E+000
  0.000000000000000E+000
  0.000000000000000E+000
  0.000000000000000E+000
  0.000000000000000E+000
  0.000000000000000E+000
  0.000000000000000E+000
  0.000000000000000E+000
  0.000000000000000E+000
  0.000000000000000E+000
  0.000000000000000E+000
  0.000000000000000E+000
  0.000000000000000E+000
  0.000000000000000E+000
  0.000000000000000E+000
  0.000000000000000E+000
  0.000000000000000E+000
  0.000000000000000E+000
  0.000000000000000E+000
  0.000000000000000E+000
  0.000000000000000E+000
  0.000000000000000E+000
  0.000000000000000E+000
  0.000000000000000E+000
  0.000000000000000E+000
  0.000000000000000E+000
  0.000000000000000E+000
  0.000000000000000E+000
  0.000000000000000E+000
  0.000000000000000E+000
  0.000000000000000E+000
  0.000000000000000E+000
  0.000000000000000E+000
  0.000000000000000E+000
  0.000000000000000E+000
  0.000000000000000E+000
  0.000000000000000E+000
  0.000000000000000E+000
  0.000000000000000E+000
  0.000000000000000E+000
  0.000000000000000E+000
  0.000000000000000E+000
  0.000000000000000E+000
  0.000000000000000E+000
  0.000000000000000E+000
  0.000000000000000E+000
  0.000000000000000E+000
  0.000000000000000E+000
  0.000000000000000E+000
  0.000000000000000E+000
  0.000000000000000E+000
  0.000000000000000E+000
  0.000000000000000E+000
  0.000000000000000E+000
  0.000000000000000E+000
  0.000000000000000E+000
  0.000000000000000E+000
  0.000000000000000E+000
  0.000000000000000E+000
  0.000000000000000E+000
  0.000000000000000E+000
  0.000000000000000E+000
  0.000000000000000E+000
  0.000000000000000E+000
  0.000000000000000E+000
  0.000000000000000E+000
  0.000000000000000E+000
  0.000000000000000E+000
  0.000000000000000E+000
  0.000000000000000E+000
  0.000000000000000E+000
  0.000000000000000E+000
  0.000000000000000E+000
  0.000000000000000E+000
  0.000000000000000E+000
  0.000000000000000E+000
  0.000000000000000E+000
  0.000000000000000E+000
  0.000000000000000E+000
  0.000000000000000E+000
  0.000000000000000E+000
  0.000000000000000E+000
  0.000000000000000E+000
  0.000000000000000E+000
  0.000000000000000E+000
  0.000000000000000E+000
  0.000000000000000E+000
  0.000000000000000E+000
  0.000000000000000E+000
  0.000000000000000E+000
  0.000000000000000E+000
  0.000000000000000E+000
  0.000000000000000E+000
  0.000000000000000E+000
  0.000000000000000E+000
  0.000000000000000E+000
  0.000000000000000E+000
  0.000000000000000E+000
  0.000000000000000E+000
  0.000000000000000E+000
  0.000000000000000E+000
  0.000000000000000E+000
  0.000000000000000E+000
  0.000000000000000E+000
  0.000000000000000E+000
  0.000000000000000E+000
  0.000000000000000E+000
  0.000000000000000E+000
  0.000000000000000E+000
  0.000000000000000E+000
  0.000000000000000E+000
  0.000000000000000E+000
  0.000000000000000E+000
  0.000000000000000E+000
  0.000000000000000E+000
  0.000000000000000E+000
  0.000000000000000E+000
  0.000000000000000E+000
  0.000000000000000E+000
  0.000000000000000E+000
  0.000000000000000E+000
  0.000000000000000E+000
  0.000000000000000E+000
  0.000000000000000E+000
  0.000000000000000E+000
  0.000000000000000E+000
  0.000000000000000E+000
  0.000000000000000E+000
  0.000000000000000E+000
  0.000000000000000E+000
  0.000000000000000E+000
  0.000000000000000E+000
  0.000000000000000E+000
  0.000000000000000E+000
  0.000000000000000E+000
  0.000000000000000E+000
  0.000000000000000E+000
  0.000000000000000E+000
  0.000000000000000E+000
  0.000000000000000E+000
  0.000000000000000E+000
  0.000000000000000E+000
  0.000000000000000E+000
  0.000000000000000E+000
  0.000000000000000E+000
  0.000000000000000E+000
  0.000000000000000E+000
  0.000000000000000E+000
  0.000000000000000E+000
  0.000000000000000E+000
  0.000000000000000E+000
  0.000000000000000E+000
  0.000000000000000E+000
  0.000000000000000E+000
  0.000000000000000E+000
  0.000000000000000E+000
  0.000000000000000E+000
  0.000000000000000E+000
  0.000000000000000E+000
  0.000000000000000E+000
  0.000000000000000E+000
  0.000000000000000E+000
  0.000000000000000E+000
  0.000000000000000E+000
  0.000000000000000E+000
  0.000000000000000E+000
  0.000000000000000E+000
  0.000000000000000E+000
  0.000000000000000E+000
  0.000000000000000E+000
  0.000000000000000E+000
  0.000000000000000E+000
  0.000000000000000E+000
  0.000000000000000E+000
  0.000000000000000E+000
  0.000000000000000E+000
  0.000000000000000E+000
  0.000000000000000E+000
  0.000000000000000E+000
  0.000000000000000E+000
  0.000000000000000E+000
  0.000000000000000E+000
  0.000000000000000E+000
  0.000000000000000E+000
  0.000000000000000E+000
  0.000000000000000E+000
  0.000000000000000E+000
  0.000000000000000E+000
  0.000000000000000E+000
  0.000000000000000E+000
  0.000000000000000E+000
  0.000000000000000E+000
  0.000000000000000E+000
  0.000000000000000E+000
  0.000000000000000E+000
  0.000000000000000E+000
  0.000000000000000E+000
  0.000000000000000E+000
  0.000000000000000E+000
  0.000000000000000E+000
  0.000000000000000E+000
  0.000000000000000E+000
  0.000000000000000E+000
  0.000000000000000E+000
  0.000000000000000E+000
  0.000000000000000E+000
  0.000000000000000E+000
  0.000000000000000E+000
  0.000000000000000E+000
  0.000000000000000E+000
  0.000000000000000E+000
  0.000000000000000E+000
  0.000000000000000E+000
  0.000000000000000E+000
  0.000000000000000E+000
  0.000000000000000E+000
  0.000000000000000E+000
  0.000000000000000E+000
  0.000000000000000E+000
  0.000000000000000E+000
  0.000000000000000E+000
  0.000000000000000E+000
  0.000000000000000E+000
  0.000000000000000E+000
  0.000000000000000E+000
  0.000000000000000E+000
  0.000000000000000E+000
  0.000000000000000E+000
  0.000000000000000E+000
  0.000000000000000E+000
  0.000000000000000E+000
  0.000000000000000E+000
  0.000000000000000E+000
  0.000000000000000E+000
  0.000000000000000E+000
  0.000000000000000E+000
  0.000000000000000E+000
  0.000000000000000E+000
  0.000000000000000E+000
  0.000000000000000E+000
  0.000000000000000E+000
  0.000000000000000E+000
  0.000000000000000E+000
  0.000000000000000E+000
  0.000000000000000E+000
  0.000000000000000E+000
  0.000000000000000E+000
  0.000000000000000E+000
  0.000000000000000E+000
  0.000000000000000E+000
  0.000000000000000E+000
  0.000000000000000E+000
  0.000000000000000E+000
  0.000000000000000E+000
  0.000000000000000E+000
  0.000000000000000E+000
  0.000000000000000E+000
  0.000000000000000E+000
  0.000000000000000E+000
  0.000000000000000E+000
  0.000000000000000E+000
  0.000000000000000E+000
  0.000000000000000E+000
  0.000000000000000E+000
  0.000000000000000E+000
  0.000000000000000E+000
  0.000000000000000E+000
  0.000000000000000E+000
  0.000000000000000E+000
  0.000000000000000E+000
  0.000000000000000E+000
  0.000000000000000E+000
  0.000000000000000E+000
  0.000000000000000E+000
  0.000000000000000E+000
  0.000000000000000E+000
  0.000000000000000E+000
  0.000000000000000E+000
  0.000000000000000E+000
  0.000000000000000E+000
  0.000000000000000E+000
  0.000000000000000E+000
  0.000000000000000E+000
  0.000000000000000E+000
  0.000000000000000E+000
  0.000000000000000E+000
  0.000000000000000E+000
  0.000000000000000E+000
  0.000000000000000E+000
  0.000000000000000E+000
  0.000000000000000E+000
  0.000000000000000E+000
  0.000000000000000E+000
  0.000000000000000E+000
  0.000000000000000E+000
  0.000000000000000E+000
  0.000000000000000E+000
  0.000000000000000E+000
  0.000000000000000E+000
  0.000000000000000E+000
  0.000000000000000E+000
  0.000000000000000E+000
  0.000000000000000E+000
  0.000000000000000E+000
  0.000000000000000E+000
  0.000000000000000E+000
  0.000000000000000E+000
  0.000000000000000E+000
  0.000000000000000E+000
  0.000000000000000E+000
  0.000000000000000E+000
  0.000000000000000E+000
  0.000000000000000E+000
  0.000000000000000E+000
  0.000000000000000E+000
  0.000000000000000E+000
  0.000000000000000E+000
  0.000000000000000E+000
  0.000000000000000E+000
  0.000000000000000E+000
  0.000000000000000E+000
  0.000000000000000E+000
  0.000000000000000E+000
  0.000000000000000E+000
  0.000000000000000E+000
  0.000000000000000E+000
  0.000000000000000E+000
  0.000000000000000E+000
  0.000000000000000E+000
  0.000000000000000E+000
  0.000000000000000E+000
  0.000000000000000E+000
  0.000000000000000E+000
  0.000000000000000E+000
  0.000000000000000E+000
  0.000000000000000E+000
  0.000000000000000E+000
  0.000000000000000E+000
  0.000000000000000E+000
  0.000000000000000E+000
  0.000000000000000E+000
  0.000000000000000E+000
  0.000000000000000E+000
  0.000000000000000E+000
  0.000000000000000E+000
  0.000000000000000E+000
  0.000000000000000E+000
  0.000000000000000E+000
  0.000000000000000E+000
  0.000000000000000E+000
  0.000000000000000E+000
  0.000000000000000E+000
  0.000000000000000E+000
  0.000000000000000E+000
  0.000000000000000E+000
  0.000000000000000E+000
  0.000000000000000E+000
  0.000000000000000E+000
  0.000000000000000E+000
  0.000000000000000E+000
  0.000000000000000E+000
  0.000000000000000E+000
  0.000000000000000E+000
  0.000000000000000E+000
  0.000000000000000E+000
  0.000000000000000E+000
  0.000000000000000E+000
  0.000000000000000E+000
  0.000000000000000E+000
  0.000000000000000E+000
  0.000000000000000E+000
  0.000000000000000E+000
  0.000000000000000E+000
  0.000000000000000E+000
  0.000000000000000E+000
  0.000000000000000E+000
  0.000000000000000E+000
  0.000000000000000E+000
  0.000000000000000E+000
  0.000000000000000E+000
  0.000000000000000E+000
  0.000000000000000E+000
  0.000000000000000E+000
  0.000000000000000E+000
  0.000000000000000E+000
  0.000000000000000E+000
  0.000000000000000E+000
  0.000000000000000E+000
  0.000000000000000E+000
  0.000000000000000E+000
  0.000000000000000E+000
  0.000000000000000E+000
  0.000000000000000E+000
  0.000000000000000E+000
  0.000000000000000E+000
  0.000000000000000E+000
  0.000000000000000E+000
  0.000000000000000E+000
  0.000000000000000E+000
  0.000000000000000E+000
  0.000000000000000E+000
  0.000000000000000E+000
  0.000000000000000E+000
  0.000000000000000E+000
  0.000000000000000E+000
  0.000000000000000E+000
  0.000000000000000E+000
  0.000000000000000E+000
  0.000000000000000E+000
  0.000000000000000E+000
  0.000000000000000E+000
  0.000000000000000E+000
  0.000000000000000E+000
  0.000000000000000E+000
  0.000000000000000E+000
  0.000000000000000E+000
  0.000000000000000E+000
  0.000000000000000E+000
  0.000000000000000E+000
  0.000000000000000E+000
  0.000000000000000E+000
  0.000000000000000E+000
  0.000000000000000E+000
  0.000000000000000E+000
  0.000000000000000E+000
  0.000000000000000E+000
  0.000000000000000E+000
  0.000000000000000E+000
  0.000000000000000E+000
  0.000000000000000E+000
  0.000000000000000E+000
  0.000000000000000E+000
  0.000000000000000E+000
  0.000000000000000E+000
  0.000000000000000E+000
  0.000000000000000E+000
  0.000000000000000E+000
  0.000000000000000E+000
  0.000000000000000E+000
  0.000000000000000E+000
  0.000000000000000E+000
  0.000000000000000E+000
  0.000000000000000E+000
  0.000000000000000E+000
  0.000000000000000E+000
  0.000000000000000E+000
  0.000000000000000E+000
  0.000000000000000E+000
  0.000000000000000E+000
  0.000000000000000E+000
  0.000000000000000E+000
  0.000000000000000E+000
  0.000000000000000E+000
  0.000000000000000E+000
  0.000000000000000E+000
  0.000000000000000E+000
  0.000000000000000E+000
  0.000000000000000E+000
  0.000000000000000E+000
  0.000000000000000E+000
  0.000000000000000E+000
  0.000000000000000E+000
  0.000000000000000E+000
  0.000000000000000E+000
  0.000000000000000E+000
  0.000000000000000E+000
  0.000000000000000E+000
  0.000000000000000E+000
  0.000000000000000E+000
  0.000000000000000E+000
  0.000000000000000E+000
  0.000000000000000E+000
  0.000000000000000E+000
  0.000000000000000E+000
  0.000000000000000E+000
  0.000000000000000E+000
  0.000000000000000E+000
  0.000000000000000E+000
  0.000000000000000E+000
  0.000000000000000E+000
  0.000000000000000E+000
  0.000000000000000E+000
  0.000000000000000E+000
  0.000000000000000E+000
  0.000000000000000E+000
  0.000000000000000E+000
  0.000000000000000E+000
  0.000000000000000E+000
  0.000000000000000E+000
  0.000000000000000E+000
  0.000000000000000E+000
  0.000000000000000E+000
  0.000000000000000E+000
  0.000000000000000E+000
  0.000000000000000E+000
  0.000000000000000E+000
  0.000000000000000E+000
  0.000000000000000E+000
  0.000000000000000E+000
  0.000000000000000E+000
  0.000000000000000E+000
  0.000000000000000E+000
  0.000000000000000E+000
  0.000000000000000E+000
  0.000000000000000E+000
  0.000000000000000E+000
  0.000000000000000E+000
  0.000000000000000E+000
  0.000000000000000E+000
  0.000000000000000E+000
  0.000000000000000E+000
  0.000000000000000E+000
  0.000000000000000E+000
  0.000000000000000E+000
  0.000000000000000E+000
  0.000000000000000E+000
  0.000000000000000E+000
  0.000000000000000E+000
  0.000000000000000E+000
  0.000000000000000E+000
  0.000000000000000E+000
  0.000000000000000E+000
  0.000000000000000E+000
  0.000000000000000E+000
  0.000000000000000E+000
  0.000000000000000E+000
  0.000000000000000E+000
  0.000000000000000E+000
  0.000000000000000E+000
  0.000000000000000E+000
  0.000000000000000E+000
  0.000000000000000E+000
  0.000000000000000E+000
  0.000000000000000E+000
  0.000000000000000E+000
  0.000000000000000E+000
  0.000000000000000E+000
  0.000000000000000E+000
  0.000000000000000E+000
  0.000000000000000E+000
  0.000000000000000E+000
  0.000000000000000E+000
  0.000000000000000E+000
  0.000000000000000E+000
  0.000000000000000E+000
  0.000000000000000E+000
  0.000000000000000E+000
  0.000000000000000E+000
  0.000000000000000E+000
  0.000000000000000E+000
  0.000000000000000E+000
  0.000000000000000E+000
  0.000000000000000E+000
  0.000000000000000E+000
  0.000000000000000E+000
  0.000000000000000E+000
  0.000000000000000E+000
  0.000000000000000E+000
  0.000000000000000E+000
  0.000000000000000E+000
  0.000000000000000E+000
  0.000000000000000E+000
  0.000000000000000E+000
  0.000000000000000E+000
  0.000000000000000E+000
  0.000000000000000E+000
  0.000000000000000E+000
  0.000000000000000E+000
  0.000000000000000E+000
  0.000000000000000E+000
  0.000000000000000E+000
  0.000000000000000E+000
  0.000000000000000E+000
  0.000000000000000E+000
  0.000000000000000E+000
  0.000000000000000E+000
  0.000000000000000E+000
  0.000000000000000E+000
  0.000000000000000E+000
  0.000000000000000E+000
  0.000000000000000E+000
  0.000000000000000E+000
  0.000000000000000E+000
  0.000000000000000E+000
  0.000000000000000E+000
  0.000000000000000E+000
  0.000000000000000E+000
  0.000000000000000E+000
  0.000000000000000E+000
  0.000000000000000E+000
  0.000000000000000E+000
  0.000000000000000E+000
  0.000000000000000E+000
  0.000000000000000E+000
  0.000000000000000E+000
  0.000000000000000E+000
  0.000000000000000E+000
  0.000000000000000E+000
  0.000000000000000E+000
  0.000000000000000E+000
  0.000000000000000E+000
  0.000000000000000E+000
  0.000000000000000E+000
  0.000000000000000E+000
  0.000000000000000E+000
  0.000000000000000E+000
  0.000000000000000E+000
  0.000000000000000E+000
  0.000000000000000E+000
  0.000000000000000E+000
  0.000000000000000E+000
  0.000000000000000E+000
  0.000000000000000E+000
  0.000000000000000E+000
  0.000000000000000E+000
  0.000000000000000E+000
  0.000000000000000E+000
  0.000000000000000E+000
  0.000000000000000E+000
  0.000000000000000E+000
  0.000000000000000E+000
  0.000000000000000E+000
  0.000000000000000E+000
  0.000000000000000E+000
  0.000000000000000E+000
  0.000000000000000E+000
  0.000000000000000E+000
  0.000000000000000E+000
  0.000000000000000E+000
  0.000000000000000E+000
  0.000000000000000E+000
  0.000000000000000E+000
  0.000000000000000E+000
  0.000000000000000E+000
  0.000000000000000E+000
  0.000000000000000E+000
  0.000000000000000E+000
  0.000000000000000E+000
  0.000000000000000E+000
  0.000000000000000E+000
  0.000000000000000E+000
  0.000000000000000E+000
  0.000000000000000E+000
  0.000000000000000E+000
  0.000000000000000E+000
  0.000000000000000E+000
  0.000000000000000E+000
  0.000000000000000E+000
  0.000000000000000E+000
  0.000000000000000E+000
  0.000000000000000E+000
  0.000000000000000E+000
  0.000000000000000E+000
  0.000000000000000E+000
  0.000000000000000E+000
  0.000000000000000E+000
  0.000000000000000E+000
  0.000000000000000E+000
  0.000000000000000E+000
  0.000000000000000E+000
  0.000000000000000E+000
  0.000000000000000E+000
  0.000000000000000E+000
  0.000000000000000E+000
  0.000000000000000E+000
  0.000000000000000E+000
  0.000000000000000E+000
  0.000000000000000E+000
  0.000000000000000E+000
  0.000000000000000E+000
  0.000000000000000E+000
  0.000000000000000E+000
  0.000000000000000E+000
  0.000000000000000E+000
  0.000000000000000E+000
  0.000000000000000E+000
  0.000000000000000E+000
  0.000000000000000E+000
  0.000000000000000E+000
  0.000000000000000E+000
  0.000000000000000E+000
  0.000000000000000E+000
  0.000000000000000E+000
  0.000000000000000E+000
  0.000000000000000E+000
  0.000000000000000E+000
  0.000000000000000E+000
  0.000000000000000E+000
  0.000000000000000E+000
  0.000000000000000E+000
  0.000000000000000E+000
  0.000000000000000E+000
  0.000000000000000E+000
  0.000000000000000E+000
  0.000000000000000E+000
  0.000000000000000E+000
  0.000000000000000E+000
  0.000000000000000E+000
  0.000000000000000E+000
  0.000000000000000E+000
  0.000000000000000E+000
  0.000000000000000E+000
  0.000000000000000E+000
  0.000000000000000E+000
  0.000000000000000E+000
  0.000000000000000E+000
  0.000000000000000E+000
  0.000000000000000E+000
  0.000000000000000E+000
  0.000000000000000E+000
  0.000000000000000E+000
  0.000000000000000E+000
  0.000000000000000E+000
  0.000000000000000E+000
  0.000000000000000E+000
  0.000000000000000E+000
  0.000000000000000E+000
  0.000000000000000E+000
  0.000000000000000E+000
  0.000000000000000E+000
  0.000000000000000E+000
  0.000000000000000E+000
  0.000000000000000E+000
  0.000000000000000E+000
  0.000000000000000E+000
  0.000000000000000E+000
  0.000000000000000E+000
  0.000000000000000E+000
  0.000000000000000E+000
  0.000000000000000E+000
  0.000000000000000E+000
  0.000000000000000E+000
  0.000000000000000E+000
  0.000000000000000E+000
  0.000000000000000E+000
  0.000000000000000E+000
  0.000000000000000E+000
  0.000000000000000E+000
  0.000000000000000E+000
  0.000000000000000E+000
  0.000000000000000E+000
  0.000000000000000E+000
  0.000000000000000E+000
  0.000000000000000E+000
  0.000000000000000E+000
  0.000000000000000E+000
  0.000000000000000E+000
  0.000000000000000E+000
  0.000000000000000E+000
  0.000000000000000E+000
  0.000000000000000E+000
  0.000000000000000E+000
  0.000000000000000E+000
  0.000000000000000E+000
  0.000000000000000E+000
  0.000000000000000E+000
  0.000000000000000E+000
  0.000000000000000E+000
  0.000000000000000E+000
  0.000000000000000E+000
  0.000000000000000E+000
  0.000000000000000E+000
  0.000000000000000E+000
  0.000000000000000E+000
  0.000000000000000E+000
  0.000000000000000E+000
  0.000000000000000E+000
  0.000000000000000E+000
  0.000000000000000E+000
  0.000000000000000E+000
  0.000000000000000E+000
  0.000000000000000E+000
  0.000000000000000E+000
  0.000000000000000E+000
  0.000000000000000E+000
  0.000000000000000E+000
  0.000000000000000E+000
  0.000000000000000E+000
  0.000000000000000E+000
  0.000000000000000E+000
  0.000000000000000E+000
  0.000000000000000E+000
  0.000000000000000E+000
  0.000000000000000E+000
  0.000000000000000E+000
  0.000000000000000E+000
  0.000000000000000E+000
  0.000000000000000E+000
  0.000000000000000E+000
  0.000000000000000E+000
  0.000000000000000E+000
  0.000000000000000E+000
  0.000000000000000E+000
  0.000000000000000E+000
  0.000000000000000E+000
  0.000000000000000E+000
  0.000000000000000E+000
  0.000000000000000E+000
  0.000000000000000E+000
  0.000000000000000E+000
  0.000000000000000E+000
  0.000000000000000E+000
  0.000000000000000E+000
  0.000000000000000E+000
  0.000000000000000E+000
  0.000000000000000E+000
  0.000000000000000E+000
  0.000000000000000E+000
  0.000000000000000E+000
  0.000000000000000E+000
  0.000000000000000E+000
  0.000000000000000E+000
  0.000000000000000E+000
  0.000000000000000E+000
  0.000000000000000E+000
  0.000000000000000E+000
  0.000000000000000E+000
  0.000000000000000E+000
  0.000000000000000E+000
  0.000000000000000E+000
  0.000000000000000E+000
  0.000000000000000E+000
  0.000000000000000E+000
  0.000000000000000E+000
  0.000000000000000E+000
  0.000000000000000E+000
  0.000000000000000E+000
  0.000000000000000E+000
  0.000000000000000E+000
  0.000000000000000E+000
  0.000000000000000E+000
  0.000000000000000E+000
  0.000000000000000E+000
  0.000000000000000E+000
  0.000000000000000E+000
  0.000000000000000E+000
  0.000000000000000E+000
  0.000000000000000E+000
  0.000000000000000E+000
  0.000000000000000E+000
  0.000000000000000E+000
  0.000000000000000E+000
  0.000000000000000E+000
  0.000000000000000E+000
  0.000000000000000E+000
  0.000000000000000E+000
  0.000000000000000E+000
  0.000000000000000E+000
  0.000000000000000E+000
  0.000000000000000E+000
  0.000000000000000E+000
  0.000000000000000E+000
  0.000000000000000E+000
  0.000000000000000E+000
  0.000000000000000E+000
  0.000000000000000E+000
  0.000000000000000E+000
  0.000000000000000E+000
  0.000000000000000E+000
  0.000000000000000E+000
  0.000000000000000E+000
  0.000000000000000E+000
  0.000000000000000E+000
  0.000000000000000E+000
  0.000000000000000E+000
  0.000000000000000E+000
  0.000000000000000E+000
  0.000000000000000E+000
  0.000000000000000E+000
  0.000000000000000E+000
  0.000000000000000E+000
  0.000000000000000E+000
  0.000000000000000E+000
  0.000000000000000E+000
  0.000000000000000E+000
  0.000000000000000E+000
  0.000000000000000E+000
  0.000000000000000E+000
  0.000000000000000E+000
  0.000000000000000E+000
  0.000000000000000E+000
  0.000000000000000E+000
  0.000000000000000E+000
  0.000000000000000E+000
  0.000000000000000E+000
  0.000000000000000E+000
  0.000000000000000E+000
  0.000000000000000E+000
  0.000000000000000E+000
  0.000000000000000E+000
  0.000000000000000E+000
  0.000000000000000E+000
  0.000000000000000E+000
  0.000000000000000E+000
  0.000000000000000E+000
  0.000000000000000E+000
  0.000000000000000E+000
  0.000000000000000E+000
  0.000000000000000E+000
  0.000000000000000E+000
  0.000000000000000E+000
  0.000000000000000E+000
  0.000000000000000E+000
  0.000000000000000E+000
  0.000000000000000E+000
  0.000000000000000E+000
  0.000000000000000E+000
  0.000000000000000E+000
  0.000000000000000E+000
  0.000000000000000E+000
  0.000000000000000E+000
  0.000000000000000E+000
  0.000000000000000E+000
  0.000000000000000E+000
  0.000000000000000E+000
  0.000000000000000E+000
  0.000000000000000E+000
  0.000000000000000E+000
  0.000000000000000E+000
  0.000000000000000E+000
  0.000000000000000E+000
  0.000000000000000E+000
  0.000000000000000E+000
  0.000000000000000E+000
  0.000000000000000E+000
  0.000000000000000E+000
  0.000000000000000E+000
  0.000000000000000E+000
  0.000000000000000E+000
  0.000000000000000E+000
  0.000000000000000E+000
  0.000000000000000E+000
  0.000000000000000E+000
  0.000000000000000E+000
  0.000000000000000E+000
  0.000000000000000E+000
  0.000000000000000E+000
  0.000000000000000E+000
  0.000000000000000E+000
  0.000000000000000E+000
  0.000000000000000E+000
  0.000000000000000E+000
  0.000000000000000E+000
  0.000000000000000E+000
  0.000000000000000E+000
  0.000000000000000E+000
  0.000000000000000E+000
  0.000000000000000E+000
  0.000000000000000E+000
  0.000000000000000E+000
  0.000000000000000E+000
  0.000000000000000E+000
  0.000000000000000E+000
  0.000000000000000E+000
  0.000000000000000E+000
  0.000000000000000E+000
  0.000000000000000E+000
  0.000000000000000E+000
  0.000000000000000E+000
  0.000000000000000E+000
  0.000000000000000E+000
  0.000000000000000E+000
  0.000000000000000E+000
  0.000000000000000E+000
  0.000000000000000E+000
  0.000000000000000E+000
  0.000000000000000E+000
  0.000000000000000E+000
  0.000000000000000E+000
  0.000000000000000E+000
  0.000000000000000E+000
  0.000000000000000E+000
  0.000000000000000E+000
  0.000000000000000E+000
  0.000000000000000E+000
  0.000000000000000E+000
  0.000000000000000E+000
  0.000000000000000E+000
  0.000000000000000E+000
  0.000000000000000E+000
  0.000000000000000E+000
  0.000000000000000E+000
  0.000000000000000E+000
  0.000000000000000E+000
  0.000000000000000E+000
  0.000000000000000E+000
  0.000000000000000E+000
  0.000000000000000E+000
  0.000000000000000E+000
  0.000000000000000E+000
  0.000000000000000E+000
  0.000000000000000E+000
  0.000000000000000E+000
  0.000000000000000E+000
  0.000000000000000E+000
  0.000000000000000E+000
  0.000000000000000E+000
  0.000000000000000E+000
  0.000000000000000E+000
  0.000000000000000E+000
  0.000000000000000E+000
  0.000000000000000E+000
  0.000000000000000E+000
  0.000000000000000E+000
  0.000000000000000E+000
  0.000000000000000E+000
  0.000000000000000E+000
  0.000000000000000E+000
  0.000000000000000E+000
  0.000000000000000E+000
  0.000000000000000E+000
  0.000000000000000E+000
  0.000000000000000E+000
  0.000000000000000E+000
  0.000000000000000E+000
  0.000000000000000E+000
  0.000000000000000E+000
  0.000000000000000E+000
  0.000000000000000E+000
  0.000000000000000E+000
  0.000000000000000E+000
  0.000000000000000E+000
  0.000000000000000E+000
  0.000000000000000E+000
  0.000000000000000E+000
  0.000000000000000E+000
  0.000000000000000E+000
  0.000000000000000E+000
  0.000000000000000E+000
  0.000000000000000E+000
  0.000000000000000E+000
  0.000000000000000E+000
  0.000000000000000E+000
  0.000000000000000E+000
  0.000000000000000E+000
  0.000000000000000E+000
  0.000000000000000E+000
  0.000000000000000E+000
  0.000000000000000E+000
  0.000000000000000E+000
  0.000000000000000E+000
  0.000000000000000E+000
  0.000000000000000E+000
  0.000000000000000E+000
  0.000000000000000E+000
  0.000000000000000E+000
  0.000000000000000E+000
  0.000000000000000E+000
  0.000000000000000E+000
  0.000000000000000E+000
  0.000000000000000E+000
  0.000000000000000E+000
  0.000000000000000E+000
  0.000000000000000E+000
  0.000000000000000E+000
  0.000000000000000E+000
  0.000000000000000E+000
  0.000000000000000E+000
  0.000000000000000E+000
  0.000000000000000E+000
  0.000000000000000E+000
  0.000000000000000E+000
  0.000000000000000E+000
  0.000000000000000E+000
  0.000000000000000E+000
  0.000000000000000E+000
  0.000000000000000E+000
  0.000000000000000E+000
  0.000000000000000E+000
  0.000000000000000E+000
  0.000000000000000E+000
  0.000000000000000E+000
  0.000000000000000E+000
  0.000000000000000E+000
  0.000000000000000E+000
  0.000000000000000E+000
  0.000000000000000E+000
  0.000000000000000E+000
  0.000000000000000E+000
  0.000000000000000E+000
  0.000000000000000E+000
  0.000000000000000E+000
  0.000000000000000E+000
  0.000000000000000E+000
  0.000000000000000E+000
  0.000000000000000E+000
  0.000000000000000E+000
  0.000000000000000E+000
  0.000000000000000E+000
  0.000000000000000E+000
  0.000000000000000E+000
  0.000000000000000E+000
  0.000000000000000E+000
  0.000000000000000E+000
  0.000000000000000E+000
  0.000000000000000E+000
  0.000000000000000E+000
  0.000000000000000E+000
  0.000000000000000E+000
  0.000000000000000E+000
  0.000000000000000E+000
  0.000000000000000E+000
  0.000000000000000E+000
  0.000000000000000E+000
  0.000000000000000E+000
  0.000000000000000E+000
  0.000000000000000E+000
  0.000000000000000E+000
  0.000000000000000E+000
  0.000000000000000E+000
  0.000000000000000E+000
  0.000000000000000E+000
  0.000000000000000E+000
  0.000000000000000E+000
  0.000000000000000E+000
  0.000000000000000E+000
  0.000000000000000E+000
  0.000000000000000E+000
  0.000000000000000E+000
  0.000000000000000E+000
  0.000000000000000E+000
  0.000000000000000E+000
  0.000000000000000E+000
  0.000000000000000E+000
  0.000000000000000E+000
  0.000000000000000E+000
  0.000000000000000E+000
  0.000000000000000E+000
  0.000000000000000E+000
  0.000000000000000E+000
  0.000000000000000E+000
  0.000000000000000E+000
  0.000000000000000E+000
  0.000000000000000E+000
  0.000000000000000E+000
  0.000000000000000E+000
  0.000000000000000E+000
  0.000000000000000E+000
  0.000000000000000E+000
  0.000000000000000E+000
  0.000000000000000E+000
  0.000000000000000E+000
  0.000000000000000E+000
  0.000000000000000E+000
  0.000000000000000E+000
  0.000000000000000E+000
  0.000000000000000E+000
  0.000000000000000E+000
  0.000000000000000E+000
  0.000000000000000E+000
  0.000000000000000E+000
  0.000000000000000E+000
  0.000000000000000E+000
  0.000000000000000E+000
  0.000000000000000E+000
  0.000000000000000E+000
  0.000000000000000E+000
  0.000000000000000E+000
  0.000000000000000E+000
  0.000000000000000E+000
  0.000000000000000E+000
  0.000000000000000E+000
  0.000000000000000E+000
  0.000000000000000E+000
  0.000000000000000E+000
  0.000000000000000E+000
  0.000000000000000E+000
  0.000000000000000E+000
  0.000000000000000E+000
  0.000000000000000E+000
  0.000000000000000E+000
  0.000000000000000E+000
  0.000000000000000E+000
  0.000000000000000E+000
  0.000000000000000E+000
  0.000000000000000E+000
  0.000000000000000E+000
  0.000000000000000E+000
  0.000000000000000E+000
  0.000000000000000E+000
  0.000000000000000E+000
  0.000000000000000E+000
  0.000000000000000E+000
  0.000000000000000E+000
  0.000000000000000E+000
  0.000000000000000E+000
  0.000000000000000E+000
  0.000000000000000E+000
  0.000000000000000E+000
  0.000000000000000E+000
  0.000000000000000E+000
  0.000000000000000E+000
  0.000000000000000E+000
  0.000000000000000E+000
  0.000000000000000E+000
  0.000000000000000E+000
  0.000000000000000E+000
  0.000000000000000E+000
  0.000000000000000E+000
  0.000000000000000E+000
  0.000000000000000E+000
  0.000000000000000E+000
  0.000000000000000E+000
  0.000000000000000E+000
  0.000000000000000E+000
  0.000000000000000E+000
  0.000000000000000E+000
  0.000000000000000E+000
  0.000000000000000E+000
  0.000000000000000E+000
  0.000000000000000E+000
  0.000000000000000E+000
  0.000000000000000E+000
  0.000000000000000E+000
  0.000000000000000E+000
  0.000000000000000E+000
  0.000000000000000E+000
  0.000000000000000E+000
  0.000000000000000E+000
  0.000000000000000E+000
  0.000000000000000E+000
  0.000000000000000E+000
  0.000000000000000E+000
  0.000000000000000E+000
  0.000000000000000E+000
  0.000000000000000E+000
  0.000000000000000E+000
  0.000000000000000E+000
  0.000000000000000E+000
  0.000000000000000E+000
  0.000000000000000E+000
  0.000000000000000E+000
  0.000000000000000E+000
  0.000000000000000E+000
  0.000000000000000E+000
  0.000000000000000E+000
  0.000000000000000E+000
  0.000000000000000E+000
  0.000000000000000E+000
  0.000000000000000E+000
  0.000000000000000E+000
  0.000000000000000E+000
  0.000000000000000E+000
  0.000000000000000E+000
  0.000000000000000E+000
  0.000000000000000E+000
  0.000000000000000E+000
  0.000000000000000E+000
  0.000000000000000E+000
  0.000000000000000E+000
  0.000000000000000E+000
  0.000000000000000E+000
  0.000000000000000E+000
  0.000000000000000E+000
  0.000000000000000E+000
  0.000000000000000E+000
  0.000000000000000E+000
  0.000000000000000E+000
  0.000000000000000E+000
  0.000000000000000E+000
  0.000000000000000E+000
  0.000000000000000E+000
  0.000000000000000E+000
  0.000000000000000E+000
  0.000000000000000E+000
  0.000000000000000E+000
  0.000000000000000E+000
  0.000000000000000E+000
  0.000000000000000E+000
  0.000000000000000E+000
  0.000000000000000E+000
  0.000000000000000E+000
  0.000000000000000E+000
  0.000000000000000E+000
  0.000000000000000E+000
  0.000000000000000E+000
  0.000000000000000E+000
  0.000000000000000E+000
  0.000000000000000E+000
  0.000000000000000E+000
  0.000000000000000E+000
  0.000000000000000E+000
  0.000000000000000E+000
  0.000000000000000E+000
  0.000000000000000E+000
  0.000000000000000E+000
  0.000000000000000E+000
  0.000000000000000E+000
  0.000000000000000E+000
  0.000000000000000E+000
  0.000000000000000E+000
  0.000000000000000E+000
  0.000000000000000E+000
  0.000000000000000E+000
  0.000000000000000E+000
  0.000000000000000E+000
  0.000000000000000E+000
  0.000000000000000E+000
  0.000000000000000E+000
  0.000000000000000E+000
  0.000000000000000E+000
  0.000000000000000E+000
  0.000000000000000E+000
  0.000000000000000E+000
  0.000000000000000E+000
  0.000000000000000E+000
  0.000000000000000E+000
  0.000000000000000E+000
  0.000000000000000E+000
  0.000000000000000E+000
  0.000000000000000E+000
  0.000000000000000E+000
  0.000000000000000E+000
  0.000000000000000E+000
  0.000000000000000E+000
  0.000000000000000E+000
  0.000000000000000E+000
  0.000000000000000E+000
  0.000000000000000E+000
  0.000000000000000E+000
  0.000000000000000E+000
  0.000000000000000E+000
  0.000000000000000E+000
  0.000000000000000E+000
  0.000000000000000E+000
  0.000000000000000E+000
  0.000000000000000E+000
  0.000000000000000E+000
  0.000000000000000E+000
  0.000000000000000E+000
  0.000000000000000E+000
  0.000000000000000E+000
  0.000000000000000E+000
  0.000000000000000E+000
  0.000000000000000E+000
  0.000000000000000E+000
  0.000000000000000E+000
  0.000000000000000E+000
  0.000000000000000E+000
  0.000000000000000E+000
  0.000000000000000E+000
  0.000000000000000E+000
  0.000000000000000E+000
  0.000000000000000E+000
  0.000000000000000E+000
  0.000000000000000E+000
  0.000000000000000E+000
  0.000000000000000E+000
  0.000000000000000E+000
  0.000000000000000E+000
  0.000000000000000E+000
  0.000000000000000E+000
  0.000000000000000E+000
  0.000000000000000E+000
  0.000000000000000E+000
  0.000000000000000E+000
  0.000000000000000E+000
  0.000000000000000E+000
  0.000000000000000E+000
  0.000000000000000E+000
  0.000000000000000E+000
  0.000000000000000E+000
  0.000000000000000E+000
  0.000000000000000E+000
  0.000000000000000E+000
  0.000000000000000E+000
  0.000000000000000E+000
  0.000000000000000E+000
  0.000000000000000E+000
  0.000000000000000E+000
  0.000000000000000E+000
  0.000000000000000E+000
  0.000000000000000E+000
  0.000000000000000E+000
  0.000000000000000E+000
  0.000000000000000E+000
  0.000000000000000E+000
  0.000000000000000E+000
  0.000000000000000E+000
  0.000000000000000E+000
  0.000000000000000E+000
  0.000000000000000E+000
  0.000000000000000E+000
  0.000000000000000E+000
  0.000000000000000E+000
  0.000000000000000E+000
  0.000000000000000E+000
  0.000000000000000E+000
  0.000000000000000E+000
  0.000000000000000E+000
  0.000000000000000E+000
  0.000000000000000E+000
  0.000000000000000E+000
  0.000000000000000E+000
  0.000000000000000E+000
  0.000000000000000E+000
  0.000000000000000E+000
  0.000000000000000E+000
  0.000000000000000E+000
  0.000000000000000E+000
  0.000000000000000E+000
  0.000000000000000E+000
  0.000000000000000E+000
  0.000000000000000E+000
  0.000000000000000E+000
  0.000000000000000E+000
  0.000000000000000E+000
  0.000000000000000E+000
  0.000000000000000E+000
  0.000000000000000E+000
  0.000000000000000E+000
  0.000000000000000E+000
  0.000000000000000E+000
  0.000000000000000E+000
  0.000000000000000E+000
  0.000000000000000E+000
  0.000000000000000E+000
  0.000000000000000E+000
  0.000000000000000E+000
  0.000000000000000E+000
  0.000000000000000E+000
  0.000000000000000E+000
  0.000000000000000E+000
  0.000000000000000E+000
  0.000000000000000E+000
  0.000000000000000E+000
  0.000000000000000E+000
  0.000000000000000E+000
  0.000000000000000E+000
  0.000000000000000E+000
  0.000000000000000E+000
  0.000000000000000E+000
  0.000000000000000E+000
  0.000000000000000E+000
  0.000000000000000E+000
  0.000000000000000E+000
  0.000000000000000E+000
  0.000000000000000E+000
  0.000000000000000E+000
  0.000000000000000E+000
  0.000000000000000E+000
  0.000000000000000E+000
  0.000000000000000E+000
  0.000000000000000E+000
  0.000000000000000E+000
  0.000000000000000E+000
  0.000000000000000E+000
  0.000000000000000E+000
  0.000000000000000E+000
  0.000000000000000E+000
  0.000000000000000E+000
  0.000000000000000E+000
  0.000000000000000E+000
  0.000000000000000E+000
  0.000000000000000E+000
  0.000000000000000E+000
  0.000000000000000E+000
  0.000000000000000E+000
  0.000000000000000E+000
  0.000000000000000E+000
  0.000000000000000E+000
  0.000000000000000E+000
  0.000000000000000E+000
  0.000000000000000E+000
  0.000000000000000E+000
  0.000000000000000E+000
  0.000000000000000E+000
  0.000000000000000E+000
  0.000000000000000E+000
  0.000000000000000E+000
  0.000000000000000E+000
  0.000000000000000E+000
  0.000000000000000E+000
  0.000000000000000E+000
  0.000000000000000E+000
  0.000000000000000E+000
  0.000000000000000E+000
  0.000000000000000E+000
  0.000000000000000E+000
  0.000000000000000E+000
  0.000000000000000E+000
  0.000000000000000E+000
  0.000000000000000E+000
  0.000000000000000E+000
  0.000000000000000E+000
  0.000000000000000E+000
  0.000000000000000E+000
  0.000000000000000E+000
  0.000000000000000E+000
  0.000000000000000E+000
  0.000000000000000E+000
  0.000000000000000E+000
  0.000000000000000E+000
  0.000000000000000E+000
  0.000000000000000E+000
  0.000000000000000E+000
  0.000000000000000E+000
  0.000000000000000E+000
  0.000000000000000E+000
  0.000000000000000E+000
  0.000000000000000E+000
  0.000000000000000E+000
  0.000000000000000E+000
  0.000000000000000E+000
  0.000000000000000E+000
  0.000000000000000E+000
  0.000000000000000E+000
  0.000000000000000E+000
  0.000000000000000E+000
  0.000000000000000E+000
  0.000000000000000E+000
  0.000000000000000E+000
  0.000000000000000E+000
  0.000000000000000E+000
  0.000000000000000E+000
  0.000000000000000E+000
  0.000000000000000E+000
  0.000000000000000E+000
  0.000000000000000E+000
  0.000000000000000E+000
  0.000000000000000E+000
  0.000000000000000E+000
  0.000000000000000E+000
  0.000000000000000E+000
  0.000000000000000E+000
  0.000000000000000E+000
  0.000000000000000E+000
  0.000000000000000E+000
  0.000000000000000E+000
  0.000000000000000E+000
  0.000000000000000E+000
  0.000000000000000E+000
  0.000000000000000E+000
  0.000000000000000E+000
  0.000000000000000E+000
  0.000000000000000E+000
  0.000000000000000E+000
  0.000000000000000E+000
  0.000000000000000E+000
  0.000000000000000E+000
  0.000000000000000E+000
  0.000000000000000E+000
  0.000000000000000E+000
  0.000000000000000E+000
  0.000000000000000E+000
  0.000000000000000E+000
  0.000000000000000E+000
  0.000000000000000E+000
  0.000000000000000E+000
  0.000000000000000E+000
  0.000000000000000E+000
  0.000000000000000E+000
  0.000000000000000E+000
  0.000000000000000E+000
  0.000000000000000E+000
  0.000000000000000E+000
  0.000000000000000E+000
  0.000000000000000E+000
  0.000000000000000E+000
  0.000000000000000E+000
  0.000000000000000E+000
  0.000000000000000E+000
  0.000000000000000E+000
  0.000000000000000E+000
  0.000000000000000E+000
  0.000000000000000E+000
  0.000000000000000E+000
  0.000000000000000E+000
  0.000000000000000E+000
  0.000000000000000E+000
  0.000000000000000E+000
  0.000000000000000E+000
  0.000000000000000E+000
  0.000000000000000E+000
  0.000000000000000E+000
  0.000000000000000E+000
  0.000000000000000E+000
  0.000000000000000E+000
  0.000000000000000E+000
  0.000000000000000E+000
  0.000000000000000E+000
  0.000000000000000E+000
  0.000000000000000E+000
  0.000000000000000E+000
  0.000000000000000E+000
  0.000000000000000E+000
  0.000000000000000E+000
  0.000000000000000E+000
  0.000000000000000E+000
  0.000000000000000E+000
  0.000000000000000E+000
  0.000000000000000E+000
  0.000000000000000E+000
  0.000000000000000E+000
  0.000000000000000E+000
  0.000000000000000E+000
  0.000000000000000E+000
  0.000000000000000E+000
  0.000000000000000E+000
  0.000000000000000E+000
  0.000000000000000E+000
  0.000000000000000E+000
  0.000000000000000E+000
  0.000000000000000E+000
  0.000000000000000E+000
  0.000000000000000E+000
  0.000000000000000E+000
  0.000000000000000E+000
  0.000000000000000E+000
  0.000000000000000E+000
  0.000000000000000E+000
  0.000000000000000E+000
  0.000000000000000E+000
  0.000000000000000E+000
  0.000000000000000E+000
  0.000000000000000E+000
  0.000000000000000E+000
  0.000000000000000E+000
  0.000000000000000E+000
  0.000000000000000E+000
  0.000000000000000E+000
  0.000000000000000E+000
  0.000000000000000E+000
  0.000000000000000E+000
  0.000000000000000E+000
  0.000000000000000E+000
  0.000000000000000E+000
  0.000000000000000E+000
  0.000000000000000E+000
  0.000000000000000E+000
  0.000000000000000E+000
  0.000000000000000E+000
  0.000000000000000E+000
  0.000000000000000E+000
  0.000000000000000E+000
  0.000000000000000E+000
  0.000000000000000E+000
  0.000000000000000E+000
  0.000000000000000E+000
  0.000000000000000E+000
  0.000000000000000E+000
  0.000000000000000E+000
  0.000000000000000E+000
  0.000000000000000E+000
  0.000000000000000E+000
  0.000000000000000E+000
  0.000000000000000E+000
  0.000000000000000E+000
  0.000000000000000E+000
  0.000000000000000E+000
  0.000000000000000E+000
  0.000000000000000E+000
  0.000000000000000E+000
  0.000000000000000E+000
  0.000000000000000E+000
  0.000000000000000E+000
  0.000000000000000E+000
  0.000000000000000E+000
  0.000000000000000E+000
  0.000000000000000E+000
  0.000000000000000E+000
  0.000000000000000E+000
  0.000000000000000E+000
  0.000000000000000E+000
  0.000000000000000E+000
  0.000000000000000E+000
  0.000000000000000E+000
  0.000000000000000E+000
  0.000000000000000E+000
  0.000000000000000E+000
  0.000000000000000E+000
  0.000000000000000E+000
  0.000000000000000E+000
  0.000000000000000E+000
  0.000000000000000E+000
  0.000000000000000E+000
  0.000000000000000E+000
  0.000000000000000E+000
  0.000000000000000E+000
  0.000000000000000E+000
  0.000000000000000E+000
  0.000000000000000E+000
  0.000000000000000E+000
  0.000000000000000E+000
  0.000000000000000E+000
  0.000000000000000E+000
  0.000000000000000E+000
  0.000000000000000E+000
  0.000000000000000E+000
  0.000000000000000E+000
  0.000000000000000E+000
  0.000000000000000E+000
  0.000000000000000E+000
  0.000000000000000E+000
  0.000000000000000E+000
  0.000000000000000E+000
  0.000000000000000E+000
  0.000000000000000E+000
  0.000000000000000E+000
  0.000000000000000E+000
  0.000000000000000E+000
  0.000000000000000E+000
  0.000000000000000E+000
  0.000000000000000E+000
  0.000000000000000E+000
  0.000000000000000E+000
  0.000000000000000E+000
  0.000000000000000E+000
  0.000000000000000E+000
  0.000000000000000E+000
  0.000000000000000E+000
  0.000000000000000E+000
  0.000000000000000E+000
  0.000000000000000E+000
  0.000000000000000E+000
  0.000000000000000E+000
  0.000000000000000E+000
  0.000000000000000E+000
  0.000000000000000E+000
  0.000000000000000E+000
  0.000000000000000E+000
  0.000000000000000E+000
  0.000000000000000E+000
  0.000000000000000E+000
  0.000000000000000E+000
  0.000000000000000E+000
  0.000000000000000E+000
  0.000000000000000E+000
  0.000000000000000E+000
  0.000000000000000E+000
  0.000000000000000E+000
  0.000000000000000E+000
  0.000000000000000E+000
  0.000000000000000E+000
  0.000000000000000E+000
  0.000000000000000E+000
  0.000000000000000E+000
  0.000000000000000E+000
  0.000000000000000E+000
  0.000000000000000E+000
  0.000000000000000E+000
  0.000000000000000E+000
  0.000000000000000E+000
  0.000000000000000E+000
  0.000000000000000E+000
  0.000000000000000E+000
  0.000000000000000E+000
  0.000000000000000E+000
  0.000000000000000E+000
  0.000000000000000E+000
  0.000000000000000E+000
  0.000000000000000E+000
  0.000000000000000E+000
  0.000000000000000E+000
  0.000000000000000E+000
  0.000000000000000E+000
  0.000000000000000E+000
  0.000000000000000E+000
  0.000000000000000E+000
  0.000000000000000E+000
  0.000000000000000E+000
  0.000000000000000E+000
  0.000000000000000E+000
  0.000000000000000E+000
  0.000000000000000E+000
  0.000000000000000E+000
  0.000000000000000E+000
  0.000000000000000E+000
  0.000000000000000E+000
  0.000000000000000E+000
  0.000000000000000E+000
  0.000000000000000E+000
  0.000000000000000E+000
  0.000000000000000E+000
  0.000000000000000E+000
  0.000000000000000E+000
  0.000000000000000E+000
  0.000000000000000E+000
  0.000000000000000E+000
  0.000000000000000E+000
  0.000000000000000E+000
  0.000000000000000E+000
  0.000000000000000E+000
  0.000000000000000E+000
  0.000000000000000E+000
  0.000000000000000E+000
  0.000000000000000E+000
  0.000000000000000E+000
  0.000000000000000E+000
  0.000000000000000E+000
  0.000000000000000E+000
  0.000000000000000E+000
  0.000000000000000E+000
  0.000000000000000E+000
  0.000000000000000E+000
  0.000000000000000E+000
  0.000000000000000E+000
  0.000000000000000E+000
  0.000000000000000E+000
  0.000000000000000E+000
  0.000000000000000E+000
  0.000000000000000E+000
  0.000000000000000E+000
  0.000000000000000E+000
  0.000000000000000E+000
  0.000000000000000E+000
  0.000000000000000E+000
  0.000000000000000E+000
  0.000000000000000E+000
  0.000000000000000E+000
  0.000000000000000E+000
  0.000000000000000E+000
  0.000000000000000E+000
  0.000000000000000E+000
  0.000000000000000E+000
  0.000000000000000E+000
  0.000000000000000E+000
  0.000000000000000E+000
  0.000000000000000E+000
  0.000000000000000E+000
  0.000000000000000E+000
  0.000000000000000E+000
  0.000000000000000E+000
  0.000000000000000E+000
  0.000000000000000E+000
  0.000000000000000E+000
  0.000000000000000E+000
  0.000000000000000E+000
  0.000000000000000E+000
  0.000000000000000E+000
  0.000000000000000E+000
  0.000000000000000E+000
  0.000000000000000E+000
  0.000000000000000E+000
  0.000000000000000E+000
  0.000000000000000E+000
  0.000000000000000E+000
  0.000000000000000E+000
  0.000000000000000E+000
  0.000000000000000E+000
  0.000000000000000E+000
  0.000000000000000E+000
  0.000000000000000E+000
  0.000000000000000E+000
  0.000000000000000E+000
  0.000000000000000E+000
  0.000000000000000E+000
  0.000000000000000E+000
  0.000000000000000E+000
  0.000000000000000E+000
  0.000000000000000E+000
  0.000000000000000E+000
  0.000000000000000E+000
  0.000000000000000E+000
  0.000000000000000E+000
  0.000000000000000E+000
  0.000000000000000E+000
  0.000000000000000E+000
  0.000000000000000E+000
  0.000000000000000E+000
  0.000000000000000E+000
  0.000000000000000E+000
  0.000000000000000E+000
  0.000000000000000E+000
  0.000000000000000E+000
  0.000000000000000E+000
  0.000000000000000E+000
  0.000000000000000E+000
  0.000000000000000E+000
  0.000000000000000E+000
  0.000000000000000E+000
  0.000000000000000E+000
  0.000000000000000E+000
  0.000000000000000E+000
  0.000000000000000E+000
  0.000000000000000E+000
  0.000000000000000E+000
  0.000000000000000E+000
  0.000000000000000E+000
  0.000000000000000E+000
  0.000000000000000E+000
  0.000000000000000E+000
  0.000000000000000E+000
  0.000000000000000E+000
  0.000000000000000E+000
  0.000000000000000E+000
  0.000000000000000E+000
  0.000000000000000E+000
  0.000000000000000E+000
  0.000000000000000E+000
  0.000000000000000E+000
  0.000000000000000E+000
  0.000000000000000E+000
  0.000000000000000E+000
  0.000000000000000E+000
  0.000000000000000E+000
  0.000000000000000E+000
  0.000000000000000E+000
  0.000000000000000E+000
  0.000000000000000E+000
  0.000000000000000E+000
  0.000000000000000E+000
  0.000000000000000E+000
  0.000000000000000E+000
  0.000000000000000E+000
  0.000000000000000E+000
  0.000000000000000E+000
  0.000000000000000E+000
  0.000000000000000E+000
  0.000000000000000E+000
  0.000000000000000E+000
  0.000000000000000E+000
  0.000000000000000E+000
  0.000000000000000E+000
  0.000000000000000E+000
  0.000000000000000E+000
  0.000000000000000E+000
  0.000000000000000E+000
  0.000000000000000E+000
  0.000000000000000E+000
  0.000000000000000E+000
  0.000000000000000E+000
  0.000000000000000E+000
  0.000000000000000E+000
  0.000000000000000E+000
  0.000000000000000E+000
  0.000000000000000E+000
  0.000000000000000E+000
  0.000000000000000E+000
  0.000000000000000E+000
  0.000000000000000E+000
  0.000000000000000E+000
  0.000000000000000E+000
  0.000000000000000E+000
  0.000000000000000E+000
  0.000000000000000E+000
  0.000000000000000E+000
  0.000000000000000E+000
  0.000000000000000E+000
  0.000000000000000E+000
  0.000000000000000E+000
  0.000000000000000E+000
  0.000000000000000E+000
  0.000000000000000E+000
  0.000000000000000E+000
  0.000000000000000E+000
  0.000000000000000E+000
  0.000000000000000E+000
  0.000000000000000E+000
  0.000000000000000E+000
  0.000000000000000E+000
  0.000000000000000E+000
  0.000000000000000E+000
  0.000000000000000E+000
  0.000000000000000E+000
  0.000000000000000E+000
  0.000000000000000E+000
  0.000000000000000E+000
  0.000000000000000E+000
  0.000000000000000E+000
  0.000000000000000E+000
  0.000000000000000E+000
  0.000000000000000E+000
  0.000000000000000E+000
  0.000000000000000E+000
  0.000000000000000E+000
  0.000000000000000E+000
  0.000000000000000E+000
  0.000000000000000E+000
  0.000000000000000E+000
  0.000000000000000E+000
  0.000000000000000E+000
  0.000000000000000E+000
  0.000000000000000E+000
  0.000000000000000E+000
  0.000000000000000E+000
  0.000000000000000E+000
  0.000000000000000E+000
  0.000000000000000E+000
  0.000000000000000E+000
  0.000000000000000E+000
  0.000000000000000E+000
  0.000000000000000E+000
  0.000000000000000E+000
  0.000000000000000E+000
  0.000000000000000E+000
  0.000000000000000E+000
  0.000000000000000E+000
  0.000000000000000E+000
  0.000000000000000E+000
  0.000000000000000E+000
  0.000000000000000E+000
  0.000000000000000E+000
  0.000000000000000E+000
  0.000000000000000E+000
  0.000000000000000E+000
  0.000000000000000E+000
  0.000000000000000E+000
  0.000000000000000E+000
  0.000000000000000E+000
  0.000000000000000E+000
  0.000000000000000E+000
  0.000000000000000E+000
  0.000000000000000E+000
  0.000000000000000E+000
  0.000000000000000E+000
  0.000000000000000E+000
  0.000000000000000E+000
  0.000000000000000E+000
  0.000000000000000E+000
  0.000000000000000E+000
  0.000000000000000E+000
  0.000000000000000E+000
  0.000000000000000E+000
  0.000000000000000E+000
  0.000000000000000E+000
  0.000000000000000E+000
  0.000000000000000E+000
  0.000000000000000E+000
  0.000000000000000E+000
  0.000000000000000E+000
  0.000000000000000E+000
  0.000000000000000E+000
  0.000000000000000E+000
  0.000000000000000E+000
  0.000000000000000E+000
  0.000000000000000E+000
  0.000000000000000E+000
  0.000000000000000E+000
  0.000000000000000E+000
  0.000000000000000E+000
  0.000000000000000E+000
  0.000000000000000E+000
  0.000000000000000E+000
  0.000000000000000E+000
  0.000000000000000E+000
  0.000000000000000E+000
  0.000000000000000E+000
  0.000000000000000E+000
  0.000000000000000E+000
  0.000000000000000E+000
  0.000000000000000E+000
  0.000000000000000E+000
  0.000000000000000E+000
  0.000000000000000E+000
  0.000000000000000E+000
  0.000000000000000E+000
  0.000000000000000E+000
  0.000000000000000E+000
  0.000000000000000E+000
  0.000000000000000E+000
  0.000000000000000E+000
  0.000000000000000E+000
  0.000000000000000E+000
  0.000000000000000E+000
  0.000000000000000E+000
  0.000000000000000E+000
  0.000000000000000E+000
  0.000000000000000E+000
  0.000000000000000E+000
  0.000000000000000E+000
  0.000000000000000E+000
  0.000000000000000E+000
  0.000000000000000E+000
  0.000000000000000E+000
  0.000000000000000E+000
  0.000000000000000E+000
  0.000000000000000E+000
  0.000000000000000E+000
  0.000000000000000E+000
  0.000000000000000E+000
  0.000000000000000E+000
  0.000000000000000E+000
  0.000000000000000E+000
  0.000000000000000E+000
  0.000000000000000E+000
  0.000000000000000E+000
  0.000000000000000E+000
  0.000000000000000E+000
  0.000000000000000E+000
  0.000000000000000E+000
  0.000000000000000E+000
  0.000000000000000E+000
  0.000000000000000E+000
  0.000000000000000E+000
  0.000000000000000E+000
  0.000000000000000E+000
  0.000000000000000E+000
  0.000000000000000E+000
  0.000000000000000E+000
  0.000000000000000E+000
  0.000000000000000E+000
  0.000000000000000E+000
  0.000000000000000E+000
  0.000000000000000E+000
  0.000000000000000E+000
  0.000000000000000E+000
  0.000000000000000E+000
  0.000000000000000E+000
  0.000000000000000E+000
  0.000000000000000E+000
  0.000000000000000E+000
  0.000000000000000E+000
  0.000000000000000E+000
  0.000000000000000E+000
  0.000000000000000E+000
  0.000000000000000E+000
  0.000000000000000E+000
  0.000000000000000E+000
  0.000000000000000E+000
  0.000000000000000E+000
  0.000000000000000E+000
  0.000000000000000E+000
  0.000000000000000E+000
  0.000000000000000E+000
  0.000000000000000E+000
  0.000000000000000E+000
  0.000000000000000E+000
  0.000000000000000E+000
  0.000000000000000E+000
  0.000000000000000E+000
  0.000000000000000E+000
  0.000000000000000E+000
  0.000000000000000E+000
  0.000000000000000E+000
  0.000000000000000E+000
  0.000000000000000E+000
  0.000000000000000E+000
  0.000000000000000E+000
  0.000000000000000E+000
  0.000000000000000E+000
  0.000000000000000E+000
  0.000000000000000E+000
  0.000000000000000E+000
  0.000000000000000E+000
  0.000000000000000E+000
  0.000000000000000E+000
  0.000000000000000E+000
  0.000000000000000E+000
  0.000000000000000E+000
  0.000000000000000E+000
  0.000000000000000E+000
  0.000000000000000E+000
  0.000000000000000E+000
  0.000000000000000E+000
  0.000000000000000E+000
  0.000000000000000E+000
  0.000000000000000E+000
  0.000000000000000E+000
  0.000000000000000E+000
  0.000000000000000E+000
  0.000000000000000E+000
  0.000000000000000E+000
  0.000000000000000E+000
  0.000000000000000E+000
  0.000000000000000E+000
  0.000000000000000E+000
  0.000000000000000E+000
  0.000000000000000E+000
  0.000000000000000E+000
  0.000000000000000E+000
  0.000000000000000E+000
  0.000000000000000E+000
  0.000000000000000E+000
  0.000000000000000E+000
  0.000000000000000E+000
  0.000000000000000E+000
  0.000000000000000E+000
  0.000000000000000E+000
  0.000000000000000E+000
  0.000000000000000E+000
  0.000000000000000E+000
  0.000000000000000E+000
  0.000000000000000E+000
  0.000000000000000E+000
  0.000000000000000E+000
  0.000000000000000E+000
  0.000000000000000E+000
  0.000000000000000E+000
  0.000000000000000E+000
  0.000000000000000E+000
  0.000000000000000E+000
  0.000000000000000E+000
  0.000000000000000E+000
  0.000000000000000E+000
  0.000000000000000E+000
  0.000000000000000E+000
  0.000000000000000E+000
  0.000000000000000E+000
  0.000000000000000E+000
  0.000000000000000E+000
  0.000000000000000E+000
  0.000000000000000E+000
  0.000000000000000E+000
  0.000000000000000E+000
  0.000000000000000E+000
  0.000000000000000E+000
  0.000000000000000E+000
  0.000000000000000E+000
  0.000000000000000E+000
  0.000000000000000E+000
  0.000000000000000E+000
  0.000000000000000E+000
  0.000000000000000E+000
  0.000000000000000E+000
  0.000000000000000E+000
  0.000000000000000E+000
  0.000000000000000E+000
  0.000000000000000E+000
  0.000000000000000E+000
  0.000000000000000E+000
  0.000000000000000E+000
  0.000000000000000E+000
  0.000000000000000E+000
  0.000000000000000E+000
  0.000000000000000E+000
  0.000000000000000E+000
  0.000000000000000E+000
  0.000000000000000E+000
  0.000000000000000E+000
  0.000000000000000E+000
  0.000000000000000E+000
  0.000000000000000E+000
  0.000000000000000E+000
  0.000000000000000E+000
  0.000000000000000E+000
  0.000000000000000E+000
  0.000000000000000E+000
  0.000000000000000E+000
  0.000000000000000E+000
  0.000000000000000E+000
  0.000000000000000E+000
  0.000000000000000E+000
  0.000000000000000E+000
  0.000000000000000E+000
  0.000000000000000E+000
  0.000000000000000E+000
  0.000000000000000E+000
  0.000000000000000E+000
  0.000000000000000E+000
  0.000000000000000E+000
  0.000000000000000E+000
  0.000000000000000E+000
  0.000000000000000E+000
  0.000000000000000E+000
  0.000000000000000E+000
  0.000000000000000E+000
  0.000000000000000E+000
  0.000000000000000E+000
  0.000000000000000E+000
  0.000000000000000E+000
  0.000000000000000E+000
  0.000000000000000E+000
  0.000000000000000E+000
  0.000000000000000E+000
  0.000000000000000E+000
  0.000000000000000E+000
  0.000000000000000E+000
  0.000000000000000E+000
  0.000000000000000E+000
  0.000000000000000E+000
  0.000000000000000E+000
  0.000000000000000E+000
  0.000000000000000E+000
  0.000000000000000E+000
  0.000000000000000E+000
  0.000000000000000E+000
  0.000000000000000E+000
  0.000000000000000E+000
  0.000000000000000E+000
  0.000000000000000E+000
  0.000000000000000E+000
  0.000000000000000E+000
  0.000000000000000E+000
  0.000000000000000E+000
  0.000000000000000E+000
  0.000000000000000E+000
  0.000000000000000E+000
  0.000000000000000E+000
  0.000000000000000E+000
  0.000000000000000E+000
  0.000000000000000E+000
  0.000000000000000E+000
  0.000000000000000E+000
  0.000000000000000E+000
  0.000000000000000E+000
  0.000000000000000E+000
  0.000000000000000E+000
  0.000000000000000E+000
  0.000000000000000E+000
  0.000000000000000E+000
  0.000000000000000E+000
  0.000000000000000E+000
  0.000000000000000E+000
  0.000000000000000E+000
  0.000000000000000E+000
  0.000000000000000E+000
  0.000000000000000E+000
  0.000000000000000E+000
  0.000000000000000E+000
  0.000000000000000E+000
  0.000000000000000E+000
  0.000000000000000E+000
  0.000000000000000E+000
  0.000000000000000E+000
  0.000000000000000E+000
  0.000000000000000E+000
  0.000000000000000E+000
  0.000000000000000E+000
  0.000000000000000E+000
  0.000000000000000E+000
  0.000000000000000E+000
  0.000000000000000E+000
  0.000000000000000E+000
  0.000000000000000E+000
  0.000000000000000E+000
  0.000000000000000E+000
  0.000000000000000E+000
  0.000000000000000E+000
  0.000000000000000E+000
  0.000000000000000E+000
  0.000000000000000E+000
  0.000000000000000E+000
  0.000000000000000E+000
  0.000000000000000E+000
  0.000000000000000E+000
  0.000000000000000E+000
  0.000000000000000E+000
  0.000000000000000E+000
  0.000000000000000E+000
  0.000000000000000E+000
  0.000000000000000E+000
  0.000000000000000E+000
  0.000000000000000E+000
  0.000000000000000E+000
  0.000000000000000E+000
  0.000000000000000E+000
  0.000000000000000E+000
  0.000000000000000E+000
  0.000000000000000E+000
  0.000000000000000E+000
  0.000000000000000E+000
  0.000000000000000E+000
  0.000000000000000E+000
  0.000000000000000E+000
  0.000000000000000E+000
  0.000000000000000E+000
  0.000000000000000E+000
  0.000000000000000E+000
  0.000000000000000E+000
  0.000000000000000E+000
  0.000000000000000E+000
  0.000000000000000E+000
  0.000000000000000E+000
  0.000000000000000E+000
  0.000000000000000E+000
  0.000000000000000E+000
  0.000000000000000E+000
  0.000000000000000E+000
  0.000000000000000E+000
  0.000000000000000E+000
  0.000000000000000E+000
  0.000000000000000E+000
  0.000000000000000E+000
  0.000000000000000E+000
  0.000000000000000E+000
  0.000000000000000E+000
  0.000000000000000E+000
  0.000000000000000E+000
  0.000000000000000E+000
  0.000000000000000E+000
  0.000000000000000E+000
  0.000000000000000E+000
  0.000000000000000E+000
  0.000000000000000E+000
  0.000000000000000E+000
  0.000000000000000E+000
  0.000000000000000E+000
  0.000000000000000E+000
  0.000000000000000E+000
  0.000000000000000E+000
  0.000000000000000E+000
  0.000000000000000E+000
  0.000000000000000E+000
  0.000000000000000E+000
  0.000000000000000E+000
  0.000000000000000E+000
  0.000000000000000E+000
  0.000000000000000E+000
  0.000000000000000E+000
  0.000000000000000E+000
  0.000000000000000E+000
  0.000000000000000E+000
  0.000000000000000E+000
  0.000000000000000E+000
  0.000000000000000E+000
  0.000000000000000E+000
  0.000000000000000E+000
  0.000000000000000E+000
  0.000000000000000E+000
  0.000000000000000E+000
  0.000000000000000E+000
  0.000000000000000E+000
  0.000000000000000E+000
  0.000000000000000E+000
  0.000000000000000E+000
  0.000000000000000E+000
  0.000000000000000E+000
  0.000000000000000E+000
  0.000000000000000E+000
  0.000000000000000E+000
  0.000000000000000E+000
  0.000000000000000E+000
  0.000000000000000E+000
  0.000000000000000E+000
  0.000000000000000E+000
  0.000000000000000E+000
  0.000000000000000E+000
  0.000000000000000E+000
  0.000000000000000E+000
  0.000000000000000E+000
  0.000000000000000E+000
  0.000000000000000E+000
  0.000000000000000E+000
  0.000000000000000E+000
  0.000000000000000E+000
  0.000000000000000E+000
  0.000000000000000E+000
  0.000000000000000E+000
  0.000000000000000E+000
  0.000000000000000E+000
  0.000000000000000E+000
  0.000000000000000E+000
  0.000000000000000E+000
  0.000000000000000E+000
  0.000000000000000E+000
  0.000000000000000E+000
  0.000000000000000E+000
  0.000000000000000E+000
  0.000000000000000E+000
  0.000000000000000E+000
  0.000000000000000E+000
  0.000000000000000E+000
  0.000000000000000E+000
  0.000000000000000E+000
  0.000000000000000E+000
  0.000000000000000E+000
  0.000000000000000E+000
  0.000000000000000E+000
  0.000000000000000E+000
  0.000000000000000E+000
  0.000000000000000E+000
  0.000000000000000E+000
  0.000000000000000E+000
  0.000000000000000E+000
  0.000000000000000E+000
  0.000000000000000E+000
  0.000000000000000E+000
  0.000000000000000E+000
  0.000000000000000E+000
  0.000000000000000E+000
  0.000000000000000E+000
  0.000000000000000E+000
  0.000000000000000E+000
  0.000000000000000E+000
  0.000000000000000E+000
  0.000000000000000E+000
  0.000000000000000E+000
  0.000000000000000E+000
  0.000000000000000E+000
  0.000000000000000E+000
  0.000000000000000E+000
  0.000000000000000E+000
  0.000000000000000E+000
  0.000000000000000E+000
  0.000000000000000E+000
  0.000000000000000E+000
  0.000000000000000E+000
  0.000000000000000E+000
  0.000000000000000E+000
  0.000000000000000E+000
  0.000000000000000E+000
  0.000000000000000E+000
  0.000000000000000E+000
  0.000000000000000E+000
  0.000000000000000E+000
  0.000000000000000E+000
  0.000000000000000E+000
  0.000000000000000E+000
  0.000000000000000E+000
  0.000000000000000E+000
  0.000000000000000E+000
  0.000000000000000E+000
  0.000000000000000E+000
  0.000000000000000E+000
  0.000000000000000E+000
  0.000000000000000E+000
  0.000000000000000E+000
  0.000000000000000E+000
  0.000000000000000E+000
  0.000000000000000E+000
  0.000000000000000E+000
  0.000000000000000E+000
  0.000000000000000E+000
  0.000000000000000E+000
  0.000000000000000E+000
  0.000000000000000E+000
  0.000000000000000E+000
  0.000000000000000E+000
  0.000000000000000E+000
  0.000000000000000E+000
  0.000000000000000E+000
  0.000000000000000E+000
  0.000000000000000E+000
  0.000000000000000E+000
  0.000000000000000E+000
  0.000000000000000E+000
  0.000000000000000E+000
  0.000000000000000E+000
  0.000000000000000E+000
  0.000000000000000E+000
  0.000000000000000E+000
  0.000000000000000E+000
  0.000000000000000E+000
  0.000000000000000E+000
  0.000000000000000E+000
  0.000000000000000E+000
  0.000000000000000E+000
  0.000000000000000E+000
  0.000000000000000E+000
  0.000000000000000E+000
  0.000000000000000E+000
  0.000000000000000E+000
  0.000000000000000E+000
  0.000000000000000E+000
  0.000000000000000E+000
  0.000000000000000E+000
  0.000000000000000E+000
  0.000000000000000E+000
  0.000000000000000E+000
  0.000000000000000E+000
  0.000000000000000E+000
  0.000000000000000E+000
  0.000000000000000E+000
  0.000000000000000E+000
  0.000000000000000E+000
  0.000000000000000E+000
  0.000000000000000E+000
  0.000000000000000E+000
  0.000000000000000E+000
  0.000000000000000E+000
  0.000000000000000E+000
  0.000000000000000E+000
  0.000000000000000E+000
  0.000000000000000E+000
  0.000000000000000E+000
  0.000000000000000E+000
  0.000000000000000E+000
  0.000000000000000E+000
  0.000000000000000E+000
  0.000000000000000E+000
  0.000000000000000E+000
  0.000000000000000E+000
  0.000000000000000E+000
  0.000000000000000E+000
  0.000000000000000E+000
  0.000000000000000E+000
  0.000000000000000E+000
  0.000000000000000E+000
  0.000000000000000E+000
  0.000000000000000E+000
  0.000000000000000E+000
  0.000000000000000E+000
  0.000000000000000E+000
  0.000000000000000E+000
  0.000000000000000E+000
  0.000000000000000E+000
  0.000000000000000E+000
  0.000000000000000E+000
  0.000000000000000E+000
  0.000000000000000E+000
  0.000000000000000E+000
  0.000000000000000E+000
  0.000000000000000E+000
  0.000000000000000E+000
  0.000000000000000E+000
  0.000000000000000E+000
  0.000000000000000E+000
  0.000000000000000E+000
  0.000000000000000E+000
  0.000000000000000E+000
  0.000000000000000E+000
  0.000000000000000E+000
  0.000000000000000E+000
  0.000000000000000E+000
  0.000000000000000E+000
  0.000000000000000E+000
  0.000000000000000E+000
  0.000000000000000E+000
  0.000000000000000E+000
  0.000000000000000E+000
  0.000000000000000E+000
  0.000000000000000E+000
  0.000000000000000E+000
  0.000000000000000E+000
  0.000000000000000E+000
  0.000000000000000E+000
  0.000000000000000E+000
  0.000000000000000E+000
  0.000000000000000E+000
  0.000000000000000E+000
  0.000000000000000E+000
  0.000000000000000E+000
  0.000000000000000E+000
  0.000000000000000E+000
  0.000000000000000E+000
  0.000000000000000E+000
  0.000000000000000E+000
  0.000000000000000E+000
  0.000000000000000E+000
  0.000000000000000E+000
  0.000000000000000E+000
  0.000000000000000E+000
  0.000000000000000E+000
  0.000000000000000E+000
  0.000000000000000E+000
  0.000000000000000E+000
  0.000000000000000E+000
  0.000000000000000E+000
  0.000000000000000E+000
  0.000000000000000E+000
  0.000000000000000E+000
  0.000000000000000E+000
  0.000000000000000E+000
  0.000000000000000E+000
  0.000000000000000E+000
  0.000000000000000E+000
  0.000000000000000E+000
  0.000000000000000E+000
  0.000000000000000E+000
  0.000000000000000E+000
  0.000000000000000E+000
  0.000000000000000E+000
  0.000000000000000E+000
  0.000000000000000E+000
  0.000000000000000E+000
  0.000000000000000E+000
  0.000000000000000E+000
  0.000000000000000E+000
  0.000000000000000E+000
  0.000000000000000E+000
  0.000000000000000E+000
  0.000000000000000E+000
  0.000000000000000E+000
  0.000000000000000E+000
  0.000000000000000E+000
  0.000000000000000E+000
  0.000000000000000E+000
  0.000000000000000E+000
  0.000000000000000E+000
  0.000000000000000E+000
  0.000000000000000E+000
  0.000000000000000E+000
  0.000000000000000E+000
  0.000000000000000E+000
  0.000000000000000E+000
  0.000000000000000E+000
  0.000000000000000E+000
  0.000000000000000E+000
  0.000000000000000E+000
  0.000000000000000E+000
  0.000000000000000E+000
  0.000000000000000E+000
  0.000000000000000E+000
  0.000000000000000E+000
  0.000000000000000E+000
  0.000000000000000E+000
  0.000000000000000E+000
  0.000000000000000E+000
  0.000000000000000E+000
  0.000000000000000E+000
  0.000000000000000E+000
  0.000000000000000E+000
  0.000000000000000E+000
  0.000000000000000E+000
  0.000000000000000E+000
  0.000000000000000E+000
  0.000000000000000E+000
  0.000000000000000E+000
  0.000000000000000E+000
  0.000000000000000E+000
  0.000000000000000E+000
  0.000000000000000E+000
  0.000000000000000E+000
  0.000000000000000E+000
  0.000000000000000E+000
  0.000000000000000E+000
  0.000000000000000E+000
  0.000000000000000E+000
  0.000000000000000E+000
  0.000000000000000E+000
  0.000000000000000E+000
  0.000000000000000E+000
  0.000000000000000E+000
  0.000000000000000E+000
  0.000000000000000E+000
  0.000000000000000E+000
  0.000000000000000E+000
  0.000000000000000E+000
  0.000000000000000E+000
  0.000000000000000E+000
  0.000000000000000E+000
  0.000000000000000E+000
  0.000000000000000E+000
  0.000000000000000E+000
  0.000000000000000E+000
  0.000000000000000E+000
  0.000000000000000E+000
  0.000000000000000E+000
  0.000000000000000E+000
  0.000000000000000E+000
  0.000000000000000E+000
  0.000000000000000E+000
  0.000000000000000E+000
  0.000000000000000E+000
  0.000000000000000E+000
  0.000000000000000E+000
  0.000000000000000E+000
  0.000000000000000E+000
  0.000000000000000E+000
  0.000000000000000E+000
  0.000000000000000E+000
  0.000000000000000E+000
  0.000000000000000E+000
  0.000000000000000E+000
  0.000000000000000E+000
  0.000000000000000E+000
  0.000000000000000E+000
  0.000000000000000E+000
  0.000000000000000E+000
  0.000000000000000E+000
  0.000000000000000E+000
  0.000000000000000E+000
  0.000000000000000E+000
  0.000000000000000E+000
  0.000000000000000E+000
  0.000000000000000E+000
  0.000000000000000E+000
  0.000000000000000E+000
  0.000000000000000E+000
  0.000000000000000E+000
  0.000000000000000E+000
  0.000000000000000E+000
  0.000000000000000E+000
  0.000000000000000E+000
  0.000000000000000E+000
  0.000000000000000E+000
  0.000000000000000E+000
  0.000000000000000E+000
  0.000000000000000E+000
  0.000000000000000E+000
  0.000000000000000E+000
  0.000000000000000E+000
  0.000000000000000E+000
  0.000000000000000E+000
  0.000000000000000E+000
  0.000000000000000E+000
  0.000000000000000E+000
  0.000000000000000E+000
  0.000000000000000E+000
  0.000000000000000E+000
  0.000000000000000E+000
  0.000000000000000E+000
  0.000000000000000E+000
  0.000000000000000E+000
  0.000000000000000E+000
  0.000000000000000E+000
  0.000000000000000E+000
  0.000000000000000E+000
  0.000000000000000E+000
  0.000000000000000E+000
  0.000000000000000E+000
  0.000000000000000E+000
  0.000000000000000E+000
  0.000000000000000E+000
  0.000000000000000E+000
  0.000000000000000E+000
  0.000000000000000E+000
  0.000000000000000E+000
  0.000000000000000E+000
  0.000000000000000E+000
  0.000000000000000E+000
  0.000000000000000E+000
  0.000000000000000E+000
  0.000000000000000E+000
  0.000000000000000E+000
  0.000000000000000E+000
  0.000000000000000E+000
  0.000000000000000E+000
  0.000000000000000E+000
  0.000000000000000E+000
  0.000000000000000E+000
  0.000000000000000E+000
  0.000000000000000E+000
  0.000000000000000E+000
  0.000000000000000E+000
  0.000000000000000E+000
  0.000000000000000E+000
  0.000000000000000E+000
  0.000000000000000E+000
  0.000000000000000E+000
  0.000000000000000E+000
  0.000000000000000E+000
  0.000000000000000E+000
  0.000000000000000E+000
  0.000000000000000E+000
  0.000000000000000E+000
  0.000000000000000E+000
  0.000000000000000E+000
  0.000000000000000E+000
  0.000000000000000E+000
  0.000000000000000E+000
  0.000000000000000E+000
  0.000000000000000E+000
  0.000000000000000E+000
  0.000000000000000E+000
  0.000000000000000E+000
  0.000000000000000E+000
  0.000000000000000E+000
  0.000000000000000E+000
  0.000000000000000E+000
  0.000000000000000E+000
  0.000000000000000E+000
  0.000000000000000E+000
  0.000000000000000E+000
  0.000000000000000E+000
  0.000000000000000E+000
  0.000000000000000E+000
  0.000000000000000E+000
  0.000000000000000E+000
  0.000000000000000E+000
  0.000000000000000E+000
  0.000000000000000E+000
  0.000000000000000E+000
  0.000000000000000E+000
  0.000000000000000E+000
  0.000000000000000E+000
  0.000000000000000E+000
  0.000000000000000E+000
  0.000000000000000E+000
  0.000000000000000E+000
  0.000000000000000E+000
  0.000000000000000E+000
  0.000000000000000E+000
  0.000000000000000E+000
  0.000000000000000E+000
  0.000000000000000E+000
  0.000000000000000E+000
  0.000000000000000E+000
  0.000000000000000E+000
  0.000000000000000E+000
  0.000000000000000E+000
  0.000000000000000E+000
  0.000000000000000E+000
  0.000000000000000E+000
  0.000000000000000E+000
  0.000000000000000E+000
  0.000000000000000E+000
  0.000000000000000E+000
  0.000000000000000E+000
  0.000000000000000E+000
  0.000000000000000E+000
  0.000000000000000E+000
  0.000000000000000E+000
  0.000000000000000E+000
  0.000000000000000E+000
  0.000000000000000E+000
  0.000000000000000E+000
  0.000000000000000E+000
  0.000000000000000E+000
  0.000000000000000E+000
  0.000000000000000E+000
  0.000000000000000E+000
  0.000000000000000E+000
  0.000000000000000E+000
  0.000000000000000E+000
  0.000000000000000E+000
  0.000000000000000E+000
  0.000000000000000E+000
  0.000000000000000E+000
  0.000000000000000E+000
  0.000000000000000E+000
  0.000000000000000E+000
  0.000000000000000E+000
  0.000000000000000E+000
  0.000000000000000E+000
  0.000000000000000E+000
  0.000000000000000E+000
  0.000000000000000E+000
  0.000000000000000E+000
  0.000000000000000E+000
  0.000000000000000E+000
  0.000000000000000E+000
  0.000000000000000E+000
  0.000000000000000E+000
  0.000000000000000E+000
  0.000000000000000E+000
  0.000000000000000E+000
  0.000000000000000E+000
  0.000000000000000E+000
  0.000000000000000E+000
  0.000000000000000E+000
  0.000000000000000E+000
  0.000000000000000E+000
  0.000000000000000E+000
  0.000000000000000E+000
  0.000000000000000E+000
  0.000000000000000E+000
  0.000000000000000E+000
  0.000000000000000E+000
  0.000000000000000E+000
  0.000000000000000E+000
  0.000000000000000E+000
  0.000000000000000E+000
  0.000000000000000E+000
  0.000000000000000E+000
  0.000000000000000E+000
  0.000000000000000E+000
  0.000000000000000E+000
  0.000000000000000E+000
  0.000000000000000E+000
  0.000000000000000E+000
  0.000000000000000E+000
  0.000000000000000E+000
  0.000000000000000E+000
  0.000000000000000E+000
  0.000000000000000E+000
  0.000000000000000E+000
  0.000000000000000E+000
  0.000000000000000E+000
  0.000000000000000E+000
  0.000000000000000E+000
  0.000000000000000E+000
  0.000000000000000E+000
  0.000000000000000E+000
  0.000000000000000E+000
  0.000000000000000E+000
  0.000000000000000E+000
  0.000000000000000E+000
  0.000000000000000E+000
  0.000000000000000E+000
  0.000000000000000E+000
  0.000000000000000E+000
  0.000000000000000E+000
  0.000000000000000E+000
  0.000000000000000E+000
  0.000000000000000E+000
  0.000000000000000E+000
  0.000000000000000E+000
  0.000000000000000E+000
  0.000000000000000E+000
  0.000000000000000E+000
  0.000000000000000E+000
  0.000000000000000E+000
  0.000000000000000E+000
  0.000000000000000E+000
  0.000000000000000E+000
  0.000000000000000E+000
  0.000000000000000E+000
  0.000000000000000E+000
  0.000000000000000E+000
  0.000000000000000E+000
  0.000000000000000E+000
  0.000000000000000E+000
  0.000000000000000E+000
  0.000000000000000E+000
  0.000000000000000E+000
  0.000000000000000E+000
  0.000000000000000E+000
  0.000000000000000E+000
  0.000000000000000E+000
  0.000000000000000E+000
  0.000000000000000E+000
  0.000000000000000E+000
  0.000000000000000E+000
  0.000000000000000E+000
  0.000000000000000E+000
  0.000000000000000E+000
  0.000000000000000E+000
  0.000000000000000E+000
  0.000000000000000E+000
  0.000000000000000E+000
  0.000000000000000E+000
  0.000000000000000E+000
  0.000000000000000E+000
  0.000000000000000E+000
  0.000000000000000E+000
  0.000000000000000E+000
  0.000000000000000E+000
  0.000000000000000E+000
  0.000000000000000E+000
  0.000000000000000E+000
  0.000000000000000E+000
  0.000000000000000E+000
  0.000000000000000E+000
  0.000000000000000E+000
  0.000000000000000E+000
  0.000000000000000E+000
  0.000000000000000E+000
  0.000000000000000E+000
  0.000000000000000E+000
  0.000000000000000E+000
  0.000000000000000E+000
  0.000000000000000E+000
  0.000000000000000E+000
  0.000000000000000E+000
  0.000000000000000E+000
  0.000000000000000E+000
  0.000000000000000E+000
  0.000000000000000E+000
  0.000000000000000E+000
  0.000000000000000E+000
  0.000000000000000E+000
  0.000000000000000E+000
  0.000000000000000E+000
  0.000000000000000E+000
  0.000000000000000E+000
  0.000000000000000E+000
  0.000000000000000E+000
  0.000000000000000E+000
  0.000000000000000E+000
  0.000000000000000E+000
  0.000000000000000E+000
  0.000000000000000E+000
  0.000000000000000E+000
  0.000000000000000E+000
  0.000000000000000E+000
  0.000000000000000E+000
  0.000000000000000E+000
  0.000000000000000E+000
  0.000000000000000E+000
  0.000000000000000E+000
  0.000000000000000E+000
  0.000000000000000E+000
  0.000000000000000E+000
  0.000000000000000E+000
  0.000000000000000E+000
  0.000000000000000E+000
  0.000000000000000E+000
  0.000000000000000E+000
  0.000000000000000E+000
  0.000000000000000E+000
  0.000000000000000E+000
  0.000000000000000E+000
  0.000000000000000E+000
  0.000000000000000E+000
  0.000000000000000E+000
  0.000000000000000E+000
  0.000000000000000E+000
  0.000000000000000E+000
  0.000000000000000E+000
  0.000000000000000E+000
  0.000000000000000E+000
  0.000000000000000E+000
  0.000000000000000E+000
  0.000000000000000E+000
  0.000000000000000E+000
  0.000000000000000E+000
  0.000000000000000E+000
  0.000000000000000E+000
  0.000000000000000E+000
  0.000000000000000E+000
  0.000000000000000E+000
  0.000000000000000E+000
  0.000000000000000E+000
  0.000000000000000E+000
  0.000000000000000E+000
  0.000000000000000E+000
  0.000000000000000E+000
  0.000000000000000E+000
  0.000000000000000E+000
  0.000000000000000E+000
  0.000000000000000E+000
  0.000000000000000E+000
  0.000000000000000E+000
  0.000000000000000E+000
  0.000000000000000E+000
  0.000000000000000E+000
  0.000000000000000E+000
  0.000000000000000E+000
  0.000000000000000E+000
  0.000000000000000E+000
  0.000000000000000E+000
  0.000000000000000E+000
  0.000000000000000E+000
  0.000000000000000E+000
  0.000000000000000E+000
  0.000000000000000E+000
  0.000000000000000E+000
  0.000000000000000E+000
  0.000000000000000E+000
  0.000000000000000E+000
  0.000000000000000E+000
  0.000000000000000E+000
  0.000000000000000E+000
  0.000000000000000E+000
  0.000000000000000E+000
  0.000000000000000E+000
  0.000000000000000E+000
  0.000000000000000E+000
  0.000000000000000E+000
  0.000000000000000E+000
  0.000000000000000E+000
  0.000000000000000E+000
  0.000000000000000E+000
  0.000000000000000E+000
  0.000000000000000E+000
  0.000000000000000E+000
  0.000000000000000E+000
  0.000000000000000E+000
  0.000000000000000E+000
  0.000000000000000E+000
  0.000000000000000E+000
  0.000000000000000E+000
  0.000000000000000E+000
  0.000000000000000E+000
  0.000000000000000E+000
  0.000000000000000E+000
  0.000000000000000E+000
  0.000000000000000E+000
  0.000000000000000E+000
  0.000000000000000E+000
  0.000000000000000E+000
  0.000000000000000E+000
  0.000000000000000E+000
  0.000000000000000E+000
  0.000000000000000E+000
  0.000000000000000E+000
  0.000000000000000E+000
  0.000000000000000E+000
  0.000000000000000E+000
  0.000000000000000E+000
  0.000000000000000E+000
  0.000000000000000E+000
  0.000000000000000E+000
  0.000000000000000E+000
  0.000000000000000E+000
  0.000000000000000E+000
  0.000000000000000E+000
  0.000000000000000E+000
  0.000000000000000E+000
  0.000000000000000E+000
  0.000000000000000E+000
  0.000000000000000E+000
  0.000000000000000E+000
  0.000000000000000E+000
  0.000000000000000E+000
  0.000000000000000E+000
  0.000000000000000E+000
  0.000000000000000E+000
  0.000000000000000E+000
  0.000000000000000E+000
  0.000000000000000E+000
  0.000000000000000E+000
  0.000000000000000E+000
  0.000000000000000E+000
  0.000000000000000E+000
  0.000000000000000E+000
  0.000000000000000E+000
  0.000000000000000E+000
  0.000000000000000E+000
  0.000000000000000E+000
  0.000000000000000E+000
  0.000000000000000E+000
  0.000000000000000E+000
  0.000000000000000E+000
  0.000000000000000E+000
  0.000000000000000E+000
  0.000000000000000E+000
  0.000000000000000E+000
  0.000000000000000E+000
  0.000000000000000E+000
  0.000000000000000E+000
  0.000000000000000E+000
  0.000000000000000E+000
  0.000000000000000E+000
  0.000000000000000E+000
  0.000000000000000E+000
  0.000000000000000E+000
  0.000000000000000E+000
  0.000000000000000E+000
  0.000000000000000E+000
  0.000000000000000E+000
  0.000000000000000E+000
  0.000000000000000E+000
  0.000000000000000E+000
  0.000000000000000E+000
  0.000000000000000E+000
  0.000000000000000E+000
  0.000000000000000E+000
  0.000000000000000E+000
  0.000000000000000E+000
  0.000000000000000E+000
  0.000000000000000E+000
  0.000000000000000E+000
  0.000000000000000E+000
  0.000000000000000E+000
  0.000000000000000E+000
  0.000000000000000E+000
  0.000000000000000E+000
  0.000000000000000E+000
  0.000000000000000E+000
  0.000000000000000E+000
  0.000000000000000E+000
  0.000000000000000E+000
  0.000000000000000E+000
  0.000000000000000E+000
  0.000000000000000E+000
  0.000000000000000E+000
  0.000000000000000E+000
  0.000000000000000E+000
  0.000000000000000E+000
  0.000000000000000E+000
  0.000000000000000E+000
  0.000000000000000E+000
  0.000000000000000E+000
  0.000000000000000E+000
  0.000000000000000E+000
  0.000000000000000E+000
  0.000000000000000E+000
  0.000000000000000E+000
  0.000000000000000E+000
  0.000000000000000E+000
  0.000000000000000E+000
  0.000000000000000E+000
  0.000000000000000E+000
  0.000000000000000E+000
  0.000000000000000E+000
  0.000000000000000E+000
  0.000000000000000E+000
  0.000000000000000E+000
  0.000000000000000E+000
  0.000000000000000E+000
  0.000000000000000E+000
  0.000000000000000E+000
  0.000000000000000E+000
  0.000000000000000E+000
  0.000000000000000E+000
  0.000000000000000E+000
  0.000000000000000E+000
  0.000000000000000E+000
  0.000000000000000E+000
  0.000000000000000E+000
  0.000000000000000E+000
  0.000000000000000E+000
  0.000000000000000E+000
  0.000000000000000E+000
  0.000000000000000E+000
  0.000000000000000E+000
  0.000000000000000E+000
  0.000000000000000E+000
  0.000000000000000E+000
  0.000000000000000E+000
  0.000000000000000E+000
  0.000000000000000E+000
  0.000000000000000E+000
  0.000000000000000E+000
  0.000000000000000E+000
  0.000000000000000E+000
  0.000000000000000E+000
  0.000000000000000E+000
  0.000000000000000E+000
  0.000000000000000E+000
  0.000000000000000E+000
  0.000000000000000E+000
  0.000000000000000E+000
  0.000000000000000E+000
  0.000000000000000E+000
  0.000000000000000E+000
  0.000000000000000E+000
  0.000000000000000E+000
  0.000000000000000E+000
  0.000000000000000E+000
  0.000000000000000E+000
  0.000000000000000E+000
  0.000000000000000E+000
  0.000000000000000E+000
  0.000000000000000E+000
  0.000000000000000E+000
  0.000000000000000E+000
  0.000000000000000E+000
  0.000000000000000E+000
  0.000000000000000E+000
  0.000000000000000E+000
  0.000000000000000E+000
  0.000000000000000E+000
  0.000000000000000E+000
  0.000000000000000E+000
  0.000000000000000E+000
  0.000000000000000E+000
  0.000000000000000E+000
  0.000000000000000E+000
  0.000000000000000E+000
  0.000000000000000E+000
  0.000000000000000E+000
  0.000000000000000E+000
  0.000000000000000E+000
  0.000000000000000E+000
  0.000000000000000E+000
  0.000000000000000E+000
  0.000000000000000E+000
  0.000000000000000E+000
  0.000000000000000E+000
  0.000000000000000E+000
  0.000000000000000E+000
  0.000000000000000E+000
  0.000000000000000E+000
  0.000000000000000E+000
  0.000000000000000E+000
  0.000000000000000E+000
  0.000000000000000E+000
  0.000000000000000E+000
  0.000000000000000E+000
  0.000000000000000E+000
  0.000000000000000E+000
  0.000000000000000E+000
  0.000000000000000E+000
  0.000000000000000E+000
  0.000000000000000E+000
  0.000000000000000E+000
  0.000000000000000E+000
  0.000000000000000E+000
  0.000000000000000E+000
  0.000000000000000E+000
  0.000000000000000E+000
  0.000000000000000E+000
  0.000000000000000E+000
  0.000000000000000E+000
  0.000000000000000E+000
  0.000000000000000E+000
  0.000000000000000E+000
  0.000000000000000E+000
  0.000000000000000E+000
  0.000000000000000E+000
  0.000000000000000E+000
  0.000000000000000E+000
  0.000000000000000E+000
  0.000000000000000E+000
  0.000000000000000E+000
  0.000000000000000E+000
  0.000000000000000E+000
  0.000000000000000E+000
  0.000000000000000E+000
  0.000000000000000E+000
  0.000000000000000E+000
  0.000000000000000E+000
  0.000000000000000E+000
  0.000000000000000E+000
  0.000000000000000E+000
  0.000000000000000E+000
  0.000000000000000E+000
  0.000000000000000E+000
  0.000000000000000E+000
  0.000000000000000E+000
  0.000000000000000E+000
  0.000000000000000E+000
  0.000000000000000E+000
  0.000000000000000E+000
  0.000000000000000E+000
  0.000000000000000E+000
  0.000000000000000E+000
  0.000000000000000E+000
  0.000000000000000E+000
  0.000000000000000E+000
  0.000000000000000E+000
  0.000000000000000E+000
  0.000000000000000E+000
  0.000000000000000E+000
  0.000000000000000E+000
  0.000000000000000E+000
  0.000000000000000E+000
  0.000000000000000E+000
  0.000000000000000E+000
  0.000000000000000E+000
  0.000000000000000E+000
  0.000000000000000E+000
SCALARS elementIsPlast double 
LOOKUP_TABLE default
   1.00000000000000     
   1.00000000000000     
   1.00000000000000     
   1.00000000000000     
   1.00000000000000     
   1.00000000000000     
   1.00000000000000     
   1.00000000000000     
  0.000000000000000E+000
  0.000000000000000E+000
  0.000000000000000E+000
  0.000000000000000E+000
  0.000000000000000E+000
  0.000000000000000E+000
  0.000000000000000E+000
  0.000000000000000E+000
  0.000000000000000E+000
  0.000000000000000E+000
  0.000000000000000E+000
  0.000000000000000E+000
  0.000000000000000E+000
  0.000000000000000E+000
  0.000000000000000E+000
  0.000000000000000E+000
  0.000000000000000E+000
  0.000000000000000E+000
  0.000000000000000E+000
  0.000000000000000E+000
  0.000000000000000E+000
  0.000000000000000E+000
  0.000000000000000E+000
  0.000000000000000E+000
  0.000000000000000E+000
  0.000000000000000E+000
  0.000000000000000E+000
  0.000000000000000E+000
  0.000000000000000E+000
  0.000000000000000E+000
  0.000000000000000E+000
  0.000000000000000E+000
  0.000000000000000E+000
  0.000000000000000E+000
  0.000000000000000E+000
  0.000000000000000E+000
  0.000000000000000E+000
  0.000000000000000E+000
  0.000000000000000E+000
  0.000000000000000E+000
  0.000000000000000E+000
  0.000000000000000E+000
  0.000000000000000E+000
  0.000000000000000E+000
  0.000000000000000E+000
  0.000000000000000E+000
  0.000000000000000E+000
  0.000000000000000E+000
  0.000000000000000E+000
  0.000000000000000E+000
  0.000000000000000E+000
  0.000000000000000E+000
  0.000000000000000E+000
  0.000000000000000E+000
  0.000000000000000E+000
  0.000000000000000E+000
  0.000000000000000E+000
  0.000000000000000E+000
  0.000000000000000E+000
  0.000000000000000E+000
  0.000000000000000E+000
  0.000000000000000E+000
  0.000000000000000E+000
  0.000000000000000E+000
  0.000000000000000E+000
  0.000000000000000E+000
  0.000000000000000E+000
  0.000000000000000E+000
  0.000000000000000E+000
  0.000000000000000E+000
  0.000000000000000E+000
  0.000000000000000E+000
  0.000000000000000E+000
  0.000000000000000E+000
  0.000000000000000E+000
  0.000000000000000E+000
  0.000000000000000E+000
  0.000000000000000E+000
  0.000000000000000E+000
  0.000000000000000E+000
  0.000000000000000E+000
  0.000000000000000E+000
  0.000000000000000E+000
  0.000000000000000E+000
  0.000000000000000E+000
  0.000000000000000E+000
  0.000000000000000E+000
  0.000000000000000E+000
  0.000000000000000E+000
  0.000000000000000E+000
  0.000000000000000E+000
  0.000000000000000E+000
  0.000000000000000E+000
  0.000000000000000E+000
  0.000000000000000E+000
  0.000000000000000E+000
  0.000000000000000E+000
  0.000000000000000E+000
  0.000000000000000E+000
  0.000000000000000E+000
  0.000000000000000E+000
  0.000000000000000E+000
  0.000000000000000E+000
  0.000000000000000E+000
  0.000000000000000E+000
  0.000000000000000E+000
  0.000000000000000E+000
  0.000000000000000E+000
  0.000000000000000E+000
  0.000000000000000E+000
  0.000000000000000E+000
  0.000000000000000E+000
  0.000000000000000E+000
  0.000000000000000E+000
  0.000000000000000E+000
  0.000000000000000E+000
  0.000000000000000E+000
  0.000000000000000E+000
  0.000000000000000E+000
  0.000000000000000E+000
  0.000000000000000E+000
  0.000000000000000E+000
  0.000000000000000E+000
  0.000000000000000E+000
  0.000000000000000E+000
  0.000000000000000E+000
  0.000000000000000E+000
  0.000000000000000E+000
  0.000000000000000E+000
  0.000000000000000E+000
  0.000000000000000E+000
  0.000000000000000E+000
  0.000000000000000E+000
  0.000000000000000E+000
  0.000000000000000E+000
  0.000000000000000E+000
  0.000000000000000E+000
  0.000000000000000E+000
  0.000000000000000E+000
  0.000000000000000E+000
  0.000000000000000E+000
  0.000000000000000E+000
  0.000000000000000E+000
  0.000000000000000E+000
  0.000000000000000E+000
  0.000000000000000E+000
  0.000000000000000E+000
  0.000000000000000E+000
  0.000000000000000E+000
  0.000000000000000E+000
  0.000000000000000E+000
  0.000000000000000E+000
  0.000000000000000E+000
  0.000000000000000E+000
  0.000000000000000E+000
  0.000000000000000E+000
  0.000000000000000E+000
  0.000000000000000E+000
  0.000000000000000E+000
  0.000000000000000E+000
  0.000000000000000E+000
  0.000000000000000E+000
  0.000000000000000E+000
  0.000000000000000E+000
  0.000000000000000E+000
  0.000000000000000E+000
  0.000000000000000E+000
  0.000000000000000E+000
  0.000000000000000E+000
  0.000000000000000E+000
  0.000000000000000E+000
  0.000000000000000E+000
  0.000000000000000E+000
  0.000000000000000E+000
  0.000000000000000E+000
  0.000000000000000E+000
  0.000000000000000E+000
  0.000000000000000E+000
  0.000000000000000E+000
  0.000000000000000E+000
  0.000000000000000E+000
  0.000000000000000E+000
  0.000000000000000E+000
  0.000000000000000E+000
  0.000000000000000E+000
  0.000000000000000E+000
  0.000000000000000E+000
  0.000000000000000E+000
  0.000000000000000E+000
  0.000000000000000E+000
  0.000000000000000E+000
  0.000000000000000E+000
  0.000000000000000E+000
  0.000000000000000E+000
  0.000000000000000E+000
  0.000000000000000E+000
  0.000000000000000E+000
  0.000000000000000E+000
  0.000000000000000E+000
  0.000000000000000E+000
  0.000000000000000E+000
  0.000000000000000E+000
  0.000000000000000E+000
  0.000000000000000E+000
  0.000000000000000E+000
  0.000000000000000E+000
  0.000000000000000E+000
  0.000000000000000E+000
  0.000000000000000E+000
  0.000000000000000E+000
  0.000000000000000E+000
  0.000000000000000E+000
  0.000000000000000E+000
  0.000000000000000E+000
  0.000000000000000E+000
  0.000000000000000E+000
  0.000000000000000E+000
  0.000000000000000E+000
  0.000000000000000E+000
  0.000000000000000E+000
  0.000000000000000E+000
  0.000000000000000E+000
  0.000000000000000E+000
  0.000000000000000E+000
  0.000000000000000E+000
  0.000000000000000E+000
  0.000000000000000E+000
  0.000000000000000E+000
  0.000000000000000E+000
  0.000000000000000E+000
  0.000000000000000E+000
  0.000000000000000E+000
  0.000000000000000E+000
  0.000000000000000E+000
  0.000000000000000E+000
  0.000000000000000E+000
  0.000000000000000E+000
  0.000000000000000E+000
  0.000000000000000E+000
  0.000000000000000E+000
  0.000000000000000E+000
  0.000000000000000E+000
  0.000000000000000E+000
  0.000000000000000E+000
  0.000000000000000E+000
  0.000000000000000E+000
  0.000000000000000E+000
  0.000000000000000E+000
  0.000000000000000E+000
  0.000000000000000E+000
  0.000000000000000E+000
  0.000000000000000E+000
  0.000000000000000E+000
  0.000000000000000E+000
  0.000000000000000E+000
  0.000000000000000E+000
  0.000000000000000E+000
  0.000000000000000E+000
  0.000000000000000E+000
  0.000000000000000E+000
  0.000000000000000E+000
  0.000000000000000E+000
  0.000000000000000E+000
  0.000000000000000E+000
  0.000000000000000E+000
  0.000000000000000E+000
  0.000000000000000E+000
  0.000000000000000E+000
  0.000000000000000E+000
  0.000000000000000E+000
  0.000000000000000E+000
  0.000000000000000E+000
  0.000000000000000E+000
  0.000000000000000E+000
  0.000000000000000E+000
  0.000000000000000E+000
  0.000000000000000E+000
  0.000000000000000E+000
  0.000000000000000E+000
  0.000000000000000E+000
  0.000000000000000E+000
  0.000000000000000E+000
  0.000000000000000E+000
  0.000000000000000E+000
  0.000000000000000E+000
  0.000000000000000E+000
  0.000000000000000E+000
  0.000000000000000E+000
  0.000000000000000E+000
  0.000000000000000E+000
  0.000000000000000E+000
  0.000000000000000E+000
  0.000000000000000E+000
  0.000000000000000E+000
  0.000000000000000E+000
  0.000000000000000E+000
  0.000000000000000E+000
  0.000000000000000E+000
  0.000000000000000E+000
  0.000000000000000E+000
  0.000000000000000E+000
  0.000000000000000E+000
  0.000000000000000E+000
  0.000000000000000E+000
  0.000000000000000E+000
  0.000000000000000E+000
  0.000000000000000E+000
  0.000000000000000E+000
  0.000000000000000E+000
  0.000000000000000E+000
  0.000000000000000E+000
  0.000000000000000E+000
  0.000000000000000E+000
  0.000000000000000E+000
  0.000000000000000E+000
  0.000000000000000E+000
  0.000000000000000E+000
  0.000000000000000E+000
  0.000000000000000E+000
  0.000000000000000E+000
  0.000000000000000E+000
  0.000000000000000E+000
  0.000000000000000E+000
  0.000000000000000E+000
  0.000000000000000E+000
  0.000000000000000E+000
  0.000000000000000E+000
  0.000000000000000E+000
  0.000000000000000E+000
  0.000000000000000E+000
  0.000000000000000E+000
  0.000000000000000E+000
  0.000000000000000E+000
  0.000000000000000E+000
  0.000000000000000E+000
  0.000000000000000E+000
  0.000000000000000E+000
  0.000000000000000E+000
  0.000000000000000E+000
  0.000000000000000E+000
  0.000000000000000E+000
  0.000000000000000E+000
  0.000000000000000E+000
  0.000000000000000E+000
  0.000000000000000E+000
  0.000000000000000E+000
  0.000000000000000E+000
  0.000000000000000E+000
  0.000000000000000E+000
  0.000000000000000E+000
  0.000000000000000E+000
  0.000000000000000E+000
  0.000000000000000E+000
  0.000000000000000E+000
  0.000000000000000E+000
  0.000000000000000E+000
  0.000000000000000E+000
  0.000000000000000E+000
  0.000000000000000E+000
  0.000000000000000E+000
  0.000000000000000E+000
  0.000000000000000E+000
  0.000000000000000E+000
  0.000000000000000E+000
  0.000000000000000E+000
  0.000000000000000E+000
  0.000000000000000E+000
  0.000000000000000E+000
  0.000000000000000E+000
  0.000000000000000E+000
  0.000000000000000E+000
  0.000000000000000E+000
  0.000000000000000E+000
  0.000000000000000E+000
  0.000000000000000E+000
  0.000000000000000E+000
  0.000000000000000E+000
  0.000000000000000E+000
  0.000000000000000E+000
  0.000000000000000E+000
  0.000000000000000E+000
  0.000000000000000E+000
  0.000000000000000E+000
  0.000000000000000E+000
  0.000000000000000E+000
  0.000000000000000E+000
  0.000000000000000E+000
  0.000000000000000E+000
  0.000000000000000E+000
  0.000000000000000E+000
  0.000000000000000E+000
  0.000000000000000E+000
  0.000000000000000E+000
  0.000000000000000E+000
  0.000000000000000E+000
  0.000000000000000E+000
  0.000000000000000E+000
  0.000000000000000E+000
  0.000000000000000E+000
  0.000000000000000E+000
  0.000000000000000E+000
  0.000000000000000E+000
  0.000000000000000E+000
  0.000000000000000E+000
  0.000000000000000E+000
  0.000000000000000E+000
  0.000000000000000E+000
  0.000000000000000E+000
  0.000000000000000E+000
  0.000000000000000E+000
  0.000000000000000E+000
  0.000000000000000E+000
  0.000000000000000E+000
  0.000000000000000E+000
  0.000000000000000E+000
  0.000000000000000E+000
  0.000000000000000E+000
  0.000000000000000E+000
  0.000000000000000E+000
  0.000000000000000E+000
  0.000000000000000E+000
  0.000000000000000E+000
  0.000000000000000E+000
  0.000000000000000E+000
  0.000000000000000E+000
  0.000000000000000E+000
  0.000000000000000E+000
  0.000000000000000E+000
  0.000000000000000E+000
  0.000000000000000E+000
  0.000000000000000E+000
  0.000000000000000E+000
  0.000000000000000E+000
  0.000000000000000E+000
  0.000000000000000E+000
  0.000000000000000E+000
  0.000000000000000E+000
  0.000000000000000E+000
  0.000000000000000E+000
  0.000000000000000E+000
  0.000000000000000E+000
  0.000000000000000E+000
  0.000000000000000E+000
  0.000000000000000E+000
  0.000000000000000E+000
  0.000000000000000E+000
  0.000000000000000E+000
  0.000000000000000E+000
  0.000000000000000E+000
  0.000000000000000E+000
  0.000000000000000E+000
  0.000000000000000E+000
  0.000000000000000E+000
  0.000000000000000E+000
  0.000000000000000E+000
  0.000000000000000E+000
  0.000000000000000E+000
  0.000000000000000E+000
  0.000000000000000E+000
  0.000000000000000E+000
  0.000000000000000E+000
  0.000000000000000E+000
  0.000000000000000E+000
  0.000000000000000E+000
  0.000000000000000E+000
  0.000000000000000E+000
  0.000000000000000E+000
  0.000000000000000E+000
  0.000000000000000E+000
  0.000000000000000E+000
  0.000000000000000E+000
  0.000000000000000E+000
  0.000000000000000E+000
  0.000000000000000E+000
  0.000000000000000E+000
  0.000000000000000E+000
  0.000000000000000E+000
  0.000000000000000E+000
  0.000000000000000E+000
  0.000000000000000E+000
  0.000000000000000E+000
  0.000000000000000E+000
  0.000000000000000E+000
  0.000000000000000E+000
  0.000000000000000E+000
  0.000000000000000E+000
  0.000000000000000E+000
  0.000000000000000E+000
  0.000000000000000E+000
  0.000000000000000E+000
  0.000000000000000E+000
  0.000000000000000E+000
  0.000000000000000E+000
  0.000000000000000E+000
  0.000000000000000E+000
  0.000000000000000E+000
  0.000000000000000E+000
  0.000000000000000E+000
  0.000000000000000E+000
  0.000000000000000E+000
  0.000000000000000E+000
  0.000000000000000E+000
  0.000000000000000E+000
  0.000000000000000E+000
  0.000000000000000E+000
  0.000000000000000E+000
  0.000000000000000E+000
  0.000000000000000E+000
  0.000000000000000E+000
  0.000000000000000E+000
  0.000000000000000E+000
  0.000000000000000E+000
  0.000000000000000E+000
  0.000000000000000E+000
  0.000000000000000E+000
  0.000000000000000E+000
  0.000000000000000E+000
  0.000000000000000E+000
  0.000000000000000E+000
  0.000000000000000E+000
  0.000000000000000E+000
  0.000000000000000E+000
  0.000000000000000E+000
  0.000000000000000E+000
  0.000000000000000E+000
  0.000000000000000E+000
  0.000000000000000E+000
  0.000000000000000E+000
  0.000000000000000E+000
  0.000000000000000E+000
  0.000000000000000E+000
  0.000000000000000E+000
  0.000000000000000E+000
  0.000000000000000E+000
  0.000000000000000E+000
  0.000000000000000E+000
  0.000000000000000E+000
  0.000000000000000E+000
  0.000000000000000E+000
  0.000000000000000E+000
  0.000000000000000E+000
  0.000000000000000E+000
  0.000000000000000E+000
  0.000000000000000E+000
  0.000000000000000E+000
  0.000000000000000E+000
  0.000000000000000E+000
  0.000000000000000E+000
  0.000000000000000E+000
  0.000000000000000E+000
  0.000000000000000E+000
  0.000000000000000E+000
  0.000000000000000E+000
  0.000000000000000E+000
  0.000000000000000E+000
  0.000000000000000E+000
  0.000000000000000E+000
  0.000000000000000E+000
  0.000000000000000E+000
  0.000000000000000E+000
  0.000000000000000E+000
  0.000000000000000E+000
  0.000000000000000E+000
  0.000000000000000E+000
  0.000000000000000E+000
  0.000000000000000E+000
  0.000000000000000E+000
  0.000000000000000E+000
  0.000000000000000E+000
  0.000000000000000E+000
  0.000000000000000E+000
  0.000000000000000E+000
  0.000000000000000E+000
  0.000000000000000E+000
  0.000000000000000E+000
  0.000000000000000E+000
  0.000000000000000E+000
  0.000000000000000E+000
  0.000000000000000E+000
  0.000000000000000E+000
  0.000000000000000E+000
  0.000000000000000E+000
  0.000000000000000E+000
  0.000000000000000E+000
  0.000000000000000E+000
  0.000000000000000E+000
  0.000000000000000E+000
  0.000000000000000E+000
  0.000000000000000E+000
  0.000000000000000E+000
  0.000000000000000E+000
  0.000000000000000E+000
  0.000000000000000E+000
  0.000000000000000E+000
  0.000000000000000E+000
  0.000000000000000E+000
  0.000000000000000E+000
  0.000000000000000E+000
  0.000000000000000E+000
  0.000000000000000E+000
  0.000000000000000E+000
  0.000000000000000E+000
  0.000000000000000E+000
  0.000000000000000E+000
  0.000000000000000E+000
  0.000000000000000E+000
  0.000000000000000E+000
  0.000000000000000E+000
  0.000000000000000E+000
  0.000000000000000E+000
  0.000000000000000E+000
  0.000000000000000E+000
  0.000000000000000E+000
  0.000000000000000E+000
  0.000000000000000E+000
  0.000000000000000E+000
  0.000000000000000E+000
  0.000000000000000E+000
  0.000000000000000E+000
  0.000000000000000E+000
  0.000000000000000E+000
  0.000000000000000E+000
  0.000000000000000E+000
  0.000000000000000E+000
  0.000000000000000E+000
  0.000000000000000E+000
  0.000000000000000E+000
  0.000000000000000E+000
  0.000000000000000E+000
  0.000000000000000E+000
  0.000000000000000E+000
  0.000000000000000E+000
  0.000000000000000E+000
  0.000000000000000E+000
  0.000000000000000E+000
  0.000000000000000E+000
  0.000000000000000E+000
  0.000000000000000E+000
  0.000000000000000E+000
  0.000000000000000E+000
  0.000000000000000E+000
  0.000000000000000E+000
  0.000000000000000E+000
  0.000000000000000E+000
  0.000000000000000E+000
  0.000000000000000E+000
  0.000000000000000E+000
  0.000000000000000E+000
  0.000000000000000E+000
  0.000000000000000E+000
  0.000000000000000E+000
  0.000000000000000E+000
  0.000000000000000E+000
  0.000000000000000E+000
  0.000000000000000E+000
  0.000000000000000E+000
  0.000000000000000E+000
  0.000000000000000E+000
  0.000000000000000E+000
  0.000000000000000E+000
  0.000000000000000E+000
  0.000000000000000E+000
  0.000000000000000E+000
  0.000000000000000E+000
  0.000000000000000E+000
  0.000000000000000E+000
  0.000000000000000E+000
  0.000000000000000E+000
  0.000000000000000E+000
  0.000000000000000E+000
  0.000000000000000E+000
  0.000000000000000E+000
  0.000000000000000E+000
  0.000000000000000E+000
  0.000000000000000E+000
  0.000000000000000E+000
  0.000000000000000E+000
  0.000000000000000E+000
  0.000000000000000E+000
  0.000000000000000E+000
  0.000000000000000E+000
  0.000000000000000E+000
  0.000000000000000E+000
  0.000000000000000E+000
  0.000000000000000E+000
  0.000000000000000E+000
  0.000000000000000E+000
  0.000000000000000E+000
  0.000000000000000E+000
  0.000000000000000E+000
  0.000000000000000E+000
  0.000000000000000E+000
  0.000000000000000E+000
  0.000000000000000E+000
  0.000000000000000E+000
  0.000000000000000E+000
  0.000000000000000E+000
  0.000000000000000E+000
  0.000000000000000E+000
  0.000000000000000E+000
  0.000000000000000E+000
  0.000000000000000E+000
  0.000000000000000E+000
  0.000000000000000E+000
  0.000000000000000E+000
  0.000000000000000E+000
  0.000000000000000E+000
  0.000000000000000E+000
  0.000000000000000E+000
  0.000000000000000E+000
  0.000000000000000E+000
  0.000000000000000E+000
  0.000000000000000E+000
  0.000000000000000E+000
  0.000000000000000E+000
  0.000000000000000E+000
  0.000000000000000E+000
  0.000000000000000E+000
  0.000000000000000E+000
  0.000000000000000E+000
  0.000000000000000E+000
  0.000000000000000E+000
  0.000000000000000E+000
  0.000000000000000E+000
  0.000000000000000E+000
  0.000000000000000E+000
  0.000000000000000E+000
  0.000000000000000E+000
  0.000000000000000E+000
  0.000000000000000E+000
  0.000000000000000E+000
  0.000000000000000E+000
  0.000000000000000E+000
  0.000000000000000E+000
  0.000000000000000E+000
  0.000000000000000E+000
  0.000000000000000E+000
  0.000000000000000E+000
  0.000000000000000E+000
  0.000000000000000E+000
  0.000000000000000E+000
  0.000000000000000E+000
  0.000000000000000E+000
  0.000000000000000E+000
  0.000000000000000E+000
  0.000000000000000E+000
  0.000000000000000E+000
  0.000000000000000E+000
  0.000000000000000E+000
  0.000000000000000E+000
  0.000000000000000E+000
  0.000000000000000E+000
  0.000000000000000E+000
  0.000000000000000E+000
  0.000000000000000E+000
  0.000000000000000E+000
  0.000000000000000E+000
  0.000000000000000E+000
  0.000000000000000E+000
  0.000000000000000E+000
  0.000000000000000E+000
  0.000000000000000E+000
  0.000000000000000E+000
  0.000000000000000E+000
  0.000000000000000E+000
  0.000000000000000E+000
  0.000000000000000E+000
  0.000000000000000E+000
  0.000000000000000E+000
  0.000000000000000E+000
  0.000000000000000E+000
  0.000000000000000E+000
  0.000000000000000E+000
  0.000000000000000E+000
  0.000000000000000E+000
  0.000000000000000E+000
  0.000000000000000E+000
  0.000000000000000E+000
  0.000000000000000E+000
  0.000000000000000E+000
  0.000000000000000E+000
  0.000000000000000E+000
  0.000000000000000E+000
  0.000000000000000E+000
  0.000000000000000E+000
  0.000000000000000E+000
  0.000000000000000E+000
  0.000000000000000E+000
  0.000000000000000E+000
  0.000000000000000E+000
  0.000000000000000E+000
  0.000000000000000E+000
  0.000000000000000E+000
  0.000000000000000E+000
  0.000000000000000E+000
  0.000000000000000E+000
  0.000000000000000E+000
  0.000000000000000E+000
  0.000000000000000E+000
  0.000000000000000E+000
  0.000000000000000E+000
  0.000000000000000E+000
  0.000000000000000E+000
  0.000000000000000E+000
  0.000000000000000E+000
  0.000000000000000E+000
  0.000000000000000E+000
  0.000000000000000E+000
  0.000000000000000E+000
  0.000000000000000E+000
  0.000000000000000E+000
  0.000000000000000E+000
  0.000000000000000E+000
  0.000000000000000E+000
  0.000000000000000E+000
  0.000000000000000E+000
  0.000000000000000E+000
  0.000000000000000E+000
  0.000000000000000E+000
  0.000000000000000E+000
  0.000000000000000E+000
  0.000000000000000E+000
  0.000000000000000E+000
  0.000000000000000E+000
  0.000000000000000E+000
  0.000000000000000E+000
  0.000000000000000E+000
  0.000000000000000E+000
  0.000000000000000E+000
  0.000000000000000E+000
  0.000000000000000E+000
  0.000000000000000E+000
  0.000000000000000E+000
  0.000000000000000E+000
  0.000000000000000E+000
  0.000000000000000E+000
  0.000000000000000E+000
  0.000000000000000E+000
  0.000000000000000E+000
  0.000000000000000E+000
  0.000000000000000E+000
  0.000000000000000E+000
  0.000000000000000E+000
  0.000000000000000E+000
  0.000000000000000E+000
  0.000000000000000E+000
  0.000000000000000E+000
  0.000000000000000E+000
  0.000000000000000E+000
  0.000000000000000E+000
  0.000000000000000E+000
  0.000000000000000E+000
  0.000000000000000E+000
  0.000000000000000E+000
  0.000000000000000E+000
  0.000000000000000E+000
  0.000000000000000E+000
  0.000000000000000E+000
  0.000000000000000E+000
  0.000000000000000E+000
  0.000000000000000E+000
  0.000000000000000E+000
  0.000000000000000E+000
  0.000000000000000E+000
  0.000000000000000E+000
  0.000000000000000E+000
  0.000000000000000E+000
  0.000000000000000E+000
  0.000000000000000E+000
  0.000000000000000E+000
  0.000000000000000E+000
  0.000000000000000E+000
  0.000000000000000E+000
  0.000000000000000E+000
  0.000000000000000E+000
  0.000000000000000E+000
  0.000000000000000E+000
  0.000000000000000E+000
  0.000000000000000E+000
  0.000000000000000E+000
  0.000000000000000E+000
  0.000000000000000E+000
  0.000000000000000E+000
  0.000000000000000E+000
  0.000000000000000E+000
  0.000000000000000E+000
  0.000000000000000E+000
  0.000000000000000E+000
  0.000000000000000E+000
  0.000000000000000E+000
  0.000000000000000E+000
  0.000000000000000E+000
  0.000000000000000E+000
  0.000000000000000E+000
  0.000000000000000E+000
  0.000000000000000E+000
  0.000000000000000E+000
  0.000000000000000E+000
  0.000000000000000E+000
  0.000000000000000E+000
  0.000000000000000E+000
  0.000000000000000E+000
  0.000000000000000E+000
  0.000000000000000E+000
  0.000000000000000E+000
  0.000000000000000E+000
  0.000000000000000E+000
  0.000000000000000E+000
  0.000000000000000E+000
  0.000000000000000E+000
  0.000000000000000E+000
  0.000000000000000E+000
  0.000000000000000E+000
  0.000000000000000E+000
  0.000000000000000E+000
  0.000000000000000E+000
  0.000000000000000E+000
  0.000000000000000E+000
  0.000000000000000E+000
  0.000000000000000E+000
  0.000000000000000E+000
  0.000000000000000E+000
  0.000000000000000E+000
  0.000000000000000E+000
  0.000000000000000E+000
  0.000000000000000E+000
  0.000000000000000E+000
  0.000000000000000E+000
  0.000000000000000E+000
  0.000000000000000E+000
  0.000000000000000E+000
  0.000000000000000E+000
  0.000000000000000E+000
  0.000000000000000E+000
  0.000000000000000E+000
  0.000000000000000E+000
  0.000000000000000E+000
  0.000000000000000E+000
  0.000000000000000E+000
  0.000000000000000E+000
  0.000000000000000E+000
  0.000000000000000E+000
  0.000000000000000E+000
  0.000000000000000E+000
  0.000000000000000E+000
  0.000000000000000E+000
  0.000000000000000E+000
  0.000000000000000E+000
  0.000000000000000E+000
  0.000000000000000E+000
  0.000000000000000E+000
  0.000000000000000E+000
  0.000000000000000E+000
  0.000000000000000E+000
  0.000000000000000E+000
  0.000000000000000E+000
  0.000000000000000E+000
  0.000000000000000E+000
  0.000000000000000E+000
  0.000000000000000E+000
  0.000000000000000E+000
  0.000000000000000E+000
  0.000000000000000E+000
  0.000000000000000E+000
  0.000000000000000E+000
  0.000000000000000E+000
  0.000000000000000E+000
  0.000000000000000E+000
  0.000000000000000E+000
  0.000000000000000E+000
  0.000000000000000E+000
  0.000000000000000E+000
  0.000000000000000E+000
  0.000000000000000E+000
  0.000000000000000E+000
  0.000000000000000E+000
  0.000000000000000E+000
  0.000000000000000E+000
  0.000000000000000E+000
  0.000000000000000E+000
  0.000000000000000E+000
  0.000000000000000E+000
  0.000000000000000E+000
  0.000000000000000E+000
  0.000000000000000E+000
  0.000000000000000E+000
  0.000000000000000E+000
  0.000000000000000E+000
  0.000000000000000E+000
  0.000000000000000E+000
  0.000000000000000E+000
  0.000000000000000E+000
  0.000000000000000E+000
  0.000000000000000E+000
  0.000000000000000E+000
  0.000000000000000E+000
  0.000000000000000E+000
  0.000000000000000E+000
  0.000000000000000E+000
  0.000000000000000E+000
  0.000000000000000E+000
  0.000000000000000E+000
  0.000000000000000E+000
  0.000000000000000E+000
  0.000000000000000E+000
  0.000000000000000E+000
  0.000000000000000E+000
  0.000000000000000E+000
  0.000000000000000E+000
  0.000000000000000E+000
  0.000000000000000E+000
  0.000000000000000E+000
  0.000000000000000E+000
  0.000000000000000E+000
  0.000000000000000E+000
  0.000000000000000E+000
  0.000000000000000E+000
  0.000000000000000E+000
  0.000000000000000E+000
  0.000000000000000E+000
  0.000000000000000E+000
  0.000000000000000E+000
  0.000000000000000E+000
  0.000000000000000E+000
  0.000000000000000E+000
  0.000000000000000E+000
  0.000000000000000E+000
  0.000000000000000E+000
  0.000000000000000E+000
  0.000000000000000E+000
  0.000000000000000E+000
  0.000000000000000E+000
  0.000000000000000E+000
  0.000000000000000E+000
  0.000000000000000E+000
  0.000000000000000E+000
  0.000000000000000E+000
  0.000000000000000E+000
  0.000000000000000E+000
  0.000000000000000E+000
  0.000000000000000E+000
  0.000000000000000E+000
  0.000000000000000E+000
  0.000000000000000E+000
  0.000000000000000E+000
  0.000000000000000E+000
  0.000000000000000E+000
  0.000000000000000E+000
  0.000000000000000E+000
  0.000000000000000E+000
  0.000000000000000E+000
  0.000000000000000E+000
  0.000000000000000E+000
  0.000000000000000E+000
  0.000000000000000E+000
  0.000000000000000E+000
  0.000000000000000E+000
  0.000000000000000E+000
  0.000000000000000E+000
  0.000000000000000E+000
  0.000000000000000E+000
  0.000000000000000E+000
  0.000000000000000E+000
  0.000000000000000E+000
  0.000000000000000E+000
  0.000000000000000E+000
  0.000000000000000E+000
  0.000000000000000E+000
  0.000000000000000E+000
  0.000000000000000E+000
  0.000000000000000E+000
  0.000000000000000E+000
  0.000000000000000E+000
  0.000000000000000E+000
  0.000000000000000E+000
  0.000000000000000E+000
  0.000000000000000E+000
  0.000000000000000E+000
  0.000000000000000E+000
  0.000000000000000E+000
  0.000000000000000E+000
  0.000000000000000E+000
  0.000000000000000E+000
  0.000000000000000E+000
  0.000000000000000E+000
  0.000000000000000E+000
  0.000000000000000E+000
  0.000000000000000E+000
  0.000000000000000E+000
  0.000000000000000E+000
  0.000000000000000E+000
  0.000000000000000E+000
  0.000000000000000E+000
  0.000000000000000E+000
  0.000000000000000E+000
  0.000000000000000E+000
  0.000000000000000E+000
  0.000000000000000E+000
  0.000000000000000E+000
  0.000000000000000E+000
  0.000000000000000E+000
  0.000000000000000E+000
  0.000000000000000E+000
  0.000000000000000E+000
  0.000000000000000E+000
  0.000000000000000E+000
  0.000000000000000E+000
  0.000000000000000E+000
  0.000000000000000E+000
  0.000000000000000E+000
  0.000000000000000E+000
  0.000000000000000E+000
  0.000000000000000E+000
  0.000000000000000E+000
  0.000000000000000E+000
  0.000000000000000E+000
  0.000000000000000E+000
  0.000000000000000E+000
  0.000000000000000E+000
  0.000000000000000E+000
  0.000000000000000E+000
  0.000000000000000E+000
  0.000000000000000E+000
  0.000000000000000E+000
  0.000000000000000E+000
  0.000000000000000E+000
  0.000000000000000E+000
  0.000000000000000E+000
  0.000000000000000E+000
  0.000000000000000E+000
  0.000000000000000E+000
  0.000000000000000E+000
  0.000000000000000E+000
  0.000000000000000E+000
  0.000000000000000E+000
  0.000000000000000E+000
  0.000000000000000E+000
  0.000000000000000E+000
  0.000000000000000E+000
  0.000000000000000E+000
  0.000000000000000E+000
  0.000000000000000E+000
  0.000000000000000E+000
  0.000000000000000E+000
  0.000000000000000E+000
  0.000000000000000E+000
  0.000000000000000E+000
  0.000000000000000E+000
  0.000000000000000E+000
  0.000000000000000E+000
  0.000000000000000E+000
  0.000000000000000E+000
  0.000000000000000E+000
  0.000000000000000E+000
  0.000000000000000E+000
  0.000000000000000E+000
  0.000000000000000E+000
  0.000000000000000E+000
  0.000000000000000E+000
  0.000000000000000E+000
  0.000000000000000E+000
  0.000000000000000E+000
  0.000000000000000E+000
  0.000000000000000E+000
  0.000000000000000E+000
  0.000000000000000E+000
  0.000000000000000E+000
  0.000000000000000E+000
  0.000000000000000E+000
  0.000000000000000E+000
  0.000000000000000E+000
  0.000000000000000E+000
  0.000000000000000E+000
  0.000000000000000E+000
  0.000000000000000E+000
  0.000000000000000E+000
  0.000000000000000E+000
  0.000000000000000E+000
  0.000000000000000E+000
  0.000000000000000E+000
  0.000000000000000E+000
  0.000000000000000E+000
  0.000000000000000E+000
  0.000000000000000E+000
  0.000000000000000E+000
  0.000000000000000E+000
  0.000000000000000E+000
  0.000000000000000E+000
  0.000000000000000E+000
  0.000000000000000E+000
  0.000000000000000E+000
  0.000000000000000E+000
  0.000000000000000E+000
  0.000000000000000E+000
  0.000000000000000E+000
  0.000000000000000E+000
  0.000000000000000E+000
  0.000000000000000E+000
  0.000000000000000E+000
  0.000000000000000E+000
  0.000000000000000E+000
  0.000000000000000E+000
  0.000000000000000E+000
  0.000000000000000E+000
  0.000000000000000E+000
  0.000000000000000E+000
  0.000000000000000E+000
  0.000000000000000E+000
  0.000000000000000E+000
  0.000000000000000E+000
  0.000000000000000E+000
  0.000000000000000E+000
  0.000000000000000E+000
  0.000000000000000E+000
  0.000000000000000E+000
  0.000000000000000E+000
  0.000000000000000E+000
  0.000000000000000E+000
  0.000000000000000E+000
  0.000000000000000E+000
  0.000000000000000E+000
  0.000000000000000E+000
  0.000000000000000E+000
  0.000000000000000E+000
  0.000000000000000E+000
  0.000000000000000E+000
  0.000000000000000E+000
  0.000000000000000E+000
  0.000000000000000E+000
  0.000000000000000E+000
  0.000000000000000E+000
  0.000000000000000E+000
  0.000000000000000E+000
  0.000000000000000E+000
  0.000000000000000E+000
  0.000000000000000E+000
  0.000000000000000E+000
  0.000000000000000E+000
  0.000000000000000E+000
  0.000000000000000E+000
  0.000000000000000E+000
  0.000000000000000E+000
  0.000000000000000E+000
  0.000000000000000E+000
  0.000000000000000E+000
  0.000000000000000E+000
  0.000000000000000E+000
  0.000000000000000E+000
  0.000000000000000E+000
  0.000000000000000E+000
  0.000000000000000E+000
  0.000000000000000E+000
  0.000000000000000E+000
  0.000000000000000E+000
  0.000000000000000E+000
  0.000000000000000E+000
  0.000000000000000E+000
  0.000000000000000E+000
  0.000000000000000E+000
  0.000000000000000E+000
  0.000000000000000E+000
  0.000000000000000E+000
  0.000000000000000E+000
  0.000000000000000E+000
  0.000000000000000E+000
  0.000000000000000E+000
  0.000000000000000E+000
  0.000000000000000E+000
  0.000000000000000E+000
  0.000000000000000E+000
  0.000000000000000E+000
  0.000000000000000E+000
  0.000000000000000E+000
  0.000000000000000E+000
  0.000000000000000E+000
  0.000000000000000E+000
  0.000000000000000E+000
  0.000000000000000E+000
  0.000000000000000E+000
  0.000000000000000E+000
  0.000000000000000E+000
  0.000000000000000E+000
  0.000000000000000E+000
  0.000000000000000E+000
  0.000000000000000E+000
  0.000000000000000E+000
  0.000000000000000E+000
  0.000000000000000E+000
  0.000000000000000E+000
  0.000000000000000E+000
  0.000000000000000E+000
  0.000000000000000E+000
  0.000000000000000E+000
  0.000000000000000E+000
  0.000000000000000E+000
  0.000000000000000E+000
  0.000000000000000E+000
  0.000000000000000E+000
  0.000000000000000E+000
  0.000000000000000E+000
  0.000000000000000E+000
  0.000000000000000E+000
  0.000000000000000E+000
  0.000000000000000E+000
  0.000000000000000E+000
  0.000000000000000E+000
  0.000000000000000E+000
  0.000000000000000E+000
  0.000000000000000E+000
  0.000000000000000E+000
  0.000000000000000E+000
  0.000000000000000E+000
  0.000000000000000E+000
  0.000000000000000E+000
  0.000000000000000E+000
  0.000000000000000E+000
  0.000000000000000E+000
  0.000000000000000E+000
  0.000000000000000E+000
  0.000000000000000E+000
  0.000000000000000E+000
  0.000000000000000E+000
  0.000000000000000E+000
  0.000000000000000E+000
  0.000000000000000E+000
  0.000000000000000E+000
  0.000000000000000E+000
  0.000000000000000E+000
  0.000000000000000E+000
  0.000000000000000E+000
  0.000000000000000E+000
  0.000000000000000E+000
  0.000000000000000E+000
  0.000000000000000E+000
  0.000000000000000E+000
  0.000000000000000E+000
  0.000000000000000E+000
  0.000000000000000E+000
  0.000000000000000E+000
  0.000000000000000E+000
  0.000000000000000E+000
  0.000000000000000E+000
  0.000000000000000E+000
  0.000000000000000E+000
  0.000000000000000E+000
  0.000000000000000E+000
  0.000000000000000E+000
  0.000000000000000E+000
  0.000000000000000E+000
  0.000000000000000E+000
  0.000000000000000E+000
  0.000000000000000E+000
  0.000000000000000E+000
  0.000000000000000E+000
  0.000000000000000E+000
  0.000000000000000E+000
  0.000000000000000E+000
  0.000000000000000E+000
  0.000000000000000E+000
  0.000000000000000E+000
  0.000000000000000E+000
  0.000000000000000E+000
  0.000000000000000E+000
  0.000000000000000E+000
  0.000000000000000E+000
  0.000000000000000E+000
  0.000000000000000E+000
  0.000000000000000E+000
  0.000000000000000E+000
  0.000000000000000E+000
  0.000000000000000E+000
  0.000000000000000E+000
  0.000000000000000E+000
  0.000000000000000E+000
  0.000000000000000E+000
  0.000000000000000E+000
  0.000000000000000E+000
  0.000000000000000E+000
  0.000000000000000E+000
  0.000000000000000E+000
  0.000000000000000E+000
  0.000000000000000E+000
  0.000000000000000E+000
  0.000000000000000E+000
  0.000000000000000E+000
  0.000000000000000E+000
  0.000000000000000E+000
  0.000000000000000E+000
  0.000000000000000E+000
  0.000000000000000E+000
  0.000000000000000E+000
  0.000000000000000E+000
  0.000000000000000E+000
  0.000000000000000E+000
  0.000000000000000E+000
  0.000000000000000E+000
  0.000000000000000E+000
  0.000000000000000E+000
  0.000000000000000E+000
  0.000000000000000E+000
  0.000000000000000E+000
  0.000000000000000E+000
  0.000000000000000E+000
  0.000000000000000E+000
  0.000000000000000E+000
  0.000000000000000E+000
  0.000000000000000E+000
  0.000000000000000E+000
  0.000000000000000E+000
  0.000000000000000E+000
  0.000000000000000E+000
  0.000000000000000E+000
  0.000000000000000E+000
  0.000000000000000E+000
  0.000000000000000E+000
  0.000000000000000E+000
  0.000000000000000E+000
  0.000000000000000E+000
  0.000000000000000E+000
  0.000000000000000E+000
  0.000000000000000E+000
  0.000000000000000E+000
  0.000000000000000E+000
  0.000000000000000E+000
  0.000000000000000E+000
  0.000000000000000E+000
  0.000000000000000E+000
  0.000000000000000E+000
  0.000000000000000E+000
  0.000000000000000E+000
  0.000000000000000E+000
  0.000000000000000E+000
  0.000000000000000E+000
  0.000000000000000E+000
  0.000000000000000E+000
  0.000000000000000E+000
  0.000000000000000E+000
  0.000000000000000E+000
  0.000000000000000E+000
  0.000000000000000E+000
  0.000000000000000E+000
  0.000000000000000E+000
  0.000000000000000E+000
  0.000000000000000E+000
  0.000000000000000E+000
  0.000000000000000E+000
  0.000000000000000E+000
  0.000000000000000E+000
  0.000000000000000E+000
  0.000000000000000E+000
  0.000000000000000E+000
  0.000000000000000E+000
  0.000000000000000E+000
  0.000000000000000E+000
  0.000000000000000E+000
  0.000000000000000E+000
  0.000000000000000E+000
  0.000000000000000E+000
  0.000000000000000E+000
  0.000000000000000E+000
  0.000000000000000E+000
  0.000000000000000E+000
  0.000000000000000E+000
  0.000000000000000E+000
  0.000000000000000E+000
  0.000000000000000E+000
  0.000000000000000E+000
  0.000000000000000E+000
  0.000000000000000E+000
  0.000000000000000E+000
  0.000000000000000E+000
  0.000000000000000E+000
  0.000000000000000E+000
  0.000000000000000E+000
  0.000000000000000E+000
  0.000000000000000E+000
  0.000000000000000E+000
  0.000000000000000E+000
  0.000000000000000E+000
  0.000000000000000E+000
  0.000000000000000E+000
  0.000000000000000E+000
  0.000000000000000E+000
  0.000000000000000E+000
  0.000000000000000E+000
  0.000000000000000E+000
  0.000000000000000E+000
  0.000000000000000E+000
  0.000000000000000E+000
  0.000000000000000E+000
  0.000000000000000E+000
  0.000000000000000E+000
  0.000000000000000E+000
  0.000000000000000E+000
  0.000000000000000E+000
  0.000000000000000E+000
  0.000000000000000E+000
  0.000000000000000E+000
  0.000000000000000E+000
  0.000000000000000E+000
  0.000000000000000E+000
  0.000000000000000E+000
  0.000000000000000E+000
  0.000000000000000E+000
  0.000000000000000E+000
  0.000000000000000E+000
  0.000000000000000E+000
  0.000000000000000E+000
  0.000000000000000E+000
  0.000000000000000E+000
  0.000000000000000E+000
  0.000000000000000E+000
  0.000000000000000E+000
  0.000000000000000E+000
  0.000000000000000E+000
  0.000000000000000E+000
  0.000000000000000E+000
  0.000000000000000E+000
  0.000000000000000E+000
  0.000000000000000E+000
  0.000000000000000E+000
  0.000000000000000E+000
  0.000000000000000E+000
  0.000000000000000E+000
  0.000000000000000E+000
  0.000000000000000E+000
  0.000000000000000E+000
  0.000000000000000E+000
  0.000000000000000E+000
  0.000000000000000E+000
  0.000000000000000E+000
  0.000000000000000E+000
  0.000000000000000E+000
  0.000000000000000E+000
  0.000000000000000E+000
  0.000000000000000E+000
  0.000000000000000E+000
  0.000000000000000E+000
  0.000000000000000E+000
  0.000000000000000E+000
  0.000000000000000E+000
  0.000000000000000E+000
  0.000000000000000E+000
  0.000000000000000E+000
  0.000000000000000E+000
  0.000000000000000E+000
  0.000000000000000E+000
  0.000000000000000E+000
  0.000000000000000E+000
  0.000000000000000E+000
  0.000000000000000E+000
  0.000000000000000E+000
  0.000000000000000E+000
  0.000000000000000E+000
  0.000000000000000E+000
  0.000000000000000E+000
  0.000000000000000E+000
  0.000000000000000E+000
  0.000000000000000E+000
  0.000000000000000E+000
  0.000000000000000E+000
  0.000000000000000E+000
  0.000000000000000E+000
  0.000000000000000E+000
  0.000000000000000E+000
  0.000000000000000E+000
  0.000000000000000E+000
  0.000000000000000E+000
  0.000000000000000E+000
  0.000000000000000E+000
  0.000000000000000E+000
  0.000000000000000E+000
  0.000000000000000E+000
  0.000000000000000E+000
  0.000000000000000E+000
  0.000000000000000E+000
  0.000000000000000E+000
  0.000000000000000E+000
  0.000000000000000E+000
  0.000000000000000E+000
  0.000000000000000E+000
  0.000000000000000E+000
  0.000000000000000E+000
  0.000000000000000E+000
  0.000000000000000E+000
  0.000000000000000E+000
  0.000000000000000E+000
  0.000000000000000E+000
  0.000000000000000E+000
  0.000000000000000E+000
  0.000000000000000E+000
  0.000000000000000E+000
  0.000000000000000E+000
  0.000000000000000E+000
  0.000000000000000E+000
  0.000000000000000E+000
  0.000000000000000E+000
  0.000000000000000E+000
  0.000000000000000E+000
  0.000000000000000E+000
  0.000000000000000E+000
  0.000000000000000E+000
  0.000000000000000E+000
  0.000000000000000E+000
  0.000000000000000E+000
  0.000000000000000E+000
  0.000000000000000E+000
  0.000000000000000E+000
  0.000000000000000E+000
  0.000000000000000E+000
  0.000000000000000E+000
  0.000000000000000E+000
  0.000000000000000E+000
  0.000000000000000E+000
  0.000000000000000E+000
  0.000000000000000E+000
  0.000000000000000E+000
  0.000000000000000E+000
  0.000000000000000E+000
  0.000000000000000E+000
  0.000000000000000E+000
  0.000000000000000E+000
  0.000000000000000E+000
  0.000000000000000E+000
  0.000000000000000E+000
  0.000000000000000E+000
  0.000000000000000E+000
  0.000000000000000E+000
  0.000000000000000E+000
  0.000000000000000E+000
  0.000000000000000E+000
  0.000000000000000E+000
  0.000000000000000E+000
  0.000000000000000E+000
  0.000000000000000E+000
  0.000000000000000E+000
  0.000000000000000E+000
  0.000000000000000E+000
  0.000000000000000E+000
  0.000000000000000E+000
  0.000000000000000E+000
  0.000000000000000E+000
  0.000000000000000E+000
  0.000000000000000E+000
  0.000000000000000E+000
  0.000000000000000E+000
  0.000000000000000E+000
  0.000000000000000E+000
  0.000000000000000E+000
  0.000000000000000E+000
  0.000000000000000E+000
  0.000000000000000E+000
  0.000000000000000E+000
  0.000000000000000E+000
  0.000000000000000E+000
  0.000000000000000E+000
  0.000000000000000E+000
  0.000000000000000E+000
  0.000000000000000E+000
  0.000000000000000E+000
  0.000000000000000E+000
  0.000000000000000E+000
  0.000000000000000E+000
  0.000000000000000E+000
  0.000000000000000E+000
  0.000000000000000E+000
  0.000000000000000E+000
  0.000000000000000E+000
  0.000000000000000E+000
  0.000000000000000E+000
  0.000000000000000E+000
  0.000000000000000E+000
  0.000000000000000E+000
  0.000000000000000E+000
  0.000000000000000E+000
  0.000000000000000E+000
  0.000000000000000E+000
  0.000000000000000E+000
  0.000000000000000E+000
  0.000000000000000E+000
  0.000000000000000E+000
  0.000000000000000E+000
  0.000000000000000E+000
  0.000000000000000E+000
  0.000000000000000E+000
  0.000000000000000E+000
  0.000000000000000E+000
  0.000000000000000E+000
  0.000000000000000E+000
  0.000000000000000E+000
  0.000000000000000E+000
  0.000000000000000E+000
  0.000000000000000E+000
  0.000000000000000E+000
  0.000000000000000E+000
  0.000000000000000E+000
  0.000000000000000E+000
  0.000000000000000E+000
  0.000000000000000E+000
  0.000000000000000E+000
  0.000000000000000E+000
  0.000000000000000E+000
  0.000000000000000E+000
  0.000000000000000E+000
  0.000000000000000E+000
  0.000000000000000E+000
  0.000000000000000E+000
  0.000000000000000E+000
  0.000000000000000E+000
  0.000000000000000E+000
  0.000000000000000E+000
  0.000000000000000E+000
  0.000000000000000E+000
  0.000000000000000E+000
  0.000000000000000E+000
  0.000000000000000E+000
  0.000000000000000E+000
  0.000000000000000E+000
  0.000000000000000E+000
  0.000000000000000E+000
  0.000000000000000E+000
  0.000000000000000E+000
  0.000000000000000E+000
  0.000000000000000E+000
  0.000000000000000E+000
  0.000000000000000E+000
  0.000000000000000E+000
  0.000000000000000E+000
  0.000000000000000E+000
  0.000000000000000E+000
  0.000000000000000E+000
  0.000000000000000E+000
  0.000000000000000E+000
  0.000000000000000E+000
  0.000000000000000E+000
  0.000000000000000E+000
  0.000000000000000E+000
  0.000000000000000E+000
  0.000000000000000E+000
  0.000000000000000E+000
  0.000000000000000E+000
  0.000000000000000E+000
  0.000000000000000E+000
  0.000000000000000E+000
  0.000000000000000E+000
  0.000000000000000E+000
  0.000000000000000E+000
  0.000000000000000E+000
  0.000000000000000E+000
  0.000000000000000E+000
  0.000000000000000E+000
  0.000000000000000E+000
  0.000000000000000E+000
  0.000000000000000E+000
  0.000000000000000E+000
  0.000000000000000E+000
  0.000000000000000E+000
  0.000000000000000E+000
  0.000000000000000E+000
  0.000000000000000E+000
  0.000000000000000E+000
  0.000000000000000E+000
  0.000000000000000E+000
  0.000000000000000E+000
  0.000000000000000E+000
  0.000000000000000E+000
  0.000000000000000E+000
  0.000000000000000E+000
  0.000000000000000E+000
  0.000000000000000E+000
  0.000000000000000E+000
  0.000000000000000E+000
  0.000000000000000E+000
  0.000000000000000E+000
  0.000000000000000E+000
  0.000000000000000E+000
  0.000000000000000E+000
  0.000000000000000E+000
  0.000000000000000E+000
  0.000000000000000E+000
  0.000000000000000E+000
  0.000000000000000E+000
  0.000000000000000E+000
  0.000000000000000E+000
  0.000000000000000E+000
  0.000000000000000E+000
  0.000000000000000E+000
  0.000000000000000E+000
  0.000000000000000E+000
  0.000000000000000E+000
  0.000000000000000E+000
  0.000000000000000E+000
  0.000000000000000E+000
  0.000000000000000E+000
  0.000000000000000E+000
  0.000000000000000E+000
  0.000000000000000E+000
  0.000000000000000E+000
  0.000000000000000E+000
  0.000000000000000E+000
  0.000000000000000E+000
  0.000000000000000E+000
  0.000000000000000E+000
  0.000000000000000E+000
  0.000000000000000E+000
  0.000000000000000E+000
  0.000000000000000E+000
  0.000000000000000E+000
  0.000000000000000E+000
  0.000000000000000E+000
  0.000000000000000E+000
  0.000000000000000E+000
  0.000000000000000E+000
  0.000000000000000E+000
  0.000000000000000E+000
  0.000000000000000E+000
  0.000000000000000E+000
  0.000000000000000E+000
  0.000000000000000E+000
  0.000000000000000E+000
  0.000000000000000E+000
  0.000000000000000E+000
  0.000000000000000E+000
  0.000000000000000E+000
  0.000000000000000E+000
  0.000000000000000E+000
  0.000000000000000E+000
  0.000000000000000E+000
  0.000000000000000E+000
  0.000000000000000E+000
  0.000000000000000E+000
  0.000000000000000E+000
  0.000000000000000E+000
  0.000000000000000E+000
  0.000000000000000E+000
  0.000000000000000E+000
  0.000000000000000E+000
  0.000000000000000E+000
  0.000000000000000E+000
  0.000000000000000E+000
  0.000000000000000E+000
  0.000000000000000E+000
  0.000000000000000E+000
  0.000000000000000E+000
  0.000000000000000E+000
  0.000000000000000E+000
  0.000000000000000E+000
  0.000000000000000E+000
  0.000000000000000E+000
  0.000000000000000E+000
  0.000000000000000E+000
  0.000000000000000E+000
  0.000000000000000E+000
  0.000000000000000E+000
  0.000000000000000E+000
  0.000000000000000E+000
  0.000000000000000E+000
  0.000000000000000E+000
  0.000000000000000E+000
  0.000000000000000E+000
  0.000000000000000E+000
  0.000000000000000E+000
  0.000000000000000E+000
  0.000000000000000E+000
  0.000000000000000E+000
  0.000000000000000E+000
  0.000000000000000E+000
  0.000000000000000E+000
  0.000000000000000E+000
  0.000000000000000E+000
  0.000000000000000E+000
  0.000000000000000E+000
  0.000000000000000E+000
  0.000000000000000E+000
  0.000000000000000E+000
  0.000000000000000E+000
  0.000000000000000E+000
  0.000000000000000E+000
  0.000000000000000E+000
  0.000000000000000E+000
  0.000000000000000E+000
  0.000000000000000E+000
  0.000000000000000E+000
  0.000000000000000E+000
  0.000000000000000E+000
  0.000000000000000E+000
  0.000000000000000E+000
  0.000000000000000E+000
  0.000000000000000E+000
  0.000000000000000E+000
  0.000000000000000E+000
  0.000000000000000E+000
  0.000000000000000E+000
  0.000000000000000E+000
  0.000000000000000E+000
  0.000000000000000E+000
  0.000000000000000E+000
  0.000000000000000E+000
  0.000000000000000E+000
  0.000000000000000E+000
  0.000000000000000E+000
  0.000000000000000E+000
  0.000000000000000E+000
  0.000000000000000E+000
  0.000000000000000E+000
  0.000000000000000E+000
  0.000000000000000E+000
  0.000000000000000E+000
  0.000000000000000E+000
  0.000000000000000E+000
  0.000000000000000E+000
  0.000000000000000E+000
  0.000000000000000E+000
  0.000000000000000E+000
  0.000000000000000E+000
  0.000000000000000E+000
  0.000000000000000E+000
  0.000000000000000E+000
  0.000000000000000E+000
  0.000000000000000E+000
  0.000000000000000E+000
  0.000000000000000E+000
  0.000000000000000E+000
  0.000000000000000E+000
  0.000000000000000E+000
  0.000000000000000E+000
  0.000000000000000E+000
  0.000000000000000E+000
  0.000000000000000E+000
  0.000000000000000E+000
  0.000000000000000E+000
  0.000000000000000E+000
  0.000000000000000E+000
  0.000000000000000E+000
  0.000000000000000E+000
  0.000000000000000E+000
  0.000000000000000E+000
  0.000000000000000E+000
  0.000000000000000E+000
  0.000000000000000E+000
  0.000000000000000E+000
  0.000000000000000E+000
  0.000000000000000E+000
  0.000000000000000E+000
  0.000000000000000E+000
  0.000000000000000E+000
  0.000000000000000E+000
  0.000000000000000E+000
  0.000000000000000E+000
  0.000000000000000E+000
  0.000000000000000E+000
  0.000000000000000E+000
  0.000000000000000E+000
  0.000000000000000E+000
  0.000000000000000E+000
  0.000000000000000E+000
  0.000000000000000E+000
  0.000000000000000E+000
  0.000000000000000E+000
  0.000000000000000E+000
  0.000000000000000E+000
  0.000000000000000E+000
  0.000000000000000E+000
  0.000000000000000E+000
  0.000000000000000E+000
  0.000000000000000E+000
  0.000000000000000E+000
  0.000000000000000E+000
  0.000000000000000E+000
  0.000000000000000E+000
  0.000000000000000E+000
  0.000000000000000E+000
  0.000000000000000E+000
  0.000000000000000E+000
  0.000000000000000E+000
  0.000000000000000E+000
  0.000000000000000E+000
  0.000000000000000E+000
  0.000000000000000E+000
  0.000000000000000E+000
  0.000000000000000E+000
  0.000000000000000E+000
  0.000000000000000E+000
  0.000000000000000E+000
  0.000000000000000E+000
  0.000000000000000E+000
  0.000000000000000E+000
  0.000000000000000E+000
  0.000000000000000E+000
  0.000000000000000E+000
  0.000000000000000E+000
  0.000000000000000E+000
  0.000000000000000E+000
  0.000000000000000E+000
  0.000000000000000E+000
  0.000000000000000E+000
  0.000000000000000E+000
  0.000000000000000E+000
  0.000000000000000E+000
  0.000000000000000E+000
  0.000000000000000E+000
  0.000000000000000E+000
  0.000000000000000E+000
  0.000000000000000E+000
  0.000000000000000E+000
  0.000000000000000E+000
  0.000000000000000E+000
  0.000000000000000E+000
  0.000000000000000E+000
  0.000000000000000E+000
  0.000000000000000E+000
  0.000000000000000E+000
  0.000000000000000E+000
  0.000000000000000E+000
  0.000000000000000E+000
  0.000000000000000E+000
  0.000000000000000E+000
  0.000000000000000E+000
  0.000000000000000E+000
  0.000000000000000E+000
  0.000000000000000E+000
  0.000000000000000E+000
  0.000000000000000E+000
  0.000000000000000E+000
  0.000000000000000E+000
  0.000000000000000E+000
  0.000000000000000E+000
  0.000000000000000E+000
  0.000000000000000E+000
  0.000000000000000E+000
  0.000000000000000E+000
  0.000000000000000E+000
  0.000000000000000E+000
  0.000000000000000E+000
  0.000000000000000E+000
  0.000000000000000E+000
  0.000000000000000E+000
  0.000000000000000E+000
  0.000000000000000E+000
  0.000000000000000E+000
  0.000000000000000E+000
  0.000000000000000E+000
  0.000000000000000E+000
  0.000000000000000E+000
  0.000000000000000E+000
  0.000000000000000E+000
  0.000000000000000E+000
  0.000000000000000E+000
  0.000000000000000E+000
  0.000000000000000E+000
  0.000000000000000E+000
  0.000000000000000E+000
  0.000000000000000E+000
  0.000000000000000E+000
  0.000000000000000E+000
  0.000000000000000E+000
  0.000000000000000E+000
  0.000000000000000E+000
  0.000000000000000E+000
  0.000000000000000E+000
  0.000000000000000E+000
  0.000000000000000E+000
  0.000000000000000E+000
  0.000000000000000E+000
  0.000000000000000E+000
  0.000000000000000E+000
  0.000000000000000E+000
  0.000000000000000E+000
  0.000000000000000E+000
  0.000000000000000E+000
  0.000000000000000E+000
  0.000000000000000E+000
  0.000000000000000E+000
  0.000000000000000E+000
  0.000000000000000E+000
  0.000000000000000E+000
  0.000000000000000E+000
  0.000000000000000E+000
  0.000000000000000E+000
  0.000000000000000E+000
  0.000000000000000E+000
  0.000000000000000E+000
  0.000000000000000E+000
  0.000000000000000E+000
  0.000000000000000E+000
  0.000000000000000E+000
  0.000000000000000E+000
  0.000000000000000E+000
  0.000000000000000E+000
  0.000000000000000E+000
  0.000000000000000E+000
  0.000000000000000E+000
  0.000000000000000E+000
  0.000000000000000E+000
  0.000000000000000E+000
  0.000000000000000E+000
  0.000000000000000E+000
  0.000000000000000E+000
  0.000000000000000E+000
  0.000000000000000E+000
  0.000000000000000E+000
  0.000000000000000E+000
  0.000000000000000E+000
  0.000000000000000E+000
  0.000000000000000E+000
  0.000000000000000E+000
  0.000000000000000E+000
  0.000000000000000E+000
  0.000000000000000E+000
  0.000000000000000E+000
  0.000000000000000E+000
  0.000000000000000E+000
  0.000000000000000E+000
  0.000000000000000E+000
  0.000000000000000E+000
  0.000000000000000E+000
  0.000000000000000E+000
  0.000000000000000E+000
  0.000000000000000E+000
  0.000000000000000E+000
  0.000000000000000E+000
  0.000000000000000E+000
  0.000000000000000E+000
  0.000000000000000E+000
  0.000000000000000E+000
  0.000000000000000E+000
  0.000000000000000E+000
  0.000000000000000E+000
  0.000000000000000E+000
  0.000000000000000E+000
  0.000000000000000E+000
  0.000000000000000E+000
  0.000000000000000E+000
  0.000000000000000E+000
  0.000000000000000E+000
  0.000000000000000E+000
  0.000000000000000E+000
  0.000000000000000E+000
  0.000000000000000E+000
  0.000000000000000E+000
  0.000000000000000E+000
  0.000000000000000E+000
  0.000000000000000E+000
  0.000000000000000E+000
  0.000000000000000E+000
  0.000000000000000E+000
  0.000000000000000E+000
  0.000000000000000E+000
  0.000000000000000E+000
  0.000000000000000E+000
  0.000000000000000E+000
  0.000000000000000E+000
  0.000000000000000E+000
  0.000000000000000E+000
  0.000000000000000E+000
  0.000000000000000E+000
  0.000000000000000E+000
  0.000000000000000E+000
  0.000000000000000E+000
  0.000000000000000E+000
  0.000000000000000E+000
  0.000000000000000E+000
  0.000000000000000E+000
  0.000000000000000E+000
  0.000000000000000E+000
  0.000000000000000E+000
  0.000000000000000E+000
  0.000000000000000E+000
  0.000000000000000E+000
  0.000000000000000E+000
  0.000000000000000E+000
  0.000000000000000E+000
  0.000000000000000E+000
  0.000000000000000E+000
  0.000000000000000E+000
  0.000000000000000E+000
  0.000000000000000E+000
  0.000000000000000E+000
  0.000000000000000E+000
  0.000000000000000E+000
  0.000000000000000E+000
  0.000000000000000E+000
  0.000000000000000E+000
  0.000000000000000E+000
  0.000000000000000E+000
  0.000000000000000E+000
  0.000000000000000E+000
  0.000000000000000E+000
  0.000000000000000E+000
  0.000000000000000E+000
  0.000000000000000E+000
  0.000000000000000E+000
  0.000000000000000E+000
  0.000000000000000E+000
  0.000000000000000E+000
  0.000000000000000E+000
  0.000000000000000E+000
  0.000000000000000E+000
  0.000000000000000E+000
  0.000000000000000E+000
  0.000000000000000E+000
  0.000000000000000E+000
  0.000000000000000E+000
  0.000000000000000E+000
  0.000000000000000E+000
  0.000000000000000E+000
  0.000000000000000E+000
  0.000000000000000E+000
  0.000000000000000E+000
  0.000000000000000E+000
  0.000000000000000E+000
  0.000000000000000E+000
  0.000000000000000E+000
  0.000000000000000E+000
  0.000000000000000E+000
  0.000000000000000E+000
  0.000000000000000E+000
  0.000000000000000E+000
  0.000000000000000E+000
  0.000000000000000E+000
  0.000000000000000E+000
  0.000000000000000E+000
  0.000000000000000E+000
  0.000000000000000E+000
  0.000000000000000E+000
  0.000000000000000E+000
  0.000000000000000E+000
  0.000000000000000E+000
  0.000000000000000E+000
  0.000000000000000E+000
  0.000000000000000E+000
  0.000000000000000E+000
  0.000000000000000E+000
  0.000000000000000E+000
  0.000000000000000E+000
  0.000000000000000E+000
  0.000000000000000E+000
  0.000000000000000E+000
  0.000000000000000E+000
  0.000000000000000E+000
  0.000000000000000E+000
  0.000000000000000E+000
  0.000000000000000E+000
  0.000000000000000E+000
  0.000000000000000E+000
  0.000000000000000E+000
  0.000000000000000E+000
  0.000000000000000E+000
  0.000000000000000E+000
  0.000000000000000E+000
  0.000000000000000E+000
  0.000000000000000E+000
  0.000000000000000E+000
  0.000000000000000E+000
  0.000000000000000E+000
  0.000000000000000E+000
  0.000000000000000E+000
  0.000000000000000E+000
  0.000000000000000E+000
  0.000000000000000E+000
  0.000000000000000E+000
  0.000000000000000E+000
  0.000000000000000E+000
  0.000000000000000E+000
  0.000000000000000E+000
  0.000000000000000E+000
  0.000000000000000E+000
  0.000000000000000E+000
  0.000000000000000E+000
  0.000000000000000E+000
  0.000000000000000E+000
  0.000000000000000E+000
  0.000000000000000E+000
  0.000000000000000E+000
  0.000000000000000E+000
  0.000000000000000E+000
  0.000000000000000E+000
  0.000000000000000E+000
  0.000000000000000E+000
  0.000000000000000E+000
  0.000000000000000E+000
  0.000000000000000E+000
  0.000000000000000E+000
  0.000000000000000E+000
  0.000000000000000E+000
  0.000000000000000E+000
  0.000000000000000E+000
  0.000000000000000E+000
  0.000000000000000E+000
  0.000000000000000E+000
  0.000000000000000E+000
  0.000000000000000E+000
  0.000000000000000E+000
  0.000000000000000E+000
  0.000000000000000E+000
  0.000000000000000E+000
  0.000000000000000E+000
  0.000000000000000E+000
  0.000000000000000E+000
  0.000000000000000E+000
  0.000000000000000E+000
  0.000000000000000E+000
  0.000000000000000E+000
  0.000000000000000E+000
  0.000000000000000E+000
  0.000000000000000E+000
  0.000000000000000E+000
  0.000000000000000E+000
  0.000000000000000E+000
  0.000000000000000E+000
  0.000000000000000E+000
  0.000000000000000E+000
  0.000000000000000E+000
  0.000000000000000E+000
  0.000000000000000E+000
  0.000000000000000E+000
  0.000000000000000E+000
  0.000000000000000E+000
  0.000000000000000E+000
  0.000000000000000E+000
  0.000000000000000E+000
  0.000000000000000E+000
  0.000000000000000E+000
  0.000000000000000E+000
  0.000000000000000E+000
  0.000000000000000E+000
  0.000000000000000E+000
  0.000000000000000E+000
  0.000000000000000E+000
  0.000000000000000E+000
  0.000000000000000E+000
  0.000000000000000E+000
  0.000000000000000E+000
  0.000000000000000E+000
  0.000000000000000E+000
  0.000000000000000E+000
  0.000000000000000E+000
  0.000000000000000E+000
  0.000000000000000E+000
  0.000000000000000E+000
  0.000000000000000E+000
  0.000000000000000E+000
  0.000000000000000E+000
  0.000000000000000E+000
  0.000000000000000E+000
  0.000000000000000E+000
  0.000000000000000E+000
  0.000000000000000E+000
  0.000000000000000E+000
  0.000000000000000E+000
  0.000000000000000E+000
  0.000000000000000E+000
  0.000000000000000E+000
  0.000000000000000E+000
  0.000000000000000E+000
  0.000000000000000E+000
  0.000000000000000E+000
  0.000000000000000E+000
  0.000000000000000E+000
  0.000000000000000E+000
  0.000000000000000E+000
  0.000000000000000E+000
  0.000000000000000E+000
  0.000000000000000E+000
  0.000000000000000E+000
  0.000000000000000E+000
  0.000000000000000E+000
  0.000000000000000E+000
  0.000000000000000E+000
  0.000000000000000E+000
  0.000000000000000E+000
  0.000000000000000E+000
  0.000000000000000E+000
  0.000000000000000E+000
  0.000000000000000E+000
  0.000000000000000E+000
  0.000000000000000E+000
  0.000000000000000E+000
  0.000000000000000E+000
  0.000000000000000E+000
  0.000000000000000E+000
  0.000000000000000E+000
  0.000000000000000E+000
  0.000000000000000E+000
  0.000000000000000E+000
  0.000000000000000E+000
  0.000000000000000E+000
  0.000000000000000E+000
  0.000000000000000E+000
  0.000000000000000E+000
  0.000000000000000E+000
  0.000000000000000E+000
  0.000000000000000E+000
  0.000000000000000E+000
  0.000000000000000E+000
  0.000000000000000E+000
  0.000000000000000E+000
  0.000000000000000E+000
  0.000000000000000E+000
  0.000000000000000E+000
  0.000000000000000E+000
  0.000000000000000E+000
  0.000000000000000E+000
  0.000000000000000E+000
  0.000000000000000E+000
  0.000000000000000E+000
  0.000000000000000E+000
  0.000000000000000E+000
  0.000000000000000E+000
  0.000000000000000E+000
  0.000000000000000E+000
  0.000000000000000E+000
  0.000000000000000E+000
  0.000000000000000E+000
  0.000000000000000E+000
  0.000000000000000E+000
  0.000000000000000E+000
  0.000000000000000E+000
  0.000000000000000E+000
  0.000000000000000E+000
  0.000000000000000E+000
  0.000000000000000E+000
  0.000000000000000E+000
  0.000000000000000E+000
  0.000000000000000E+000
  0.000000000000000E+000
  0.000000000000000E+000
  0.000000000000000E+000
  0.000000000000000E+000
  0.000000000000000E+000
  0.000000000000000E+000
  0.000000000000000E+000
  0.000000000000000E+000
  0.000000000000000E+000
  0.000000000000000E+000
  0.000000000000000E+000
  0.000000000000000E+000
  0.000000000000000E+000
  0.000000000000000E+000
  0.000000000000000E+000
  0.000000000000000E+000
  0.000000000000000E+000
  0.000000000000000E+000
  0.000000000000000E+000
  0.000000000000000E+000
  0.000000000000000E+000
  0.000000000000000E+000
  0.000000000000000E+000
  0.000000000000000E+000
  0.000000000000000E+000
  0.000000000000000E+000
  0.000000000000000E+000
  0.000000000000000E+000
  0.000000000000000E+000
  0.000000000000000E+000
  0.000000000000000E+000
  0.000000000000000E+000
  0.000000000000000E+000
  0.000000000000000E+000
  0.000000000000000E+000
  0.000000000000000E+000
  0.000000000000000E+000
  0.000000000000000E+000
  0.000000000000000E+000
  0.000000000000000E+000
  0.000000000000000E+000
  0.000000000000000E+000
  0.000000000000000E+000
  0.000000000000000E+000
  0.000000000000000E+000
  0.000000000000000E+000
  0.000000000000000E+000
  0.000000000000000E+000
  0.000000000000000E+000
  0.000000000000000E+000
  0.000000000000000E+000
  0.000000000000000E+000
  0.000000000000000E+000
  0.000000000000000E+000
  0.000000000000000E+000
  0.000000000000000E+000
  0.000000000000000E+000
  0.000000000000000E+000
  0.000000000000000E+000
  0.000000000000000E+000
  0.000000000000000E+000
  0.000000000000000E+000
  0.000000000000000E+000
  0.000000000000000E+000
  0.000000000000000E+000
  0.000000000000000E+000
  0.000000000000000E+000
  0.000000000000000E+000
  0.000000000000000E+000
  0.000000000000000E+000
  0.000000000000000E+000
  0.000000000000000E+000
  0.000000000000000E+000
  0.000000000000000E+000
  0.000000000000000E+000
  0.000000000000000E+000
  0.000000000000000E+000
  0.000000000000000E+000
  0.000000000000000E+000
  0.000000000000000E+000
  0.000000000000000E+000
  0.000000000000000E+000
  0.000000000000000E+000
  0.000000000000000E+000
  0.000000000000000E+000
  0.000000000000000E+000
  0.000000000000000E+000
  0.000000000000000E+000
  0.000000000000000E+000
  0.000000000000000E+000
  0.000000000000000E+000
  0.000000000000000E+000
  0.000000000000000E+000
  0.000000000000000E+000
  0.000000000000000E+000
  0.000000000000000E+000
  0.000000000000000E+000
  0.000000000000000E+000
  0.000000000000000E+000
  0.000000000000000E+000
  0.000000000000000E+000
  0.000000000000000E+000
  0.000000000000000E+000
  0.000000000000000E+000
  0.000000000000000E+000
  0.000000000000000E+000
  0.000000000000000E+000
  0.000000000000000E+000
  0.000000000000000E+000
  0.000000000000000E+000
  0.000000000000000E+000
  0.000000000000000E+000
  0.000000000000000E+000
  0.000000000000000E+000
  0.000000000000000E+000
  0.000000000000000E+000
  0.000000000000000E+000
  0.000000000000000E+000
  0.000000000000000E+000
  0.000000000000000E+000
  0.000000000000000E+000
  0.000000000000000E+000
  0.000000000000000E+000
  0.000000000000000E+000
  0.000000000000000E+000
  0.000000000000000E+000
  0.000000000000000E+000
  0.000000000000000E+000
  0.000000000000000E+000
  0.000000000000000E+000
  0.000000000000000E+000
  0.000000000000000E+000
  0.000000000000000E+000
  0.000000000000000E+000
  0.000000000000000E+000
  0.000000000000000E+000
  0.000000000000000E+000
  0.000000000000000E+000
  0.000000000000000E+000
  0.000000000000000E+000
  0.000000000000000E+000
  0.000000000000000E+000
  0.000000000000000E+000
  0.000000000000000E+000
  0.000000000000000E+000
  0.000000000000000E+000
  0.000000000000000E+000
  0.000000000000000E+000
  0.000000000000000E+000
  0.000000000000000E+000
  0.000000000000000E+000
  0.000000000000000E+000
  0.000000000000000E+000
  0.000000000000000E+000
  0.000000000000000E+000
  0.000000000000000E+000
  0.000000000000000E+000
  0.000000000000000E+000
  0.000000000000000E+000
  0.000000000000000E+000
  0.000000000000000E+000
  0.000000000000000E+000
  0.000000000000000E+000
  0.000000000000000E+000
  0.000000000000000E+000
  0.000000000000000E+000
  0.000000000000000E+000
  0.000000000000000E+000
  0.000000000000000E+000
  0.000000000000000E+000
  0.000000000000000E+000
  0.000000000000000E+000
  0.000000000000000E+000
  0.000000000000000E+000
  0.000000000000000E+000
  0.000000000000000E+000
  0.000000000000000E+000
  0.000000000000000E+000
  0.000000000000000E+000
  0.000000000000000E+000
  0.000000000000000E+000
  0.000000000000000E+000
  0.000000000000000E+000
  0.000000000000000E+000
  0.000000000000000E+000
  0.000000000000000E+000
  0.000000000000000E+000
  0.000000000000000E+000
  0.000000000000000E+000
  0.000000000000000E+000
  0.000000000000000E+000
  0.000000000000000E+000
  0.000000000000000E+000
  0.000000000000000E+000
  0.000000000000000E+000
  0.000000000000000E+000
  0.000000000000000E+000
  0.000000000000000E+000
  0.000000000000000E+000
  0.000000000000000E+000
  0.000000000000000E+000
  0.000000000000000E+000
  0.000000000000000E+000
  0.000000000000000E+000
  0.000000000000000E+000
  0.000000000000000E+000
  0.000000000000000E+000
  0.000000000000000E+000
  0.000000000000000E+000
  0.000000000000000E+000
  0.000000000000000E+000
  0.000000000000000E+000
  0.000000000000000E+000
  0.000000000000000E+000
  0.000000000000000E+000
  0.000000000000000E+000
  0.000000000000000E+000
  0.000000000000000E+000
  0.000000000000000E+000
  0.000000000000000E+000
  0.000000000000000E+000
  0.000000000000000E+000
  0.000000000000000E+000
  0.000000000000000E+000
  0.000000000000000E+000
  0.000000000000000E+000
  0.000000000000000E+000
  0.000000000000000E+000
  0.000000000000000E+000
  0.000000000000000E+000
  0.000000000000000E+000
  0.000000000000000E+000
  0.000000000000000E+000
  0.000000000000000E+000
  0.000000000000000E+000
  0.000000000000000E+000
  0.000000000000000E+000
  0.000000000000000E+000
  0.000000000000000E+000
  0.000000000000000E+000
  0.000000000000000E+000
  0.000000000000000E+000
  0.000000000000000E+000
  0.000000000000000E+000
  0.000000000000000E+000
  0.000000000000000E+000
  0.000000000000000E+000
  0.000000000000000E+000
  0.000000000000000E+000
  0.000000000000000E+000
  0.000000000000000E+000
  0.000000000000000E+000
  0.000000000000000E+000
  0.000000000000000E+000
  0.000000000000000E+000
  0.000000000000000E+000
  0.000000000000000E+000
  0.000000000000000E+000
  0.000000000000000E+000
  0.000000000000000E+000
  0.000000000000000E+000
  0.000000000000000E+000
  0.000000000000000E+000
  0.000000000000000E+000
  0.000000000000000E+000
  0.000000000000000E+000
  0.000000000000000E+000
  0.000000000000000E+000
  0.000000000000000E+000
  0.000000000000000E+000
  0.000000000000000E+000
  0.000000000000000E+000
  0.000000000000000E+000
  0.000000000000000E+000
  0.000000000000000E+000
  0.000000000000000E+000
  0.000000000000000E+000
  0.000000000000000E+000
  0.000000000000000E+000
  0.000000000000000E+000
  0.000000000000000E+000
  0.000000000000000E+000
  0.000000000000000E+000
  0.000000000000000E+000
  0.000000000000000E+000
  0.000000000000000E+000
  0.000000000000000E+000
  0.000000000000000E+000
  0.000000000000000E+000
  0.000000000000000E+000
  0.000000000000000E+000
  0.000000000000000E+000
  0.000000000000000E+000
  0.000000000000000E+000
  0.000000000000000E+000
  0.000000000000000E+000
  0.000000000000000E+000
  0.000000000000000E+000
  0.000000000000000E+000
  0.000000000000000E+000
  0.000000000000000E+000
  0.000000000000000E+000
  0.000000000000000E+000
  0.000000000000000E+000
  0.000000000000000E+000
  0.000000000000000E+000
  0.000000000000000E+000
  0.000000000000000E+000
  0.000000000000000E+000
  0.000000000000000E+000
  0.000000000000000E+000
  0.000000000000000E+000
  0.000000000000000E+000
  0.000000000000000E+000
  0.000000000000000E+000
  0.000000000000000E+000
  0.000000000000000E+000
  0.000000000000000E+000
  0.000000000000000E+000
  0.000000000000000E+000
  0.000000000000000E+000
  0.000000000000000E+000
  0.000000000000000E+000
  0.000000000000000E+000
  0.000000000000000E+000
  0.000000000000000E+000
  0.000000000000000E+000
  0.000000000000000E+000
  0.000000000000000E+000
  0.000000000000000E+000
  0.000000000000000E+000
  0.000000000000000E+000
  0.000000000000000E+000
  0.000000000000000E+000
  0.000000000000000E+000
  0.000000000000000E+000
  0.000000000000000E+000
  0.000000000000000E+000
  0.000000000000000E+000
  0.000000000000000E+000
  0.000000000000000E+000
  0.000000000000000E+000
  0.000000000000000E+000
  0.000000000000000E+000
  0.000000000000000E+000
  0.000000000000000E+000
  0.000000000000000E+000
  0.000000000000000E+000
  0.000000000000000E+000
  0.000000000000000E+000
  0.000000000000000E+000
  0.000000000000000E+000
  0.000000000000000E+000
  0.000000000000000E+000
  0.000000000000000E+000
  0.000000000000000E+000
  0.000000000000000E+000
  0.000000000000000E+000
  0.000000000000000E+000
  0.000000000000000E+000
  0.000000000000000E+000
  0.000000000000000E+000
  0.000000000000000E+000
  0.000000000000000E+000
  0.000000000000000E+000
  0.000000000000000E+000
  0.000000000000000E+000
  0.000000000000000E+000
  0.000000000000000E+000
  0.000000000000000E+000
  0.000000000000000E+000
  0.000000000000000E+000
  0.000000000000000E+000
  0.000000000000000E+000
  0.000000000000000E+000
  0.000000000000000E+000
  0.000000000000000E+000
  0.000000000000000E+000
  0.000000000000000E+000
  0.000000000000000E+000
  0.000000000000000E+000
  0.000000000000000E+000
  0.000000000000000E+000
  0.000000000000000E+000
  0.000000000000000E+000
  0.000000000000000E+000
  0.000000000000000E+000
  0.000000000000000E+000
  0.000000000000000E+000
  0.000000000000000E+000
  0.000000000000000E+000
  0.000000000000000E+000
  0.000000000000000E+000
  0.000000000000000E+000
  0.000000000000000E+000
  0.000000000000000E+000
  0.000000000000000E+000
  0.000000000000000E+000
  0.000000000000000E+000
  0.000000000000000E+000
  0.000000000000000E+000
  0.000000000000000E+000
  0.000000000000000E+000
  0.000000000000000E+000
  0.000000000000000E+000
  0.000000000000000E+000
  0.000000000000000E+000
  0.000000000000000E+000
  0.000000000000000E+000
  0.000000000000000E+000
  0.000000000000000E+000
  0.000000000000000E+000
  0.000000000000000E+000
  0.000000000000000E+000
  0.000000000000000E+000
  0.000000000000000E+000
  0.000000000000000E+000
  0.000000000000000E+000
  0.000000000000000E+000
  0.000000000000000E+000
  0.000000000000000E+000
  0.000000000000000E+000
  0.000000000000000E+000
  0.000000000000000E+000
  0.000000000000000E+000
  0.000000000000000E+000
  0.000000000000000E+000
  0.000000000000000E+000
  0.000000000000000E+000
  0.000000000000000E+000
  0.000000000000000E+000
  0.000000000000000E+000
  0.000000000000000E+000
  0.000000000000000E+000
  0.000000000000000E+000
  0.000000000000000E+000
  0.000000000000000E+000
  0.000000000000000E+000
  0.000000000000000E+000
  0.000000000000000E+000
  0.000000000000000E+000
  0.000000000000000E+000
  0.000000000000000E+000
  0.000000000000000E+000
  0.000000000000000E+000
  0.000000000000000E+000
  0.000000000000000E+000
  0.000000000000000E+000
  0.000000000000000E+000
  0.000000000000000E+000
  0.000000000000000E+000
  0.000000000000000E+000
  0.000000000000000E+000
  0.000000000000000E+000
  0.000000000000000E+000
  0.000000000000000E+000
  0.000000000000000E+000
  0.000000000000000E+000
  0.000000000000000E+000
  0.000000000000000E+000
  0.000000000000000E+000
  0.000000000000000E+000
  0.000000000000000E+000
  0.000000000000000E+000
  0.000000000000000E+000
  0.000000000000000E+000
  0.000000000000000E+000
  0.000000000000000E+000
  0.000000000000000E+000
  0.000000000000000E+000
  0.000000000000000E+000
  0.000000000000000E+000
  0.000000000000000E+000
  0.000000000000000E+000
  0.000000000000000E+000
  0.000000000000000E+000
  0.000000000000000E+000
  0.000000000000000E+000
  0.000000000000000E+000
  0.000000000000000E+000
  0.000000000000000E+000
  0.000000000000000E+000
  0.000000000000000E+000
  0.000000000000000E+000
  0.000000000000000E+000
  0.000000000000000E+000
  0.000000000000000E+000
  0.000000000000000E+000
  0.000000000000000E+000
  0.000000000000000E+000
  0.000000000000000E+000
  0.000000000000000E+000
  0.000000000000000E+000
  0.000000000000000E+000
  0.000000000000000E+000
  0.000000000000000E+000
  0.000000000000000E+000
  0.000000000000000E+000
  0.000000000000000E+000
  0.000000000000000E+000
  0.000000000000000E+000
  0.000000000000000E+000
  0.000000000000000E+000
  0.000000000000000E+000
  0.000000000000000E+000
  0.000000000000000E+000
  0.000000000000000E+000
  0.000000000000000E+000
  0.000000000000000E+000
  0.000000000000000E+000
  0.000000000000000E+000
  0.000000000000000E+000
  0.000000000000000E+000
  0.000000000000000E+000
  0.000000000000000E+000
  0.000000000000000E+000
  0.000000000000000E+000
  0.000000000000000E+000
  0.000000000000000E+000
  0.000000000000000E+000
  0.000000000000000E+000
  0.000000000000000E+000
  0.000000000000000E+000
  0.000000000000000E+000
  0.000000000000000E+000
  0.000000000000000E+000
  0.000000000000000E+000
  0.000000000000000E+000
  0.000000000000000E+000
  0.000000000000000E+000
  0.000000000000000E+000
  0.000000000000000E+000
  0.000000000000000E+000
  0.000000000000000E+000
  0.000000000000000E+000
  0.000000000000000E+000
  0.000000000000000E+000
  0.000000000000000E+000
  0.000000000000000E+000
  0.000000000000000E+000
  0.000000000000000E+000
  0.000000000000000E+000
  0.000000000000000E+000
  0.000000000000000E+000
  0.000000000000000E+000
  0.000000000000000E+000
  0.000000000000000E+000
  0.000000000000000E+000
  0.000000000000000E+000
  0.000000000000000E+000
  0.000000000000000E+000
  0.000000000000000E+000
  0.000000000000000E+000
  0.000000000000000E+000
  0.000000000000000E+000
  0.000000000000000E+000
  0.000000000000000E+000
  0.000000000000000E+000
  0.000000000000000E+000
  0.000000000000000E+000
  0.000000000000000E+000
  0.000000000000000E+000
  0.000000000000000E+000
  0.000000000000000E+000
  0.000000000000000E+000
  0.000000000000000E+000
  0.000000000000000E+000
  0.000000000000000E+000
  0.000000000000000E+000
  0.000000000000000E+000
  0.000000000000000E+000
  0.000000000000000E+000
  0.000000000000000E+000
  0.000000000000000E+000
  0.000000000000000E+000
  0.000000000000000E+000
  0.000000000000000E+000
  0.000000000000000E+000
  0.000000000000000E+000
  0.000000000000000E+000
  0.000000000000000E+000
  0.000000000000000E+000
  0.000000000000000E+000
  0.000000000000000E+000
  0.000000000000000E+000
  0.000000000000000E+000
  0.000000000000000E+000
  0.000000000000000E+000
  0.000000000000000E+000
  0.000000000000000E+000
  0.000000000000000E+000
  0.000000000000000E+000
  0.000000000000000E+000
  0.000000000000000E+000
  0.000000000000000E+000
  0.000000000000000E+000
  0.000000000000000E+000
  0.000000000000000E+000
  0.000000000000000E+000
  0.000000000000000E+000
  0.000000000000000E+000
  0.000000000000000E+000
  0.000000000000000E+000
  0.000000000000000E+000
  0.000000000000000E+000
  0.000000000000000E+000
  0.000000000000000E+000
  0.000000000000000E+000
  0.000000000000000E+000
  0.000000000000000E+000
  0.000000000000000E+000
  0.000000000000000E+000
  0.000000000000000E+000
  0.000000000000000E+000
  0.000000000000000E+000
  0.000000000000000E+000
  0.000000000000000E+000
  0.000000000000000E+000
  0.000000000000000E+000
  0.000000000000000E+000
  0.000000000000000E+000
  0.000000000000000E+000
  0.000000000000000E+000
  0.000000000000000E+000
  0.000000000000000E+000
  0.000000000000000E+000
  0.000000000000000E+000
  0.000000000000000E+000
  0.000000000000000E+000
  0.000000000000000E+000
  0.000000000000000E+000
  0.000000000000000E+000
  0.000000000000000E+000
  0.000000000000000E+000
  0.000000000000000E+000
  0.000000000000000E+000
  0.000000000000000E+000
  0.000000000000000E+000
  0.000000000000000E+000
  0.000000000000000E+000
  0.000000000000000E+000
  0.000000000000000E+000
  0.000000000000000E+000
  0.000000000000000E+000
  0.000000000000000E+000
  0.000000000000000E+000
  0.000000000000000E+000
  0.000000000000000E+000
  0.000000000000000E+000
  0.000000000000000E+000
  0.000000000000000E+000
  0.000000000000000E+000
  0.000000000000000E+000
  0.000000000000000E+000
  0.000000000000000E+000
  0.000000000000000E+000
  0.000000000000000E+000
  0.000000000000000E+000
  0.000000000000000E+000
  0.000000000000000E+000
  0.000000000000000E+000
  0.000000000000000E+000
  0.000000000000000E+000
  0.000000000000000E+000
  0.000000000000000E+000
  0.000000000000000E+000
  0.000000000000000E+000
  0.000000000000000E+000
  0.000000000000000E+000
  0.000000000000000E+000
  0.000000000000000E+000
  0.000000000000000E+000
  0.000000000000000E+000
  0.000000000000000E+000
  0.000000000000000E+000
  0.000000000000000E+000
  0.000000000000000E+000
  0.000000000000000E+000
  0.000000000000000E+000
  0.000000000000000E+000
  0.000000000000000E+000
  0.000000000000000E+000
  0.000000000000000E+000
  0.000000000000000E+000
  0.000000000000000E+000
  0.000000000000000E+000
  0.000000000000000E+000
  0.000000000000000E+000
  0.000000000000000E+000
  0.000000000000000E+000
  0.000000000000000E+000
  0.000000000000000E+000
  0.000000000000000E+000
  0.000000000000000E+000
  0.000000000000000E+000
  0.000000000000000E+000
  0.000000000000000E+000
  0.000000000000000E+000
  0.000000000000000E+000
  0.000000000000000E+000
  0.000000000000000E+000
  0.000000000000000E+000
  0.000000000000000E+000
  0.000000000000000E+000
  0.000000000000000E+000
  0.000000000000000E+000
  0.000000000000000E+000
  0.000000000000000E+000
  0.000000000000000E+000
  0.000000000000000E+000
  0.000000000000000E+000
  0.000000000000000E+000
  0.000000000000000E+000
  0.000000000000000E+000
  0.000000000000000E+000
  0.000000000000000E+000
  0.000000000000000E+000
  0.000000000000000E+000
  0.000000000000000E+000
  0.000000000000000E+000
  0.000000000000000E+000
  0.000000000000000E+000
  0.000000000000000E+000
  0.000000000000000E+000
  0.000000000000000E+000
  0.000000000000000E+000
  0.000000000000000E+000
  0.000000000000000E+000
  0.000000000000000E+000
  0.000000000000000E+000
  0.000000000000000E+000
  0.000000000000000E+000
  0.000000000000000E+000
  0.000000000000000E+000
  0.000000000000000E+000
  0.000000000000000E+000
  0.000000000000000E+000
  0.000000000000000E+000
  0.000000000000000E+000
  0.000000000000000E+000
  0.000000000000000E+000
  0.000000000000000E+000
  0.000000000000000E+000
  0.000000000000000E+000
  0.000000000000000E+000
  0.000000000000000E+000
  0.000000000000000E+000
  0.000000000000000E+000
  0.000000000000000E+000
  0.000000000000000E+000
  0.000000000000000E+000
  0.000000000000000E+000
  0.000000000000000E+000
  0.000000000000000E+000
  0.000000000000000E+000
  0.000000000000000E+000
  0.000000000000000E+000
  0.000000000000000E+000
  0.000000000000000E+000
  0.000000000000000E+000
  0.000000000000000E+000
  0.000000000000000E+000
  0.000000000000000E+000
  0.000000000000000E+000
  0.000000000000000E+000
  0.000000000000000E+000
  0.000000000000000E+000
  0.000000000000000E+000
  0.000000000000000E+000
  0.000000000000000E+000
  0.000000000000000E+000
  0.000000000000000E+000
  0.000000000000000E+000
  0.000000000000000E+000
  0.000000000000000E+000
  0.000000000000000E+000
  0.000000000000000E+000
  0.000000000000000E+000
  0.000000000000000E+000
  0.000000000000000E+000
  0.000000000000000E+000
  0.000000000000000E+000
  0.000000000000000E+000
  0.000000000000000E+000
  0.000000000000000E+000
  0.000000000000000E+000
  0.000000000000000E+000
  0.000000000000000E+000
  0.000000000000000E+000
  0.000000000000000E+000
  0.000000000000000E+000
  0.000000000000000E+000
  0.000000000000000E+000
  0.000000000000000E+000
  0.000000000000000E+000
  0.000000000000000E+000
  0.000000000000000E+000
  0.000000000000000E+000
  0.000000000000000E+000
  0.000000000000000E+000
  0.000000000000000E+000
  0.000000000000000E+000
  0.000000000000000E+000
  0.000000000000000E+000
  0.000000000000000E+000
  0.000000000000000E+000
  0.000000000000000E+000
  0.000000000000000E+000
  0.000000000000000E+000
  0.000000000000000E+000
  0.000000000000000E+000
  0.000000000000000E+000
  0.000000000000000E+000
  0.000000000000000E+000
  0.000000000000000E+000
  0.000000000000000E+000
  0.000000000000000E+000
  0.000000000000000E+000
  0.000000000000000E+000
  0.000000000000000E+000
  0.000000000000000E+000
  0.000000000000000E+000
  0.000000000000000E+000
  0.000000000000000E+000
  0.000000000000000E+000
  0.000000000000000E+000
  0.000000000000000E+000
  0.000000000000000E+000
  0.000000000000000E+000
  0.000000000000000E+000
  0.000000000000000E+000
  0.000000000000000E+000
  0.000000000000000E+000
  0.000000000000000E+000
  0.000000000000000E+000
  0.000000000000000E+000
  0.000000000000000E+000
  0.000000000000000E+000
  0.000000000000000E+000
  0.000000000000000E+000
  0.000000000000000E+000
  0.000000000000000E+000
  0.000000000000000E+000
  0.000000000000000E+000
  0.000000000000000E+000
  0.000000000000000E+000
  0.000000000000000E+000
  0.000000000000000E+000
  0.000000000000000E+000
  0.000000000000000E+000
  0.000000000000000E+000
  0.000000000000000E+000
  0.000000000000000E+000
  0.000000000000000E+000
  0.000000000000000E+000
  0.000000000000000E+000
  0.000000000000000E+000
  0.000000000000000E+000
  0.000000000000000E+000
  0.000000000000000E+000
  0.000000000000000E+000
  0.000000000000000E+000
  0.000000000000000E+000
  0.000000000000000E+000
  0.000000000000000E+000
  0.000000000000000E+000
  0.000000000000000E+000
  0.000000000000000E+000
  0.000000000000000E+000
  0.000000000000000E+000
  0.000000000000000E+000
  0.000000000000000E+000
  0.000000000000000E+000
  0.000000000000000E+000
  0.000000000000000E+000
  0.000000000000000E+000
  0.000000000000000E+000
  0.000000000000000E+000
  0.000000000000000E+000
  0.000000000000000E+000
  0.000000000000000E+000
  0.000000000000000E+000
  0.000000000000000E+000
  0.000000000000000E+000
  0.000000000000000E+000
  0.000000000000000E+000
  0.000000000000000E+000
  0.000000000000000E+000
  0.000000000000000E+000
  0.000000000000000E+000
  0.000000000000000E+000
  0.000000000000000E+000
  0.000000000000000E+000
  0.000000000000000E+000
  0.000000000000000E+000
  0.000000000000000E+000
  0.000000000000000E+000
  0.000000000000000E+000
  0.000000000000000E+000
  0.000000000000000E+000
  0.000000000000000E+000
  0.000000000000000E+000
  0.000000000000000E+000
  0.000000000000000E+000
  0.000000000000000E+000
  0.000000000000000E+000
  0.000000000000000E+000
  0.000000000000000E+000
  0.000000000000000E+000
  0.000000000000000E+000
  0.000000000000000E+000
  0.000000000000000E+000
  0.000000000000000E+000
  0.000000000000000E+000
  0.000000000000000E+000
  0.000000000000000E+000
  0.000000000000000E+000
  0.000000000000000E+000
  0.000000000000000E+000
  0.000000000000000E+000
  0.000000000000000E+000
  0.000000000000000E+000
  0.000000000000000E+000
  0.000000000000000E+000
  0.000000000000000E+000
  0.000000000000000E+000
  0.000000000000000E+000
  0.000000000000000E+000
  0.000000000000000E+000
  0.000000000000000E+000
  0.000000000000000E+000
  0.000000000000000E+000
  0.000000000000000E+000
  0.000000000000000E+000
  0.000000000000000E+000
  0.000000000000000E+000
  0.000000000000000E+000
  0.000000000000000E+000
  0.000000000000000E+000
  0.000000000000000E+000
  0.000000000000000E+000
  0.000000000000000E+000
  0.000000000000000E+000
  0.000000000000000E+000
  0.000000000000000E+000
  0.000000000000000E+000
  0.000000000000000E+000
  0.000000000000000E+000
  0.000000000000000E+000
  0.000000000000000E+000
  0.000000000000000E+000
  0.000000000000000E+000
  0.000000000000000E+000
  0.000000000000000E+000
  0.000000000000000E+000
  0.000000000000000E+000
  0.000000000000000E+000
  0.000000000000000E+000
  0.000000000000000E+000
  0.000000000000000E+000
  0.000000000000000E+000
  0.000000000000000E+000
  0.000000000000000E+000
  0.000000000000000E+000
  0.000000000000000E+000
  0.000000000000000E+000
  0.000000000000000E+000
  0.000000000000000E+000
  0.000000000000000E+000
  0.000000000000000E+000
  0.000000000000000E+000
  0.000000000000000E+000
  0.000000000000000E+000
  0.000000000000000E+000
  0.000000000000000E+000
  0.000000000000000E+000
  0.000000000000000E+000
  0.000000000000000E+000
  0.000000000000000E+000
  0.000000000000000E+000
  0.000000000000000E+000
  0.000000000000000E+000
  0.000000000000000E+000
  0.000000000000000E+000
  0.000000000000000E+000
  0.000000000000000E+000
  0.000000000000000E+000
  0.000000000000000E+000
  0.000000000000000E+000
  0.000000000000000E+000
  0.000000000000000E+000
  0.000000000000000E+000
  0.000000000000000E+000
  0.000000000000000E+000
  0.000000000000000E+000
  0.000000000000000E+000
  0.000000000000000E+000
  0.000000000000000E+000
  0.000000000000000E+000
  0.000000000000000E+000
  0.000000000000000E+000
  0.000000000000000E+000
  0.000000000000000E+000
  0.000000000000000E+000
  0.000000000000000E+000
  0.000000000000000E+000
  0.000000000000000E+000
  0.000000000000000E+000
  0.000000000000000E+000
  0.000000000000000E+000
  0.000000000000000E+000
  0.000000000000000E+000
  0.000000000000000E+000
  0.000000000000000E+000
  0.000000000000000E+000
  0.000000000000000E+000
  0.000000000000000E+000
  0.000000000000000E+000
  0.000000000000000E+000
  0.000000000000000E+000
  0.000000000000000E+000
  0.000000000000000E+000
  0.000000000000000E+000
  0.000000000000000E+000
  0.000000000000000E+000
  0.000000000000000E+000
  0.000000000000000E+000
  0.000000000000000E+000
  0.000000000000000E+000
  0.000000000000000E+000
  0.000000000000000E+000
  0.000000000000000E+000
  0.000000000000000E+000
  0.000000000000000E+000
  0.000000000000000E+000
  0.000000000000000E+000
  0.000000000000000E+000
  0.000000000000000E+000
  0.000000000000000E+000
  0.000000000000000E+000
  0.000000000000000E+000
  0.000000000000000E+000
  0.000000000000000E+000
  0.000000000000000E+000
  0.000000000000000E+000
  0.000000000000000E+000
  0.000000000000000E+000
  0.000000000000000E+000
  0.000000000000000E+000
  0.000000000000000E+000
  0.000000000000000E+000
  0.000000000000000E+000
  0.000000000000000E+000
  0.000000000000000E+000
  0.000000000000000E+000
  0.000000000000000E+000
  0.000000000000000E+000
  0.000000000000000E+000
  0.000000000000000E+000
  0.000000000000000E+000
  0.000000000000000E+000
  0.000000000000000E+000
  0.000000000000000E+000
  0.000000000000000E+000
  0.000000000000000E+000
  0.000000000000000E+000
  0.000000000000000E+000
  0.000000000000000E+000
  0.000000000000000E+000
  0.000000000000000E+000
  0.000000000000000E+000
  0.000000000000000E+000
  0.000000000000000E+000
  0.000000000000000E+000
  0.000000000000000E+000
  0.000000000000000E+000
  0.000000000000000E+000
  0.000000000000000E+000
  0.000000000000000E+000
  0.000000000000000E+000
  0.000000000000000E+000
  0.000000000000000E+000
  0.000000000000000E+000
  0.000000000000000E+000
  0.000000000000000E+000
  0.000000000000000E+000
  0.000000000000000E+000
  0.000000000000000E+000
  0.000000000000000E+000
  0.000000000000000E+000
  0.000000000000000E+000
  0.000000000000000E+000
  0.000000000000000E+000
  0.000000000000000E+000
  0.000000000000000E+000
  0.000000000000000E+000
  0.000000000000000E+000
  0.000000000000000E+000
  0.000000000000000E+000
  0.000000000000000E+000
  0.000000000000000E+000
  0.000000000000000E+000
  0.000000000000000E+000
  0.000000000000000E+000
  0.000000000000000E+000
  0.000000000000000E+000
  0.000000000000000E+000
  0.000000000000000E+000
  0.000000000000000E+000
  0.000000000000000E+000
  0.000000000000000E+000
  0.000000000000000E+000
  0.000000000000000E+000
  0.000000000000000E+000
  0.000000000000000E+000
  0.000000000000000E+000
  0.000000000000000E+000
  0.000000000000000E+000
  0.000000000000000E+000
  0.000000000000000E+000
  0.000000000000000E+000
  0.000000000000000E+000
  0.000000000000000E+000
  0.000000000000000E+000
  0.000000000000000E+000
  0.000000000000000E+000
  0.000000000000000E+000
  0.000000000000000E+000
  0.000000000000000E+000
  0.000000000000000E+000
  0.000000000000000E+000
  0.000000000000000E+000
  0.000000000000000E+000
  0.000000000000000E+000
  0.000000000000000E+000
  0.000000000000000E+000
  0.000000000000000E+000
  0.000000000000000E+000
  0.000000000000000E+000
  0.000000000000000E+000
  0.000000000000000E+000
  0.000000000000000E+000
  0.000000000000000E+000
  0.000000000000000E+000
  0.000000000000000E+000
  0.000000000000000E+000
  0.000000000000000E+000
  0.000000000000000E+000
  0.000000000000000E+000
  0.000000000000000E+000
  0.000000000000000E+000
  0.000000000000000E+000
  0.000000000000000E+000
  0.000000000000000E+000
  0.000000000000000E+000
  0.000000000000000E+000
  0.000000000000000E+000
  0.000000000000000E+000
  0.000000000000000E+000
  0.000000000000000E+000
  0.000000000000000E+000
  0.000000000000000E+000
  0.000000000000000E+000
  0.000000000000000E+000
  0.000000000000000E+000
  0.000000000000000E+000
  0.000000000000000E+000
  0.000000000000000E+000
  0.000000000000000E+000
  0.000000000000000E+000
  0.000000000000000E+000
  0.000000000000000E+000
  0.000000000000000E+000
  0.000000000000000E+000
  0.000000000000000E+000
  0.000000000000000E+000
  0.000000000000000E+000
  0.000000000000000E+000
  0.000000000000000E+000
  0.000000000000000E+000
  0.000000000000000E+000
  0.000000000000000E+000
  0.000000000000000E+000
  0.000000000000000E+000
  0.000000000000000E+000
  0.000000000000000E+000
  0.000000000000000E+000
  0.000000000000000E+000
  0.000000000000000E+000
  0.000000000000000E+000
  0.000000000000000E+000
  0.000000000000000E+000
  0.000000000000000E+000
  0.000000000000000E+000
  0.000000000000000E+000
  0.000000000000000E+000
  0.000000000000000E+000
  0.000000000000000E+000
  0.000000000000000E+000
  0.000000000000000E+000
  0.000000000000000E+000
  0.000000000000000E+000
  0.000000000000000E+000
  0.000000000000000E+000
  0.000000000000000E+000
  0.000000000000000E+000
  0.000000000000000E+000
  0.000000000000000E+000
  0.000000000000000E+000
  0.000000000000000E+000
  0.000000000000000E+000
  0.000000000000000E+000
  0.000000000000000E+000
  0.000000000000000E+000
  0.000000000000000E+000
  0.000000000000000E+000
  0.000000000000000E+000
  0.000000000000000E+000
  0.000000000000000E+000
  0.000000000000000E+000
  0.000000000000000E+000
  0.000000000000000E+000
  0.000000000000000E+000
  0.000000000000000E+000
  0.000000000000000E+000
  0.000000000000000E+000
  0.000000000000000E+000
  0.000000000000000E+000
  0.000000000000000E+000
  0.000000000000000E+000
  0.000000000000000E+000
  0.000000000000000E+000
  0.000000000000000E+000
  0.000000000000000E+000
  0.000000000000000E+000
  0.000000000000000E+000
  0.000000000000000E+000
  0.000000000000000E+000
  0.000000000000000E+000
  0.000000000000000E+000
  0.000000000000000E+000
  0.000000000000000E+000
  0.000000000000000E+000
  0.000000000000000E+000
  0.000000000000000E+000
  0.000000000000000E+000
  0.000000000000000E+000
  0.000000000000000E+000
  0.000000000000000E+000
  0.000000000000000E+000
  0.000000000000000E+000
  0.000000000000000E+000
  0.000000000000000E+000
  0.000000000000000E+000
  0.000000000000000E+000
  0.000000000000000E+000
  0.000000000000000E+000
  0.000000000000000E+000
  0.000000000000000E+000
  0.000000000000000E+000
  0.000000000000000E+000
  0.000000000000000E+000
  0.000000000000000E+000
  0.000000000000000E+000
  0.000000000000000E+000
  0.000000000000000E+000
  0.000000000000000E+000
  0.000000000000000E+000
  0.000000000000000E+000
  0.000000000000000E+000
  0.000000000000000E+000
  0.000000000000000E+000
  0.000000000000000E+000
  0.000000000000000E+000
  0.000000000000000E+000
  0.000000000000000E+000
  0.000000000000000E+000
  0.000000000000000E+000
  0.000000000000000E+000
  0.000000000000000E+000
  0.000000000000000E+000
  0.000000000000000E+000
  0.000000000000000E+000
  0.000000000000000E+000
  0.000000000000000E+000
  0.000000000000000E+000
  0.000000000000000E+000
  0.000000000000000E+000
  0.000000000000000E+000
  0.000000000000000E+000
  0.000000000000000E+000
  0.000000000000000E+000
  0.000000000000000E+000
  0.000000000000000E+000
  0.000000000000000E+000
  0.000000000000000E+000
  0.000000000000000E+000
  0.000000000000000E+000
  0.000000000000000E+000
  0.000000000000000E+000
  0.000000000000000E+000
  0.000000000000000E+000
  0.000000000000000E+000
  0.000000000000000E+000
  0.000000000000000E+000
  0.000000000000000E+000
  0.000000000000000E+000
  0.000000000000000E+000
  0.000000000000000E+000
  0.000000000000000E+000
  0.000000000000000E+000
  0.000000000000000E+000
  0.000000000000000E+000
  0.000000000000000E+000
  0.000000000000000E+000
  0.000000000000000E+000
  0.000000000000000E+000
  0.000000000000000E+000
  0.000000000000000E+000
  0.000000000000000E+000
  0.000000000000000E+000
  0.000000000000000E+000
  0.000000000000000E+000
  0.000000000000000E+000
  0.000000000000000E+000
  0.000000000000000E+000
  0.000000000000000E+000
  0.000000000000000E+000
  0.000000000000000E+000
  0.000000000000000E+000
  0.000000000000000E+000
  0.000000000000000E+000
  0.000000000000000E+000
  0.000000000000000E+000
  0.000000000000000E+000
  0.000000000000000E+000
  0.000000000000000E+000
  0.000000000000000E+000
  0.000000000000000E+000
  0.000000000000000E+000
  0.000000000000000E+000
  0.000000000000000E+000
  0.000000000000000E+000
  0.000000000000000E+000
  0.000000000000000E+000
  0.000000000000000E+000
  0.000000000000000E+000
  0.000000000000000E+000
  0.000000000000000E+000
  0.000000000000000E+000
  0.000000000000000E+000
  0.000000000000000E+000
  0.000000000000000E+000
  0.000000000000000E+000
  0.000000000000000E+000
  0.000000000000000E+000
  0.000000000000000E+000
  0.000000000000000E+000
  0.000000000000000E+000
  0.000000000000000E+000
  0.000000000000000E+000
  0.000000000000000E+000
  0.000000000000000E+000
  0.000000000000000E+000
  0.000000000000000E+000
  0.000000000000000E+000
  0.000000000000000E+000
  0.000000000000000E+000
  0.000000000000000E+000
  0.000000000000000E+000
  0.000000000000000E+000
  0.000000000000000E+000
  0.000000000000000E+000
  0.000000000000000E+000
  0.000000000000000E+000
  0.000000000000000E+000
  0.000000000000000E+000
  0.000000000000000E+000
  0.000000000000000E+000
  0.000000000000000E+000
  0.000000000000000E+000
  0.000000000000000E+000
  0.000000000000000E+000
  0.000000000000000E+000
  0.000000000000000E+000
  0.000000000000000E+000
  0.000000000000000E+000
  0.000000000000000E+000
  0.000000000000000E+000
  0.000000000000000E+000
  0.000000000000000E+000
  0.000000000000000E+000
  0.000000000000000E+000
  0.000000000000000E+000
  0.000000000000000E+000
  0.000000000000000E+000
  0.000000000000000E+000
  0.000000000000000E+000
  0.000000000000000E+000
  0.000000000000000E+000
  0.000000000000000E+000
  0.000000000000000E+000
  0.000000000000000E+000
  0.000000000000000E+000
  0.000000000000000E+000
  0.000000000000000E+000
  0.000000000000000E+000
  0.000000000000000E+000
  0.000000000000000E+000
  0.000000000000000E+000
  0.000000000000000E+000
  0.000000000000000E+000
  0.000000000000000E+000
  0.000000000000000E+000
  0.000000000000000E+000
  0.000000000000000E+000
  0.000000000000000E+000
  0.000000000000000E+000
  0.000000000000000E+000
  0.000000000000000E+000
  0.000000000000000E+000
  0.000000000000000E+000
  0.000000000000000E+000
  0.000000000000000E+000
  0.000000000000000E+000
  0.000000000000000E+000
  0.000000000000000E+000
  0.000000000000000E+000
  0.000000000000000E+000
  0.000000000000000E+000
  0.000000000000000E+000
  0.000000000000000E+000
  0.000000000000000E+000
  0.000000000000000E+000
  0.000000000000000E+000
  0.000000000000000E+000
  0.000000000000000E+000
  0.000000000000000E+000
  0.000000000000000E+000
  0.000000000000000E+000
  0.000000000000000E+000
  0.000000000000000E+000
  0.000000000000000E+000
  0.000000000000000E+000
  0.000000000000000E+000
  0.000000000000000E+000
  0.000000000000000E+000
  0.000000000000000E+000
  0.000000000000000E+000
  0.000000000000000E+000
  0.000000000000000E+000
  0.000000000000000E+000
  0.000000000000000E+000
  0.000000000000000E+000
  0.000000000000000E+000
  0.000000000000000E+000
  0.000000000000000E+000
  0.000000000000000E+000
  0.000000000000000E+000
  0.000000000000000E+000
  0.000000000000000E+000
  0.000000000000000E+000
  0.000000000000000E+000
  0.000000000000000E+000
  0.000000000000000E+000
  0.000000000000000E+000
  0.000000000000000E+000
  0.000000000000000E+000
  0.000000000000000E+000
  0.000000000000000E+000
  0.000000000000000E+000
  0.000000000000000E+000
  0.000000000000000E+000
  0.000000000000000E+000
  0.000000000000000E+000
  0.000000000000000E+000
  0.000000000000000E+000
  0.000000000000000E+000
  0.000000000000000E+000
  0.000000000000000E+000
  0.000000000000000E+000
  0.000000000000000E+000
  0.000000000000000E+000
  0.000000000000000E+000
  0.000000000000000E+000
  0.000000000000000E+000
  0.000000000000000E+000
  0.000000000000000E+000
  0.000000000000000E+000
  0.000000000000000E+000
  0.000000000000000E+000
  0.000000000000000E+000
  0.000000000000000E+000
  0.000000000000000E+000
  0.000000000000000E+000
  0.000000000000000E+000
  0.000000000000000E+000
  0.000000000000000E+000
  0.000000000000000E+000
  0.000000000000000E+000
  0.000000000000000E+000
  0.000000000000000E+000
  0.000000000000000E+000
  0.000000000000000E+000
  0.000000000000000E+000
  0.000000000000000E+000
  0.000000000000000E+000
  0.000000000000000E+000
  0.000000000000000E+000
  0.000000000000000E+000
  0.000000000000000E+000
  0.000000000000000E+000
  0.000000000000000E+000
  0.000000000000000E+000
  0.000000000000000E+000
  0.000000000000000E+000
  0.000000000000000E+000
  0.000000000000000E+000
  0.000000000000000E+000
  0.000000000000000E+000
  0.000000000000000E+000
  0.000000000000000E+000
  0.000000000000000E+000
  0.000000000000000E+000
  0.000000000000000E+000
  0.000000000000000E+000
  0.000000000000000E+000
  0.000000000000000E+000
  0.000000000000000E+000
  0.000000000000000E+000
  0.000000000000000E+000
  0.000000000000000E+000
  0.000000000000000E+000
  0.000000000000000E+000
  0.000000000000000E+000
  0.000000000000000E+000
  0.000000000000000E+000
  0.000000000000000E+000
  0.000000000000000E+000
  0.000000000000000E+000
  0.000000000000000E+000
  0.000000000000000E+000
  0.000000000000000E+000
  0.000000000000000E+000
  0.000000000000000E+000
  0.000000000000000E+000
  0.000000000000000E+000
  0.000000000000000E+000
  0.000000000000000E+000
  0.000000000000000E+000
  0.000000000000000E+000
  0.000000000000000E+000
  0.000000000000000E+000
  0.000000000000000E+000
  0.000000000000000E+000
  0.000000000000000E+000
  0.000000000000000E+000
  0.000000000000000E+000
  0.000000000000000E+000
  0.000000000000000E+000
  0.000000000000000E+000
  0.000000000000000E+000
  0.000000000000000E+000
  0.000000000000000E+000
  0.000000000000000E+000
  0.000000000000000E+000
  0.000000000000000E+000
  0.000000000000000E+000
  0.000000000000000E+000
  0.000000000000000E+000
  0.000000000000000E+000
  0.000000000000000E+000
  0.000000000000000E+000
  0.000000000000000E+000
  0.000000000000000E+000
  0.000000000000000E+000
  0.000000000000000E+000
  0.000000000000000E+000
  0.000000000000000E+000
  0.000000000000000E+000
  0.000000000000000E+000
  0.000000000000000E+000
  0.000000000000000E+000
  0.000000000000000E+000
  0.000000000000000E+000
  0.000000000000000E+000
  0.000000000000000E+000
  0.000000000000000E+000
  0.000000000000000E+000
  0.000000000000000E+000
  0.000000000000000E+000
  0.000000000000000E+000
  0.000000000000000E+000
  0.000000000000000E+000
  0.000000000000000E+000
  0.000000000000000E+000
  0.000000000000000E+000
  0.000000000000000E+000
  0.000000000000000E+000
  0.000000000000000E+000
  0.000000000000000E+000
  0.000000000000000E+000
  0.000000000000000E+000
  0.000000000000000E+000
  0.000000000000000E+000
  0.000000000000000E+000
  0.000000000000000E+000
  0.000000000000000E+000
  0.000000000000000E+000
  0.000000000000000E+000
  0.000000000000000E+000
  0.000000000000000E+000
  0.000000000000000E+000
  0.000000000000000E+000
  0.000000000000000E+000
  0.000000000000000E+000
  0.000000000000000E+000
  0.000000000000000E+000
  0.000000000000000E+000
  0.000000000000000E+000
  0.000000000000000E+000
  0.000000000000000E+000
  0.000000000000000E+000
  0.000000000000000E+000
  0.000000000000000E+000
  0.000000000000000E+000
  0.000000000000000E+000
  0.000000000000000E+000
  0.000000000000000E+000
  0.000000000000000E+000
  0.000000000000000E+000
  0.000000000000000E+000
  0.000000000000000E+000
  0.000000000000000E+000
  0.000000000000000E+000
  0.000000000000000E+000
  0.000000000000000E+000
  0.000000000000000E+000
  0.000000000000000E+000
  0.000000000000000E+000
  0.000000000000000E+000
  0.000000000000000E+000
  0.000000000000000E+000
  0.000000000000000E+000
  0.000000000000000E+000
  0.000000000000000E+000
  0.000000000000000E+000
  0.000000000000000E+000
  0.000000000000000E+000
  0.000000000000000E+000
  0.000000000000000E+000
  0.000000000000000E+000
  0.000000000000000E+000
  0.000000000000000E+000
  0.000000000000000E+000
  0.000000000000000E+000
  0.000000000000000E+000
  0.000000000000000E+000
  0.000000000000000E+000
  0.000000000000000E+000
  0.000000000000000E+000
  0.000000000000000E+000
  0.000000000000000E+000
  0.000000000000000E+000
  0.000000000000000E+000
  0.000000000000000E+000
  0.000000000000000E+000
  0.000000000000000E+000
  0.000000000000000E+000
  0.000000000000000E+000
  0.000000000000000E+000
  0.000000000000000E+000
  0.000000000000000E+000
  0.000000000000000E+000
  0.000000000000000E+000
  0.000000000000000E+000
  0.000000000000000E+000
  0.000000000000000E+000
  0.000000000000000E+000
  0.000000000000000E+000
  0.000000000000000E+000
  0.000000000000000E+000
  0.000000000000000E+000
  0.000000000000000E+000
  0.000000000000000E+000
  0.000000000000000E+000
  0.000000000000000E+000
  0.000000000000000E+000
  0.000000000000000E+000
  0.000000000000000E+000
  0.000000000000000E+000
  0.000000000000000E+000
  0.000000000000000E+000
  0.000000000000000E+000
  0.000000000000000E+000
  0.000000000000000E+000
  0.000000000000000E+000
  0.000000000000000E+000
  0.000000000000000E+000
  0.000000000000000E+000
  0.000000000000000E+000
  0.000000000000000E+000
  0.000000000000000E+000
  0.000000000000000E+000
  0.000000000000000E+000
  0.000000000000000E+000
  0.000000000000000E+000
  0.000000000000000E+000
  0.000000000000000E+000
  0.000000000000000E+000
  0.000000000000000E+000
  0.000000000000000E+000
  0.000000000000000E+000
  0.000000000000000E+000
  0.000000000000000E+000
  0.000000000000000E+000
  0.000000000000000E+000
  0.000000000000000E+000
  0.000000000000000E+000
  0.000000000000000E+000
  0.000000000000000E+000
  0.000000000000000E+000
  0.000000000000000E+000
  0.000000000000000E+000
  0.000000000000000E+000
  0.000000000000000E+000
  0.000000000000000E+000
  0.000000000000000E+000
  0.000000000000000E+000
  0.000000000000000E+000
  0.000000000000000E+000
  0.000000000000000E+000
  0.000000000000000E+000
  0.000000000000000E+000
  0.000000000000000E+000
  0.000000000000000E+000
  0.000000000000000E+000
  0.000000000000000E+000
  0.000000000000000E+000
  0.000000000000000E+000
  0.000000000000000E+000
  0.000000000000000E+000
  0.000000000000000E+000
  0.000000000000000E+000
  0.000000000000000E+000
  0.000000000000000E+000
  0.000000000000000E+000
  0.000000000000000E+000
  0.000000000000000E+000
  0.000000000000000E+000
  0.000000000000000E+000
  0.000000000000000E+000
  0.000000000000000E+000
  0.000000000000000E+000
  0.000000000000000E+000
  0.000000000000000E+000
  0.000000000000000E+000
  0.000000000000000E+000
  0.000000000000000E+000
  0.000000000000000E+000
  0.000000000000000E+000
  0.000000000000000E+000
  0.000000000000000E+000
  0.000000000000000E+000
  0.000000000000000E+000
  0.000000000000000E+000
  0.000000000000000E+000
  0.000000000000000E+000
  0.000000000000000E+000
  0.000000000000000E+000
  0.000000000000000E+000
  0.000000000000000E+000
  0.000000000000000E+000
  0.000000000000000E+000
  0.000000000000000E+000
  0.000000000000000E+000
  0.000000000000000E+000
  0.000000000000000E+000
  0.000000000000000E+000
  0.000000000000000E+000
  0.000000000000000E+000
  0.000000000000000E+000
  0.000000000000000E+000
  0.000000000000000E+000
  0.000000000000000E+000
  0.000000000000000E+000
  0.000000000000000E+000
  0.000000000000000E+000
  0.000000000000000E+000
  0.000000000000000E+000
  0.000000000000000E+000
  0.000000000000000E+000
  0.000000000000000E+000
  0.000000000000000E+000
  0.000000000000000E+000
  0.000000000000000E+000
  0.000000000000000E+000
  0.000000000000000E+000
  0.000000000000000E+000
  0.000000000000000E+000
  0.000000000000000E+000
  0.000000000000000E+000
  0.000000000000000E+000
  0.000000000000000E+000
  0.000000000000000E+000
  0.000000000000000E+000
  0.000000000000000E+000
  0.000000000000000E+000
  0.000000000000000E+000
  0.000000000000000E+000
  0.000000000000000E+000
  0.000000000000000E+000
  0.000000000000000E+000
  0.000000000000000E+000
  0.000000000000000E+000
  0.000000000000000E+000
  0.000000000000000E+000
  0.000000000000000E+000
  0.000000000000000E+000
  0.000000000000000E+000
  0.000000000000000E+000
  0.000000000000000E+000
  0.000000000000000E+000
  0.000000000000000E+000
  0.000000000000000E+000
  0.000000000000000E+000
  0.000000000000000E+000
  0.000000000000000E+000
  0.000000000000000E+000
  0.000000000000000E+000
  0.000000000000000E+000
  0.000000000000000E+000
  0.000000000000000E+000
  0.000000000000000E+000
  0.000000000000000E+000
  0.000000000000000E+000
  0.000000000000000E+000
  0.000000000000000E+000
  0.000000000000000E+000
  0.000000000000000E+000
  0.000000000000000E+000
  0.000000000000000E+000
  0.000000000000000E+000
  0.000000000000000E+000
  0.000000000000000E+000
  0.000000000000000E+000
  0.000000000000000E+000
  0.000000000000000E+000
  0.000000000000000E+000
  0.000000000000000E+000
  0.000000000000000E+000
  0.000000000000000E+000
  0.000000000000000E+000
  0.000000000000000E+000
  0.000000000000000E+000
  0.000000000000000E+000
  0.000000000000000E+000
  0.000000000000000E+000
  0.000000000000000E+000
  0.000000000000000E+000
  0.000000000000000E+000
  0.000000000000000E+000
  0.000000000000000E+000
  0.000000000000000E+000
  0.000000000000000E+000
  0.000000000000000E+000
  0.000000000000000E+000
  0.000000000000000E+000
  0.000000000000000E+000
  0.000000000000000E+000
  0.000000000000000E+000
  0.000000000000000E+000
  0.000000000000000E+000
  0.000000000000000E+000
  0.000000000000000E+000
  0.000000000000000E+000
  0.000000000000000E+000
  0.000000000000000E+000
  0.000000000000000E+000
  0.000000000000000E+000
  0.000000000000000E+000
  0.000000000000000E+000
  0.000000000000000E+000
  0.000000000000000E+000
  0.000000000000000E+000
  0.000000000000000E+000
  0.000000000000000E+000
  0.000000000000000E+000
  0.000000000000000E+000
  0.000000000000000E+000
  0.000000000000000E+000
  0.000000000000000E+000
  0.000000000000000E+000
  0.000000000000000E+000
  0.000000000000000E+000
  0.000000000000000E+000
  0.000000000000000E+000
  0.000000000000000E+000
  0.000000000000000E+000
  0.000000000000000E+000
  0.000000000000000E+000
  0.000000000000000E+000
  0.000000000000000E+000
  0.000000000000000E+000
  0.000000000000000E+000
  0.000000000000000E+000
  0.000000000000000E+000
  0.000000000000000E+000
  0.000000000000000E+000
  0.000000000000000E+000
  0.000000000000000E+000
  0.000000000000000E+000
  0.000000000000000E+000
  0.000000000000000E+000
  0.000000000000000E+000
  0.000000000000000E+000
  0.000000000000000E+000
  0.000000000000000E+000
  0.000000000000000E+000
  0.000000000000000E+000
  0.000000000000000E+000
  0.000000000000000E+000
  0.000000000000000E+000
  0.000000000000000E+000
  0.000000000000000E+000
  0.000000000000000E+000
  0.000000000000000E+000
  0.000000000000000E+000
  0.000000000000000E+000
  0.000000000000000E+000
  0.000000000000000E+000
  0.000000000000000E+000
  0.000000000000000E+000
  0.000000000000000E+000
  0.000000000000000E+000
  0.000000000000000E+000
  0.000000000000000E+000
  0.000000000000000E+000
  0.000000000000000E+000
  0.000000000000000E+000
  0.000000000000000E+000
  0.000000000000000E+000
  0.000000000000000E+000
  0.000000000000000E+000
  0.000000000000000E+000
  0.000000000000000E+000
  0.000000000000000E+000
  0.000000000000000E+000
  0.000000000000000E+000
  0.000000000000000E+000
  0.000000000000000E+000
  0.000000000000000E+000
  0.000000000000000E+000
  0.000000000000000E+000
  0.000000000000000E+000
  0.000000000000000E+000
  0.000000000000000E+000
  0.000000000000000E+000
  0.000000000000000E+000
  0.000000000000000E+000
  0.000000000000000E+000
  0.000000000000000E+000
  0.000000000000000E+000
  0.000000000000000E+000
  0.000000000000000E+000
  0.000000000000000E+000
  0.000000000000000E+000
  0.000000000000000E+000
  0.000000000000000E+000
  0.000000000000000E+000
  0.000000000000000E+000
  0.000000000000000E+000
  0.000000000000000E+000
  0.000000000000000E+000
  0.000000000000000E+000
  0.000000000000000E+000
  0.000000000000000E+000
  0.000000000000000E+000
  0.000000000000000E+000
  0.000000000000000E+000
  0.000000000000000E+000
  0.000000000000000E+000
  0.000000000000000E+000
  0.000000000000000E+000
  0.000000000000000E+000
  0.000000000000000E+000
  0.000000000000000E+000
  0.000000000000000E+000
  0.000000000000000E+000
  0.000000000000000E+000
  0.000000000000000E+000
  0.000000000000000E+000
  0.000000000000000E+000
  0.000000000000000E+000
  0.000000000000000E+000
  0.000000000000000E+000
  0.000000000000000E+000
  0.000000000000000E+000
  0.000000000000000E+000
  0.000000000000000E+000
  0.000000000000000E+000
  0.000000000000000E+000
  0.000000000000000E+000
  0.000000000000000E+000
  0.000000000000000E+000
  0.000000000000000E+000
  0.000000000000000E+000
  0.000000000000000E+000
  0.000000000000000E+000
  0.000000000000000E+000
  0.000000000000000E+000
  0.000000000000000E+000
  0.000000000000000E+000
  0.000000000000000E+000
  0.000000000000000E+000
  0.000000000000000E+000
  0.000000000000000E+000
  0.000000000000000E+000
  0.000000000000000E+000
  0.000000000000000E+000
  0.000000000000000E+000
  0.000000000000000E+000
  0.000000000000000E+000
  0.000000000000000E+000
  0.000000000000000E+000
  0.000000000000000E+000
  0.000000000000000E+000
  0.000000000000000E+000
  0.000000000000000E+000
  0.000000000000000E+000
  0.000000000000000E+000
  0.000000000000000E+000
  0.000000000000000E+000
  0.000000000000000E+000
  0.000000000000000E+000
  0.000000000000000E+000
  0.000000000000000E+000
  0.000000000000000E+000
  0.000000000000000E+000
  0.000000000000000E+000
  0.000000000000000E+000
  0.000000000000000E+000
  0.000000000000000E+000
  0.000000000000000E+000
  0.000000000000000E+000
  0.000000000000000E+000
  0.000000000000000E+000
  0.000000000000000E+000
  0.000000000000000E+000
  0.000000000000000E+000
  0.000000000000000E+000
  0.000000000000000E+000
  0.000000000000000E+000
  0.000000000000000E+000
  0.000000000000000E+000
  0.000000000000000E+000
  0.000000000000000E+000
  0.000000000000000E+000
  0.000000000000000E+000
  0.000000000000000E+000
  0.000000000000000E+000
  0.000000000000000E+000
  0.000000000000000E+000
  0.000000000000000E+000
  0.000000000000000E+000
  0.000000000000000E+000
  0.000000000000000E+000
  0.000000000000000E+000
  0.000000000000000E+000
  0.000000000000000E+000
  0.000000000000000E+000
  0.000000000000000E+000
  0.000000000000000E+000
  0.000000000000000E+000
  0.000000000000000E+000
  0.000000000000000E+000
  0.000000000000000E+000
  0.000000000000000E+000
  0.000000000000000E+000
  0.000000000000000E+000
  0.000000000000000E+000
  0.000000000000000E+000
  0.000000000000000E+000
  0.000000000000000E+000
  0.000000000000000E+000
  0.000000000000000E+000
  0.000000000000000E+000
  0.000000000000000E+000
  0.000000000000000E+000
  0.000000000000000E+000
  0.000000000000000E+000
  0.000000000000000E+000
  0.000000000000000E+000
  0.000000000000000E+000
  0.000000000000000E+000
  0.000000000000000E+000
  0.000000000000000E+000
  0.000000000000000E+000
  0.000000000000000E+000
  0.000000000000000E+000
  0.000000000000000E+000
  0.000000000000000E+000
  0.000000000000000E+000
  0.000000000000000E+000
  0.000000000000000E+000
  0.000000000000000E+000
  0.000000000000000E+000
  0.000000000000000E+000
  0.000000000000000E+000
  0.000000000000000E+000
  0.000000000000000E+000
  0.000000000000000E+000
  0.000000000000000E+000
  0.000000000000000E+000
  0.000000000000000E+000
  0.000000000000000E+000
  0.000000000000000E+000
  0.000000000000000E+000
  0.000000000000000E+000
  0.000000000000000E+000
  0.000000000000000E+000
  0.000000000000000E+000
  0.000000000000000E+000
  0.000000000000000E+000
  0.000000000000000E+000
  0.000000000000000E+000
  0.000000000000000E+000
  0.000000000000000E+000
  0.000000000000000E+000
  0.000000000000000E+000
  0.000000000000000E+000
  0.000000000000000E+000
  0.000000000000000E+000
  0.000000000000000E+000
  0.000000000000000E+000
  0.000000000000000E+000
  0.000000000000000E+000
  0.000000000000000E+000
  0.000000000000000E+000
  0.000000000000000E+000
  0.000000000000000E+000
  0.000000000000000E+000
  0.000000000000000E+000
  0.000000000000000E+000
  0.000000000000000E+000
  0.000000000000000E+000
  0.000000000000000E+000
  0.000000000000000E+000
  0.000000000000000E+000
  0.000000000000000E+000
  0.000000000000000E+000
  0.000000000000000E+000
  0.000000000000000E+000
  0.000000000000000E+000
  0.000000000000000E+000
  0.000000000000000E+000
  0.000000000000000E+000
  0.000000000000000E+000
  0.000000000000000E+000
  0.000000000000000E+000
  0.000000000000000E+000
  0.000000000000000E+000
  0.000000000000000E+000
  0.000000000000000E+000
  0.000000000000000E+000
  0.000000000000000E+000
  0.000000000000000E+000
  0.000000000000000E+000
  0.000000000000000E+000
  0.000000000000000E+000
  0.000000000000000E+000
  0.000000000000000E+000
  0.000000000000000E+000
  0.000000000000000E+000
  0.000000000000000E+000
  0.000000000000000E+000
  0.000000000000000E+000
  0.000000000000000E+000
  0.000000000000000E+000
  0.000000000000000E+000
  0.000000000000000E+000
  0.000000000000000E+000
  0.000000000000000E+000
  0.000000000000000E+000
  0.000000000000000E+000
  0.000000000000000E+000
  0.000000000000000E+000
  0.000000000000000E+000
  0.000000000000000E+000
  0.000000000000000E+000
  0.000000000000000E+000
  0.000000000000000E+000
  0.000000000000000E+000
  0.000000000000000E+000
  0.000000000000000E+000
  0.000000000000000E+000
  0.000000000000000E+000
  0.000000000000000E+000
  0.000000000000000E+000
  0.000000000000000E+000
  0.000000000000000E+000
  0.000000000000000E+000
  0.000000000000000E+000
  0.000000000000000E+000
  0.000000000000000E+000
  0.000000000000000E+000
  0.000000000000000E+000
  0.000000000000000E+000
  0.000000000000000E+000
  0.000000000000000E+000
  0.000000000000000E+000
  0.000000000000000E+000
  0.000000000000000E+000
  0.000000000000000E+000
  0.000000000000000E+000
  0.000000000000000E+000
  0.000000000000000E+000
  0.000000000000000E+000
  0.000000000000000E+000
  0.000000000000000E+000
  0.000000000000000E+000
  0.000000000000000E+000
  0.000000000000000E+000
  0.000000000000000E+000
  0.000000000000000E+000
  0.000000000000000E+000
  0.000000000000000E+000
  0.000000000000000E+000
  0.000000000000000E+000
  0.000000000000000E+000
  0.000000000000000E+000
  0.000000000000000E+000
  0.000000000000000E+000
  0.000000000000000E+000
  0.000000000000000E+000
  0.000000000000000E+000
  0.000000000000000E+000
  0.000000000000000E+000
  0.000000000000000E+000
  0.000000000000000E+000
  0.000000000000000E+000
  0.000000000000000E+000
  0.000000000000000E+000
  0.000000000000000E+000
  0.000000000000000E+000
  0.000000000000000E+000
  0.000000000000000E+000
  0.000000000000000E+000
  0.000000000000000E+000
  0.000000000000000E+000
  0.000000000000000E+000
  0.000000000000000E+000
  0.000000000000000E+000
  0.000000000000000E+000
  0.000000000000000E+000
  0.000000000000000E+000
  0.000000000000000E+000
  0.000000000000000E+000
  0.000000000000000E+000
  0.000000000000000E+000
  0.000000000000000E+000
  0.000000000000000E+000
  0.000000000000000E+000
  0.000000000000000E+000
  0.000000000000000E+000
  0.000000000000000E+000
  0.000000000000000E+000
  0.000000000000000E+000
  0.000000000000000E+000
  0.000000000000000E+000
  0.000000000000000E+000
  0.000000000000000E+000
  0.000000000000000E+000
  0.000000000000000E+000
  0.000000000000000E+000
  0.000000000000000E+000
  0.000000000000000E+000
  0.000000000000000E+000
  0.000000000000000E+000
  0.000000000000000E+000
  0.000000000000000E+000
  0.000000000000000E+000
  0.000000000000000E+000
  0.000000000000000E+000
  0.000000000000000E+000
  0.000000000000000E+000
  0.000000000000000E+000
  0.000000000000000E+000
  0.000000000000000E+000
  0.000000000000000E+000
  0.000000000000000E+000
  0.000000000000000E+000
  0.000000000000000E+000
  0.000000000000000E+000
  0.000000000000000E+000
  0.000000000000000E+000
  0.000000000000000E+000
  0.000000000000000E+000
  0.000000000000000E+000
  0.000000000000000E+000
  0.000000000000000E+000
  0.000000000000000E+000
  0.000000000000000E+000
  0.000000000000000E+000
  0.000000000000000E+000
  0.000000000000000E+000
  0.000000000000000E+000
  0.000000000000000E+000
  0.000000000000000E+000
  0.000000000000000E+000
  0.000000000000000E+000
  0.000000000000000E+000
  0.000000000000000E+000
  0.000000000000000E+000
  0.000000000000000E+000
  0.000000000000000E+000
  0.000000000000000E+000
  0.000000000000000E+000
  0.000000000000000E+000
  0.000000000000000E+000
  0.000000000000000E+000
  0.000000000000000E+000
  0.000000000000000E+000
  0.000000000000000E+000
  0.000000000000000E+000
  0.000000000000000E+000
  0.000000000000000E+000
  0.000000000000000E+000
  0.000000000000000E+000
  0.000000000000000E+000
  0.000000000000000E+000
  0.000000000000000E+000
  0.000000000000000E+000
  0.000000000000000E+000
  0.000000000000000E+000
  0.000000000000000E+000
  0.000000000000000E+000
  0.000000000000000E+000
  0.000000000000000E+000
  0.000000000000000E+000
  0.000000000000000E+000
  0.000000000000000E+000
  0.000000000000000E+000
  0.000000000000000E+000
  0.000000000000000E+000
  0.000000000000000E+000
  0.000000000000000E+000
  0.000000000000000E+000
  0.000000000000000E+000
  0.000000000000000E+000
  0.000000000000000E+000
  0.000000000000000E+000
  0.000000000000000E+000
  0.000000000000000E+000
  0.000000000000000E+000
  0.000000000000000E+000
  0.000000000000000E+000
  0.000000000000000E+000
  0.000000000000000E+000
  0.000000000000000E+000
  0.000000000000000E+000
  0.000000000000000E+000
  0.000000000000000E+000
  0.000000000000000E+000
  0.000000000000000E+000
  0.000000000000000E+000
  0.000000000000000E+000
  0.000000000000000E+000
  0.000000000000000E+000
  0.000000000000000E+000
  0.000000000000000E+000
  0.000000000000000E+000
  0.000000000000000E+000
  0.000000000000000E+000
  0.000000000000000E+000
  0.000000000000000E+000
  0.000000000000000E+000
  0.000000000000000E+000
  0.000000000000000E+000
  0.000000000000000E+000
  0.000000000000000E+000
  0.000000000000000E+000
  0.000000000000000E+000
  0.000000000000000E+000
  0.000000000000000E+000
  0.000000000000000E+000
  0.000000000000000E+000
  0.000000000000000E+000
  0.000000000000000E+000
  0.000000000000000E+000
  0.000000000000000E+000
  0.000000000000000E+000
  0.000000000000000E+000
  0.000000000000000E+000
  0.000000000000000E+000
  0.000000000000000E+000
  0.000000000000000E+000
  0.000000000000000E+000
  0.000000000000000E+000
  0.000000000000000E+000
  0.000000000000000E+000
  0.000000000000000E+000
  0.000000000000000E+000
  0.000000000000000E+000
  0.000000000000000E+000
  0.000000000000000E+000
  0.000000000000000E+000
  0.000000000000000E+000
  0.000000000000000E+000
  0.000000000000000E+000
  0.000000000000000E+000
  0.000000000000000E+000
  0.000000000000000E+000
  0.000000000000000E+000
  0.000000000000000E+000
  0.000000000000000E+000
  0.000000000000000E+000
  0.000000000000000E+000
  0.000000000000000E+000
  0.000000000000000E+000
  0.000000000000000E+000
  0.000000000000000E+000
  0.000000000000000E+000
  0.000000000000000E+000
  0.000000000000000E+000
  0.000000000000000E+000
  0.000000000000000E+000
  0.000000000000000E+000
  0.000000000000000E+000
  0.000000000000000E+000
  0.000000000000000E+000
  0.000000000000000E+000
  0.000000000000000E+000
  0.000000000000000E+000
  0.000000000000000E+000
  0.000000000000000E+000
  0.000000000000000E+000
  0.000000000000000E+000
  0.000000000000000E+000
  0.000000000000000E+000
  0.000000000000000E+000
  0.000000000000000E+000
  0.000000000000000E+000
  0.000000000000000E+000
  0.000000000000000E+000
  0.000000000000000E+000
  0.000000000000000E+000
  0.000000000000000E+000
  0.000000000000000E+000
  0.000000000000000E+000
  0.000000000000000E+000
  0.000000000000000E+000
  0.000000000000000E+000
  0.000000000000000E+000
  0.000000000000000E+000
  0.000000000000000E+000
  0.000000000000000E+000
  0.000000000000000E+000
  0.000000000000000E+000
  0.000000000000000E+000
  0.000000000000000E+000
  0.000000000000000E+000
  0.000000000000000E+000
  0.000000000000000E+000
  0.000000000000000E+000
  0.000000000000000E+000
  0.000000000000000E+000
  0.000000000000000E+000
  0.000000000000000E+000
  0.000000000000000E+000
  0.000000000000000E+000
  0.000000000000000E+000
  0.000000000000000E+000
  0.000000000000000E+000
  0.000000000000000E+000
  0.000000000000000E+000
  0.000000000000000E+000
  0.000000000000000E+000
  0.000000000000000E+000
  0.000000000000000E+000
  0.000000000000000E+000
  0.000000000000000E+000
  0.000000000000000E+000
  0.000000000000000E+000
  0.000000000000000E+000
  0.000000000000000E+000
  0.000000000000000E+000
  0.000000000000000E+000
  0.000000000000000E+000
  0.000000000000000E+000
  0.000000000000000E+000
  0.000000000000000E+000
  0.000000000000000E+000
  0.000000000000000E+000
  0.000000000000000E+000
  0.000000000000000E+000
  0.000000000000000E+000
  0.000000000000000E+000
  0.000000000000000E+000
  0.000000000000000E+000
  0.000000000000000E+000
  0.000000000000000E+000
  0.000000000000000E+000
  0.000000000000000E+000
  0.000000000000000E+000
  0.000000000000000E+000
  0.000000000000000E+000
  0.000000000000000E+000
  0.000000000000000E+000
  0.000000000000000E+000
  0.000000000000000E+000
  0.000000000000000E+000
  0.000000000000000E+000
  0.000000000000000E+000
  0.000000000000000E+000
  0.000000000000000E+000
  0.000000000000000E+000
  0.000000000000000E+000
  0.000000000000000E+000
  0.000000000000000E+000
  0.000000000000000E+000
  0.000000000000000E+000
  0.000000000000000E+000
  0.000000000000000E+000
  0.000000000000000E+000
  0.000000000000000E+000
  0.000000000000000E+000
  0.000000000000000E+000
  0.000000000000000E+000
  0.000000000000000E+000
  0.000000000000000E+000
  0.000000000000000E+000
  0.000000000000000E+000
  0.000000000000000E+000
  0.000000000000000E+000
  0.000000000000000E+000
  0.000000000000000E+000
  0.000000000000000E+000
  0.000000000000000E+000
  0.000000000000000E+000
  0.000000000000000E+000
  0.000000000000000E+000
  0.000000000000000E+000
  0.000000000000000E+000
  0.000000000000000E+000
  0.000000000000000E+000
  0.000000000000000E+000
  0.000000000000000E+000
  0.000000000000000E+000
  0.000000000000000E+000
  0.000000000000000E+000
  0.000000000000000E+000
  0.000000000000000E+000
  0.000000000000000E+000
  0.000000000000000E+000
  0.000000000000000E+000
  0.000000000000000E+000
  0.000000000000000E+000
  0.000000000000000E+000
  0.000000000000000E+000
  0.000000000000000E+000
  0.000000000000000E+000
  0.000000000000000E+000
  0.000000000000000E+000
  0.000000000000000E+000
  0.000000000000000E+000
  0.000000000000000E+000
